read_data	InitialFile.txt
Reading data file ...
  orthogonal box = (0 0 0) to (158.5 158.5 158.5)
  1 by 1 by 1 MPI processor grid
WARNING: Atom style in data file atomic differs from currently defined atom style molecular (src/src/read_data.cpp:621)
  reading atoms ...
  100 atoms
  scanning bonds ...
  1 = max bonds/atom
  scanning angles ...
  1 = max angles/atom
  scanning dihedrals ...
  1 = max dihedrals/atom
  reading bonds ...
  99 bonds
  reading angles ...
  98 angles
  reading dihedrals ...
  97 dihedrals
Finding 1-2 1-3 1-4 neighbors ...
  special bond factors lj:    0        0        0       
  special bond factors coul:  0        0        0       
     2 = max # of 1-2 neighbors
     2 = max # of 1-3 neighbors
     4 = max # of 1-4 neighbors
     6 = max # of special neighbors
  special bonds CPU = 0.006 seconds
  read_data CPU = 0.016 seconds

# Dreiding potential information
neighbor	0.4 bin
neigh_modify	every 10 one 10000

bond_style      harmonic
bond_coeff	1 350 1.53
bond_coeff	2 700 1.53

angle_style     harmonic
angle_coeff	1 60 109.5
angle_coeff	2 120 109.5

dihedral_style	multi/harmonic
dihedral_coeff	1 1.73 -4.49 0.776 6.99 0.0
dihedral_coeff	2 1.73 -4.49 0.776 6.99 0.0

pair_style	lj/cut 10.5


pair_coeff	1 1 0.112 4.01 10.5
pair_coeff	2 2 0.112 4.01 10.5
pair_coeff	3 3 0.112 4.01 10.5
pair_coeff	1 2 0.112 4.01 10.5
pair_coeff	1 3 0.112 4.01 10.5
pair_coeff	2 3 0.112 4.01 10.5

compute csym all centro/atom fcc
compute peratom all pe/atom



#####################################################
# Equilibration (Langevin dynamics at 5000 K)

velocity 	all create 5000.0 1231
fix		1 all nve/limit 0.05
fix		2 all langevin 5000.0 5000.0 10.0 904297
thermo_style	custom step temp
thermo          10000
timestep	1
run		1000000
Generated 0 of 3 mixed pair_coeff terms from geometric mixing rule
Neighbor list info ...
  update: every = 10 steps, delay = 0 steps, check = yes
  max neighbors/atom: 10000, page size: 100000
  master list distance cutoff = 10.9
  ghost atom cutoff = 10.9
  binsize = 5.45, bins = 30 30 30
  2 neighbor lists, perpetual/occasional/extra = 1 1 0
  (1) pair lj/cut, perpetual
      attributes: half, newton on
      pair build: half/bin/newton
      stencil: half/bin/3d
      bin: standard
  (2) compute centro/atom, occasional
      attributes: full, newton on
      pair build: full/bin
      stencil: full/bin/3d
      bin: standard
Per MPI rank memory allocation (min/avg/max) = 8.15 | 8.15 | 8.15 Mbytes
   Step          Temp     
         0   5000         
     10000   4229.965     
     20000   4473.9087    
     30000   4491.1789    
     40000   5283.7603    
     50000   4675.3794    
     60000   4223.061     
     70000   4576.0441    
     80000   4537.2012    
     90000   4574.7664    
    100000   5080.4748    
    110000   4484.455     
    120000   4860.8605    
    130000   4252.0273    
    140000   4644.6282    
    150000   4709.3773    
    160000   4394.8821    
    170000   4639.5168    
    180000   4866.8969    
    190000   4244.93      
    200000   5202.3467    
    210000   5163.9793    
    220000   4934.2121    
    230000   5034.4259    
    240000   5491.9144    
    250000   4630.2699    
    260000   4120.5122    
    270000   4276.496     
    280000   4313.9609    
    290000   4810.536     
    300000   4717.9672    
    310000   4415.9475    
    320000   4851.6134    
    330000   4146.2527    
    340000   4598.5323    
    350000   4671.494     
    360000   4642.9793    
    370000   5100.572     
    380000   4888.248     
    390000   4835.6793    
    400000   4495.8387    
    410000   4365.3366    
    420000   4548.8509    
    430000   4721.2335    
    440000   5063.7005    
    450000   4807.1575    
    460000   4401.5434    
    470000   5266.7006    
    480000   4976.1775    
    490000   4987.734     
    500000   4748.6324    
    510000   4963.6238    
    520000   4343.453     
    530000   4066.3058    
    540000   4780.0764    
    550000   4408.7333    
    560000   5372.3094    
    570000   4862.1167    
    580000   4654.2082    
    590000   4733.313     
    600000   4568.5292    
    610000   5272.3128    
    620000   4592.7709    
    630000   4672.9295    
    640000   4796.2654    
    650000   4828.3338    
    660000   5387.3169    
    670000   5024.9902    
    680000   5101.8625    
    690000   4496.0517    
    700000   4605.144     
    710000   5447.0725    
    720000   4331.5776    
    730000   4737.4783    
    740000   4575.1241    
    750000   4668.6422    
    760000   4286.6495    
    770000   4566.5539    
    780000   4688.4494    
    790000   4977.0243    
    800000   4954.3108    
    810000   4791.4496    
    820000   5191.0876    
    830000   4458.3946    
    840000   5066.7669    
    850000   4730.1168    
    860000   4801.6282    
    870000   5275.9257    
    880000   4023.1517    
    890000   4376.1754    
    900000   5018.8526    
    910000   3986.5709    
    920000   4830.3348    
    930000   4582.842     
    940000   5034.8803    
    950000   4949.9187    
    960000   4634.1295    
    970000   4293.7174    
    980000   4601.1598    
    990000   4712.9763    
   1000000   3743.7999    
Loop time of 35.1567 on 1 procs for 1000000 steps with 100 atoms

Performance: 2457.569 ns/day, 0.010 hours/ns, 28444.086 timesteps/s, 2.844 Matom-step/s
94.4% CPU use with 1 MPI tasks x no OpenMP threads

MPI task timing breakdown:
Section |  min time  |  avg time  |  max time  |%varavg| %total
---------------------------------------------------------------
Pair    | 11.47      | 11.47      | 11.47      |   0.0 | 32.63
Bond    | 13.3       | 13.3       | 13.3       |   0.0 | 37.83
Neigh   | 6.419      | 6.419      | 6.419      |   0.0 | 18.26
Comm    | 0.23259    | 0.23259    | 0.23259    |   0.0 |  0.66
Output  | 0.0020824  | 0.0020824  | 0.0020824  |   0.0 |  0.01
Modify  | 3.1839     | 3.1839     | 3.1839     |   0.0 |  9.06
Other   |            | 0.5489     |            |       |  1.56

Nlocal:            100 ave         100 max         100 min
Histogram: 1 0 0 0 0 0 0 0 0 0
Nghost:              0 ave           0 max           0 min
Histogram: 1 0 0 0 0 0 0 0 0 0
Neighs:           1187 ave        1187 max        1187 min
Histogram: 1 0 0 0 0 0 0 0 0 0
FullNghs:            0 ave           0 max           0 min
Histogram: 1 0 0 0 0 0 0 0 0 0

Total # of neighbors = 1187
Ave neighs/atom = 11.87
Ave special neighs/atom = 5.88
Neighbor list builds = 100000
Dangerous builds = 100000
unfix 1
unfix 2
write_restart 	restart.${simname}.dreiding1
write_restart 	restart.InitialFile.dreiding1
System init for write_restart ...
Generated 0 of 3 mixed pair_coeff terms from geometric mixing rule


#####################################################
# Define Settings
compute eng all pe/atom
compute eatoms all reduce sum c_eng

#####################################################
# Minimization

dump mydmp all atom 100 dump.lammpstrj

reset_timestep 0
fix 1 all nvt temp 500.0 500.0 100.0
thermo 20
thermo_style custom step pe lx ly lz press pxx pyy pzz c_eatoms
min_style cg
minimize 1e-25 1e-25 500000 1000000
Switching to 'neigh_modify every 1 delay 0 check yes' setting during minimization
Generated 0 of 3 mixed pair_coeff terms from geometric mixing rule
Per MPI rank memory allocation (min/avg/max) = 9.275 | 9.275 | 9.275 Mbytes
   Step         PotEng           Lx             Ly             Lz           Press           Pxx            Pyy            Pzz          c_eatoms   
         0   1011.9748      158.5          158.5          158.5          14.06067       13.213516      19.012722      9.9557721      1011.9748    
        20   117.4783       158.5          158.5          158.5          13.057523      15.792386      13.108774      10.27141       117.4783     
        40   69.813744      158.5          158.5          158.5          13.784861      17.140628      13.914242      10.299712      69.813744    
        60   47.042085      158.5          158.5          158.5          13.463246      16.53964       13.810226      10.039872      47.042085    
        80   35.620422      158.5          158.5          158.5          12.720838      15.720905      12.992512      9.449097       35.620422    
       100   32.322685      158.5          158.5          158.5          12.900578      15.827285      13.197083      9.6773657      32.322685    
       120   29.946353      158.5          158.5          158.5          12.950543      15.920529      13.260975      9.6701251      29.946353    
       140   27.197136      158.5          158.5          158.5          12.745345      15.852873      13.099538      9.2836248      27.197136    
       160   24.950007      158.5          158.5          158.5          12.527815      15.65845       12.676304      9.2486892      24.950007    
       180   22.559804      158.5          158.5          158.5          12.596585      15.88879       12.75937       9.1415962      22.559804    
       200   21.156584      158.5          158.5          158.5          12.530334      15.587864      12.893522      9.1096167      21.156584    
       220   19.828961      158.5          158.5          158.5          12.590615      15.605574      13.006203      9.1600686      19.828961    
       240   18.057899      158.5          158.5          158.5          12.841403      15.609044      13.323734      9.5914311      18.057899    
       260   16.903996      158.5          158.5          158.5          12.784796      15.531532      13.186627      9.6362299      16.903996    
       280   15.913944      158.5          158.5          158.5          12.702673      15.664268      12.888816      9.5549361      15.913944    
       300   15.189843      158.5          158.5          158.5          12.691779      15.605376      13.006649      9.4633106      15.189843    
       320   14.647112      158.5          158.5          158.5          12.78243       15.700043      13.120747      9.5264995      14.647112    
       340   14.348819      158.5          158.5          158.5          12.785325      15.609597      13.234027      9.5123516      14.348819    
       360   13.782237      158.5          158.5          158.5          12.638964      15.370727      13.143621      9.4025443      13.782237    
       380   13.056205      158.5          158.5          158.5          12.799739      15.640508      13.205393      9.5533178      13.056205    
       400   12.454391      158.5          158.5          158.5          12.771161      15.78268       13.11731       9.4134921      12.454391    
       420   11.75403       158.5          158.5          158.5          12.700449      15.795929      12.949859      9.3555578      11.75403     
       440   11.2487        158.5          158.5          158.5          12.644897      15.63923       13.05224       9.2432229      11.2487      
       460   10.815243      158.5          158.5          158.5          12.628882      15.633162      12.976488      9.2769959      10.815243    
       480   10.4205        158.5          158.5          158.5          12.768288      15.75442       13.127742      9.4227022      10.4205      
       500   10.065793      158.5          158.5          158.5          12.714461      15.675608      13.070171      9.3976023      10.065793    
       520   9.7018295      158.5          158.5          158.5          12.719288      15.620608      13.147489      9.3897665      9.7018295    
       540   9.2922513      158.5          158.5          158.5          12.747743      15.560381      13.180314      9.5025326      9.2922513    
       560   8.892288       158.5          158.5          158.5          12.809692      15.65335       13.100128      9.6755975      8.892288     
       580   8.4878595      158.5          158.5          158.5          12.688794      15.700367      12.981412      9.3846034      8.4878595    
       600   7.1396076      158.5          158.5          158.5          12.273791      15.337778      12.659494      8.824101       7.1396076    
       620   5.4096687      158.5          158.5          158.5          12.723012      15.786752      12.978939      9.4033455      5.4096687    
       640   4.7665034      158.5          158.5          158.5          12.811516      15.670925      13.119005      9.6446198      4.7665034    
       660   4.384962       158.5          158.5          158.5          12.78722       15.761608      13.115749      9.4843029      4.384962     
       680   4.1326112      158.5          158.5          158.5          12.788408      15.755538      13.13973       9.4699562      4.1326112    
       700   3.9387721      158.5          158.5          158.5          12.723393      15.687871      13.076557      9.4057501      3.9387721    
       720   3.7235359      158.5          158.5          158.5          12.701841      15.732724      13.043808      9.3289893      3.7235359    
       740   3.3955455      158.5          158.5          158.5          12.730812      15.704846      13.072313      9.4152779      3.3955455    
       760   3.1251857      158.5          158.5          158.5          12.763345      15.724216      13.105164      9.4606549      3.1251857    
       780   2.9535481      158.5          158.5          158.5          12.746066      15.736506      13.104334      9.3973581      2.9535481    
       800   2.826298       158.5          158.5          158.5          12.781217      15.751447      13.144788      9.4474164      2.826298     
       820   2.566773       158.5          158.5          158.5          12.841792      15.85088       13.174297      9.5001988      2.566773     
       840   2.3406662      158.5          158.5          158.5          12.777864      15.766608      13.080499      9.4864839      2.3406662    
       860   2.0879357      158.5          158.5          158.5          12.803951      15.754463      13.095014      9.5623749      2.0879357    
       880   1.8204543      158.5          158.5          158.5          12.75147       15.72924       13.070677      9.4544925      1.8204543    
       900   1.5258385      158.5          158.5          158.5          12.71821       15.736124      13.035806      9.3827004      1.5258385    
       920   1.4768763      158.5          158.5          158.5          12.77266       15.773124      13.102329      9.4425282      1.4768763    
       922   1.4757481      158.5          158.5          158.5          12.764268      15.749739      13.09473       9.4483347      1.4757481    
Loop time of 0.104638 on 1 procs for 922 steps with 100 atoms

92.1% CPU use with 1 MPI tasks x no OpenMP threads

Minimization stats:
  Stopping criterion = linesearch alpha is zero
  Energy initial, next-to-last, final = 
      1011.97475277022   1.47574813931252   1.47574813931252
  Force two-norm initial, final = 1161.0025 1.0980343
  Force max component initial, final = 182.84021 0.26675876
  Final line search alpha, max atom move = 9.9877001e-09 2.6643065e-09
  Iterations, force evaluations = 922 1888

MPI task timing breakdown:
Section |  min time  |  avg time  |  max time  |%varavg| %total
---------------------------------------------------------------
Pair    | 0.058336   | 0.058336   | 0.058336   |   0.0 | 55.75
Bond    | 0.029592   | 0.029592   | 0.029592   |   0.0 | 28.28
Neigh   | 0.007727   | 0.007727   | 0.007727   |   0.0 |  7.38
Comm    | 0.00037831 | 0.00037831 | 0.00037831 |   0.0 |  0.36
Output  | 0.0041197  | 0.0041197  | 0.0041197  |   0.0 |  3.94
Modify  | 0          | 0          | 0          |   0.0 |  0.00
Other   |            | 0.004485   |            |       |  4.29

Nlocal:            100 ave         100 max         100 min
Histogram: 1 0 0 0 0 0 0 0 0 0
Nghost:              0 ave           0 max           0 min
Histogram: 1 0 0 0 0 0 0 0 0 0
Neighs:           1200 ave        1200 max        1200 min
Histogram: 1 0 0 0 0 0 0 0 0 0
FullNghs:            0 ave           0 max           0 min
Histogram: 1 0 0 0 0 0 0 0 0 0

Total # of neighbors = 1200
Ave neighs/atom = 12
Ave special neighs/atom = 5.88
Neighbor list builds = 93
Dangerous builds = 0

run 100000
Generated 0 of 3 mixed pair_coeff terms from geometric mixing rule
Per MPI rank memory allocation (min/avg/max) = 9.279 | 9.279 | 9.279 Mbytes
   Step         PotEng           Lx             Ly             Lz           Press           Pxx            Pyy            Pzz          c_eatoms   
       922   1.4757481      158.5          158.5          158.5          12.764268      15.749739      13.09473       9.4483347      1.4757481    
       940   458.23156      158.5          158.5          158.5         -3.3087155      0.3090125      2.5926081     -12.827767      458.23156    
       960   368.1559       158.5          158.5          158.5          1.5643435      3.8603723     -2.7044391      3.5370974      368.1559     
       980   391.44535      158.5          158.5          158.5          9.3539344      7.3427219      7.512001       13.20708       391.44535    
      1000   348.16337      158.5          158.5          158.5         -10.02615      -4.2781751     -6.5100844     -19.29019       348.16337    
      1020   327.28579      158.5          158.5          158.5          2.9992823      3.6185791      9.3343253     -3.9550576      327.28579    
      1040   307.41813      158.5          158.5          158.5         -4.1748859     -6.1050781     -5.7078871     -0.7116923      307.41813    
      1060   289.32386      158.5          158.5          158.5         -7.0349249     -4.8256633     -8.925684      -7.3534275      289.32386    
      1080   217.8865       158.5          158.5          158.5          5.5722137      9.6398743      6.2683649      0.80840178     217.8865     
      1100   244.63751      158.5          158.5          158.5         -4.8125869     -3.5644966     -3.8708429     -7.0024213      244.63751    
      1120   212.31946      158.5          158.5          158.5          4.6604243      5.0860496      3.9323688      4.9628546      212.31946    
      1140   240.62566      158.5          158.5          158.5          1.7551966      2.5200519      1.2574955      1.4880424      240.62566    
      1160   178.13525      158.5          158.5          158.5         -0.22943722     2.0354443     -1.5315979     -1.192158       178.13525    
      1180   213.01024      158.5          158.5          158.5          6.3596384      4.8944413      8.2261296      5.9583444      213.01024    
      1200   183.74978      158.5          158.5          158.5         -1.3179511     -3.5962818      2.1881746     -2.5457461      183.74978    
      1220   173.2309       158.5          158.5          158.5          1.1542771      2.233091      -2.1234156      3.353156       173.2309     
      1240   170.62928      158.5          158.5          158.5         -0.95115094     0.53693696    -4.6407758      1.250386       170.62928    
      1260   167.13819      158.5          158.5          158.5         -6.2283941     -6.5646883     -7.1385924     -4.9819017      167.13819    
      1280   153.93523      158.5          158.5          158.5          4.0058299      4.295155       2.6257141      5.0966205      153.93523    
      1300   149.32593      158.5          158.5          158.5         -1.5212003     -1.1366793     -3.996547       0.56962541     149.32593    
      1320   151.76421      158.5          158.5          158.5          1.2642176      3.1010974     -1.8513648      2.5429203      151.76421    
      1340   148.22222      158.5          158.5          158.5          0.58759832     4.2050055      0.13946277    -2.5816733      148.22222    
      1360   150.78799      158.5          158.5          158.5         -3.5550469     -6.353854      -2.328381      -1.9829055      150.78799    
      1380   154.63971      158.5          158.5          158.5          2.1948154     -2.189633       1.5648098      7.2092693      154.63971    
      1400   148.91674      158.5          158.5          158.5         -2.3285634     -0.90684056    -4.4932586     -1.5855909      148.91674    
      1420   147.5855       158.5          158.5          158.5          0.1972994      3.0289262      1.7286573     -4.1656853      147.5855     
      1440   158.19965      158.5          158.5          158.5         -1.9622034     -3.4759442      0.48142738    -2.8920934      158.19965    
      1460   148.19846      158.5          158.5          158.5         -3.7391802     -4.7482298     -3.5240411     -2.9452698      148.19846    
      1480   156.0509       158.5          158.5          158.5          3.7624012      8.3179693      3.4689093     -0.4996749      156.0509     
      1500   157.43623      158.5          158.5          158.5          0.32136939     2.0503101      2.1865455     -3.2727474      157.43623    
      1520   160.39479      158.5          158.5          158.5         -0.13779668    -2.6393593      1.4257343      0.80023498     160.39479    
      1540   164.93664      158.5          158.5          158.5          2.1414232      2.5833296      0.26880285     3.5721372      164.93664    
      1560   169.20521      158.5          158.5          158.5         -3.1941105     -2.1913383     -4.9721133     -2.4188798      169.20521    
      1580   178.26341      158.5          158.5          158.5         -2.4636978     -3.8400424      1.4931144     -5.0441654      178.26341    
      1600   171.36204      158.5          158.5          158.5         -0.44642621    -0.72625304     1.4452043     -2.0582299      171.36204    
      1620   195.56321      158.5          158.5          158.5         -0.22257502    -4.4589536      1.3973463      2.3938822      195.56321    
      1640   185.3172       158.5          158.5          158.5          2.5958031      4.1339926      0.33033512     3.3230817      185.3172     
      1660   178.63796      158.5          158.5          158.5          3.3394749      9.078662      -0.82939829     1.769161       178.63796    
      1680   194.8731       158.5          158.5          158.5         -1.5921327     -5.1472617      1.2954104     -0.92454671     194.8731     
      1700   192.38372      158.5          158.5          158.5          2.7960729     -3.7770667      3.3749277      8.7903578      192.38372    
      1720   179.72457      158.5          158.5          158.5          1.2576735      3.6058053     -3.7599917      3.9272067      179.72457    
      1740   186.82519      158.5          158.5          158.5         -3.5345592      0.47138571    -3.7972259     -7.2778373      186.82519    
      1760   170.54804      158.5          158.5          158.5          3.2796132     -0.6175023      7.0193503      3.4369916      170.54804    
      1780   178.7907       158.5          158.5          158.5         -0.22287688    -2.2183692     -4.1447818      5.6945205      178.7907     
      1800   168.65895      158.5          158.5          158.5          0.48557134     4.9176383     -6.4041965      2.9432722      168.65895    
      1820   173.90253      158.5          158.5          158.5         -0.27672058     3.9189179     -0.22189427    -4.5271854      173.90253    
      1840   169.46641      158.5          158.5          158.5         -2.7515835     -5.1860724     -0.7769377     -2.2917405      169.46641    
      1860   153.07205      158.5          158.5          158.5          0.98767338    -2.4356311     -1.3544468      6.753098       153.07205    
      1880   151.19847      158.5          158.5          158.5          0.67588587     0.8970725      2.2735815     -1.1429964      151.19847    
      1900   168.55675      158.5          158.5          158.5         -0.98740438    -0.46725977     1.6883491     -4.1833025      168.55675    
      1920   160.30663      158.5          158.5          158.5         -0.92967108    -2.6269507     -1.5030551      1.3409926      160.30663    
      1940   144.7748       158.5          158.5          158.5          1.2877856      2.0104185      1.9315788     -0.078640589    144.7748     
      1960   142.18944      158.5          158.5          158.5          0.24213301     2.7551328      1.1740578     -3.2027916      142.18944    
      1980   153.39336      158.5          158.5          158.5          1.7830463      1.0800115      2.0422582      2.226869       153.39336    
      2000   148.19445      158.5          158.5          158.5          0.34343594    -0.49995154    -2.0614543      3.5917137      148.19445    
      2020   154.70703      158.5          158.5          158.5         -1.5563606     -0.12973407    -0.43634701    -4.1030009      154.70703    
      2040   142.00052      158.5          158.5          158.5          2.7724239      2.8972649      3.0508742      2.3691326      142.00052    
      2060   138.76966      158.5          158.5          158.5         -1.0051322      1.1856877     -4.8159087      0.61482442     138.76966    
      2080   140.88747      158.5          158.5          158.5          0.69820263     0.55233495     3.6784901     -2.1362172      140.88747    
      2100   167.24104      158.5          158.5          158.5          3.3250142     -0.41587911     8.8149273      1.5759945      167.24104    
      2120   149.85736      158.5          158.5          158.5         -3.3506522     -5.3419021     -7.2495443      2.5394898      149.85736    
      2140   159.29385      158.5          158.5          158.5          4.3569374      5.3921373     -0.080602353    7.7592774      159.29385    
      2160   152.80629      158.5          158.5          158.5          0.41202656    -0.36587368     0.35518677     1.2467666      152.80629    
      2180   166.71609      158.5          158.5          158.5         -1.3503823     -2.2558532      0.54124185    -2.3365356      166.71609    
      2200   161.41461      158.5          158.5          158.5          2.195892       4.0961658     -0.010251765    2.5017619      161.41461    
      2220   176.87454      158.5          158.5          158.5         -5.9724295     -4.1752979     -9.6052074     -4.1367831      176.87454    
      2240   163.04767      158.5          158.5          158.5          1.3969161     -0.18617124     2.5502927      1.8266268      163.04767    
      2260   167.13082      158.5          158.5          158.5          0.44144824    -1.0994838      4.8861114     -2.4622829      167.13082    
      2280   162.82266      158.5          158.5          158.5          0.4053579      2.4220199      1.608279      -2.8142251      162.82266    
      2300   163.19263      158.5          158.5          158.5          3.8919723      4.3469837     -1.2831664      8.6120996      163.19263    
      2320   172.59329      158.5          158.5          158.5         -4.6040265     -6.2925477     -6.7361707     -0.78336124     172.59329    
      2340   176.27732      158.5          158.5          158.5         -0.86450587    -1.1571808      0.65751283    -2.0938497      176.27732    
      2360   158.42487      158.5          158.5          158.5         -2.8626753      0.55304841    -4.8788959     -4.2621783      158.42487    
      2380   169.62871      158.5          158.5          158.5         -2.2897534      1.959772      -7.9435654     -0.88546668     169.62871    
      2400   171.58524      158.5          158.5          158.5          3.0956486      0.81782479     3.1200794      5.3490415      171.58524    
      2420   176.72649      158.5          158.5          158.5         -4.1165216     -7.6593535      2.2594438     -6.949655       176.72649    
      2440   148.40417      158.5          158.5          158.5          3.0321713      5.7586577     -0.51947976     3.8573358      148.40417    
      2460   177.16824      158.5          158.5          158.5         -2.8101291      0.3552039     -9.3135985      0.5280073      177.16824    
      2480   142.58224      158.5          158.5          158.5         -3.1652603     -2.4427848     -5.4522789     -1.600717       142.58224    
      2500   163.52313      158.5          158.5          158.5          5.5706862      2.8639162      11.115184      2.7329586      163.52313    
      2520   146.57797      158.5          158.5          158.5         -1.3605572     -4.7412402      2.7229288     -2.0633601      146.57797    
      2540   160.73594      158.5          158.5          158.5          1.0887127      1.5966494     -2.1886043      3.8580929      160.73594    
      2560   144.45732      158.5          158.5          158.5          2.8986941      3.1830164      0.74861557     4.7644504      144.45732    
      2580   151.77895      158.5          158.5          158.5         -3.6828809     -5.805288       1.3664041     -6.6097588      151.77895    
      2600   146.51186      158.5          158.5          158.5          2.9465302      1.8784361      8.4197001     -1.4585456      146.51186    
      2620   153.04203      158.5          158.5          158.5         -0.66757401     0.084478806   -2.9684455      0.88124468     153.04203    
      2640   146.28275      158.5          158.5          158.5          1.4011238      1.4406002      0.91678932     1.845982       146.28275    
      2660   147.87237      158.5          158.5          158.5          2.9496058      3.6632555      5.0594286      0.12613331     147.87237    
      2680   148.49466      158.5          158.5          158.5         -2.0368017     -3.8507015     -2.2526218     -0.0070818147   148.49466    
      2700   164.67532      158.5          158.5          158.5          2.445472       2.9483959     -0.73817026     5.1261903      164.67532    
      2720   159.82723      158.5          158.5          158.5          1.3590797      6.3712412     -3.2749225      0.98092033     159.82723    
      2740   164.2473       158.5          158.5          158.5         -1.4280731      0.54035446    -1.8686573     -2.9559165      164.2473     
      2760   157.76124      158.5          158.5          158.5          2.9809467      2.6798798      4.3372597      1.9257005      157.76124    
      2780   161.30807      158.5          158.5          158.5         -0.9272905      0.96476338    -2.1479599     -1.598675       161.30807    
      2800   161.04231      158.5          158.5          158.5         -2.3098484      0.34378868    -4.6902968     -2.583037       161.04231    
      2820   156.37763      158.5          158.5          158.5          1.1948605     -0.40948518     0.78054699     3.2135197      156.37763    
      2840   176.37098      158.5          158.5          158.5         -1.280265      -3.0239087      2.2573101     -3.0741963      176.37098    
      2860   164.60501      158.5          158.5          158.5          0.18782325     4.8558544      2.4168098     -6.7091944      164.60501    
      2880   175.85328      158.5          158.5          158.5         -0.25406088     1.9786367     -1.5581153     -1.182704       175.85328    
      2900   169.24434      158.5          158.5          158.5         -3.1685541     -7.409793      -2.137014       0.041144752    169.24434    
      2920   174.04048      158.5          158.5          158.5         -0.53947748    -3.2430468      6.2405025     -4.6158881      174.04048    
      2940   177.90176      158.5          158.5          158.5          0.41118684     2.0508729      3.141646      -3.9589584      177.90176    
      2960   166.80504      158.5          158.5          158.5         -4.574815      -3.1000607     -7.5903999     -3.0339843      166.80504    
      2980   176.64439      158.5          158.5          158.5          1.5614116     -0.74974346    -0.39664573     5.8306239      176.64439    
      3000   165.25055      158.5          158.5          158.5          1.460902      -1.4784425      2.2571331      3.6040153      165.25055    
      3020   179.83206      158.5          158.5          158.5         -0.21139447    -0.33801187    -0.95876804     0.66259649     179.83206    
      3040   172.44486      158.5          158.5          158.5          2.1672039      3.0059121      2.2943986      1.201301       172.44486    
      3060   173.52172      158.5          158.5          158.5         -0.69195497    -3.728134       0.43833346     1.2139356      173.52172    
      3080   164.33127      158.5          158.5          158.5         -1.0118109     -4.1911738     -1.9571011      3.1128424      164.33127    
      3100   159.50395      158.5          158.5          158.5         -1.1243257      2.3323499     -3.6720506     -2.0332764      159.50395    
      3120   144.81085      158.5          158.5          158.5         -1.760326       0.30269106    -3.5083671     -2.0753019      144.81085    
      3140   158.58237      158.5          158.5          158.5         -1.6877779     -4.7049934      1.7261012     -2.0844416      158.58237    
      3160   151.44412      158.5          158.5          158.5          0.020304372    0.34328776     0.83419928    -1.1165739      151.44412    
      3180   152.24499      158.5          158.5          158.5          1.1652286      1.9779653      1.2741537      0.2435669      152.24499    
      3200   148.38619      158.5          158.5          158.5         -1.1436559      1.5980681     -2.6190095     -2.4100263      148.38619    
      3220   152.31943      158.5          158.5          158.5         -0.024606028    1.1023497     -4.692287       3.5161192      152.31943    
      3240   135.80156      158.5          158.5          158.5         -2.0427727     -2.7618314     -0.84098004    -2.5255066      135.80156    
      3260   145.51346      158.5          158.5          158.5         -0.30536432     0.98768761     0.28566832    -2.1894489      145.51346    
      3280   142.63949      158.5          158.5          158.5         -1.651767       2.096905      -4.0867921     -2.965414       142.63949    
      3300   148.30172      158.5          158.5          158.5         -1.7434904     -0.60276414    -1.8135272     -2.81418        148.30172    
      3320   144.6001       158.5          158.5          158.5          2.0651976     -3.3314613      3.0057651      6.521289       144.6001     
      3340   142.17615      158.5          158.5          158.5         -1.9195231     -2.1488993     -1.8130813     -1.7965886      142.17615    
      3360   141.11732      158.5          158.5          158.5          2.2360155      7.4194661     -0.42455261    -0.28686703     141.11732    
      3380   133.33381      158.5          158.5          158.5          1.4089751      1.5976702      1.3126702      1.3165849      133.33381    
      3400   132.2735       158.5          158.5          158.5          0.1843923     -2.3630179      2.6331276      0.28306714     132.2735     
      3420   148.71052      158.5          158.5          158.5          2.9327162      2.7107781      4.0146903      2.0726803      148.71052    
      3440   143.65452      158.5          158.5          158.5         -2.2018018      0.25673543    -5.4425964     -1.4195443      143.65452    
      3460   137.45167      158.5          158.5          158.5         -1.9137324     -3.0073416     -1.3583055     -1.3755499      137.45167    
      3480   151.3656       158.5          158.5          158.5         -0.78172357    -3.1489406      4.3819149     -3.578145       151.3656     
      3500   163.63349      158.5          158.5          158.5         -1.4670853      0.60218349    -1.1897523     -3.8136872      163.63349    
      3520   157.81647      158.5          158.5          158.5          4.3659425      6.2027592      3.2831226      3.6119457      157.81647    
      3540   140.8062       158.5          158.5          158.5          3.2662953     -1.0071574      3.5314979      7.2745456      140.8062     
      3560   149.36279      158.5          158.5          158.5          0.81758133    -0.83738081    -1.27949        4.5696148      149.36279    
      3580   160.68171      158.5          158.5          158.5         -0.52622336    -1.4750181      0.51541085    -0.6190628      160.68171    
      3600   160.43951      158.5          158.5          158.5         -2.6260311     -2.5419891      1.1810059     -6.5171102      160.43951    
      3620   159.96092      158.5          158.5          158.5          0.95906336    -1.0194686      0.70277505     3.1938836      159.96092    
      3640   152.7377       158.5          158.5          158.5          0.47662995     2.0556488     -1.5454969      0.91973795     152.7377     
      3660   172.90936      158.5          158.5          158.5          0.69298123     4.3847089      0.72327688    -3.0290421      172.90936    
      3680   171.9319       158.5          158.5          158.5          0.92987301     2.5198676     -1.2413887      1.5111402      171.9319     
      3700   155.30941      158.5          158.5          158.5         -1.8488437     -3.3486695     -4.531071       2.3332094      155.30941    
      3720   156.11259      158.5          158.5          158.5         -0.4218424     -3.8900323      3.2337003     -0.6091952      156.11259    
      3740   180.17232      158.5          158.5          158.5         -2.3242365     -0.2122565      0.018442032   -6.7788951      180.17232    
      3760   151.00421      158.5          158.5          158.5          0.2284303      2.7512781     -3.1359779      1.0699907      151.00421    
      3780   178.44099      158.5          158.5          158.5         -0.73404651     2.9237456     -6.5251863      1.3993012      178.44099    
      3800   158.1223       158.5          158.5          158.5         -1.1407456     -1.3706507      0.51831381    -2.5698999      158.1223     
      3820   174.81997      158.5          158.5          158.5          1.5423814     -1.6109712      4.0355273      2.2025881      174.81997    
      3840   148.13668      158.5          158.5          158.5         -4.4298195     -3.6982103     -7.1429845     -2.4482636      148.13668    
      3860   164.09311      158.5          158.5          158.5         -1.3924715     -1.6055515     -2.676876       0.10501298     164.09311    
      3880   158.13029      158.5          158.5          158.5         -2.0973365     -3.2109895     -3.2467498      0.16572979     158.13029    
      3900   164.1114       158.5          158.5          158.5         -0.46916419    -0.85664725     1.5996027     -2.150448       164.1114     
      3920   146.479        158.5          158.5          158.5          1.1370991      2.7346266     -4.052983       4.7296538      146.479      
      3940   149.94549      158.5          158.5          158.5         -0.44662007    -0.36979338    -6.6792367      5.7091699      149.94549    
      3960   144.88185      158.5          158.5          158.5          2.8728482      0.44364733     6.6933363      1.481561       144.88185    
      3980   138.69667      158.5          158.5          158.5          0.94847354    -1.2050097      4.5702185     -0.51978823     138.69667    
      4000   148.79894      158.5          158.5          158.5         -0.59065038    -1.5515488     -3.9944578      3.7740555      148.79894    
      4020   142.66904      158.5          158.5          158.5          2.425526       6.295985      -2.4476405      3.4282334      142.66904    
      4040   145.41918      158.5          158.5          158.5         -0.35799489     3.0699168     -0.47880156    -3.6650999      145.41918    
      4060   135.98214      158.5          158.5          158.5          2.4555531      0.23686876     3.5293609      3.6004297      135.98214    
      4080   143.98032      158.5          158.5          158.5          2.8447317      0.28820921     1.6162595      6.6297265      143.98032    
      4100   145.20124      158.5          158.5          158.5         -2.8624756     -0.033659874   -7.0461806     -1.5075864      145.20124    
      4120   137.59039      158.5          158.5          158.5          0.78535159     4.2159599     -2.8041352      0.94423009     137.59039    
      4140   160.30295      158.5          158.5          158.5         -1.1768963     -0.25030261     1.3520143     -4.6324007      160.30295    
      4160   130.24017      158.5          158.5          158.5         -1.3489969     -3.7286758     -0.1890719     -0.12924308     130.24017    
      4180   149.22789      158.5          158.5          158.5          2.2362451      2.1269944     -3.4614465      8.0431875      149.22789    
      4200   152.48935      158.5          158.5          158.5         -0.33637551     0.1820201     -0.94311486    -0.24803176     152.48935    
      4220   143.54208      158.5          158.5          158.5          3.6669319      3.2453862      8.3133733     -0.55796393     143.54208    
      4240   156.58982      158.5          158.5          158.5          1.0970427      0.86566297    -0.22628689     2.6517519      156.58982    
      4260   162.69295      158.5          158.5          158.5         -3.7614642     -0.79838445    -5.2074968     -5.2785113      162.69295    
      4280   141.75857      158.5          158.5          158.5         -0.38396116    -0.019416997    2.9329384     -4.0654049      141.75857    
      4300   141.84342      158.5          158.5          158.5         -1.4328005     -4.400163       1.7214898     -1.6197284      141.84342    
      4320   162.02314      158.5          158.5          158.5         -1.5873529     -3.0132665     -1.592658      -0.15613409     162.02314    
      4340   149.77928      158.5          158.5          158.5          1.743171       1.9740194      1.6761502      1.5793435      149.77928    
      4360   153.21419      158.5          158.5          158.5         -2.8806223     -5.1787618     -1.4357062     -2.0273989      153.21419    
      4380   163.22406      158.5          158.5          158.5         -1.0265107     -1.9011534      0.50913307    -1.6875119      163.22406    
      4400   164.94589      158.5          158.5          158.5          1.6538953      1.7914041      2.1394596      1.0308221      164.94589    
      4420   158.48014      158.5          158.5          158.5         -6.0634842     -6.6446846     -7.2043051     -4.3414629      158.48014    
      4440   151.30997      158.5          158.5          158.5         -1.3766237     -1.6671307      0.5925129     -3.0552534      151.30997    
      4460   142.37423      158.5          158.5          158.5          1.4048791      1.213039       0.9087038      2.0928945      142.37423    
      4480   151.94734      158.5          158.5          158.5         -0.20672806    -0.29945857    -1.4982235      1.1774979      151.94734    
      4500   152.18275      158.5          158.5          158.5          4.1276832      5.4564013      4.6305483      2.2961         152.18275    
      4520   138.83853      158.5          158.5          158.5         -0.65035643     0.36909526    -1.5062123     -0.81395225     138.83853    
      4540   159.15138      158.5          158.5          158.5          0.8883767     -0.68322749     0.61921381     2.7291438      159.15138    
      4560   150.30145      158.5          158.5          158.5          0.9557051     -0.8491283     -1.5656334      5.281877       150.30145    
      4580   161.13404      158.5          158.5          158.5         -0.36047179     2.5181908     -3.2829001     -0.31670602     161.13404    
      4600   162.63999      158.5          158.5          158.5          2.2952702      6.1049291      1.5005615     -0.71967996     162.63999    
      4620   157.09135      158.5          158.5          158.5          0.880212       1.4189268     -1.6038299      2.8255391      157.09135    
      4640   154.51174      158.5          158.5          158.5          0.71327592    -1.758397      -0.79443491     4.6926597      154.51174    
      4660   153.34744      158.5          158.5          158.5         -0.52326296     0.97403381    -1.0064992     -1.5373235      153.34744    
      4680   139.46653      158.5          158.5          158.5          0.60363589     2.7112399      0.51354536    -1.4138776      139.46653    
      4700   169.00236      158.5          158.5          158.5         -2.8027184     -4.3121634     -1.3740887     -2.7219031      169.00236    
      4720   172.57578      158.5          158.5          158.5         -3.4560255     -6.4894959     -3.2066904     -0.67189014     172.57578    
      4740   158.72432      158.5          158.5          158.5          2.2757711      2.6390869      1.091392       3.0968344      158.72432    
      4760   170.69011      158.5          158.5          158.5         -1.7775359      2.4898812     -0.053941121   -7.7685478      170.69011    
      4780   174.31525      158.5          158.5          158.5          0.27383179     2.7089265      1.1557873     -3.0432184      174.31525    
      4800   178.64468      158.5          158.5          158.5         -0.63642284    -1.8035607     -0.67979822     0.57409036     178.64468    
      4820   176.39387      158.5          158.5          158.5         -2.5017327     -2.0456526     -0.85406516    -4.6054803      176.39387    
      4840   163.44074      158.5          158.5          158.5          0.95018924     2.8753508      3.4138391     -3.4386222      163.44074    
      4860   158.79568      158.5          158.5          158.5         -0.70866838    -1.6368802     -0.88827428     0.39914933     158.79568    
      4880   152.80769      158.5          158.5          158.5          1.4218141     -1.8066889      0.41280013     5.6593309      152.80769    
      4900   153.10813      158.5          158.5          158.5          2.6601411      2.1680607      4.142125       1.6702375      153.10813    
      4920   160.81568      158.5          158.5          158.5          0.94169147     0.028291171    2.9641094     -0.16732612     160.81568    
      4940   157.95454      158.5          158.5          158.5          1.0015889     -0.76583013     1.1923636      2.5782333      157.95454    
      4960   147.23877      158.5          158.5          158.5         -1.9637272     -4.0711536      2.5201596     -4.3401874      147.23877    
      4980   160.0998       158.5          158.5          158.5          0.35929171    -2.0748112      5.9498753     -2.7971889      160.0998     
      5000   154.99364      158.5          158.5          158.5         -0.89889084     2.8930636     -2.9726163     -2.6171199      154.99364    
      5020   142.13336      158.5          158.5          158.5         -0.46457685     0.041250952   -3.1505032      1.7155217      142.13336    
      5040   165.45588      158.5          158.5          158.5          0.80417943    -3.9917948      2.4613022      3.9430309      165.45588    
      5060   166.35268      158.5          158.5          158.5          4.0556757      6.1052317      1.3711404      4.6906549      166.35268    
      5080   142.68839      158.5          158.5          158.5          0.1380587      5.8909366     -5.3759069     -0.10085359     142.68839    
      5100   144.09849      158.5          158.5          158.5          1.1864345     -4.0182399      3.2898828      4.2876607      144.09849    
      5120   138.25557      158.5          158.5          158.5          0.31844428    -4.4372735      2.3048363      3.08777        138.25557    
      5140   155.64081      158.5          158.5          158.5         -1.5233503      5.2644347     -3.9487598     -5.885726       155.64081    
      5160   138.4447       158.5          158.5          158.5          0.90759109     5.3155012     -3.5939529      1.001225       138.4447     
      5180   153.61116      158.5          158.5          158.5         -5.60243       -8.8191222     -7.5583244     -0.42984329     153.61116    
      5200   146.71047      158.5          158.5          158.5         -1.5914867     -1.5905092     -0.27347774    -2.9104731      146.71047    
      5220   157.43528      158.5          158.5          158.5          0.095609309    2.3387049     -2.4880505      0.43617356     157.43528    
      5240   150.28053      158.5          158.5          158.5         -1.7546519     -0.034313917   -7.7858272      2.5561855      150.28053    
      5260   148.7775       158.5          158.5          158.5          0.99142714    -3.0655629      3.5066234      2.533221       148.7775     
      5280   154.82856      158.5          158.5          158.5         -0.68778289    -4.4903662      1.4766335      0.95038409     154.82856    
      5300   155.09218      158.5          158.5          158.5         -0.77714686     2.0019362     -5.9700927      1.6367159      155.09218    
      5320   138.36995      158.5          158.5          158.5         -1.4689596     -1.1683622     -3.4856088      0.2470923      138.36995    
      5340   155.99875      158.5          158.5          158.5         -0.91104699    -2.5899426     -0.35921875     0.21602043     155.99875    
      5360   139.73146      158.5          158.5          158.5          3.5926329      3.6021479      3.5028211      3.6729297      139.73146    
      5380   154.22272      158.5          158.5          158.5         -1.6556586      0.77337267    -0.34426256    -5.396086       154.22272    
      5400   150.34897      158.5          158.5          158.5          1.3400533      0.49422022     0.91758524     2.6083544      150.34897    
      5420   152.88882      158.5          158.5          158.5          3.5652954     -2.0238117      3.1120901      9.6076078      152.88882    
      5440   136.60656      158.5          158.5          158.5         -1.3540576     -3.4808709     -1.6223996      1.0410977      136.60656    
      5460   172.61603      158.5          158.5          158.5          1.6625337      5.8872299     -1.3341293      0.43450057     172.61603    
      5480   147.70334      158.5          158.5          158.5         -0.33909724     1.5282376     -1.6205632     -0.92496618     147.70334    
      5500   160.61025      158.5          158.5          158.5         -1.4489607     -7.5616688      1.2634534      1.9513334      160.61025    
      5520   158.14005      158.5          158.5          158.5          2.8970947      0.95911441     1.7695608      5.9626088      158.14005    
      5540   155.59958      158.5          158.5          158.5          0.25946605     2.7440197      1.5482713     -3.5138929      155.59958    
      5560   161.17724      158.5          158.5          158.5          0.28950694     1.649381       1.652551      -2.4334112      161.17724    
      5580   167.80207      158.5          158.5          158.5          2.9061836      0.83707912    -2.4175087      10.29898       167.80207    
      5600   152.78846      158.5          158.5          158.5         -2.1457116     -3.4535803     -2.091662      -0.89189244     152.78846    
      5620   156.6812       158.5          158.5          158.5         -0.31711286     4.0008597     -0.40880689    -4.5433914      156.6812     
      5640   162.15875      158.5          158.5          158.5          4.7439335      7.3209658     -0.12499095     7.0358256      162.15875    
      5660   152.71344      158.5          158.5          158.5         -3.7701431     -5.0690193     -2.1990362     -4.0423738      152.71344    
      5680   157.43702      158.5          158.5          158.5          2.905005       6.56228        3.9489217     -1.7961867      157.43702    
      5700   132.68869      158.5          158.5          158.5          1.2197104      2.6433566     -0.38645182     1.4022265      132.68869    
      5720   148.70033      158.5          158.5          158.5         -6.3233691     -9.0283149     -4.3333556     -5.608437       148.70033    
      5740   140.89121      158.5          158.5          158.5          2.6194704      4.6489707      1.6268675      1.5825731      140.89121    
      5760   139.10317      158.5          158.5          158.5         -2.5114097     -0.3599493     -6.70432       -0.46995986     139.10317    
      5780   131.48278      158.5          158.5          158.5          2.4379566      1.5092849      3.4418017      2.3627833      131.48278    
      5800   152.51324      158.5          158.5          158.5          2.1092767      0.02774253     4.5188838      1.7812038      152.51324    
      5820   133.47462      158.5          158.5          158.5         -4.1671682     -5.5471997     -5.0674372     -1.8868677      133.47462    
      5840   149.97459      158.5          158.5          158.5          1.5692324     -0.28808334     1.4372646      3.5585158      149.97459    
      5860   138.2592       158.5          158.5          158.5          0.18390719     1.9754842     -0.51092873    -0.91283389     138.2592     
      5880   147.7443       158.5          158.5          158.5         -1.1042988      0.73927142    -0.26785488    -3.7843129      147.7443     
      5900   139.36487      158.5          158.5          158.5          1.7021737      6.6539565     -1.8218367      0.27440129     139.36487    
      5920   153.66999      158.5          158.5          158.5         -1.4264472     -0.59831863    -2.2336212     -1.4474018      153.66999    
      5940   132.1981       158.5          158.5          158.5         -0.95785707    -4.5847303      3.0077858     -1.2966267      132.1981     
      5960   154.91846      158.5          158.5          158.5          1.8968405      2.8436612     -1.5136754      4.3605358      154.91846    
      5980   145.49876      158.5          158.5          158.5         -1.8711838      2.3520999     -5.9456451     -2.0200062      145.49876    
      6000   159.26929      158.5          158.5          158.5          0.35002739    -0.18215988     2.6748373     -1.4425953      159.26929    
      6020   155.21656      158.5          158.5          158.5          2.5791774      1.6508166      4.6818372      1.4048782      155.21656    
      6040   157.09027      158.5          158.5          158.5         -0.69125337     0.45739028    -2.3949836     -0.13616682     157.09027    
      6060   162.65819      158.5          158.5          158.5          1.6177699      3.1775794      1.5911697      0.084560607    162.65819    
      6080   160.06745      158.5          158.5          158.5          1.2810147      0.67037575     1.9802843      1.1923842      160.06745    
      6100   145.98149      158.5          158.5          158.5         -0.84416757    -2.2056385     -0.48403882     0.15717466     145.98149    
      6120   154.93669      158.5          158.5          158.5         -0.40157377    -4.2269065      1.7821473      1.2400379      154.93669    
      6140   142.05871      158.5          158.5          158.5         -2.5264097     -0.077988134   -5.0330644     -2.4681765      142.05871    
      6160   163.54523      158.5          158.5          158.5          0.45931049     1.6895343      1.679579      -1.9911819      163.54523    
      6180   167.0132       158.5          158.5          158.5         -1.0169234     -3.9686691      0.17607301     0.74182575     167.0132     
      6200   151.86729      158.5          158.5          158.5         -1.1523631      0.47313983    -3.5898197     -0.34040948     151.86729    
      6220   166.82218      158.5          158.5          158.5         -0.22150335     2.6500132     -2.110879      -1.2036443      166.82218    
      6240   148.36042      158.5          158.5          158.5         -1.9302105     -1.2247467     -1.5198598     -3.046025       148.36042    
      6260   165.05675      158.5          158.5          158.5          5.6893221      3.4054211      6.1930519      7.4694933      165.05675    
      6280   158.52241      158.5          158.5          158.5          1.1595681      1.7353681      0.10154763     1.6417884      158.52241    
      6300   159.71325      158.5          158.5          158.5          3.3091937      8.26085        2.8441819     -1.1774509      159.71325    
      6320   134.50864      158.5          158.5          158.5          3.245339       5.3715339      4.2900995      0.074383446    134.50864    
      6340   145.5609       158.5          158.5          158.5         -4.5680408     -7.257168      -3.5585611     -2.8883933      145.5609     
      6360   130.10378      158.5          158.5          158.5          2.2921126      1.048387       2.3268425      3.5011083      130.10378    
      6380   132.76299      158.5          158.5          158.5         -0.14950512     0.19094415    -0.98500178     0.34554226     132.76299    
      6400   124.72394      158.5          158.5          158.5         -0.79669094     1.0827156     -2.0389579     -1.4338305      124.72394    
      6420   132.46108      158.5          158.5          158.5          4.8247307      3.1785908      5.4571178      5.8384836      132.46108    
      6440   136.30443      158.5          158.5          158.5         -3.8884048     -7.558021      -3.9121513     -0.19504208     136.30443    
      6460   131.81879      158.5          158.5          158.5         -1.1875335      1.6270541     -3.904359      -1.2852957      131.81879    
      6480   121.99616      158.5          158.5          158.5          1.4578665      2.940971      -0.2408588      1.6734872      121.99616    
      6500   134.7514       158.5          158.5          158.5         -5.7289513     -9.5551133     -1.08405       -6.5476905      134.7514     
      6520   126.93781      158.5          158.5          158.5         -0.85017442    -4.2548829      1.8503987     -0.14603901     126.93781    
      6540   144.04836      158.5          158.5          158.5         -1.1092433     -0.29636987    -3.871876       0.84051592     144.04836    
      6560   136.28009      158.5          158.5          158.5         -2.7933895     -3.4916936     -2.0123978     -2.8760771      136.28009    
      6580   133.27263      158.5          158.5          158.5          2.107209      -1.4885347      5.65216        2.1580018      133.27263    
      6600   149.90035      158.5          158.5          158.5         -1.4962805      0.71876159    -3.2649912     -1.9426118      149.90035    
      6620   144.06902      158.5          158.5          158.5          0.82664243     6.0012787     -2.6366385     -0.8847129      144.06902    
      6640   139.03832      158.5          158.5          158.5          0.80470995     2.5462711     -2.5867181      2.4545768      139.03832    
      6660   143.51013      158.5          158.5          158.5         -0.55159673    -0.73360564    -1.4239147      0.50273012     143.51013    
      6680   158.47953      158.5          158.5          158.5          0.50415215    -0.15773531     1.3541106      0.31608119     158.47953    
      6700   150.36352      158.5          158.5          158.5          1.8302665      6.2772522     -1.3821112      0.59565861     150.36352    
      6720   148.86933      158.5          158.5          158.5          5.6456678      12.193306      1.2142141      3.5294832      148.86933    
      6740   155.09238      158.5          158.5          158.5         -1.9608477     -4.3612754      0.38003753    -1.9013051      155.09238    
      6760   165.10736      158.5          158.5          158.5          0.76241941    -1.7417812      1.6451854      2.3838541      165.10736    
      6780   155.82422      158.5          158.5          158.5          2.5365887      5.2978894     -1.3467277      3.6586043      155.82422    
      6800   154.15844      158.5          158.5          158.5         -3.6070145     -2.9368115     -2.351387      -5.5328451      154.15844    
      6820   146.78351      158.5          158.5          158.5          2.3810778      2.9750311      4.0915933      0.076608972    146.78351    
      6840   146.48837      158.5          158.5          158.5          2.0618993     -0.025928493    3.2271812      2.9844453      146.48837    
      6860   157.04079      158.5          158.5          158.5         -2.0144743     -4.4607111     -1.257388      -0.32532374     157.04079    
      6880   169.00382      158.5          158.5          158.5          0.91875336     1.8730065     -0.89316172     1.7764153      169.00382    
      6900   159.79797      158.5          158.5          158.5         -0.91413026    -0.72984922     0.81222597    -2.8247675      159.79797    
      6920   150.10052      158.5          158.5          158.5         -4.573638      -8.9602038      1.9824688     -6.7431791      150.10052    
      6940   163.82397      158.5          158.5          158.5          2.6732038      0.54043401     4.7098372      2.7693403      163.82397    
      6960   157.03917      158.5          158.5          158.5         -4.2897571     -3.9061061     -6.6928019     -2.2703633      157.03917    
      6980   156.58602      158.5          158.5          158.5         -2.6602021     -3.0849391     -2.476002      -2.4196653      156.58602    
      7000   147.79699      158.5          158.5          158.5          2.8931922     -3.7904406      8.0495482      4.4204691      147.79699    
      7020   146.18502      158.5          158.5          158.5         -6.685324      -12.554268     -9.532279       2.0305751      146.18502    
      7040   151.63896      158.5          158.5          158.5          1.1884063      3.139934      -0.57738578     1.0026706      151.63896    
      7060   122.40267      158.5          158.5          158.5          1.9160101      0.82848454     4.6890973      0.23044831     122.40267    
      7080   149.79177      158.5          158.5          158.5         -2.1659055     -9.7264379     -0.37347474     3.6021963      149.79177    
      7100   112.39347      158.5          158.5          158.5          4.9633962      5.0447181      2.8438326      7.0016378      112.39347    
      7120   132.57213      158.5          158.5          158.5         -0.18806191     3.7515244     -3.6309087     -0.68480145     132.57213    
      7140   132.73967      158.5          158.5          158.5         -0.98317466    -3.8519297      2.8503398     -1.9479341      132.73967    
      7160   121.3163       158.5          158.5          158.5          2.838718       1.6910715      1.6586225      5.1664598      121.3163     
      7180   132.01969      158.5          158.5          158.5         -1.4122708      3.173356      -7.2457248     -0.16444365     132.01969    
      7200   145.02453      158.5          158.5          158.5         -0.56172109     2.9694383      1.1150914     -5.7696929      145.02453    
      7220   133.78558      158.5          158.5          158.5         -0.20563365     1.0035604     -1.180853      -0.4396083      133.78558    
      7240   142.44806      158.5          158.5          158.5         -0.66322143     0.42608235    -3.6401         1.2243533      142.44806    
      7260   145.07407      158.5          158.5          158.5          1.3631664      1.7973473      0.84793228     1.4442195      145.07407    
      7280   149.5082       158.5          158.5          158.5          1.622244       5.6468325     -0.48079545    -0.29930512     149.5082     
      7300   156.38141      158.5          158.5          158.5          1.0810995      2.3730938      2.4949863     -1.6247817      156.38141    
      7320   152.9356       158.5          158.5          158.5         -0.12962057    -3.4343282      1.304619       1.7408475      152.9356     
      7340   154.37399      158.5          158.5          158.5          1.0365438      3.0592811      2.2326399     -2.1822896      154.37399    
      7360   158.42563      158.5          158.5          158.5         -1.3769456      0.53536173    -0.58950557    -4.0766929      158.42563    
      7380   174.8268       158.5          158.5          158.5         -2.1994234     -4.192865      -2.0763135     -0.32909157     174.8268     
      7400   159.8372       158.5          158.5          158.5         -1.4351286     -5.101357       1.6510486     -0.85507746     159.8372     
      7420   149.5146       158.5          158.5          158.5         -1.7992187     -1.9186046     -0.53838124    -2.9406703      149.5146     
      7440   154.43499      158.5          158.5          158.5         -0.64198197    -0.77153655    -0.14120967    -1.0131997      154.43499    
      7460   147.7744       158.5          158.5          158.5          3.2724459      1.5465672      3.5577708      4.7129997      147.7744     
      7480   151.93597      158.5          158.5          158.5         -0.39017529    -4.7129931      1.3402268      2.2022405      151.93597    
      7500   154.6819       158.5          158.5          158.5          1.003588       2.6756287      0.35015446    -0.015019188    154.6819     
      7520   150.15384      158.5          158.5          158.5          0.82240134     4.2504716      1.160993      -2.9442606      150.15384    
      7540   152.75667      158.5          158.5          158.5          0.29026171     1.4395941      0.48084129    -1.0496503      152.75667    
      7560   150.32522      158.5          158.5          158.5          1.3205314      3.6543074     -0.84163305     1.1489198      150.32522    
      7580   168.41262      158.5          158.5          158.5          1.2344962      4.0518088     -1.2704796      0.92215935     168.41262    
      7600   132.87588      158.5          158.5          158.5          0.78388011     1.3138486     -2.8520493      3.889841       132.87588    
      7620   148.87482      158.5          158.5          158.5          0.015320755   -1.5613789      0.6721948      0.93514635     148.87482    
      7640   138.24734      158.5          158.5          158.5          0.23828783    -2.480824       2.8997715      0.29591601     138.24734    
      7660   141.77942      158.5          158.5          158.5         -0.98838069    -2.2506692     -1.193352       0.47887913     141.77942    
      7680   133.43841      158.5          158.5          158.5         -0.0042425587   3.084594      -2.4158761     -0.68144553     133.43841    
      7700   136.60416      158.5          158.5          158.5          4.4242497      4.9173347      3.6727458      4.6826685      136.60416    
      7720   135.32752      158.5          158.5          158.5         -0.13835429    -1.0487034      3.742497      -3.1088564      135.32752    
      7740   139.90764      158.5          158.5          158.5          2.1831343      6.4549379     -0.37975928     0.47422432     139.90764    
      7760   122.24288      158.5          158.5          158.5          3.1797234      5.9356066     -1.0720377      4.6756014      122.24288    
      7780   118.64531      158.5          158.5          158.5         -0.41802845    -3.9701837      1.5493055      1.1667929      118.64531    
      7800   129.89425      158.5          158.5          158.5         -0.32335089     1.1846097     -0.57771692    -1.5769454      129.89425    
      7820   135.82043      158.5          158.5          158.5         -3.4736032     -0.10055815    -7.6459758     -2.6742756      135.82043    
      7840   135.07299      158.5          158.5          158.5         -1.1215528     -4.170791      -2.5862071      3.3923397      135.07299    
      7860   110.13059      158.5          158.5          158.5         -0.98389496    -4.3510438     -1.1203755      2.5197344      110.13059    
      7880   133.38954      158.5          158.5          158.5          1.6432904      3.6139842      0.29873759     1.0171493      133.38954    
      7900   126.59772      158.5          158.5          158.5         -1.5094153     -0.50028683    -3.4472936     -0.58066544     126.59772    
      7920   128.69515      158.5          158.5          158.5         -0.050512513   -2.1103812      0.42362762     1.5352161      128.69515    
      7940   119.20006      158.5          158.5          158.5          2.3731342      3.2638326      1.4569393      2.3986308      119.20006    
      7960   133.16949      158.5          158.5          158.5         -7.1137301     -6.6132638     -6.9977216     -7.7302049      133.16949    
      7980   126.18765      158.5          158.5          158.5          2.4028771      1.5442063      4.0221127      1.6423122      126.18765    
      8000   135.80014      158.5          158.5          158.5         -0.22327097    -4.2837083     -0.55330733     4.1672027      135.80014    
      8020   129.33385      158.5          158.5          158.5         -4.1651918     -9.0252989     -5.0615612      1.5912848      129.33385    
      8040   145.11843      158.5          158.5          158.5          5.3176803      7.1710226      6.3100055      2.4720127      145.11843    
      8060   139.70253      158.5          158.5          158.5         -4.2848519     -4.3435874     -2.6424479     -5.8685204      139.70253    
      8080   151.80124      158.5          158.5          158.5          0.57296656    -4.341323       1.0561198      5.0041029      151.80124    
      8100   160.00017      158.5          158.5          158.5         -0.48045332    -3.7584606     -0.39747821     2.7145789      160.00017    
      8120   148.29501      158.5          158.5          158.5         -3.2204823     -2.8614788     -3.4651479     -3.3348202      148.29501    
      8140   154.11483      158.5          158.5          158.5          3.4072517      4.7322398      2.7269022      2.7626131      154.11483    
      8160   148.90632      158.5          158.5          158.5         -2.465663      -3.3998082     -4.9172709      0.92009003     148.90632    
      8180   171.4369       158.5          158.5          158.5          3.7790137      0.49879181     4.1429877      6.6952615      171.4369     
      8200   156.50179      158.5          158.5          158.5         -0.48284581     0.35394208     1.6663235     -3.468803       156.50179    
      8220   172.25773      158.5          158.5          158.5          2.0999292      7.985607      -0.16386388    -1.5219556      172.25773    
      8240   169.70487      158.5          158.5          158.5          1.6400105      0.69752751     2.3525429      1.8699611      169.70487    
      8260   174.71824      158.5          158.5          158.5         -2.5387457     -3.3295959     -2.5509344     -1.7357069      174.71824    
      8280   156.56495      158.5          158.5          158.5          4.478668       8.6140406      3.6111004      1.210863       156.56495    
      8300   177.88233      158.5          158.5          158.5         -0.042464356   -2.1483422      2.2754752     -0.25452606     177.88233    
      8320   161.46199      158.5          158.5          158.5          0.57152502    -2.1145244     -0.42809027     4.2571897      161.46199    
      8340   161.47491      158.5          158.5          158.5          0.1933573      2.3901718      0.02839133    -1.8384912      161.47491    
      8360   150.98644      158.5          158.5          158.5         -1.0202239      1.1244234      0.15301586    -4.338111       150.98644    
      8380   167.53459      158.5          158.5          158.5          0.38059005     0.22082544    -1.8395894      2.7605341      167.53459    
      8400   160.95593      158.5          158.5          158.5         -3.7242812     -4.4484184     -4.6907122     -2.0337129      160.95593    
      8420   162.84632      158.5          158.5          158.5          1.2085633      1.7224157      1.7003035      0.20297054     162.84632    
      8440   146.5258       158.5          158.5          158.5          0.008570153   -1.3594855      2.596785      -1.2115891      146.5258     
      8460   132.69415      158.5          158.5          158.5          4.5474332      4.1203615      4.198845       5.3230932      132.69415    
      8480   149.93676      158.5          158.5          158.5          2.0307377      9.8415342     -3.1368664     -0.61245459     149.93676    
      8500   131.27773      158.5          158.5          158.5          0.18688134     0.25297576    -0.99884748     1.3065157      131.27773    
      8520   140.60287      158.5          158.5          158.5          3.6310457     -2.4553122      7.8016388      5.5468104      140.60287    
      8540   142.96832      158.5          158.5          158.5         -2.6676898     -1.76276       -0.77330969    -5.4669996      142.96832    
      8560   148.67514      158.5          158.5          158.5          1.8330379      5.0678293     -0.41614723     0.84743151     148.67514    
      8580   144.24955      158.5          158.5          158.5         -1.4099239     -3.8457052     -0.69774267     0.31367627     144.24955    
      8600   144.00927      158.5          158.5          158.5          0.65869972    -1.206468       0.5798054      2.6027617      144.00927    
      8620   134.26434      158.5          158.5          158.5          1.0982487      0.86113783     2.2038384      0.2297699      134.26434    
      8640   157.55416      158.5          158.5          158.5         -1.7351369     -1.2841624      0.3492015     -4.2704497      157.55416    
      8660   136.11662      158.5          158.5          158.5          1.4196213      0.46266601     3.4607334      0.33546457     136.11662    
      8680   148.36052      158.5          158.5          158.5         -0.48587105    -0.00067959902  0.92694621    -2.3838798      148.36052    
      8700   156.06174      158.5          158.5          158.5          0.10091083     3.9349273     -1.4331429     -2.1990519      156.06174    
      8720   151.63256      158.5          158.5          158.5          0.4531236      2.8580825      3.8824393     -5.381151       151.63256    
      8740   146.33301      158.5          158.5          158.5         -0.91921175     1.790457       0.3182645     -4.8663568      146.33301    
      8760   156.16057      158.5          158.5          158.5          2.0796268      1.2091211     -1.8911066      6.9208659      156.16057    
      8780   141.20197      158.5          158.5          158.5          0.63424105    -2.9461758      0.95492296     3.893976       141.20197    
      8800   160.41406      158.5          158.5          158.5         -1.7567179      0.51889018    -0.0068907265  -5.7821533      160.41406    
      8820   161.27076      158.5          158.5          158.5         -1.6726633      0.27508046    -2.7804999     -2.5125704      161.27076    
      8840   169.03422      158.5          158.5          158.5         -1.7871735     -4.411811      -3.8088961      2.8591867      169.03422    
      8860   155.3875       158.5          158.5          158.5          0.22942132    -2.890794       0.97535662     2.6037013      155.3875     
      8880   163.52965      158.5          158.5          158.5          1.4210743      0.21692484     2.9154756      1.1308225      163.52965    
      8900   156.81112      158.5          158.5          158.5         -0.45356913    -0.71842888     0.34860228    -0.9908808      156.81112    
      8920   165.99005      158.5          158.5          158.5          4.2371415      0.37073445     5.3446047      6.9960854      165.99005    
      8940   142.9034       158.5          158.5          158.5          1.1783187     -3.9823307      4.5318113      2.9854754      142.9034     
      8960   163.92365      158.5          158.5          158.5         -1.3682547     -3.5669055      1.4600684     -1.997927       163.92365    
      8980   142.44031      158.5          158.5          158.5          2.1782572      1.9301451      4.1545933      0.45003326     142.44031    
      9000   150.0344       158.5          158.5          158.5         -2.3259117     -4.0055624     -1.651358      -1.3208147      150.0344     
      9020   148.30336      158.5          158.5          158.5         -2.005347      -6.0533987     -2.7554609      2.7928185      148.30336    
      9040   132.426        158.5          158.5          158.5          1.2607372     -0.63531558     4.8236304     -0.40610321     132.426      
      9060   134.03314      158.5          158.5          158.5          0.41176669     3.5297645     -0.32399036    -1.970474       134.03314    
      9080   113.81453      158.5          158.5          158.5          3.7115924      6.5300589      0.28242574     4.3222925      113.81453    
      9100   134.79715      158.5          158.5          158.5          1.0185436     -2.3667614      3.5159913      1.9064009      134.79715    
      9120   138.11936      158.5          158.5          158.5         -1.2991192      1.8369024      0.09577057    -5.8300306      138.11936    
      9140   138.85061      158.5          158.5          158.5         -0.016015598    3.5401875     -0.29496454    -3.2932697      138.85061    
      9160   144.02869      158.5          158.5          158.5         -3.2601739     -5.4484163     -2.6939675     -1.6381381      144.02869    
      9180   137.11755      158.5          158.5          158.5         -0.39098745    -1.4322832     -0.76480257     1.0241234      137.11755    
      9200   119.9678       158.5          158.5          158.5         -0.69724339    -0.19233625    -1.0517682     -0.84762574     119.9678     
      9220   146.06483      158.5          158.5          158.5         -1.6752181      0.0083907021  -0.70471951    -4.3293254      146.06483    
      9240   130.40398      158.5          158.5          158.5          2.6058228      2.9380535      2.8167223      2.0626925      130.40398    
      9260   133.97049      158.5          158.5          158.5         -3.0868969     -6.7112421     -4.7848669      2.2354183      133.97049    
      9280   155.93681      158.5          158.5          158.5         -1.1442609     -2.1066753      1.4468264     -2.7729338      155.93681    
      9300   143.10385      158.5          158.5          158.5         -1.5968951     -1.2657577      4.478705      -8.0036327      143.10385    
      9320   168.87803      158.5          158.5          158.5         -3.0343397     -3.6391795     -2.8877493     -2.5760902      168.87803    
      9340   151.73082      158.5          158.5          158.5          0.62803467    -0.70556968    -0.84061409     3.4302878      151.73082    
      9360   157.85856      158.5          158.5          158.5          1.4351361     -1.075179       4.9389545      0.44163278     157.85856    
      9380   154.66309      158.5          158.5          158.5          3.3785441      0.65847979     5.1903199      4.2868327      154.66309    
      9400   153.93311      158.5          158.5          158.5          1.7727962      5.9544636     -2.4186066      1.7825318      153.93311    
      9420   153.60007      158.5          158.5          158.5         -1.8235888      0.54612184    -1.0792904     -4.9375978      153.60007    
      9440   148.05396      158.5          158.5          158.5         -1.7843359     -1.3523489     -1.5898093     -2.4108495      148.05396    
      9460   157.37033      158.5          158.5          158.5         -0.043252999    1.9759248     -3.8478181      1.7421344      157.37033    
      9480   155.47963      158.5          158.5          158.5          0.11184091     0.32591084     0.13093189    -0.12132001     155.47963    
      9500   156.61444      158.5          158.5          158.5         -1.339784      -3.9412008     -0.4684113      0.39026008     156.61444    
      9520   165.1651       158.5          158.5          158.5         -0.19120761    -2.6023008      0.47673426     1.5519437      165.1651     
      9540   155.97039      158.5          158.5          158.5         -0.44188166     2.4249186     -2.2950088     -1.4555547      155.97039    
      9560   158.41605      158.5          158.5          158.5         -0.47926447     6.305379      -6.7480784     -0.99509396     158.41605    
      9580   146.87987      158.5          158.5          158.5          0.59403593     1.3357465     -1.303044       1.7494053      146.87987    
      9600   152.93163      158.5          158.5          158.5         -1.2754345     -7.5114128      2.2497393      1.4353699      152.93163    
      9620   150.12818      158.5          158.5          158.5          1.5416114      0.4197065      1.8165472      2.3885805      150.12818    
      9640   154.04963      158.5          158.5          158.5          0.055880664    4.5516405     -4.1402457     -0.24375281     154.04963    
      9660   145.21152      158.5          158.5          158.5         -1.0171941     -4.4007161     -0.027846535    1.3769804      145.21152    
      9680   140.47358      158.5          158.5          158.5          0.4318169     -2.6534902      1.1616105      2.7873305      140.47358    
      9700   144.86115      158.5          158.5          158.5         -0.039765969    2.7942798      1.1205572     -4.0341349      144.86115    
      9720   139.6834       158.5          158.5          158.5         -0.52209662     2.2395819     -0.029688827   -3.776183       139.6834     
      9740   146.86136      158.5          158.5          158.5          2.0755199      2.3767513      2.4232963      1.4265121      146.86136    
      9760   133.32299      158.5          158.5          158.5          2.4822252     -0.68775365     4.2949544      3.8394748      133.32299    
      9780   130.8297       158.5          158.5          158.5          1.0417493      3.5974413     -0.91234087     0.44014742     130.8297     
      9800   135.90691      158.5          158.5          158.5          1.4905836      6.4539102     -0.45460324    -1.5275563      135.90691    
      9820   130.3779       158.5          158.5          158.5         -1.8352441     -3.7926384      0.99948793    -2.7125819      130.3779     
      9840   136.2554       158.5          158.5          158.5         -1.488639      -4.2706775     -0.41574342     0.22050385     136.2554     
      9860   127.24056      158.5          158.5          158.5         -0.24419365     1.9037115     -3.8402982      1.2040057      127.24056    
      9880   119.32119      158.5          158.5          158.5         -0.822167       1.0883932     -3.4274882     -0.12740602     119.32119    
      9900   134.72484      158.5          158.5          158.5         -0.22708378    -0.65230516    -1.8182039      1.7892577      134.72484    
      9920   122.0238       158.5          158.5          158.5          0.047815553   -3.087637      -0.35178597     3.5828696      122.0238     
      9940   133.20728      158.5          158.5          158.5         -0.66522165     0.58771481    -2.5937039      0.010324101    133.20728    
      9960   119.99719      158.5          158.5          158.5          0.14315036     4.0876817     -1.3144623     -2.3437683      119.99719    
      9980   135.19702      158.5          158.5          158.5          0.93803577    -1.1053716      2.8260795      1.0933994      135.19702    
     10000   133.75593      158.5          158.5          158.5         -0.17757514    -6.3228224      2.6908946      3.0992024      133.75593    
     10020   143.41124      158.5          158.5          158.5          1.2503028      5.7078205     -1.1493246     -0.80758759     143.41124    
     10040   127.68412      158.5          158.5          158.5          1.7986809      6.3437724     -0.42931479    -0.51841482     127.68412    
     10060   150.96925      158.5          158.5          158.5          0.29019944    -4.5702893      2.9673607      2.4735269      150.96925    
     10080   148.56469      158.5          158.5          158.5          0.68129606     0.7346811     -0.1482173      1.4574244      148.56469    
     10100   142.48002      158.5          158.5          158.5         -1.5874033      0.58636029    -3.2974242     -2.0511459      142.48002    
     10120   134.94505      158.5          158.5          158.5          0.091053625    2.3444244     -1.2662225     -0.80504098     134.94505    
     10140   147.24278      158.5          158.5          158.5         -2.5780014      0.19208431    -7.6395788     -0.28650977     147.24278    
     10160   132.5594       158.5          158.5          158.5         -0.61896271    -0.92246827    -0.73717642    -0.19724344     132.5594     
     10180   136.31703      158.5          158.5          158.5         -1.9042218     -2.5552922     -1.3022469     -1.8551262      136.31703    
     10200   153.57934      158.5          158.5          158.5         -3.2406674     -2.1637675     -7.5116479     -0.046586633    153.57934    
     10220   141.71244      158.5          158.5          158.5          2.8934981      4.4896716      0.15306734     4.0377554      141.71244    
     10240   149.37599      158.5          158.5          158.5         -3.5374046     -4.9306722      1.0205402     -6.702082       149.37599    
     10260   147.71973      158.5          158.5          158.5          3.0206217      1.2733335      5.489417       2.2991146      147.71973    
     10280   150.69064      158.5          158.5          158.5          4.4838289      7.1706532      2.7391215      3.5417119      150.69064    
     10300   140.98663      158.5          158.5          158.5         -3.1540673     -0.85746081    -2.4820983     -6.1226428      140.98663    
     10320   137.44605      158.5          158.5          158.5          4.3400472      3.3254616      6.4967761      3.197904       137.44605    
     10340   146.81228      158.5          158.5          158.5         -0.47645833     3.5335161     -3.3764318     -1.5864593      146.81228    
     10360   151.42937      158.5          158.5          158.5         -2.2738041      1.588593      -4.4252678     -3.9847374      151.42937    
     10380   152.88917      158.5          158.5          158.5          3.7053112      5.8148971      3.3192731      1.9817634      152.88917    
     10400   137.61672      158.5          158.5          158.5         -2.5526338     -3.6687447     -1.3878901     -2.6012667      137.61672    
     10420   136.46944      158.5          158.5          158.5         -0.17252366    -2.0160102      0.30746341     1.1909758      136.46944    
     10440   144.61161      158.5          158.5          158.5          0.1838917      1.4777056     -3.0206545      2.0946239      144.61161    
     10460   119.55097      158.5          158.5          158.5         -2.6490981     -5.4016984     -2.1709927     -0.37460311     119.55097    
     10480   130.34413      158.5          158.5          158.5         -0.036674021   -3.400781       0.13334005     3.1574189      130.34413    
     10500   119.40852      158.5          158.5          158.5          1.7695721      2.3311818      1.8309386      1.1465958      119.40852    
     10520   132.79245      158.5          158.5          158.5         -4.6391328     -2.6585177     -7.1464045     -4.1124761      132.79245    
     10540   130.21334      158.5          158.5          158.5         -0.86470796    -4.773592      -1.2271105      3.4065786      130.21334    
     10560   129.74356      158.5          158.5          158.5          1.169461      -4.2917841      6.7409866      1.0591805      129.74356    
     10580   135.02463      158.5          158.5          158.5         -2.9246877     -2.8308689     -1.5876857     -4.3555084      135.02463    
     10600   139.02275      158.5          158.5          158.5          3.6526279      0.64062907     3.7827873      6.5344673      139.02275    
     10620   136.93228      158.5          158.5          158.5         -1.0383759     -3.6072085      0.41755671     0.074524146    136.93228    
     10640   148.91138      158.5          158.5          158.5         -1.8610967      1.3247638      0.29167663    -7.1997304      148.91138    
     10660   132.28079      158.5          158.5          158.5          4.805859       8.4189678      3.3139706      2.6846385      132.28079    
     10680   147.08079      158.5          158.5          158.5         -2.8879902     -1.7038185     -8.0073929      1.0472409      147.08079    
     10700   138.27385      158.5          158.5          158.5          1.5037208      1.8807235      2.3195848      0.31085419     138.27385    
     10720   155.5631       158.5          158.5          158.5          2.9170797      1.769186       5.6394533      1.3425996      155.5631     
     10740   139.67589      158.5          158.5          158.5         -2.8183372     -2.6855065     -4.3358018     -1.4337034      139.67589    
     10760   143.82204      158.5          158.5          158.5          3.4529314      4.3048671     -0.085887813    6.1398148      143.82204    
     10780   142.68886      158.5          158.5          158.5         -0.030087042    2.0849023     -1.7020618     -0.47310171     142.68886    
     10800   147.5448       158.5          158.5          158.5          0.10890035     1.3765547     -0.86276306    -0.1870906      147.5448     
     10820   128.45265      158.5          158.5          158.5          4.1602381      5.323289       4.1480224      3.0094029      128.45265    
     10840   150.15485      158.5          158.5          158.5         -1.5539572     -0.99809872    -1.9843158     -1.6794572      150.15485    
     10860   140.50081      158.5          158.5          158.5         -3.0510751     -3.1002849     -2.860526      -3.1924144      140.50081    
     10880   152.5433       158.5          158.5          158.5         -0.51798502     0.75115696    -4.0857408      1.7806288      152.5433     
     10900   147.48114      158.5          158.5          158.5         -3.1791165     -2.7879363     -4.8537016     -1.8957114      147.48114    
     10920   144.69831      158.5          158.5          158.5          0.252809       0.5080073      0.67549354    -0.42507383     144.69831    
     10940   156.90393      158.5          158.5          158.5          3.4425397      3.7356148      2.0984321      4.4935721      156.90393    
     10960   150.73782      158.5          158.5          158.5          1.4759214      1.689536       2.2322429      0.50598531     150.73782    
     10980   159.61717      158.5          158.5          158.5          1.03925        0.95187648     2.2808399     -0.11496631     159.61717    
     11000   149.51809      158.5          158.5          158.5         -0.53209296    -1.6536888     -1.4277425      1.4851525      149.51809    
     11020   154.56077      158.5          158.5          158.5         -4.7563402     -6.5830507     -2.2761964     -5.4097735      154.56077    
     11040   139.43693      158.5          158.5          158.5         -0.44905402    -1.0808713      3.343702      -3.6099928      139.43693    
     11060   140.30216      158.5          158.5          158.5         -0.31667876    -1.2137676      0.70128116    -0.43754987     140.30216    
     11080   165.93886      158.5          158.5          158.5         -1.0255509     -2.9391527     -1.0522725      0.9147726      165.93886    
     11100   156.78354      158.5          158.5          158.5          0.59451335     1.8507291     -0.15425334     0.087064303    156.78354    
     11120   154.47188      158.5          158.5          158.5         -0.66127223    -2.2607046      3.0822764     -2.8053884      154.47188    
     11140   154.01357      158.5          158.5          158.5         -0.13615156    -4.9216038      2.2241892      2.2889599      154.01357    
     11160   153.63523      158.5          158.5          158.5         -1.9931804     -1.3253441     -3.3899128     -1.2642844      153.63523    
     11180   168.92278      158.5          158.5          158.5         -0.038720498    4.5355346     -0.60294029    -4.0487558      168.92278    
     11200   150.04723      158.5          158.5          158.5          2.7648417      5.7802744      2.4997665      0.01448422     150.04723    
     11220   155.09948      158.5          158.5          158.5          1.8981478     -0.0079177343   2.111563       3.5907981      155.09948    
     11240   159.90023      158.5          158.5          158.5          7.4678027      6.8256264      9.7390647      5.8387169      159.90023    
     11260   148.59056      158.5          158.5          158.5          1.4325226      6.3878888     -0.49805716    -1.5922637      148.59056    
     11280   163.5281       158.5          158.5          158.5         -2.6469683      0.58553113    -6.5322299     -1.9942061      163.5281     
     11300   144.03424      158.5          158.5          158.5          1.2940833      1.5571979      0.13001849     2.1950336      144.03424    
     11320   129.80036      158.5          158.5          158.5         -6.628432      -9.73575       -8.0357382     -2.1138077      129.80036    
     11340   151.79543      158.5          158.5          158.5         -0.66340937     1.0918682     -4.7379015      1.6558052      151.79543    
     11360   150.82654      158.5          158.5          158.5          2.0994191      3.8546246      1.9845878      0.45904501     150.82654    
     11380   153.94277      158.5          158.5          158.5         -0.64400125    -0.72753279    -0.5138677     -0.69060327     153.94277    
     11400   144.74004      158.5          158.5          158.5          2.8036796      4.644061       1.4367859      2.3301918      144.74004    
     11420   131.08828      158.5          158.5          158.5          1.4157185      0.33010703     0.11846644     3.798582       131.08828    
     11440   140.25662      158.5          158.5          158.5         -1.8927721     -3.3499521     -4.0822694      1.7539052      140.25662    
     11460   147.54553      158.5          158.5          158.5         -1.7701855      0.59886869    -1.7959164     -4.1135088      147.54553    
     11480   132.9474       158.5          158.5          158.5         -0.56184173    -1.0131576     -1.2179037      0.54553618     132.9474     
     11500   139.75042      158.5          158.5          158.5         -2.0328598     -1.5565691     -4.3319563     -0.21005387     139.75042    
     11520   137.92361      158.5          158.5          158.5          0.16216863     4.3044545     -0.55034467    -3.267604       137.92361    
     11540   142.47461      158.5          158.5          158.5          1.3909279      1.192487       2.2721696      0.70812721     142.47461    
     11560   140.45512      158.5          158.5          158.5         -4.2111788     -6.3614364     -2.4760477     -3.7960522      140.45512    
     11580   138.35919      158.5          158.5          158.5          0.47497398    -1.508729       3.4902197     -0.5565688      138.35919    
     11600   113.54971      158.5          158.5          158.5          1.3681947     -1.9932426      2.668996       3.4288306      113.54971    
     11620   130.2195       158.5          158.5          158.5         -3.5476757     -1.297577      -4.9031592     -4.4422909      130.2195     
     11640   143.0732       158.5          158.5          158.5          4.0739753      6.1838615      5.3515989      0.68646542     143.0732     
     11660   136.52397      158.5          158.5          158.5         -2.5698669     -7.9609149      0.46065519    -0.20934117     136.52397    
     11680   137.0031       158.5          158.5          158.5         -1.8982616     -7.2717822      1.2825287      0.2944687      137.0031     
     11700   115.95553      158.5          158.5          158.5          2.3298443      0.69855386     3.3385922      2.9523869      115.95553    
     11720   124.53844      158.5          158.5          158.5         -1.2974104     -3.3034521     -0.07372667    -0.51505242     124.53844    
     11740   125.12579      158.5          158.5          158.5          1.3323094      2.1242122      1.1284874      0.74422847     125.12579    
     11760   119.44373      158.5          158.5          158.5          2.9406017      6.3768119      0.64989181     1.7951014      119.44373    
     11780   114.07319      158.5          158.5          158.5         -0.15506929     2.7114107     -1.6096361     -1.5669825      114.07319    
     11800   116.74298      158.5          158.5          158.5          0.0084255949   0.43289165    -2.2103771      1.8027622      116.74298    
     11820   123.51574      158.5          158.5          158.5          0.097889224   -4.2053337      3.4638607      1.0351406      123.51574    
     11840   130.25693      158.5          158.5          158.5         -1.8737972     -3.5071278      0.29183202    -2.4060956      130.25693    
     11860   120.97608      158.5          158.5          158.5         -2.3894689     -2.1162115     -3.7071297     -1.3450655      120.97608    
     11880   127.08004      158.5          158.5          158.5         -3.5104522     -6.7412717     -2.8490809     -0.94100407     127.08004    
     11900   114.73922      158.5          158.5          158.5         -3.23512       -1.2685405     -5.9843021     -2.4525174      114.73922    
     11920   132.43501      158.5          158.5          158.5         -4.1657173     -0.49858446    -8.7454868     -3.2530806      132.43501    
     11940   124.69443      158.5          158.5          158.5         -1.5044599     -0.73408042    -0.28221937    -3.4970799      124.69443    
     11960   122.42666      158.5          158.5          158.5          3.6670558      0.28446955     4.7329112      5.9837866      122.42666    
     11980   149.63542      158.5          158.5          158.5         -1.2717077     -4.7342074     -1.3008651      2.2199496      149.63542    
     12000   137.02391      158.5          158.5          158.5         -0.080142622    2.5585529     -1.043666      -1.7553147      137.02391    
     12020   114.15683      158.5          158.5          158.5          4.3757129      4.5895392      4.0831553      4.4544441      114.15683    
     12040   126.29798      158.5          158.5          158.5         -3.0521941     -5.7482069     -6.2267897      2.8184144      126.29798    
     12060   131.05607      158.5          158.5          158.5          3.3722661      7.1458806      3.2391774     -0.26825964     131.05607    
     12080   135.73844      158.5          158.5          158.5          2.8340266      7.750658       4.4394953     -3.6880735      135.73844    
     12100   129.55021      158.5          158.5          158.5         -1.5427977     -4.5544519     -1.5609238      1.4869825      129.55021    
     12120   132.70673      158.5          158.5          158.5          6.6848991      5.1688087      10.330025      4.5558639      132.70673    
     12140   136.29923      158.5          158.5          158.5         -0.4035129      0.77291512     0.62464812    -2.6081019      136.29923    
     12160   134.33813      158.5          158.5          158.5          0.29057352     0.047740111    0.428373       0.39560745     134.33813    
     12180   148.66203      158.5          158.5          158.5          2.3821148      1.2216972      8.0420646     -2.1174173      148.66203    
     12200   128.37728      158.5          158.5          158.5         -4.8180986     -7.3440195     -1.2340859     -5.8761903      128.37728    
     12220   130.86332      158.5          158.5          158.5          1.2285078     -0.45541474     0.18989012     3.951048       130.86332    
     12240   130.7351       158.5          158.5          158.5          0.44042359     3.7855315     -1.8609273     -0.60333338     130.7351     
     12260   143.17602      158.5          158.5          158.5         -1.5132293      0.96933391     2.5481669     -8.0571887      143.17602    
     12280   129.76484      158.5          158.5          158.5          2.6517741      2.4426493      1.3410019      4.1716711      129.76484    
     12300   132.05464      158.5          158.5          158.5          1.3446926      3.2389299     -3.2268724      4.0220204      132.05464    
     12320   141.47022      158.5          158.5          158.5         -0.47737914     2.8992917      0.50621171    -4.8376409      141.47022    
     12340   137.82478      158.5          158.5          158.5          0.88024618     1.7384498      2.002656      -1.1003673      137.82478    
     12360   132.38942      158.5          158.5          158.5          2.624977      -0.28718555     1.8012083      6.3609083      132.38942    
     12380   148.31031      158.5          158.5          158.5         -0.28799198    -1.2034095     -2.3693998      2.7088334      148.31031    
     12400   133.36202      158.5          158.5          158.5          0.19508287     3.9466409     -1.4089886     -1.9524036      133.36202    
     12420   133.65124      158.5          158.5          158.5          1.0035289     -1.0516652      3.6754562      0.38679562     133.65124    
     12440   142.90759      158.5          158.5          158.5         -2.0940194     -1.3804281     -3.9256596     -0.97597057     142.90759    
     12460   151.94796      158.5          158.5          158.5         -1.4261954      2.9816759     -7.3231522      0.062890054    151.94796    
     12480   152.4285       158.5          158.5          158.5          1.9668905      2.9195595      2.1537347      0.82737715     152.4285     
     12500   153.81004      158.5          158.5          158.5         -0.20637611    -1.7483024     -0.023346886    1.152521       153.81004    
     12520   126.4909       158.5          158.5          158.5          0.14475609     0.27750312    -0.79082908     0.94759424     126.4909     
     12540   140.23547      158.5          158.5          158.5          2.2164032      4.4515326      0.89674429     1.3009327      140.23547    
     12560   131.01774      158.5          158.5          158.5         -4.3685926     -6.2912444     -4.2570232     -2.55751        131.01774    
     12580   132.43535      158.5          158.5          158.5          3.4536658     -2.00026        6.7956705      5.5655869      132.43535    
     12600   126.13166      158.5          158.5          158.5          0.39158414     0.89916074    -0.75279239     1.0283841      126.13166    
     12620   132.6934       158.5          158.5          158.5         -4.5511827     -0.756105      -7.7456784     -5.1517645      132.6934     
     12640   126.04324      158.5          158.5          158.5          5.5612587      5.3355818      6.8094726      4.5387217      126.04324    
     12660   110.22011      158.5          158.5          158.5         -0.80734523    -2.8169189     -2.8896953      3.2845785      110.22011    
     12680   137.74834      158.5          158.5          158.5         -3.1137374     -3.4755207     -3.4412786     -2.4244128      137.74834    
     12700   122.06916      158.5          158.5          158.5          5.2658957      6.7670487      10.24159      -1.2109518      122.06916    
     12720   126.19209      158.5          158.5          158.5         -0.89159149    -1.0573178      0.81114106    -2.4285977      126.19209    
     12740   116.06975      158.5          158.5          158.5         -1.4604062     -3.211972      -2.57352        1.4042732      116.06975    
     12760   121.78104      158.5          158.5          158.5          2.3430959      2.2201707      1.889568       2.9195489      121.78104    
     12780   126.9426       158.5          158.5          158.5         -4.987289      -6.8220852     -5.5064497     -2.6333321      126.9426     
     12800   113.68594      158.5          158.5          158.5         -0.15784069    -0.13010035     0.75058858    -1.0940103      113.68594    
     12820   137.68968      158.5          158.5          158.5          0.45261087     3.5259333      3.9273115     -6.0954122      137.68968    
     12840   124.57823      158.5          158.5          158.5         -2.298953      -2.9691951     -0.92706025    -3.0006036      124.57823    
     12860   118.09957      158.5          158.5          158.5          4.9587963      5.4023466      6.7195724      2.7544698      118.09957    
     12880   131.40521      158.5          158.5          158.5          1.4526922      3.7524092      0.78084771    -0.17518034     131.40521    
     12900   132.89547      158.5          158.5          158.5         -0.99136003    -5.4292698     -2.5125887      4.9677785      132.89547    
     12920   105.5849       158.5          158.5          158.5          2.0428786     -0.0024333974   2.7442321      3.3868371      105.5849     
     12940   137.55519      158.5          158.5          158.5         -3.1206845     -1.7042165     -0.93095686    -6.72688        137.55519    
     12960   133.3161       158.5          158.5          158.5         -2.5178812     -3.7445479     -3.2953921     -0.51370353     133.3161     
     12980   136.40455      158.5          158.5          158.5         -4.3531404     -4.563719      -9.1867146      0.69101245     136.40455    
     13000   114.84792      158.5          158.5          158.5          0.030079737    0.027192298   -0.30835505     0.37140196     114.84792    
     13020   150.38414      158.5          158.5          158.5          0.52519372     1.5365613      0.42283151    -0.38381169     150.38414    
     13040   143.40966      158.5          158.5          158.5         -1.7478614     -2.0930694     -0.94493454    -2.2055801      143.40966    
     13060   143.26796      158.5          158.5          158.5          5.0602922      4.5386566      3.7551075      6.8871124      143.26796    
     13080   152.47274      158.5          158.5          158.5         -3.7433697     -4.1439803     -3.8670249     -3.2191039      152.47274    
     13100   145.40857      158.5          158.5          158.5          1.4355142      3.0205012     -0.34059188     1.6266331      145.40857    
     13120   142.45649      158.5          158.5          158.5          4.7120892      7.8187289      2.7143606      3.6031783      142.45649    
     13140   139.98487      158.5          158.5          158.5         -7.5993006     -8.6321755     -11.353609     -2.8121171      139.98487    
     13160   153.77273      158.5          158.5          158.5          5.9209444      3.024952       4.8135857      9.9242955      153.77273    
     13180   126.80781      158.5          158.5          158.5          1.0361173      0.61204239     2.4052659      0.091043551    126.80781    
     13200   153.31438      158.5          158.5          158.5         -3.6263189     -2.2291841     -4.5705297     -4.0792429      153.31438    
     13220   122.30862      158.5          158.5          158.5          6.3399369      8.2819128      4.4517999      6.2860979      122.30862    
     13240   134.28177      158.5          158.5          158.5         -2.4204561     -3.5084322     -2.1181826     -1.6347536      134.28177    
     13260   116.07541      158.5          158.5          158.5          0.59423864    -1.2009524      3.613513      -0.62984469     116.07541    
     13280   120.26441      158.5          158.5          158.5          2.6708102      5.7072829      5.3528396     -3.047692       120.26441    
     13300   118.29015      158.5          158.5          158.5         -1.8371411     -1.0309246     -4.1480638     -0.33243492     118.29015    
     13320   114.85542      158.5          158.5          158.5          2.6623798      0.040911885    2.1342971      5.8119305      114.85542    
     13340   123.44365      158.5          158.5          158.5         -1.3575119     -3.4642406      2.1895215     -2.7978166      123.44365    
     13360   120.448        158.5          158.5          158.5         -0.5422988      1.2832988     -1.1071012     -1.803094       120.448      
     13380   115.23981      158.5          158.5          158.5         -1.3642847      1.333877      -4.6253387     -0.80139247     115.23981    
     13400   133.96447      158.5          158.5          158.5         -2.342461      -2.314131      -3.2784607     -1.4347912      133.96447    
     13420   109.17413      158.5          158.5          158.5          1.5825089      2.4698536      1.8646496      0.41302349     109.17413    
     13440   125.35969      158.5          158.5          158.5         -3.7518226     -2.6310227     -1.416137      -7.2083081      125.35969    
     13460   112.217        158.5          158.5          158.5          1.5720034      3.8248406     -0.43595425     1.3271238      112.217      
     13480   144.12932      158.5          158.5          158.5          0.5504793      1.0399245     -1.7607317      2.3722451      144.12932    
     13500   124.65447      158.5          158.5          158.5         -3.8216782     -5.0350169     -1.5472654     -4.8827524      124.65447    
     13520   146.03814      158.5          158.5          158.5          5.5802259      6.6744608      6.0993353      3.9668815      146.03814    
     13540   122.8206       158.5          158.5          158.5         -0.96899827     0.71032304    -2.348358      -1.2689598      122.8206     
     13560   152.71845      158.5          158.5          158.5         -1.9875628     -4.0357274     -2.6935305      0.76656973     152.71845    
     13580   129.66242      158.5          158.5          158.5          3.3048523      4.3281833      4.3025159      1.2838578      129.66242    
     13600   142.51044      158.5          158.5          158.5         -3.4343551      0.11309426    -3.6567374     -6.7594221      142.51044    
     13620   128.34573      158.5          158.5          158.5         -0.47526975     0.77512769    -1.5381286     -0.66280834     128.34573    
     13640   111.82161      158.5          158.5          158.5          0.78234052     0.073124305   -1.458321       3.7322183      111.82161    
     13660   148.03714      158.5          158.5          158.5         -2.8545302     -5.3835297     -0.40716057    -2.7729003      148.03714    
     13680   139.51421      158.5          158.5          158.5         -0.58895172    -1.2792474      1.8603218     -2.3479295      139.51421    
     13700   135.38863      158.5          158.5          158.5          1.6387987      0.47524366     1.9586517      2.4825008      135.38863    
     13720   133.31629      158.5          158.5          158.5         -2.0930236     -3.7122211     -4.0050091      1.4381595      133.31629    
     13740   127.43323      158.5          158.5          158.5          1.526905       1.2443914      3.0769603      0.25936322     127.43323    
     13760   132.92767      158.5          158.5          158.5         -0.91295632    -1.2518177      0.7853359     -2.2723872      132.92767    
     13780   128.92787      158.5          158.5          158.5         -2.1674503     -7.083728       0.4360427      0.14533447     128.92787    
     13800   150.10093      158.5          158.5          158.5          1.1429398      0.096820725    4.2046369     -0.87263826     150.10093    
     13820   129.92296      158.5          158.5          158.5         -2.1719507      0.59795726    -1.8751707     -5.2386388      129.92296    
     13840   132.83433      158.5          158.5          158.5          2.7335849     -0.75524816     6.574589       2.381414       132.83433    
     13860   120.14969      158.5          158.5          158.5          2.4705364      0.9893089      6.0606874      0.36161282     120.14969    
     13880   118.00418      158.5          158.5          158.5         -0.96405351     1.4070643     -4.615613       0.31638813     118.00418    
     13900   120.81503      158.5          158.5          158.5          2.7755697      3.3404479      0.55619732     4.430064       120.81503    
     13920   120.87607      158.5          158.5          158.5         -2.3459567     -3.0412237     -0.13112377    -3.8655226      120.87607    
     13940   111.50581      158.5          158.5          158.5          0.49730469     2.501403      -1.5088063      0.49931733     111.50581    
     13960   122.64035      158.5          158.5          158.5          1.3250604      1.7820716     -1.2772063      3.4703159      122.64035    
     13980   108.32537      158.5          158.5          158.5          0.4274791     -2.3795251      2.9138744      0.74808808     108.32537    
     14000   125.13447      158.5          158.5          158.5          1.0997295      0.16842621     1.6185092      1.5122533      125.13447    
     14020   114.3159       158.5          158.5          158.5         -4.1587822     -4.9680771     -3.6116052     -3.8966644      114.3159     
     14040   98.914887      158.5          158.5          158.5         -0.11811147    -1.0513478     -2.4812753      3.1782887      98.914887    
     14060   111.76046      158.5          158.5          158.5         -0.64803386    -0.83818251    -4.5168367      3.4109176      111.76046    
     14080   104.30279      158.5          158.5          158.5         -2.3554025     -3.2197695     -1.2530009     -2.593437       104.30279    
     14100   107.42703      158.5          158.5          158.5          0.81508109     1.3215683      1.7801392     -0.65646419     107.42703    
     14120   104.78955      158.5          158.5          158.5          0.043015212    0.91758146    -3.3664203      2.5778845      104.78955    
     14140   116.47404      158.5          158.5          158.5          0.2551635     -0.70880982    -0.64194163     2.116242       116.47404    
     14160   112.9047       158.5          158.5          158.5          1.6673588      1.953654       2.6506648      0.39775764     112.9047     
     14180   122.66907      158.5          158.5          158.5          1.6137586      0.78745142     1.248749       2.8050753      122.66907    
     14200   120.26686      158.5          158.5          158.5         -1.085119       2.0368589     -1.6287854     -3.6634304      120.26686    
     14220   125.73607      158.5          158.5          158.5         -0.17449612     2.2979986     -2.0066114     -0.81487562     125.73607    
     14240   130.91572      158.5          158.5          158.5         -0.12952723    -3.4268726     -1.507401       4.5456919      130.91572    
     14260   141.53857      158.5          158.5          158.5         -1.9419703     -0.73169632    -0.97802803    -4.1161866      141.53857    
     14280   113.27297      158.5          158.5          158.5          2.347915       3.4658205      1.7555953      1.8223293      113.27297    
     14300   137.09545      158.5          158.5          158.5          2.0783658      1.2251847     -2.3714716      7.3813845      137.09545    
     14320   126.52362      158.5          158.5          158.5          2.2055143      1.5439456      3.237491       1.8351061      126.52362    
     14340   138.54466      158.5          158.5          158.5          3.4438393      4.4343673      5.4382646      0.45888609     138.54466    
     14360   130.26667      158.5          158.5          158.5          0.56393285     1.6817824     -3.2556473      3.2656634      130.26667    
     14380   142.60452      158.5          158.5          158.5          0.80009358     0.52302829    -0.65111441     2.5283669      142.60452    
     14400   126.64157      158.5          158.5          158.5         -0.28397196     1.8667535      2.1915318     -4.9102012      126.64157    
     14420   131.56962      158.5          158.5          158.5         -1.181714       0.7253718      0.51179798    -4.7823119      131.56962    
     14440   134.684        158.5          158.5          158.5         -0.15537397    -2.2093277     -1.1626273      2.9058331      134.684      
     14460   137.90048      158.5          158.5          158.5          0.77477647    -1.2621931      0.014091418    3.5724311      137.90048    
     14480   138.92629      158.5          158.5          158.5         -1.7252175      0.81627286    -0.84984306    -5.1420823      138.92629    
     14500   150.39317      158.5          158.5          158.5         -1.8307488     -0.066521049   -0.40267942    -5.0230459      150.39317    
     14520   127.8181       158.5          158.5          158.5         -0.1588537      0.8311546     -3.9231017      2.615386       127.8181     
     14540   142.69381      158.5          158.5          158.5         -3.9855888     -3.4128439     -7.0786197     -1.4653026      142.69381    
     14560   125.07696      158.5          158.5          158.5         -1.0964031      0.28119346    -0.82156161    -2.748841       125.07696    
     14580   137.78527      158.5          158.5          158.5         -0.350111       1.6105753     -0.46881886    -2.1920894      137.78527    
     14600   119.85976      158.5          158.5          158.5         -2.5522656     -3.5269008     -3.4927588     -0.63713724     119.85976    
     14620   146.70275      158.5          158.5          158.5          2.0246498     -0.97329017     1.2478854      5.799354       146.70275    
     14640   121.31791      158.5          158.5          158.5         -1.3609093     -0.22440578    -3.7233436     -0.13497858     121.31791    
     14660   132.74774      158.5          158.5          158.5         -0.18145424     1.8776966     -0.81792501    -1.6041343      132.74774    
     14680   132.66763      158.5          158.5          158.5          2.3541694      0.12208143     3.2545417      3.685885       132.66763    
     14700   143.76401      158.5          158.5          158.5         -2.3530661     -6.7597623     -0.83936661     0.53993051     143.76401    
     14720   127.57182      158.5          158.5          158.5          3.2051092      4.6163192      2.6310867      2.3679217      127.57182    
     14740   120.11639      158.5          158.5          158.5          2.0215871      5.1819879      0.72985366     0.15291976     120.11639    
     14760   125.86365      158.5          158.5          158.5         -3.1814798     -3.1689172     -3.8765249     -2.4989973      125.86365    
     14780   123.96303      158.5          158.5          158.5          4.8040468      3.2990455      5.4808826      5.6322124      123.96303    
     14800   120.6126       158.5          158.5          158.5          0.6737608      2.2861923      0.83548077    -1.1003907      120.6126     
     14820   121.51026      158.5          158.5          158.5         -0.14368694     3.4395819     -2.2560241     -1.6146187      121.51026    
     14840   104.2026       158.5          158.5          158.5          3.247982       3.3519579      4.4376283      1.9543598      104.2026     
     14860   123.80507      158.5          158.5          158.5         -1.9496037     -4.7947128     -2.1555272      1.101429       123.80507    
     14880   111.9005       158.5          158.5          158.5          0.46912471     3.355365      -3.3453339      1.397343       111.9005     
     14900   130.82787      158.5          158.5          158.5         -2.2038272     -0.034942297   -1.8653439     -4.7111954      130.82787    
     14920   121.39454      158.5          158.5          158.5         -1.595873      -3.5883818     -1.0999126     -0.099324631    121.39454    
     14940   120.92988      158.5          158.5          158.5          0.84616819    -1.056804      -1.1086946      4.7040031      120.92988    
     14960   133.30817      158.5          158.5          158.5         -1.1061354      0.12122843    -2.6753897     -0.76424473     133.30817    
     14980   132.42522      158.5          158.5          158.5          4.8433357      5.5206247      6.0818596      2.9275227      132.42522    
     15000   126.54085      158.5          158.5          158.5         -1.4993735     -2.2002236     -2.392931       0.095034013    126.54085    
     15020   144.92694      158.5          158.5          158.5          1.6386058     -1.246714      -1.0521332      7.2146647      144.92694    
     15040   128.7026       158.5          158.5          158.5          4.0174069      2.4831724      3.9915685      5.5774798      128.7026     
     15060   119.58113      158.5          158.5          158.5         -5.2522116     -4.255394      -1.1660074     -10.335233      119.58113    
     15080   145.20023      158.5          158.5          158.5          2.0705362      5.4458083     -0.31243755     1.0782379      145.20023    
     15100   124.072        158.5          158.5          158.5         -3.9690568     -4.7429787     -6.6674293     -0.4967624      124.072      
     15120   132.03535      158.5          158.5          158.5         -2.0060998     -2.0292358     -2.0990088     -1.8900549      132.03535    
     15140   122.54906      158.5          158.5          158.5          2.3262002      3.495419       3.627498      -0.14431634     122.54906    
     15160   127.01671      158.5          158.5          158.5         -3.1073813     -1.5023385     -5.1305151     -2.6892903      127.01671    
     15180   128.46751      158.5          158.5          158.5          3.2358163      5.3906567      1.0881061      3.228686       128.46751    
     15200   129.40381      158.5          158.5          158.5          3.2650279      4.6399439      4.4606843      0.69445546     129.40381    
     15220   137.76442      158.5          158.5          158.5         -2.5407185      0.27365432    -1.8525433     -6.0432665      137.76442    
     15240   110.46531      158.5          158.5          158.5          0.25522595     4.7774204     -4.0631432      0.051400658    110.46531    
     15260   127.71444      158.5          158.5          158.5          2.6638325      0.76900024    -0.55533163     7.7778289      127.71444    
     15280   120.34743      158.5          158.5          158.5         -2.6594136     -3.839215      -3.3546001     -0.78442577     120.34743    
     15300   105.37044      158.5          158.5          158.5         -1.2121925      1.7297284      1.059844      -6.42615        105.37044    
     15320   117.08822      158.5          158.5          158.5          2.5660474      3.3176033      1.886429       2.49411        117.08822    
     15340   112.75271      158.5          158.5          158.5         -1.9178263     -3.4532556     -4.5058187      2.2055954      112.75271    
     15360   114.90058      158.5          158.5          158.5          1.3442151      0.081976618    2.9611327      0.98953609     114.90058    
     15380   125.3891       158.5          158.5          158.5          3.1970501      4.4019981      4.4408344      0.74831789     125.3891     
     15400   110.36938      158.5          158.5          158.5         -1.9855793      1.8456491     -4.9932685     -2.8091185      110.36938    
     15420   114.57724      158.5          158.5          158.5          1.853946      -1.9690082      5.5121729      2.0186734      114.57724    
     15440   118.95875      158.5          158.5          158.5          0.077354368   -4.6952925      4.9290387     -0.0016830678   118.95875    
     15460   116.3498       158.5          158.5          158.5         -3.8724889      1.1259032     -5.6317606     -7.1116094      116.3498     
     15480   118.34596      158.5          158.5          158.5         -0.052478039    1.0506274      0.50465635    -1.7127178      118.34596    
     15500   125.88393      158.5          158.5          158.5         -2.3740368     -6.7695818      3.7671279     -4.1196566      125.88393    
     15520   130.42234      158.5          158.5          158.5         -3.4101385     -5.8512277      1.007327      -5.3865149      130.42234    
     15540   115.01547      158.5          158.5          158.5          1.9725512      0.72895853     1.9271561      3.261539       115.01547    
     15560   133.11549      158.5          158.5          158.5          0.74784511     2.7083937      0.58847525    -1.0533336      133.11549    
     15580   144.86262      158.5          158.5          158.5          1.6341992      4.9486006      0.94379513    -0.98979822     144.86262    
     15600   124.06838      158.5          158.5          158.5          4.945126       1.5509897      4.9924558      8.2919326      124.06838    
     15620   152.35456      158.5          158.5          158.5         -0.20001673    -1.7509213      0.87292808     0.27794306     152.35456    
     15640   147.56766      158.5          158.5          158.5         -0.34004225     2.2484778     -2.4750269     -0.79357771     147.56766    
     15660   154.18422      158.5          158.5          158.5          2.1941319      2.2860391      3.360009       0.93634762     154.18422    
     15680   132.15826      158.5          158.5          158.5          1.2881823      1.6807826     -0.85737406     3.0411385      132.15826    
     15700   139.53631      158.5          158.5          158.5         -0.97431249     1.3057387     -1.5009114     -2.7277648      139.53631    
     15720   131.99758      158.5          158.5          158.5          2.0960836      2.5674913      4.2005626     -0.47980299     131.99758    
     15740   146.08025      158.5          158.5          158.5         -0.55146925     0.059695822   -0.56223437    -1.1518692      146.08025    
     15760   125.49847      158.5          158.5          158.5         -0.12836109    -1.9131983      0.50735111     1.0207639      125.49847    
     15780   139.59392      158.5          158.5          158.5          1.2026472     -0.15049827     2.3710516      1.3873881      139.59392    
     15800   109.35923      158.5          158.5          158.5         -0.78306067     2.6787571     -0.51678885    -4.5111503      109.35923    
     15820   126.33698      158.5          158.5          158.5          0.30895429     4.8966944     -1.5881335     -2.381698       126.33698    
     15840   118.29017      158.5          158.5          158.5          0.46483508    -2.2182603      2.2198337      1.3929318      118.29017    
     15860   117.56789      158.5          158.5          158.5         -0.041096635   -3.9787543      4.8177275     -0.96226308     117.56789    
     15880   117.87901      158.5          158.5          158.5          2.2277939      4.5180588     -0.27389951     2.4392223      117.87901    
     15900   127.33264      158.5          158.5          158.5          0.25173708     1.9026415     -2.5118566      1.3644263      127.33264    
     15920   129.56877      158.5          158.5          158.5         -1.1874        -2.5841813      1.9412895     -2.9193082      129.56877    
     15940   122.88628      158.5          158.5          158.5         -0.22813352    -5.6205409      3.5559246      1.3802158      122.88628    
     15960   131.41767      158.5          158.5          158.5         -3.7240911     -3.1831417     -4.4521828     -3.5369489      131.41767    
     15980   118.41805      158.5          158.5          158.5         -1.8659333      2.7573522     -6.0350154     -2.3201367      118.41805    
     16000   126.50421      158.5          158.5          158.5         -0.50429452    -6.0761388      1.4816097      3.0816455      126.50421    
     16020   134.79074      158.5          158.5          158.5         -3.0602747     -11.206841      0.57790144     1.4481153      134.79074    
     16040   114.72605      158.5          158.5          158.5         -3.1076947     -3.5253258     -3.9028844     -1.894874       114.72605    
     16060   121.00846      158.5          158.5          158.5          1.263207       4.3450647     -0.94345045     0.38800694     121.00846    
     16080   145.54346      158.5          158.5          158.5          0.62305398    -1.5181504      0.50560076     2.8817116      145.54346    
     16100   142.46332      158.5          158.5          158.5         -1.1903458     -4.4402348     -2.9070431      3.7762406      142.46332    
     16120   128.66661      158.5          158.5          158.5          3.6333921      4.076402       5.1187871      1.7049872      128.66661    
     16140   146.02928      158.5          158.5          158.5         -0.96521399     4.2609074     -4.0642933     -3.092256       146.02928    
     16160   127.12513      158.5          158.5          158.5          0.60175151     1.9182455     -0.62007772     0.50708675     127.12513    
     16180   148.58984      158.5          158.5          158.5          2.3088865     -1.5575427      8.0696857      0.41451655     148.58984    
     16200   136.58741      158.5          158.5          158.5         -0.72549872    -0.81703701    -1.6499255      0.2904664      136.58741    
     16220   138.7083       158.5          158.5          158.5          2.9536744      7.1042851     -2.3718245      4.1285625      138.7083     
     16240   146.61139      158.5          158.5          158.5          0.70055549    -0.44711215     2.2380013      0.31077737     146.61139    
     16260   145.83796      158.5          158.5          158.5         -2.0041421     -9.2487595      5.6577248     -2.4213916      145.83796    
     16280   122.27676      158.5          158.5          158.5          1.088269       0.73219632    -0.24713706     2.7797479      122.27676    
     16300   147.02539      158.5          158.5          158.5         -3.9222404     -0.73923665    -7.8552346     -3.1722499      147.02539    
     16320   118.30466      158.5          158.5          158.5         -0.22301073    -0.41343796     0.89586288    -1.1514571      118.30466    
     16340   142.30329      158.5          158.5          158.5         -1.6206734     -6.5343954      4.0362268     -2.3638516      142.30329    
     16360   141.18009      158.5          158.5          158.5         -2.1238537     -2.4800138     -1.1388688     -2.7526784      141.18009    
     16380   121.65366      158.5          158.5          158.5          1.8445606      5.8422126     -3.1343654      2.8258347      121.65366    
     16400   114.49065      158.5          158.5          158.5         -2.4672744     -3.5272907     -2.3338434     -1.5406892      114.49065    
     16420   126.20812      158.5          158.5          158.5          0.59962632    -5.2905241      5.2694462      1.8199568      126.20812    
     16440   108.3553       158.5          158.5          158.5          0.38073596    -0.87253924     0.76298054     1.2517666      108.3553     
     16460   118.73427      158.5          158.5          158.5         -2.8104408      3.0237808     -7.2439055     -4.2111976      118.73427    
     16480   100.57829      158.5          158.5          158.5          0.17973978     1.7652059     -2.6520461      1.4260596      100.57829    
     16500   102.46352      158.5          158.5          158.5         -1.3298343     -5.8378042      1.3276182      0.52068316     102.46352    
     16520   107.57531      158.5          158.5          158.5         -1.4612111     -2.725878      -1.1323057     -0.5254496      107.57531    
     16540   112.40954      158.5          158.5          158.5          0.74244855     5.0098655     -1.3563131     -1.4262067      112.40954    
     16560   113.84366      158.5          158.5          158.5          1.1382047      1.577866       1.6777409      0.15900698     113.84366    
     16580   114.42001      158.5          158.5          158.5         -0.18958595    -4.1235042      4.1790904     -0.62434407     114.42001    
     16600   109.55265      158.5          158.5          158.5          0.87271148     0.53408077     4.4746668     -2.3906131      109.55265    
     16620   120.57424      158.5          158.5          158.5          0.73466905     2.6919184     -3.2828459      2.7949347      120.57424    
     16640   124.18825      158.5          158.5          158.5          0.11618047     3.8741832     -3.158419      -0.3672228      124.18825    
     16660   127.58573      158.5          158.5          158.5          1.2792431      1.0466841      5.7364873     -2.945442       127.58573    
     16680   128.69174      158.5          158.5          158.5         -1.1371208     -4.9659839      0.50221588     1.0524055      128.69174    
     16700   137.40476      158.5          158.5          158.5         -1.5188757      1.7887704     -4.5667561     -1.7786413      137.40476    
     16720   131.89041      158.5          158.5          158.5          1.2507636      6.327596      -1.7789424     -0.79636273     131.89041    
     16740   135.55543      158.5          158.5          158.5          1.0415321     -5.5373466      5.1155078      3.5464353      135.55543    
     16760   120.45965      158.5          158.5          158.5          0.053421866   -3.4511135      1.3255774      2.2858017      120.45965    
     16780   124.9723       158.5          158.5          158.5          1.5821338      6.2886168     -2.1417603      0.59954488     124.9723     
     16800   130.30957      158.5          158.5          158.5         -1.4161137     -1.5816528     -0.85107251    -1.8156157      130.30957    
     16820   135.32805      158.5          158.5          158.5         -1.8183052     -4.3190397      2.1417609     -3.2776367      135.32805    
     16840   122.07161      158.5          158.5          158.5          1.6553973      1.3549691      2.4574786      1.1537444      122.07161    
     16860   127.85053      158.5          158.5          158.5         -1.4596848     -1.6226547     -6.292893       3.5364931      127.85053    
     16880   141.11892      158.5          158.5          158.5         -0.52655356     0.88939112    -4.137425       1.6683732      141.11892    
     16900   120.44861      158.5          158.5          158.5          0.47341122    -1.1518056      3.3807913     -0.80875208     120.44861    
     16920   139.23644      158.5          158.5          158.5         -2.8021834     -13.008716      3.5719576      1.030208       139.23644    
     16940   126.27257      158.5          158.5          158.5         -0.30669858     2.4382058     -0.56252406    -2.7957775      126.27257    
     16960   117.00787      158.5          158.5          158.5          1.6117491      12.060997     -5.68889       -1.5368596      117.00787    
     16980   118.43         158.5          158.5          158.5          0.72250664    -2.4814579      0.91540614     3.7335717      118.43       
     17000   114.17375      158.5          158.5          158.5         -0.23507601    -6.9226089      7.5784089     -1.361028       114.17375    
     17020   121.65544      158.5          158.5          158.5          1.9154038      6.0030451     -3.1616239      2.9047902      121.65544    
     17040   131.33115      158.5          158.5          158.5         -1.9264317      3.9264302     -9.4848981     -0.22082712     131.33115    
     17060   117.48292      158.5          158.5          158.5          1.2169067     -1.3370864      6.6224956     -1.6346892      117.48292    
     17080   119.77507      158.5          158.5          158.5          1.9890409     -3.9475894      9.4533914      0.46132067     119.77507    
     17100   100.49325      158.5          158.5          158.5         -0.13635416    -2.0961415     -2.1936766      3.8807556      100.49325    
     17120   116.62856      158.5          158.5          158.5          2.464872       10.485787     -5.980126       2.888955       116.62856    
     17140   105.26373      158.5          158.5          158.5          1.1439614      2.1732822      1.7681898     -0.50958784     105.26373    
     17160   107.57713      158.5          158.5          158.5         -0.42818547    -6.1964373      6.1921594     -1.2802786      107.57713    
     17180   96.316522      158.5          158.5          158.5         -0.19118738     0.22929103    -0.84877725     0.045924087    96.316522    
     17200   100.76843      158.5          158.5          158.5         -1.0158984      1.5786976     -3.5832583     -1.0431344      100.76843    
     17220   105.51933      158.5          158.5          158.5         -4.1061651     -6.3945894      0.68484213    -6.6087479      105.51933    
     17240   98.434736      158.5          158.5          158.5          0.36349822    -1.5288777      3.8270992     -1.2077268      98.434736    
     17260   97.258496      158.5          158.5          158.5         -0.27304528     0.95342255    -2.0861943      0.31363586     97.258496    
     17280   82.870743      158.5          158.5          158.5         -2.2256705      1.1834156     -6.4304569     -1.4299701      82.870743    
     17300   96.121739      158.5          158.5          158.5          3.8493731      3.4752476      3.9338313      4.1390404      96.121739    
     17320   108.06578      158.5          158.5          158.5          0.36270639    -3.5266372      5.1520568     -0.53730052     108.06578    
     17340   105.15792      158.5          158.5          158.5          2.2761989      1.2007299      2.8885455      2.7393214      105.15792    
     17360   115.09534      158.5          158.5          158.5          2.4048969      6.7265091     -3.4266249      3.9148066      115.09534    
     17380   114.68492      158.5          158.5          158.5          0.22803421     1.871746      -0.64390752    -0.54373588     114.68492    
     17400   133.44942      158.5          158.5          158.5         -0.582121       0.095898574    3.165541      -5.0078026      133.44942    
     17420   118.61248      158.5          158.5          158.5          0.67663075     0.40285798     4.5489387     -2.9219044      118.61248    
     17440   119.74039      158.5          158.5          158.5         -1.560953      -1.4590947     -2.9801025     -0.24366171     119.74039    
     17460   113.29777      158.5          158.5          158.5          0.041977869    1.6136107      0.20057642    -1.6882535      113.29777    
     17480   124.75003      158.5          158.5          158.5          2.5018283     -0.79561899     9.3404244     -1.0393205      124.75003    
     17500   124.96307      158.5          158.5          158.5         -3.5874771     -4.8075139     -1.9438335     -4.011084       124.96307    
     17520   127.23213      158.5          158.5          158.5          3.0574002      4.5167104      2.3566653      2.2988249      127.23213    
     17540   126.54306      158.5          158.5          158.5          0.082791279   -0.46625103     0.10447171     0.61015316     126.54306    
     17560   126.84054      158.5          158.5          158.5         -0.049200405   -4.3512135      2.4037723      1.79984        126.84054    
     17580   132.05672      158.5          158.5          158.5          2.2599109      1.9101051      2.3529021      2.5167254      132.05672    
     17600   120.0643       158.5          158.5          158.5         -3.8986524     -0.9993497     -6.224345      -4.4722625      120.0643     
     17620   136.46673      158.5          158.5          158.5          1.9052348     -0.8005258      5.4330965      1.0831337      136.46673    
     17640   130.89483      158.5          158.5          158.5          0.25604575    -1.0072737      1.3786151      0.39679589     130.89483    
     17660   136.44379      158.5          158.5          158.5         -1.7990501      0.39006624    -3.0811947     -2.7060217      136.44379    
     17680   131.27354      158.5          158.5          158.5          1.0715623      3.7694056     -0.20633543    -0.34838331     131.27354    
     17700   135.99267      158.5          158.5          158.5         -1.6325872     -1.4804655     -5.4061122      1.9888162      135.99267    
     17720   137.92274      158.5          158.5          158.5         -1.0823148     -1.1282848     -1.8189372     -0.29972253     137.92274    
     17740   131.53578      158.5          158.5          158.5         -1.6948577     -0.33207219    -0.98347084    -3.7690301      131.53578    
     17760   125.52776      158.5          158.5          158.5          0.75439158    -1.2134548      2.9016994      0.5749302      125.52776    
     17780   123.51752      158.5          158.5          158.5          0.16518469    -1.0703322      0.4586807      1.1072056      123.51752    
     17800   122.41681      158.5          158.5          158.5         -0.48752973    -0.23393976    -0.10004213    -1.1286073      122.41681    
     17820   119.82157      158.5          158.5          158.5          2.2318552      2.2363617      3.7573886      0.70181528     119.82157    
     17840   134.28154      158.5          158.5          158.5         -2.5577179      1.6458978     -6.2791392     -3.0399122      134.28154    
     17860   125.30939      158.5          158.5          158.5          2.7399212      3.8921855     -1.5204663      5.8480445      125.30939    
     17880   128.11029      158.5          158.5          158.5         -1.2750556     -2.581938      -1.4266599      0.18343112     128.11029    
     17900   112.69632      158.5          158.5          158.5         -0.74868681    -3.3255828      2.5108912     -1.4313689      112.69632    
     17920   130.03114      158.5          158.5          158.5          4.062022       8.0331077      3.7458968      0.40706135     130.03114    
     17940   108.71306      158.5          158.5          158.5         -3.1529688      0.90603158    -6.4398525     -3.9250855      108.71306    
     17960   117.97134      158.5          158.5          158.5          3.1623432     -0.87828338     6.0602163      4.3050967      117.97134    
     17980   103.85318      158.5          158.5          158.5         -1.8256481     -2.5713078      0.36911962    -3.274756       103.85318    
     18000   114.28344      158.5          158.5          158.5         -2.9115511     -1.3129349     -4.3969455     -3.0247731      114.28344    
     18020   113.03721      158.5          158.5          158.5          2.1086772      2.4705792      0.57385299     3.2815996      113.03721    
     18040   106.30177      158.5          158.5          158.5         -3.7020379     -4.2013666     -5.2336332     -1.6711138      106.30177    
     18060   123.27008      158.5          158.5          158.5          0.96316722    -0.89061398     3.3204298      0.45968585     123.27008    
     18080   101.50455      158.5          158.5          158.5         -1.6311401      2.1357428     -1.8997532     -5.1294099      101.50455    
     18100   115.47118      158.5          158.5          158.5         -1.9510584     -2.750802      -0.69318013    -2.409193       115.47118    
     18120   117.12864      158.5          158.5          158.5          1.6827712     -0.841667       0.55867682     5.3313037      117.12864    
     18140   123.12197      158.5          158.5          158.5         -0.65493654     0.95603691    -3.9155335      0.99468697     123.12197    
     18160   115.40362      158.5          158.5          158.5          1.6864369      5.0067943      1.1427063     -1.0901898      115.40362    
     18180   123.58351      158.5          158.5          158.5         -2.1552159     -1.4917578     -4.2193031     -0.75458696     123.58351    
     18200   131.13358      158.5          158.5          158.5         -4.2983083     -6.0920984     -8.5779527      1.7751261      131.13358    
     18220   128.56555      158.5          158.5          158.5         -2.7098527     -4.6059808     -1.0601558     -2.4634214      128.56555    
     18240   132.38546      158.5          158.5          158.5         -1.0653416      1.6743972      0.79446072    -5.6648826      132.38546    
     18260   138.38132      158.5          158.5          158.5         -0.10019342     0.53621984     0.16224874    -0.99904883     138.38132    
     18280   141.44636      158.5          158.5          158.5          2.2292348      3.2400628     -0.89309616     4.3407379      141.44636    
     18300   136.71375      158.5          158.5          158.5          3.4589203      6.1541165     -1.3490079      5.5716522      136.71375    
     18320   141.21739      158.5          158.5          158.5          1.1334433     -0.9057232      9.265698      -4.9596448      141.21739    
     18340   139.16649      158.5          158.5          158.5          3.1562363     -1.7371977      9.3505609      1.8553455      139.16649    
     18360   137.61723      158.5          158.5          158.5         -2.61111       -0.77714392    -9.5768045      2.5206183      137.61723    
     18380   133.80974      158.5          158.5          158.5         -0.84604746     3.2892312     -2.1252483     -3.7021253      133.80974    
     18400   129.79281      158.5          158.5          158.5          0.16405461     3.2467841      3.5856629     -6.3402831      129.79281    
     18420   133.60116      158.5          158.5          158.5         -1.2708362      1.0353061     -4.9800245      0.13220999     133.60116    
     18440   138.70841      158.5          158.5          158.5          5.498726       5.5773123      2.8897888      8.029077       138.70841    
     18460   133.27107      158.5          158.5          158.5         -0.4756667      3.3544253     -0.050995107   -4.7304303      133.27107    
     18480   132.93535      158.5          158.5          158.5          3.8464912      7.3481912      5.7683305     -1.577048       132.93535    
     18500   122.8285       158.5          158.5          158.5          1.8865979      0.057537418    6.258074      -0.65581779     122.8285     
     18520   103.21748      158.5          158.5          158.5         -1.309675      -3.5694299     -2.5310391      2.171444       103.21748    
     18540   116.74733      158.5          158.5          158.5          5.1004513      7.5994917     -0.082182182    7.7840444      116.74733    
     18560   130.84567      158.5          158.5          158.5         -3.0995214     -0.90391156     0.29646503    -8.6911175      130.84567    
     18580   107.72823      158.5          158.5          158.5         -0.16362601    -1.0858142      3.5975183     -3.0025821      107.72823    
     18600   114.90579      158.5          158.5          158.5          3.8602402      2.9977386      0.77107287     7.811909       114.90579    
     18620   120.39689      158.5          158.5          158.5         -0.99956375    -1.4260322     -4.2594375      2.6867785      120.39689    
     18640   109.32416      158.5          158.5          158.5          3.0011171      3.631333       7.0730246     -1.7010064      109.32416    
     18660   128.12974      158.5          158.5          158.5         -1.8203532     -2.3171625      1.9183691     -5.0622661      128.12974    
     18680   131.37399      158.5          158.5          158.5          1.4219171     -0.44082036    -2.8883687      7.5949403      131.37399    
     18700   116.21706      158.5          158.5          158.5         -1.9100775     -0.91806915    -4.7484156     -0.063747688    116.21706    
     18720   117.60615      158.5          158.5          158.5         -0.24363608    -1.2918423      3.9932083     -3.4322742      117.60615    
     18740   134.05246      158.5          158.5          158.5          1.0880123     -2.665443       4.5115533      1.4179265      134.05246    
     18760   129.09386      158.5          158.5          158.5         -4.4131447     -4.2436156     -9.0155738      0.019755248    129.09386    
     18780   117.86385      158.5          158.5          158.5          2.9818174      1.862274       1.7247331      5.3584453      117.86385    
     18800   134.92304      158.5          158.5          158.5         -1.6023449      1.8589753     -1.2723528     -5.3936573      134.92304    
     18820   114.01839      158.5          158.5          158.5         -0.38976658     1.5133256      0.2918396     -2.974465       114.01839    
     18840   130.18181      158.5          158.5          158.5          4.1702856      4.7498116      2.5790168      5.1820284      130.18181    
     18860   133.40077      158.5          158.5          158.5         -1.0828774      1.0324015     -3.3441529     -0.93688066     133.40077    
     18880   147.33503      158.5          158.5          158.5          5.5964538      8.0112484      2.5541483      6.2239648      147.33503    
     18900   132.05417      158.5          158.5          158.5          0.16979279    -1.1605871      2.3143753     -0.64440977     132.05417    
     18920   121.77686      158.5          158.5          158.5         -1.3837748     -2.5365434     -1.1609787     -0.45380225     121.77686    
     18940   127.67315      158.5          158.5          158.5          2.1033091      6.5474315     -5.2286127      4.9911084      127.67315    
     18960   149.13082      158.5          158.5          158.5         -5.792019      -2.0168087     -8.1340748     -7.2251736      149.13082    
     18980   134.2787       158.5          158.5          158.5          2.4719059     -0.39057764     7.8201125     -0.013817051    134.2787     
     19000   111.09457      158.5          158.5          158.5         -0.53615453    -3.7889683      2.7637943     -0.58328955     111.09457    
     19020   143.04163      158.5          158.5          158.5          0.81238932     2.939394      -3.4956435      2.9934175      143.04163    
     19040   131.23753      158.5          158.5          158.5          2.2058881      0.40476708     1.2142078      4.9986894      131.23753    
     19060   123.53452      158.5          158.5          158.5         -2.1046853     -2.094791       2.1737604     -6.3930252      123.53452    
     19080   128.43952      158.5          158.5          158.5          1.537736       1.7963243      1.8338603      0.98302351     128.43952    
     19100   130.93021      158.5          158.5          158.5         -0.12024385     0.46211541    -5.7370876      4.9142407      130.93021    
     19120   133.53206      158.5          158.5          158.5         -0.11999317    -3.5312425      3.5386597     -0.36739666     133.53206    
     19140   125.43194      158.5          158.5          158.5         -1.0731206     -2.2906183      0.53960868    -1.4683521      125.43194    
     19160   134.50949      158.5          158.5          158.5         -2.57529       -2.6601687     -8.2530824      3.1873811      134.50949    
     19180   129.30858      158.5          158.5          158.5         -1.9135107     -3.7379708     -2.7437752      0.74121379     129.30858    
     19200   133.98333      158.5          158.5          158.5         -2.8770365     -2.9107453      0.18536371    -5.905728       133.98333    
     19220   129.74903      158.5          158.5          158.5         -0.50621206    -0.91305267    -1.5862385      0.98065499     129.74903    
     19240   138.67409      158.5          158.5          158.5         -0.95154708    -2.8637656      0.058928402   -0.049804018    138.67409    
     19260   121.8087       158.5          158.5          158.5         -1.8461978     -0.4267456     -4.1711407     -0.94070714     121.8087     
     19280   121.75606      158.5          158.5          158.5          0.62662943    -0.38630692    -0.93927021     3.2054654      121.75606    
     19300   120.29804      158.5          158.5          158.5          2.2531099     -3.2131353      4.1799067      5.7925582      120.29804    
     19320   145.7356       158.5          158.5          158.5         -1.848622      -2.5160197      0.93560395    -3.9654501      145.7356     
     19340   133.4271       158.5          158.5          158.5          2.6802779      6.5846021      2.4249962     -0.96876449     133.4271     
     19360   148.12786      158.5          158.5          158.5         -1.8965391     -4.253304       0.1115393     -1.5478526      148.12786    
     19380   142.32794      158.5          158.5          158.5         -3.8751677     -7.6894038     -1.3779929     -2.5581065      142.32794    
     19400   144.57818      158.5          158.5          158.5          4.5393008      5.5427303      4.0812365      3.9939357      144.57818    
     19420   148.39633      158.5          158.5          158.5         -3.4424523     -0.94823036    -5.7645419     -3.6145848      148.39633    
     19440   149.25295      158.5          158.5          158.5          1.9135894      4.5479662      0.40393264     0.78886933     149.25295    
     19460   149.45092      158.5          158.5          158.5          4.9025557      0.20000132     8.6039697      5.903696       149.45092    
     19480   143.63302      158.5          158.5          158.5         -4.4139048     -4.929676      -2.1776445     -6.1343939      143.63302    
     19500   133.68286      158.5          158.5          158.5          3.4502723      7.5607012      3.1869525     -0.39683669     133.68286    
     19520   145.11786      158.5          158.5          158.5         -0.34965433    -1.8445315     -0.12954246     0.92511099     145.11786    
     19540   140.02819      158.5          158.5          158.5         -2.5443287     -2.3159199     -2.3744821     -2.9425841      140.02819    
     19560   126.05314      158.5          158.5          158.5          0.31817948     2.9583991      0.41931555    -2.4231762      126.05314    
     19580   130.89451      158.5          158.5          158.5         -2.0293421     -1.3420205     -0.26407186    -4.4819339      130.89451    
     19600   110.70442      158.5          158.5          158.5         -0.36534573    -0.12662081    -0.11823975    -0.85117662     110.70442    
     19620   136.12855      158.5          158.5          158.5          1.9741164      4.0300937      0.10673267     1.7855228      136.12855    
     19640   121.23012      158.5          158.5          158.5         -0.8368011     -2.6372996      0.044614501    0.082281742    121.23012    
     19660   115.41032      158.5          158.5          158.5         -3.4967454     -4.6678657     -2.3661209     -3.4562498      115.41032    
     19680   118.53924      158.5          158.5          158.5          2.7999706      3.7527214      0.97459283     3.6725976      118.53924    
     19700   114.6748       158.5          158.5          158.5         -1.8942272     -1.2406358     -3.5105254     -0.93152054     114.6748     
     19720   126.8364       158.5          158.5          158.5         -3.2231024     -4.5420712     -2.2263474     -2.9008887      126.8364     
     19740   114.126        158.5          158.5          158.5          2.6321698      5.8986073      0.30944781     1.6884544      114.126      
     19760   110.72205      158.5          158.5          158.5         -0.86541788     0.97901881    -2.7348046     -0.84046783     110.72205    
     19780   135.2173       158.5          158.5          158.5          0.83580856    -0.33379836    -1.1983108      4.0395348      135.2173     
     19800   116.76776      158.5          158.5          158.5          2.0698479      2.7499112     -0.86909003     4.3287225      116.76776    
     19820   107.60013      158.5          158.5          158.5         -0.078271443    0.88109865    -1.6889899      0.57307697     107.60013    
     19840   125.91535      158.5          158.5          158.5         -0.27447555     0.88381295    -3.3161097      1.6088701      125.91535    
     19860   127.78423      158.5          158.5          158.5         -1.3128281     -1.1486596      0.097291697   -2.8871163      127.78423    
     19880   123.29911      158.5          158.5          158.5          0.92962266     0.30065826     4.2286229     -1.7404132      123.29911    
     19900   128.94133      158.5          158.5          158.5         -2.0066782     -1.0951499     -4.438804      -0.48608073     128.94133    
     19920   138.65802      158.5          158.5          158.5         -1.6721922     -0.43405029    -4.6978287      0.11530236     138.65802    
     19940   125.63534      158.5          158.5          158.5          1.525258       3.8848062     -0.89247597     1.5834437      125.63534    
     19960   131.90406      158.5          158.5          158.5         -2.7565605     -1.4965312     -1.8126838     -4.9604665      131.90406    
     19980   147.66473      158.5          158.5          158.5          0.47214294    -1.7973549      2.2286136      0.9851701      147.66473    
     20000   126.02745      158.5          158.5          158.5          2.8471421      3.2006641      1.6237084      3.7170538      126.02745    
     20020   139.94885      158.5          158.5          158.5         -0.91644194     0.37122943    -1.1882408     -1.9323145      139.94885    
     20040   148.86035      158.5          158.5          158.5          1.8524         0.70287793     3.6182522      1.2360699      148.86035    
     20060   129.04572      158.5          158.5          158.5          3.6485188      3.7253665      2.2918655      4.9283245      129.04572    
     20080   126.20324      158.5          158.5          158.5          1.1259407      3.1892185     -0.5321303      0.72073393     126.20324    
     20100   146.48903      158.5          158.5          158.5          2.1550271      3.6321178      3.300453      -0.46748946     146.48903    
     20120   145.30711      158.5          158.5          158.5          1.7618276      0.86682816     4.3457767      0.072877949    145.30711    
     20140   128.34614      158.5          158.5          158.5         -0.9009604     -3.0933772     -1.9270379      2.317534       128.34614    
     20160   133.04114      158.5          158.5          158.5         -0.45982472     2.3374729     -3.1192876     -0.59765948     133.04114    
     20180   127.44656      158.5          158.5          158.5         -1.9250351     -2.2288277      2.2230234     -5.7693009      127.44656    
     20200   122.23551      158.5          158.5          158.5         -3.6997574     -6.5972925     -0.69049468    -3.8114851      122.23551    
     20220   123.61582      158.5          158.5          158.5         -1.7621699      0.68738677    -6.1337644      0.1598679      123.61582    
     20240   111.47097      158.5          158.5          158.5         -1.1000868      1.1764551     -2.5740754     -1.90264        111.47097    
     20260   121.14134      158.5          158.5          158.5         -2.9320285     -3.1198203      0.82695651    -6.5032216      121.14134    
     20280   110.44957      158.5          158.5          158.5          1.5831276      2.3420547      2.3776488      0.029679282    110.44957    
     20300   139.42517      158.5          158.5          158.5          1.355667      -0.33408037    -0.16732329     4.5684046      139.42517    
     20320   115.80666      158.5          158.5          158.5         -2.4135476     -5.1261879     -2.3045838      0.19012907     115.80666    
     20340   110.16545      158.5          158.5          158.5          2.4104043     -1.009516       5.1175912      3.1231377      110.16545    
     20360   123.69407      158.5          158.5          158.5         -2.3765772     -4.2858567     -1.4464279     -1.397447       123.69407    
     20380   129.72185      158.5          158.5          158.5         -0.5269665     -1.2305937      0.50330914    -0.85361493     129.72185    
     20400   126.24331      158.5          158.5          158.5          1.1037646      3.4026246     -0.61745047     0.52611961     126.24331    
     20420   123.7377       158.5          158.5          158.5          0.22757637     1.6016651     -1.4096816      0.49074558     123.7377     
     20440   122.18667      158.5          158.5          158.5          1.2856042     -2.3588958      2.9231394      3.292569       122.18667    
     20460   126.09759      158.5          158.5          158.5         -0.073801238   -0.48051457     1.1824933     -0.92338243     126.09759    
     20480   141.02458      158.5          158.5          158.5          0.36943546     0.8432085      2.9008987     -2.6358008      141.02458    
     20500   135.10683      158.5          158.5          158.5         -1.5509531     -1.3142855     -4.0408113      0.70223761     135.10683    
     20520   119.33897      158.5          158.5          158.5          3.4007758      4.6969601     -0.27599724     5.7813645      119.33897    
     20540   133.1929       158.5          158.5          158.5         -0.99508474     0.62789088     1.4994322     -5.1125773      133.1929     
     20560   140.5543       158.5          158.5          158.5         -0.05146957     0.43036209     0.04508876    -0.62985956     140.5543     
     20580   136.1647       158.5          158.5          158.5          4.6005646      4.8478804      3.0480619      5.9057513      136.1647     
     20600   138.70568      158.5          158.5          158.5         -4.3000518     -4.342133      -0.07089503    -8.4871275      138.70568    
     20620   149.2279       158.5          158.5          158.5          1.2764987      3.3794943      1.3224944     -0.87249263     149.2279     
     20640   130.19043      158.5          158.5          158.5         -0.10220344    -0.35272752    -0.31747024     0.36358744     130.19043    
     20660   163.46126      158.5          158.5          158.5         -3.6885596     -5.5214906     -1.6711342     -3.873054       163.46126    
     20680   132.68431      158.5          158.5          158.5          2.618038       1.6592342      3.9911519      2.2037278      132.68431    
     20700   138.9301       158.5          158.5          158.5         -3.6480651     -0.27057479    -5.3030026     -5.3706178      138.9301     
     20720   132.59896      158.5          158.5          158.5         -0.22083854     2.1525723     -1.5100956     -1.3049924      132.59896    
     20740   151.38777      158.5          158.5          158.5         -0.16412807    -1.5672179      0.015134688    1.059699       151.38777    
     20760   124.44578      158.5          158.5          158.5         -0.72505866     0.92390195    -0.64531008    -2.4537678      124.44578    
     20780   132.23425      158.5          158.5          158.5          2.3849493      4.2237647      1.7438509      1.1872323      132.23425    
     20800   125.70209      158.5          158.5          158.5          0.23770476     0.53280139     0.90321839    -0.72290549     125.70209    
     20820   129.12905      158.5          158.5          158.5          0.15663704     2.0191775      1.2674634     -2.8167298      129.12905    
     20840   110.20161      158.5          158.5          158.5          1.8422003      2.3881404     -0.30461218     3.4430728      110.20161    
     20860   122.17165      158.5          158.5          158.5         -2.8402308     -0.9442318     -2.8485743     -4.7278862      122.17165    
     20880   120.97374      158.5          158.5          158.5          1.8422293      1.3948899      4.5493673     -0.41756933     120.97374    
     20900   114.61485      158.5          158.5          158.5          1.3605339     -1.4299266      1.0624705      4.4490577      114.61485    
     20920   124.75584      158.5          158.5          158.5         -0.29092166    -1.7514127     -1.0354451      1.9140928      124.75584    
     20940   121.55486      158.5          158.5          158.5          1.0674099      3.0386135      0.61248644    -0.44887018     121.55486    
     20960   120.70538      158.5          158.5          158.5         -1.3128154      0.54129091    -1.809707      -2.6700301      120.70538    
     20980   122.68992      158.5          158.5          158.5          0.88540746     0.30133148     0.61559773     1.7392932      122.68992    
     21000   125.44125      158.5          158.5          158.5         -1.2733158     -2.7868579     -1.0860257      0.05293628     125.44125    
     21020   115.03767      158.5          158.5          158.5          2.4522064      0.74740392     3.5109951      3.0982202      115.03767    
     21040   107.96582      158.5          158.5          158.5          0.52448329     0.59510831    -0.88591082     1.8642524      107.96582    
     21060   133.96418      158.5          158.5          158.5         -2.2526849     -5.1963785     -1.5679165      0.0062401673   133.96418    
     21080   131.08338      158.5          158.5          158.5          1.3747004     -0.71891929     3.6767492      1.1662714      131.08338    
     21100   137.73236      158.5          158.5          158.5         -4.0388014      0.00010183157 -5.4012125     -6.7152936      137.73236    
     21120   133.1059       158.5          158.5          158.5         -1.1429545     -1.0742202      0.4275734     -2.7822166      133.1059     
     21140   135.00908      158.5          158.5          158.5         -0.03664691    -6.5633869      3.9297655      2.5236807      135.00908    
     21160   137.65254      158.5          158.5          158.5         -4.5430001     -5.5500114     -6.0404358     -2.0385531      137.65254    
     21180   131.22769      158.5          158.5          158.5         -0.44048546     1.6346674     -1.5364155     -1.4197083      131.22769    
     21200   143.18362      158.5          158.5          158.5          1.4319108      4.1032123      2.3846561     -2.1921361      143.18362    
     21220   141.41703      158.5          158.5          158.5         -0.95008013    -6.1404059     -0.32677726     3.6169427      141.41703    
     21240   141.42398      158.5          158.5          158.5          2.2686078     -1.7111679      2.6570756      5.8599157      141.42398    
     21260   144.57468      158.5          158.5          158.5          3.3343761      6.6613748      3.7699461     -0.42819265     144.57468    
     21280   148.61886      158.5          158.5          158.5         -0.025248378    0.60419348    -1.312201       0.63226241     148.61886    
     21300   149.62268      158.5          158.5          158.5          4.4900204      3.1381004      0.78393282     9.5480279      149.62268    
     21320   140.33099      158.5          158.5          158.5         -1.8256331     -4.0572654     -0.17982813    -1.2398059      140.33099    
     21340   152.61095      158.5          158.5          158.5         -1.3202203     -2.8107453      3.4949638     -4.6448794      152.61095    
     21360   142.18901      158.5          158.5          158.5         -0.42480139     0.026131464   -3.0472436      1.7467079      142.18901    
     21380   140.84924      158.5          158.5          158.5         -2.5942473     -5.5460924     -5.9228816      3.6862321      140.84924    
     21400   142.09198      158.5          158.5          158.5          2.916396       0.7725223      4.0618526      3.9148131      142.09198    
     21420   156.63417      158.5          158.5          158.5         -1.999864      -1.1255312      0.1545296     -5.0285905      156.63417    
     21440   130.98848      158.5          158.5          158.5          1.2306762      0.044968249    0.64113979     3.0059206      130.98848    
     21460   144.37319      158.5          158.5          158.5          1.2994891      0.11604129    -0.5304282      4.3128543      144.37319    
     21480   135.80305      158.5          158.5          158.5         -1.2771141     -3.0324301      1.3739973     -2.1729094      135.80305    
     21500   134.9011       158.5          158.5          158.5          1.5723476     -0.2116833      3.4489269      1.4797992      134.9011     
     21520   132.27009      158.5          158.5          158.5         -1.928302      -2.6164804     -1.8445476     -1.3238781      132.27009    
     21540   142.75343      158.5          158.5          158.5         -0.94301339    -0.81299016    -2.055549       0.039498975    142.75343    
     21560   131.19358      158.5          158.5          158.5          0.38453261     2.0891989     -2.7916413      1.8560403      131.19358    
     21580   121.35778      158.5          158.5          158.5         -0.74252995     0.18762723     1.8836944     -4.2989115      121.35778    
     21600   132.38809      158.5          158.5          158.5          2.8449345      2.587819       5.4753838      0.47160076     132.38809    
     21620   126.12361      158.5          158.5          158.5         -1.8206936     -1.9882136     -3.4879798      0.014112624    126.12361    
     21640   107.76344      158.5          158.5          158.5          2.0630144      1.6091485      1.9979369      2.5819579      107.76344    
     21660   112.75571      158.5          158.5          158.5          3.3924224      1.5238852      6.9378748      1.7155072      112.75571    
     21680   108.65509      158.5          158.5          158.5         -3.2220496     -4.3733955     -2.5035981     -2.7891552      108.65509    
     21700   121.84773      158.5          158.5          158.5          2.3660243     -0.55229744     2.8390786      4.8112917      121.84773    
     21720   102.84385      158.5          158.5          158.5         -1.8396233     -1.5873701     -2.1651521     -1.7663478      102.84385    
     21740   112.5229       158.5          158.5          158.5         -4.4824995     -1.5502438     -3.056565      -8.8406898      112.5229     
     21760   101.6556       158.5          158.5          158.5          2.4505974      1.8545126      3.5011323      1.9961472      101.6556     
     21780   103.46166      158.5          158.5          158.5         -1.9595904     -4.3652469     -3.1517756      1.6382513      103.46166    
     21800   122.94758      158.5          158.5          158.5          0.59637694    -0.052888797    0.59253444     1.2494852      122.94758    
     21820   112.60702      158.5          158.5          158.5          0.93977562     1.7342468      2.4605866     -1.3755065      112.60702    
     21840   111.80978      158.5          158.5          158.5          0.029878607    1.836427      -0.5445943     -1.2021969      111.80978    
     21860   126.03253      158.5          158.5          158.5          0.98698747    -0.66922379     0.8237508      2.8064354      126.03253    
     21880   135.44662      158.5          158.5          158.5         -0.73805478    -2.1789874      2.1802226     -2.2153995      135.44662    
     21900   118.20918      158.5          158.5          158.5         -0.22378775     2.6485466      1.4387549     -4.7586647      118.20918    
     21920   126.05631      158.5          158.5          158.5         -2.1149199     -1.4318847      0.42900767    -5.3418827      126.05631    
     21940   129.30661      158.5          158.5          158.5          0.98273165    -1.8464145      1.4114782      3.3831312      129.30661    
     21960   116.11901      158.5          158.5          158.5         -2.3943524     -1.546237      -3.4227044     -2.2141157      116.11901    
     21980   137.2333       158.5          158.5          158.5         -2.6063542     -0.87241704    -3.7242215     -3.2224242      137.2333     
     22000   139.68823      158.5          158.5          158.5          0.2341501     -1.1038124     -0.82771111     2.6339738      139.68823    
     22020   129.48393      158.5          158.5          158.5         -1.1939269      0.49947176    -3.756626      -0.32462655     129.48393    
     22040   125.84695      158.5          158.5          158.5         -0.51716563     0.36012871    -2.6054745      0.69384891     125.84695    
     22060   133.63149      158.5          158.5          158.5          1.2797093      0.38734755     4.4974596     -1.0456792      133.63149    
     22080   129.40321      158.5          158.5          158.5          0.74610167     1.8482323      4.7079812     -4.3179085      129.40321    
     22100   122.92215      158.5          158.5          158.5          0.97815707     3.8490884      2.1871295     -3.1017467      122.92215    
     22120   142.45213      158.5          158.5          158.5          0.65346355     1.8978755     -2.1827604      2.2452756      142.45213    
     22140   136.2396       158.5          158.5          158.5         -1.6148132      2.6832677     -1.2962801     -6.2314271      136.2396     
     22160   135.87724      158.5          158.5          158.5          2.2242815      5.3188693      3.4739244     -2.1199493      135.87724    
     22180   131.78524      158.5          158.5          158.5         -0.39103549    -4.0860106     -2.0295831      4.9424873      131.78524    
     22200   149.21206      158.5          158.5          158.5         -1.0083686     -0.67582347    -2.6495938      0.30031139     149.21206    
     22220   132.04224      158.5          158.5          158.5          2.2716514      4.6973885      0.98674555     1.1308201      132.04224    
     22240   148.6002       158.5          158.5          158.5         -2.1996683      2.5593563     -5.4123622     -3.745999       148.6002     
     22260   132.63392      158.5          158.5          158.5         -1.714772      -1.5011751     -4.6514749      1.008334       132.63392    
     22280   128.29142      158.5          158.5          158.5         -1.7440148     -5.2635488     -2.5298633      2.5613676      128.29142    
     22300   134.71767      158.5          158.5          158.5          1.0676643     -1.4264648      5.3821593     -0.75270147     134.71767    
     22320   150.8583       158.5          158.5          158.5          1.5407211      1.8715654      3.3031452     -0.55254724     150.8583     
     22340   149.56425      158.5          158.5          158.5          2.6489025      1.8878299      2.2179746      3.8409031      149.56425    
     22360   150.90394      158.5          158.5          158.5          2.6652901      2.4900151      0.35311842     5.1527369      150.90394    
     22380   138.73609      158.5          158.5          158.5         -0.30590262     2.3163611      0.35568931    -3.5897583      138.73609    
     22400   166.97276      158.5          158.5          158.5         -0.45288749    -2.1701448      4.9466729     -4.1351906      166.97276    
     22420   157.33106      158.5          158.5          158.5         -0.15651333    -1.7143129      1.0466385      0.19813438     157.33106    
     22440   156.48105      158.5          158.5          158.5         -1.8802534      1.7394153     -9.0425995      1.662424       156.48105    
     22460   137.31829      158.5          158.5          158.5         -0.34752195     0.26052466    -1.4443744      0.14128392     137.31829    
     22480   149.43858      158.5          158.5          158.5          0.62226352    -2.272502       5.0695805     -0.93028794     149.43858    
     22500   139.54682      158.5          158.5          158.5         -4.6560945     -7.0274192     -4.372448      -2.5684164      139.54682    
     22520   134.91121      158.5          158.5          158.5         -2.4808195     -3.0243685     -5.9100438      1.4919536      134.91121    
     22540   122.96457      158.5          158.5          158.5         -0.30918518    -0.50505971    -1.5343731      1.1118772      122.96457    
     22560   142.43794      158.5          158.5          158.5         -1.8557973     -1.4682699     -0.72296623    -3.3761559      142.43794    
     22580   136.77675      158.5          158.5          158.5          1.8155587      0.70727405     2.5045235      2.2348787      136.77675    
     22600   140.99786      158.5          158.5          158.5          1.0528557      2.5376419     -2.1027555      2.7236807      140.99786    
     22620   119.76955      158.5          158.5          158.5          1.8064113      5.4739573     -3.6346103      3.579887       119.76955    
     22640   128.37029      158.5          158.5          158.5          3.2034705      4.0878094      4.957205       0.56539691     128.37029    
     22660   122.85885      158.5          158.5          158.5         -0.017530021   -1.3827157      2.2503805     -0.92025481     122.85885    
     22680   138.87579      158.5          158.5          158.5         -2.4655479     -3.5197983     -4.4929332      0.61608774     138.87579    
     22700   132.46427      158.5          158.5          158.5          1.606506       3.596964       2.2836657     -1.0611118      132.46427    
     22720   138.11363      158.5          158.5          158.5          1.1599781      0.25882636     3.118607       0.10250079     138.11363    
     22740   120.46706      158.5          158.5          158.5          1.1421798     -0.68314601     2.8427444      1.2669409      120.46706    
     22760   139.90375      158.5          158.5          158.5          2.3870135      5.9492101      0.25888215     0.95294843     139.90375    
     22780   137.90262      158.5          158.5          158.5         -2.6867248      0.90781918    -7.0212413     -1.9467523      137.90262    
     22800   139.92019      158.5          158.5          158.5          0.18165909    -1.7548631      2.3605651     -0.060724759    139.92019    
     22820   124.86554      158.5          158.5          158.5         -0.019727385   -1.22061        1.8815375     -0.72010967     124.86554    
     22840   151.34934      158.5          158.5          158.5         -2.6384848     -2.6790522     -7.7583639      2.5219617      151.34934    
     22860   148.42472      158.5          158.5          158.5          0.68651357    -0.13969741    -3.0044596      5.2036978      148.42472    
     22880   141.97086      158.5          158.5          158.5         -1.4261244     -4.005539      -0.17286958    -0.099964659    141.97086    
     22900   145.16575      158.5          158.5          158.5         -2.2177324     -5.7915169     -0.12322402    -0.73845632     145.16575    
     22920   152.16055      158.5          158.5          158.5          0.43527677     2.5147277     -3.049436       1.8405386      152.16055    
     22940   154.08758      158.5          158.5          158.5          2.3436006      4.2896125     -1.7819118      4.5231011      154.08758    
     22960   133.96901      158.5          158.5          158.5          1.772466       0.11301375     3.2572918      1.9470925      133.96901    
     22980   154.25263      158.5          158.5          158.5         -2.621779      -6.2563048      3.3549308     -4.9639629      154.25263    
     23000   166.75753      158.5          158.5          158.5         -0.64611266    -2.1920224     -2.3287352      2.5824196      166.75753    
     23020   152.36144      158.5          158.5          158.5         -0.33146964     3.978321      -8.3627264      3.3899965      152.36144    
     23040   154.725        158.5          158.5          158.5          0.54742515     1.6264381     -0.82917961     0.84501694     154.725      
     23060   140.73226      158.5          158.5          158.5          0.44566277    -0.46975804     6.6460617     -4.8393153      140.73226    
     23080   159.54744      158.5          158.5          158.5          2.0226166      3.7622815      1.5060543      0.7995139      159.54744    
     23100   162.06872      158.5          158.5          158.5          0.76602737     2.6138771     -4.2193374      3.9035424      162.06872    
     23120   161.8957       158.5          158.5          158.5          0.085709295   -0.17210734     4.1641147     -3.7348794      161.8957     
     23140   168.33287      158.5          158.5          158.5         -0.17683247    -3.3404815      4.1264058     -1.3164218      168.33287    
     23160   138.09304      158.5          158.5          158.5          0.020329461    3.1541976     -6.5959095      3.5027003      138.09304    
     23180   136.63975      158.5          158.5          158.5          0.86887413     7.7644622     -6.7133634      1.5555236      136.63975    
     23200   134.47781      158.5          158.5          158.5          1.4217948     -0.10103129     3.2228176      1.1435981      134.47781    
     23220   147.05337      158.5          158.5          158.5          1.2529177     -1.6724886      7.1678954     -1.7366538      147.05337    
     23240   143.42883      158.5          158.5          158.5          0.7616144      4.564703      -1.806455      -0.47340474     143.42883    
     23260   142.11726      158.5          158.5          158.5          3.6625469      5.9801393     -2.7257655      7.7332669      142.11726    
     23280   134.63367      158.5          158.5          158.5         -0.62787887    -2.6870531      1.0735804     -0.27016395     134.63367    
     23300   131.73827      158.5          158.5          158.5         -3.0144549     -6.5912487      2.3724305     -4.8245464      131.73827    
     23320   131.86352      158.5          158.5          158.5          1.2945661      1.5161119     -0.76130314     3.1288897      131.86352    
     23340   136.95348      158.5          158.5          158.5         -5.9778688     -1.9354659     -14.23857      -1.7595703      136.95348    
     23360   126.5502       158.5          158.5          158.5         -1.3053259     -3.4155285     -0.93599681     0.43554775     126.5502     
     23380   136.28011      158.5          158.5          158.5          0.044933527   -3.3134242      6.9614123     -3.5131875      136.28011    
     23400   131.4632       158.5          158.5          158.5         -3.3011091     -2.5231733     -2.0399122     -5.3402419      131.4632     
     23420   134.72124      158.5          158.5          158.5          5.0046513      1.8870778      3.7816154      9.3452607      134.72124    
     23440   124.37925      158.5          158.5          158.5         -0.82163191    -3.581563       1.2092396     -0.092572347    124.37925    
     23460   138.64479      158.5          158.5          158.5          1.1322499      1.4637216      3.5181873     -1.5851591      138.64479    
     23480   125.22565      158.5          158.5          158.5          3.6740929      4.3283975      2.656615       4.0372661      125.22565    
     23500   133.54453      158.5          158.5          158.5         -1.55512       -0.77836111    -7.4501044      3.5631057      133.54453    
     23520   146.73337      158.5          158.5          158.5          0.079554367    0.96086967     0.097898325   -0.82010489     146.73337    
     23540   151.6776       158.5          158.5          158.5         -0.5406882     -3.4133563      3.2822089     -1.4909172      151.6776     
     23560   142.62612      158.5          158.5          158.5         -1.0410187      1.5109424     -2.3031501     -2.3308482      142.62612    
     23580   160.73915      158.5          158.5          158.5          0.65004632     2.0957582     -4.6129192      4.4673         160.73915    
     23600   140.66434      158.5          158.5          158.5          2.0281296     -2.0274938      5.1526551      2.9592275      140.66434    
     23620   138.81978      158.5          158.5          158.5         -0.94315731    -2.9251101      6.5453273     -6.4496891      138.81978    
     23640   136.61043      158.5          158.5          158.5          3.1725513      6.0714306      0.84264165     2.6035815      136.61043    
     23660   159.8147       158.5          158.5          158.5          0.18632945     0.43032384    -4.371146       4.4998105      159.8147     
     23680   143.3494       158.5          158.5          158.5         -2.782756      -2.155581       1.8231329     -8.0158199      143.3494     
     23700   151.78234      158.5          158.5          158.5         -1.1916146     -3.0221806      5.5710016     -6.1236647      151.78234    
     23720   135.60895      158.5          158.5          158.5         -4.5514441     -6.2874528     -4.4592521     -2.9076275      135.60895    
     23740   157.89434      158.5          158.5          158.5          1.091611       2.3942023     -3.5484899      4.4291204      157.89434    
     23760   139.96239      158.5          158.5          158.5         -0.59532342     1.4667101     -8.0374757      4.7847954      139.96239    
     23780   141.91434      158.5          158.5          158.5          4.5684485      1.2078672      7.6424012      4.8550773      141.91434    
     23800   145.54657      158.5          158.5          158.5          3.0625179     -0.26044637     6.2349833      3.2130166      145.54657    
     23820   147.41631      158.5          158.5          158.5         -1.3616493      2.1872776     -9.4878536      3.2156281      147.41631    
     23840   147.32683      158.5          158.5          158.5          0.40182132     3.1984545     -1.5055877     -0.48740281     147.32683    
     23860   132.19946      158.5          158.5          158.5         -5.8211648     -5.0218155     -4.8097963     -7.6318827      132.19946    
     23880   129.0278       158.5          158.5          158.5          1.0401143      1.7382261      0.71122317     0.67089369     129.0278     
     23900   124.99842      158.5          158.5          158.5         -2.7399563      0.08930417    -4.8551924     -3.4539806      124.99842    
     23920   124.19302      158.5          158.5          158.5         -2.5468815      0.25351902    -5.205571      -2.6885926      124.19302    
     23940   139.63977      158.5          158.5          158.5          4.4522092     -0.93503447     7.9216511      6.3700109      139.63977    
     23960   138.06807      158.5          158.5          158.5         -3.4119809     -6.188845      -0.74265656    -3.3044412      138.06807    
     23980   135.60087      158.5          158.5          158.5          2.3669677      6.2629216     -0.84243716     1.6804186      135.60087    
     24000   125.8768       158.5          158.5          158.5          4.7346142      3.7008252      5.46901        5.0340073      125.8768     
     24020   130.77303      158.5          158.5          158.5          0.18773386    -1.777764       5.1900122     -2.8490466      130.77303    
     24040   142.28716      158.5          158.5          158.5          2.0360293      7.0231794      2.8003029     -3.7153943      142.28716    
     24060   144.63262      158.5          158.5          158.5         -1.1766791     -0.36969065    -2.9292303     -0.23111647     144.63262    
     24080   115.91738      158.5          158.5          158.5         -1.5550189     -0.10881467    -5.3643176      0.80807566     115.91738    
     24100   131.72355      158.5          158.5          158.5          2.6491497      3.6626016      1.586708       2.6981394      131.72355    
     24120   128.11234      158.5          158.5          158.5         -0.093767021   -1.6574985      2.2331166     -0.85691912     128.11234    
     24140   125.46165      158.5          158.5          158.5          2.8415844      3.03551        4.8922121      0.59703115     125.46165    
     24160   108.6847       158.5          158.5          158.5          3.8430137      4.8373546      3.3051002      3.3865862      108.6847     
     24180   131.65066      158.5          158.5          158.5         -0.54729525    -1.7936787      0.69582934    -0.54403635     131.65066    
     24200   138.51908      158.5          158.5          158.5          0.78604798    -0.79563477     3.7276683     -0.57388958     138.51908    
     24220   136.09085      158.5          158.5          158.5          1.0783984      0.40958426     1.0796426      1.7459683      136.09085    
     24240   123.41683      158.5          158.5          158.5         -0.55815167    -0.86957837    -0.37397104    -0.43090559     123.41683    
     24260   141.93666      158.5          158.5          158.5         -1.6401063     -7.5590521      3.0301806     -0.39144742     141.93666    
     24280   116.29094      158.5          158.5          158.5         -3.5918654     -7.7060618      0.61461844    -3.6841527      116.29094    
     24300   138.09157      158.5          158.5          158.5         -2.4122138     -1.3501926     -2.3937716     -3.4926771      138.09157    
     24320   131.29535      158.5          158.5          158.5         -2.9947583      0.38820385    -7.3237493     -2.0487294      131.29535    
     24340   132.89457      158.5          158.5          158.5         -2.4305902     -5.8285213      2.411013      -3.8742624      132.89457    
     24360   115.55504      158.5          158.5          158.5          3.0892295     -0.23102379     7.1959658      2.3027463      115.55504    
     24380   125.78384      158.5          158.5          158.5          0.41008737     2.0986895     -2.9162142      2.0477868      125.78384    
     24400   126.03913      158.5          158.5          158.5         -0.26345063     1.7740758     -2.9529541      0.3885264      126.03913    
     24420   143.2829       158.5          158.5          158.5          0.19639826    -3.9278324      5.513494      -0.99646685     143.2829     
     24440   130.21778      158.5          158.5          158.5         -3.7157676     -6.0201372     -0.42421942    -4.7029462      130.21778    
     24460   140.74136      158.5          158.5          158.5         -0.22384476     4.6692966     -5.9773232      0.63649236     140.74136    
     24480   124.39794      158.5          158.5          158.5         -1.4707943     -0.029827479   -5.5550553      1.1724997      124.39794    
     24500   132.13821      158.5          158.5          158.5          1.1934342     -3.5206932      3.1492194      3.9517764      132.13821    
     24520   139.253        158.5          158.5          158.5          0.77652189     1.2876686      1.3555591     -0.31366209     139.253      
     24540   156.77563      158.5          158.5          158.5         -0.33539456     3.5424305     -0.89211386    -3.6565003      156.77563    
     24560   120.34954      158.5          158.5          158.5          1.7632586     -0.81693545     0.1944302      5.912281       120.34954    
     24580   157.30456      158.5          158.5          158.5         -1.7117104     -2.2904218     -3.8529327      1.0082234      157.30456    
     24600   133.41293      158.5          158.5          158.5          1.1291598      0.72096958     5.114343      -2.4478331      133.41293    
     24620   138.42871      158.5          158.5          158.5         -1.3597625     -4.0787015      2.7031223     -2.7037082      138.42871    
     24640   139.37201      158.5          158.5          158.5          1.0685583      0.097708585    0.11445814     2.9935081      139.37201    
     24660   134.68202      158.5          158.5          158.5          0.74898312    -3.6560386      4.0841934      1.8187945      134.68202    
     24680   156.7832       158.5          158.5          158.5         -2.8628321     -5.4343641      1.2408487     -4.3949809      156.7832     
     24700   152.92046      158.5          158.5          158.5         -0.24601869     2.4943702     -3.3042229      0.071796642    152.92046    
     24720   139.64284      158.5          158.5          158.5          2.4245641     -0.16976298     3.0048642      4.4385912      139.64284    
     24740   152.87783      158.5          158.5          158.5          3.3577823     -1.377362       8.3501028      3.1006063      152.87783    
     24760   137.01272      158.5          158.5          158.5          6.1128403      8.2860131      6.5246894      3.5278185      137.01272    
     24780   152.51201      158.5          158.5          158.5          1.382448       3.5463933     -2.9600009      3.5609518      152.51201    
     24800   150.14195      158.5          158.5          158.5         -0.60843542    -5.0545145     -0.27621211     3.5054204      150.14195    
     24820   170.07965      158.5          158.5          158.5         -1.0213117     -4.6945015      4.3998648     -2.7692983      170.07965    
     24840   127.56625      158.5          158.5          158.5         -4.4580673     -3.5750519     -6.3071541     -3.4919958      127.56625    
     24860   162.05542      158.5          158.5          158.5          1.4993283      4.0685624     -5.0446594      5.4740819      162.05542    
     24880   126.48941      158.5          158.5          158.5          0.076544037   -1.4226291      2.1868771     -0.53461584     126.48941    
     24900   140.27386      158.5          158.5          158.5         -1.0847619     -4.5827548      3.2731295     -1.9446603      140.27386    
     24920   134.27986      158.5          158.5          158.5         -0.95227828    -4.2295298     -0.4202642      1.7929591      134.27986    
     24940   137.63929      158.5          158.5          158.5         -0.32187598    -3.2648574      0.84955861     1.4496708      137.63929    
     24960   135.04923      158.5          158.5          158.5         -0.10918725    -2.4511213      0.074836296    2.0487232      135.04923    
     24980   131.85277      158.5          158.5          158.5         -2.0227893     -6.8514886      0.96966015    -0.18653956     131.85277    
     25000   132.78944      158.5          158.5          158.5          3.0476575      3.0474266      5.0417582      1.0537877      132.78944    
     25020   141.96237      158.5          158.5          158.5         -3.1072396     -0.76128514    -1.9626612     -6.5977724      141.96237    
     25040   123.92817      158.5          158.5          158.5          1.2859759     -0.370134       0.3223108      3.9057509      123.92817    
     25060   132.75526      158.5          158.5          158.5          0.36548736    -1.2144033     -1.9088477      4.2197131      132.75526    
     25080   126.89669      158.5          158.5          158.5         -1.5113895      2.2679482     -1.7396896     -5.0624271      126.89669    
     25100   132.79286      158.5          158.5          158.5          4.6729644      5.4221047      8.5093447      0.087443756    132.79286    
     25120   123.90683      158.5          158.5          158.5         -4.0051584     -7.6880853     -0.3521236     -3.9752661      123.90683    
     25140   139.25093      158.5          158.5          158.5          0.33849567     4.5121291     -2.2574656     -1.2391765      139.25093    
     25160   133.97399      158.5          158.5          158.5         -2.4441174     -0.98295403    -4.4269673     -1.922431       133.97399    
     25180   132.96078      158.5          158.5          158.5         -3.4504573     -6.1004086     -3.1060364     -1.1449269      132.96078    
     25200   128.5417       158.5          158.5          158.5          5.9040676      10.816048      0.36601626     6.5301384      128.5417     
     25220   141.84369      158.5          158.5          158.5          0.25319884     2.2766854     -4.1604701      2.6433812      141.84369    
     25240   136.60391      158.5          158.5          158.5          2.7959526      1.0523153      4.3137453      3.021797       136.60391    
     25260   128.00928      158.5          158.5          158.5          0.87148135     2.2154273      0.7616884     -0.36267162     128.00928    
     25280   158.3474       158.5          158.5          158.5         -4.5204367     -4.0785468     -6.3670933     -3.1156699      158.3474     
     25300   146.59733      158.5          158.5          158.5         -1.2109132     -1.2410312     -1.2661845     -1.1255239      146.59733    
     25320   158.58097      158.5          158.5          158.5         -3.1189663     -2.5692436     -3.5147729     -3.2728825      158.58097    
     25340   140.52482      158.5          158.5          158.5         -0.19583684    -3.2297303      0.89269739     1.7495224      140.52482    
     25360   179.26819      158.5          158.5          158.5          0.52050799     0.15944775    -3.7744522      5.1765285      179.26819    
     25380   168.13392      158.5          158.5          158.5         -0.34142437    -0.68451874    -4.3982307      4.0584763      168.13392    
     25400   143.89131      158.5          158.5          158.5          3.6244248      2.7431187      2.0000089      6.1301468      143.89131    
     25420   159.22141      158.5          158.5          158.5         -0.47880293     1.0447392     -1.2369615     -1.2441864      159.22141    
     25440   171.95867      158.5          158.5          158.5         -4.1292437     -6.1326915     -6.2026548     -0.052384724    171.95867    
     25460   151.61389      158.5          158.5          158.5          0.19166904    -0.38428691     0.75973338     0.19956066     151.61389    
     25480   166.24654      158.5          158.5          158.5         -2.9464936     -2.6830835      0.50030323    -6.6567005      166.24654    
     25500   133.46919      158.5          158.5          158.5          1.3745088      0.30269034    -0.42354725     4.2443834      133.46919    
     25520   139.83254      158.5          158.5          158.5          3.6089248      3.9324074     -2.3275102      9.2218773      139.83254    
     25540   142.785        158.5          158.5          158.5          0.97447683     0.52941895     4.9722805     -2.578269       142.785      
     25560   149.59425      158.5          158.5          158.5          6.3393776      8.8917016      8.5478378      1.5785933      149.59425    
     25580   136.29945      158.5          158.5          158.5         -2.8396414     -3.5757108     -2.0170047     -2.9262086      136.29945    
     25600   146.1034       158.5          158.5          158.5         -0.17277342    -4.9340849      0.17220706     4.2435576      146.1034     
     25620   137.18462      158.5          158.5          158.5          1.4134907      2.8222945      2.2973222     -0.87914468     137.18462    
     25640   130.01006      158.5          158.5          158.5         -3.7469212     -1.5190954      0.49949307    -10.221161      130.01006    
     25660   132.20623      158.5          158.5          158.5          3.6284754      3.5043871      4.0041682      3.3768708      132.20623    
     25680   130.81866      158.5          158.5          158.5         -2.4069168     -3.1657694     -4.9917568      0.93677579     130.81866    
     25700   135.62556      158.5          158.5          158.5          2.1486603      2.8857249      4.7202088     -1.1599528      135.62556    
     25720   125.80208      158.5          158.5          158.5          5.1059986      4.7786146      8.9253105      1.6140706      125.80208    
     25740   130.91374      158.5          158.5          158.5         -0.11570528    -2.0817648     -2.6028366      4.3374855      130.91374    
     25760   124.0923       158.5          158.5          158.5          0.64610184     1.2618226     -1.6323318      2.3088147      124.0923     
     25780   113.76234      158.5          158.5          158.5         -2.3468161      1.6459549     -2.1174284     -6.5689747      113.76234    
     25800   132.13092      158.5          158.5          158.5         -3.1408733     -2.495043      -2.5693695     -4.3582073      132.13092    
     25820   127.77844      158.5          158.5          158.5         -3.6856262     -6.2073063     -0.95212721    -3.8974451      127.77844    
     25840   128.90461      158.5          158.5          158.5         -1.9334172     -4.8784658      2.9660152     -3.8878009      128.90461    
     25860   118.62806      158.5          158.5          158.5          1.7759455      2.8517193      3.6903794     -1.2142623      118.62806    
     25880   124.34826      158.5          158.5          158.5         -0.78943435    -2.9377692     -0.2746954      0.84416157     124.34826    
     25900   124.88849      158.5          158.5          158.5          2.9331374     -0.55533531     2.2956819      7.0590656      124.88849    
     25920   115.49367      158.5          158.5          158.5          0.46700672    -1.9555254     -0.1113377      3.4678832      115.49367    
     25940   116.6718       158.5          158.5          158.5         -1.5751303      0.31631793     0.45819878    -5.4999075      116.6718     
     25960   115.74154      158.5          158.5          158.5          1.0694032      5.5963226      2.2223433     -4.6104563      115.74154    
     25980   125.49114      158.5          158.5          158.5         -1.5487027     -2.4041218     -3.1239857      0.88199932     125.49114    
     26000   117.77852      158.5          158.5          158.5          3.6921828      2.5644225      2.5883214      5.9238046      117.77852    
     26020   134.30456      158.5          158.5          158.5          1.6422499      5.606241       3.0515873     -3.7310787      134.30456    
     26040   124.58522      158.5          158.5          158.5          2.3004982      5.9660974      3.2952748     -2.3598776      124.58522    
     26060   129.71988      158.5          158.5          158.5          5.7744927      6.7916415      5.7087083      4.8231284      129.71988    
     26080   138.77676      158.5          158.5          158.5         -1.4537671      0.66719239    -1.5061262     -3.5223675      138.77676    
     26100   137.71472      158.5          158.5          158.5          2.8310987      8.1710338      0.99305854    -0.67079635     137.71472    
     26120   147.25973      158.5          158.5          158.5         -3.1394756      2.1707893     -5.5610859     -6.0281303      147.25973    
     26140   133.56086      158.5          158.5          158.5         -1.6958816     -3.407211       0.47886476    -2.1592986      133.56086    
     26160   141.54456      158.5          158.5          158.5          2.6888877      1.8969576      4.0083941      2.1613112      141.54456    
     26180   145.07848      158.5          158.5          158.5         -3.7705531      0.37593362    -7.8932093     -3.7943837      145.07848    
     26200   147.24806      158.5          158.5          158.5          0.57137759    -0.23063343     0.66647059     1.2782956      147.24806    
     26220   133.63002      158.5          158.5          158.5          2.2021972      2.9496523      6.0897584     -2.4328191      133.63002    
     26240   142.04793      158.5          158.5          158.5         -2.3583861     -2.6278462     -3.5842932     -0.86301877     142.04793    
     26260   131.49306      158.5          158.5          158.5         -0.99029684    -2.7756481     -3.4322693      3.2370268      131.49306    
     26280   139.7329       158.5          158.5          158.5         -5.0382912     -4.4455168     -4.5108849     -6.1584721      139.7329     
     26300   139.1248       158.5          158.5          158.5         -4.5180278     -3.2925934     -2.7289855     -7.5325044      139.1248     
     26320   127.69653      158.5          158.5          158.5         -2.4100094     -5.9644432      1.6166318     -2.8822167      127.69653    
     26340   135.81718      158.5          158.5          158.5          0.68271988    -0.69807063     0.60612056     2.1401097      135.81718    
     26360   123.579        158.5          158.5          158.5         -0.2115178      3.7679288     -1.6066906     -2.7957916      123.579      
     26380   110.58547      158.5          158.5          158.5         -2.978046      -2.9012815     -0.45699859    -5.5758578      110.58547    
     26400   121.37283      158.5          158.5          158.5          0.45951254    -1.5861594      1.3108586      1.6538385      121.37283    
     26420   114.97679      158.5          158.5          158.5         -1.8066119     -0.027399302   -5.3390066     -0.053429813    114.97679    
     26440   117.80789      158.5          158.5          158.5         -3.9218694     -0.53584109    -4.1631727     -7.0665945      117.80789    
     26460   117.42498      158.5          158.5          158.5          3.5036912      3.7128995      6.3497938      0.44838022     117.42498    
     26480   116.82579      158.5          158.5          158.5          1.0908702      0.63587211     0.079167649    2.5575708      116.82579    
     26500   115.75859      158.5          158.5          158.5          1.8149591      2.4830361      0.93573954     2.0261017      115.75859    
     26520   127.04298      158.5          158.5          158.5          6.5633346      8.5399112      9.6607208      1.4893718      127.04298    
     26540   124.09669      158.5          158.5          158.5          0.64883244     4.0529024     -0.54340117    -1.5630039      124.09669    
     26560   126.99197      158.5          158.5          158.5          0.037042398    4.8361454     -4.281406      -0.44361213     126.99197    
     26580   110.63098      158.5          158.5          158.5          2.4001374      3.3526424      1.2610448      2.5867249      110.63098    
     26600   119.37896      158.5          158.5          158.5         -2.2264877     -1.0187305     -4.0706602     -1.5900725      119.37896    
     26620   118.81294      158.5          158.5          158.5         -0.72092714     3.1598112     -4.8694496     -0.45314305     118.81294    
     26640   126.00284      158.5          158.5          158.5          2.9518551      5.6396923     -0.74431473     3.9601878      126.00284    
     26660   112.19928      158.5          158.5          158.5         -2.3213554     -3.3109024     -2.4840693     -1.1690944      112.19928    
     26680   124.23699      158.5          158.5          158.5          3.7538812      3.1732241      3.2332013      4.8552183      124.23699    
     26700   133.21544      158.5          158.5          158.5          2.3309263      3.6311189      1.3015109      2.0601491      133.21544    
     26720   137.86201      158.5          158.5          158.5         -4.5046255     -5.4937164     -4.7945787     -3.2255813      137.86201    
     26740   133.69641      158.5          158.5          158.5          0.6604154      1.5208233     -4.6567065      5.1171294      133.69641    
     26760   145.16212      158.5          158.5          158.5         -6.9860628     -5.5997773     -11.02796      -4.3304507      145.16212    
     26780   143.87631      158.5          158.5          158.5         -4.4931743     -6.1629013     -7.21422       -0.10240152     143.87631    
     26800   121.79308      158.5          158.5          158.5          0.72068137     2.7724764     -1.9567697      1.3463374      121.79308    
     26820   146.60707      158.5          158.5          158.5         -4.8762694     -3.1396631     -6.9359026     -4.5532425      146.60707    
     26840   134.76956      158.5          158.5          158.5          4.8207809     -0.18181056     6.5332187      8.1109345      134.76956    
     26860   139.39614      158.5          158.5          158.5          3.2881067      5.2199452      0.96604002     3.6783348      139.39614    
     26880   135.88618      158.5          158.5          158.5         -1.1819004     -1.5167377     -3.8995127      1.8705493      135.88618    
     26900   141.04151      158.5          158.5          158.5          1.7190033     -5.127622       0.98315176     9.3014801      141.04151    
     26920   138.66148      158.5          158.5          158.5         -0.12771117     0.91553606    -2.4983394      1.1996698      138.66148    
     26940   150.88231      158.5          158.5          158.5          1.4331359      5.7478994      0.50841611    -1.9569077      150.88231    
     26960   136.35937      158.5          158.5          158.5         -2.5000282     -2.0466715     -4.5040113     -0.94940188     136.35937    
     26980   140.26162      158.5          158.5          158.5          2.6836811      1.139139       0.50004248     6.4118618      140.26162    
     27000   132.47536      158.5          158.5          158.5          1.3448897      1.1646357      3.1725362     -0.30250276     132.47536    
     27020   141.35351      158.5          158.5          158.5         -3.3467564      0.53988628    -3.388086      -7.1920694      141.35351    
     27040   137.4462       158.5          158.5          158.5          2.9219285      4.420851       0.24108254     4.103852       137.4462     
     27060   136.26671      158.5          158.5          158.5         -2.6564916     -6.1021668     -2.7747099      0.907402       136.26671    
     27080   129.79993      158.5          158.5          158.5          0.95461063    -0.13814678     2.12701        0.87496866     129.79993    
     27100   130.013        158.5          158.5          158.5          0.41512656     2.9795109     -1.9946473      0.26051611     130.013      
     27120   132.53972      158.5          158.5          158.5         -3.4520239      0.38275783    -4.5384261     -6.2004035      132.53972    
     27140   140.24339      158.5          158.5          158.5          1.8790723      3.2920835      3.1188015     -0.77366809     140.24339    
     27160   128.19948      158.5          158.5          158.5         -1.9915149     -4.4681884     -1.9538787      0.44752233     128.19948    
     27180   140.51318      158.5          158.5          158.5         -0.68017364    -2.3197625     -2.6096457      2.8888873      140.51318    
     27200   141.38407      158.5          158.5          158.5          0.85128874     0.17291433     1.9973641      0.38358784     141.38407    
     27220   141.12805      158.5          158.5          158.5         -2.2543829     -1.467688      -3.2970602     -1.9984006      141.12805    
     27240   137.32458      158.5          158.5          158.5          3.2593387      2.1974084      2.3105803      5.2700273      137.32458    
     27260   146.08221      158.5          158.5          158.5         -0.92439019    -2.4296253      2.6528862     -2.9964315      146.08221    
     27280   140.91708      158.5          158.5          158.5         -2.8502296     -1.0275708     -1.4916043     -6.0315137      140.91708    
     27300   146.89102      158.5          158.5          158.5          2.4912154      4.3619164      0.81998897     2.2917409      146.89102    
     27320   141.01457      158.5          158.5          158.5         -4.6673873     -5.3132119     -3.1094117     -5.5795383      141.01457    
     27340   148.15986      158.5          158.5          158.5         -1.6483829     -0.88078712    -1.5162193     -2.5481423      148.15986    
     27360   137.21135      158.5          158.5          158.5          2.0219625     -2.2284905      3.1611484      5.1332295      137.21135    
     27380   142.12311      158.5          158.5          158.5         -4.1564555     -7.3141346     -2.8350233     -2.3202084      142.12311    
     27400   127.58808      158.5          158.5          158.5          3.0402512      1.4328012      6.2034149      1.4845374      127.58808    
     27420   166.41797      158.5          158.5          158.5         -0.98667028    -2.3958999      2.071501      -2.6356119      166.41797    
     27440   138.517        158.5          158.5          158.5         -0.46347021     2.9361559     -1.4203334     -2.9062331      138.517      
     27460   136.41501      158.5          158.5          158.5          5.1427164      5.3493028      4.9775127      5.1013336      136.41501    
     27480   132.35105      158.5          158.5          158.5         -3.0526585     -6.7637478     -0.78947499    -1.6047528      132.35105    
     27500   146.67985      158.5          158.5          158.5          1.3815192      4.5541608     -0.31325562    -0.09634753     146.67985    
     27520   111.49929      158.5          158.5          158.5         -1.1211244      0.75521153    -1.3367299     -2.7818549      111.49929    
     27540   150.00002      158.5          158.5          158.5         -1.1528149     -3.4791767      1.0343688     -1.0136369      150.00002    
     27560   152.3682       158.5          158.5          158.5          4.7908693      5.5620883      5.5734951      3.2370244      152.3682     
     27580   125.1579       158.5          158.5          158.5         -3.3929258     -6.3299014      0.002239703   -3.8511157      125.1579     
     27600   135.53553      158.5          158.5          158.5          3.4528193      1.6844023      4.8942731      3.7797826      135.53553    
     27620   137.76955      158.5          158.5          158.5          0.96807405     1.1001468      2.0170476     -0.21297225     137.76955    
     27640   114.85931      158.5          158.5          158.5         -2.3498808     -5.3016742      0.78490878    -2.5328769      114.85931    
     27660   121.12135      158.5          158.5          158.5          4.7370868      3.8855476      5.9097423      4.4159705      121.12135    
     27680   111.21682      158.5          158.5          158.5         -4.2660182     -1.9534824     -4.6139824     -6.2305897      111.21682    
     27700   114.60408      158.5          158.5          158.5          2.0646674      1.0398669      3.8226336      1.3315017      114.60408    
     27720   110.82483      158.5          158.5          158.5          1.9361327      3.4517284      1.5244403      0.83222946     110.82483    
     27740   121.01421      158.5          158.5          158.5         -6.125831      -5.0150657     -8.4575514     -4.9048758      121.01421    
     27760   129.33179      158.5          158.5          158.5          5.5130368      4.6332386      4.7174878      7.1883841      129.33179    
     27780   108.49605      158.5          158.5          158.5         -1.9452368     -0.39435761    -2.3367375     -3.1046153      108.49605    
     27800   113.24408      158.5          158.5          158.5         -1.8301365     -3.1039738     -1.9811291     -0.40530651     113.24408    
     27820   119.45029      158.5          158.5          158.5          3.9536086      1.3452985      5.637366       4.8781613      119.45029    
     27840   123.26843      158.5          158.5          158.5         -7.0391443     -8.6477425     -4.7083984     -7.7612922      123.26843    
     27860   118.07786      158.5          158.5          158.5          1.9558386      3.3247227      0.48225942     2.0605336      118.07786    
     27880   130.45243      158.5          158.5          158.5         -1.3551515      0.57257949    -4.8529824      0.21494838     130.45243    
     27900   127.78107      158.5          158.5          158.5         -4.6485402     -3.4147687     -5.6399442     -4.8909076      127.78107    
     27920   123.14143      158.5          158.5          158.5          5.7485049      3.7785075      7.6819612      5.7850459      123.14143    
     27940   115.8143       158.5          158.5          158.5         -2.6566139     -3.5714625      1.1516368     -5.5500158      115.8143     
     27960   134.11568      158.5          158.5          158.5          2.8593183      3.1803992      2.5988039      2.798752       134.11568    
     27980   119.08645      158.5          158.5          158.5          4.146312       2.7645277      3.3364674      6.3379408      119.08645    
     28000   121.77372      158.5          158.5          158.5         -0.6518866     -3.2746752      1.9135938     -0.59457843     121.77372    
     28020   124.36329      158.5          158.5          158.5          1.163607       1.4399734     -1.9945899      4.0454374      124.36329    
     28040   124.50472      158.5          158.5          158.5         -2.3681564      1.9134206     -5.465297      -3.5525926      124.50472    
     28060   133.78012      158.5          158.5          158.5         -0.84122295     1.3290473     -2.5100884     -1.3426277      133.78012    
     28080   131.2815       158.5          158.5          158.5         -1.0930275     -3.6535399     -3.1483693      3.5228266      131.2815     
     28100   138.2785       158.5          158.5          158.5          1.6510524      3.7318509      2.3745633     -1.1532571      138.2785     
     28120   133.84913      158.5          158.5          158.5          1.6562758      5.4078859      2.910994      -3.3500524      133.84913    
     28140   135.11456      158.5          158.5          158.5          1.0858504      1.3007155      2.1529005     -0.1960649      135.11456    
     28160   152.21195      158.5          158.5          158.5          2.8328112     -0.90078937     7.3432802      2.0559428      152.21195    
     28180   139.52307      158.5          158.5          158.5          0.24357507    -0.028659692    0.8713733     -0.1119884      139.52307    
     28200   145.97828      158.5          158.5          158.5          2.8808777      6.634334       0.44217092     1.5661282      145.97828    
     28220   133.93198      158.5          158.5          158.5         -1.2175171     -2.1586771      1.4215327     -2.9154068      133.93198    
     28240   139.9558       158.5          158.5          158.5         -2.0063366     -4.1621834      0.36442329    -2.2212497      139.9558     
     28260   143.8771       158.5          158.5          158.5          1.3898096      3.2177628     -0.23255805     1.1842242      143.8771     
     28280   135.30854      158.5          158.5          158.5         -2.2652506     -2.9746603     -2.9474286     -0.87366289     135.30854    
     28300   168.42672      158.5          158.5          158.5          2.4274593      2.4030555      2.0883966      2.7909257      168.42672    
     28320   157.34099      158.5          158.5          158.5         -0.055038845    1.8150746     -2.406467       0.42627584     157.34099    
     28340   143.95309      158.5          158.5          158.5          0.11814676     2.5057951     -1.7672545     -0.38410032     143.95309    
     28360   155.63132      158.5          158.5          158.5          0.87657044     3.9942879     -1.573134       0.20855749     155.63132    
     28380   140.18195      158.5          158.5          158.5         -4.0676835     -4.4499817     -4.6162826     -3.1367861      140.18195    
     28400   140.57245      158.5          158.5          158.5          2.115111       0.12717541     4.2749167      1.9432409      140.57245    
     28420   133.61562      158.5          158.5          158.5         -1.7167344      1.9133597     -5.1795037     -1.8840593      133.61562    
     28440   145.8438       158.5          158.5          158.5         -2.1373511     -0.49779264    -5.4773023     -0.4369582      145.8438     
     28460   143.94678      158.5          158.5          158.5          2.9558288      2.583018       1.2385138      5.0459547      143.94678    
     28480   133.66677      158.5          158.5          158.5         -4.6880584     -4.6785437     -6.7253729     -2.6602584      133.66677    
     28500   106.07789      158.5          158.5          158.5          0.81807033    -1.7384972      2.8742938      1.3184145      106.07789    
     28520   126.35838      158.5          158.5          158.5         -0.93287118    -1.1191758     -0.83011769    -0.84932001     126.35838    
     28540   147.40329      158.5          158.5          158.5         -5.9903957     -4.8885269     -7.3309164     -5.7517439      147.40329    
     28560   136.37648      158.5          158.5          158.5          1.6224641     -1.3965537      4.253105       2.0108408      136.37648    
     28580   130.98208      158.5          158.5          158.5          0.10888678    -2.0095285      1.6114964      0.72469239     130.98208    
     28600   123.08363      158.5          158.5          158.5         -1.5074021     -1.6981084     -2.5202943     -0.30380355     123.08363    
     28620   137.88627      158.5          158.5          158.5          3.9429832      4.7174596      5.3047926      1.8066975      137.88627    
     28640   128.72224      158.5          158.5          158.5          2.2109582      1.9180011      2.1882968      2.5265766      128.72224    
     28660   140.71148      158.5          158.5          158.5         -0.96491421     0.21833775    -3.106015      -0.0070653751   140.71148    
     28680   143.41597      158.5          158.5          158.5          2.6553836      3.3870147      2.4798192      2.0993169      143.41597    
     28700   135.01019      158.5          158.5          158.5          0.72885948     2.6128134     -3.1191627      2.6929277      135.01019    
     28720   125.58778      158.5          158.5          158.5          0.4983282     -0.075647097   -0.51180659     2.0824383      125.58778    
     28740   137.21058      158.5          158.5          158.5          1.0343964     -1.0430543      1.9741883      2.1720552      137.21058    
     28760   122.72862      158.5          158.5          158.5          1.177679       2.1391771     -0.75133796     2.1451978      122.72862    
     28780   162.60037      158.5          158.5          158.5          0.29424173     4.050041      -1.8710111     -1.2963048      162.60037    
     28800   133.0213       158.5          158.5          158.5          0.4971846     -1.0624918      3.46091       -0.90686437     133.0213     
     28820   153.73116      158.5          158.5          158.5          3.2187224      1.5386515      5.8685456      2.24897        153.73116    
     28840   140.82386      158.5          158.5          158.5          0.37127733     1.1671432      0.29873367    -0.35204488     140.82386    
     28860   161.43145      158.5          158.5          158.5          1.8106104      3.2471009      0.48683202     1.6978982      161.43145    
     28880   137.47092      158.5          158.5          158.5         -0.37736353    -4.4020123      2.6884345      0.58148726     137.47092    
     28900   157.65428      158.5          158.5          158.5         -6.412424      -10.773249     -3.0110769     -5.4529466      157.65428    
     28920   143.05913      158.5          158.5          158.5         -2.5951177     -2.4753851     -2.3017922     -3.0081757      143.05913    
     28940   149.61764      158.5          158.5          158.5         -1.4135568     -2.2145574     -0.13106737    -1.8950457      149.61764    
     28960   117.95531      158.5          158.5          158.5         -0.8817117     -7.0997973      3.9575151      0.4971471      117.95531    
     28980   137.40276      158.5          158.5          158.5          2.8076787     -0.67120664     7.0807542      2.0134884      137.40276    
     29000   137.14576      158.5          158.5          158.5         -1.3137189      3.0057391     -3.6018263     -3.3450695      137.14576    
     29020   142.8741       158.5          158.5          158.5          0.6135843      3.2025779     -1.9407555      0.57893046     142.8741     
     29040   115.53738      158.5          158.5          158.5         -2.3028134     -3.0634979     -0.96798891    -2.8769533      115.53738    
     29060   121.3255       158.5          158.5          158.5         -5.4132553     -9.4339819     -4.6966849     -2.1090992      121.3255     
     29080   128.36831      158.5          158.5          158.5          0.66243722     1.0454112     -0.98380097     1.9257015      128.36831    
     29100   125.89246      158.5          158.5          158.5         -1.7654044     -0.37856186    -1.6263815     -3.2912699      125.89246    
     29120   125.77856      158.5          158.5          158.5          2.3806962      4.3831087      2.2062292      0.5527509      125.77856    
     29140   129.57596      158.5          158.5          158.5          4.1480152      3.8697157      5.4298541      3.1444759      129.57596    
     29160   123.64904      158.5          158.5          158.5         -1.5772153     -3.8329679      1.8375113     -2.7361891      123.64904    
     29180   123.90488      158.5          158.5          158.5          3.1708476      5.0347906      2.6680617      1.8096906      123.90488    
     29200   112.4005       158.5          158.5          158.5          1.3820414      4.0267598     -0.57263518     0.69199953     112.4005     
     29220   119.19252      158.5          158.5          158.5         -2.6332977     -2.851913      -1.5613681     -3.4866119      119.19252    
     29240   127.03721      158.5          158.5          158.5          0.29591827     2.0867861      0.91833511    -2.1173664      127.03721    
     29260   123.30686      158.5          158.5          158.5         -0.83768311    -0.12963641    -0.44580926    -1.9376037      123.30686    
     29280   127.44113      158.5          158.5          158.5         -0.85789761    -3.6468143      0.9559017      0.11721977     127.44113    
     29300   121.81891      158.5          158.5          158.5          0.0053346254   2.7870973     -3.5701785      0.79908506     121.81891    
     29320   121.86799      158.5          158.5          158.5         -0.26856825     2.1765937     -2.612273      -0.37002545     121.86799    
     29340   145.28725      158.5          158.5          158.5         -2.2136376     -3.3126606     -0.42099982    -2.9072524      145.28725    
     29360   147.38197      158.5          158.5          158.5          1.2491431      3.060586       0.3733289      0.31351445     147.38197    
     29380   129.61858      158.5          158.5          158.5          0.97663525     2.6985937      0.88551732    -0.65420527     129.61858    
     29400   137.33888      158.5          158.5          158.5         -2.223437      -5.3140589     -1.324161      -0.032091054    137.33888    
     29420   142.77839      158.5          158.5          158.5          1.3899355      1.6716929      1.2164133      1.2817002      142.77839    
     29440   147.3977       158.5          158.5          158.5         -3.9699352     -1.2987969     -4.6699144     -5.9410942      147.3977     
     29460   143.51628      158.5          158.5          158.5         -2.6317966      0.066060548   -5.2476312     -2.7138191      143.51628    
     29480   147.79306      158.5          158.5          158.5          2.3857398      6.3979885      0.70212312     0.057107752    147.79306    
     29500   144.78645      158.5          158.5          158.5         -1.5613979      3.1934349     -3.3739903     -4.5036383      144.78645    
     29520   146.83002      158.5          158.5          158.5         -0.19750249     1.1757688     -0.57279593    -1.1954803      146.83002    
     29540   142.37755      158.5          158.5          158.5          2.9486066      2.9805323      4.3122676      1.5530199      142.37755    
     29560   120.74909      158.5          158.5          158.5         -0.35211201    -1.8417147      0.48722095     0.29815769     120.74909    
     29580   122.58107      158.5          158.5          158.5          2.520487       1.4527038      5.3048529      0.80390435     122.58107    
     29600   127.62006      158.5          158.5          158.5          2.0054801      5.2118337      4.3441178     -3.5395113      127.62006    
     29620   122.18909      158.5          158.5          158.5         -0.57752446    -1.435051       1.7349013     -2.0324237      122.18909    
     29640   140.55722      158.5          158.5          158.5          0.59044836    -6.6348085      4.6837638      3.7223897      140.55722    
     29660   121.07491      158.5          158.5          158.5          0.1033948     -3.3577746      3.8982302     -0.23027119     121.07491    
     29680   108.21341      158.5          158.5          158.5          0.4880824      4.6180752      0.67782645    -3.8316545      108.21341    
     29700   110.0879       158.5          158.5          158.5         -0.52432737     1.0622624     -1.1074378     -1.5278067      110.0879     
     29720   127.0235       158.5          158.5          158.5         -0.8145165     -4.1554523     -0.86591771     2.5778205      127.0235     
     29740   112.06848      158.5          158.5          158.5         -0.97363965    -3.429049      -0.29197062     0.80010064     112.06848    
     29760   121.78064      158.5          158.5          158.5         -3.5591115     -3.4213782     -1.2166289     -6.0393274      121.78064    
     29780   125.0132       158.5          158.5          158.5          0.37887462     1.7832118      1.635228      -2.2818159      125.0132     
     29800   120.46685      158.5          158.5          158.5         -1.5041056     -3.3577625     -1.7948065      0.64025211     120.46685    
     29820   120.4647       158.5          158.5          158.5         -0.43366971    -3.5493466      0.71373162     1.5346058      120.4647     
     29840   134.6491       158.5          158.5          158.5          1.0071727      1.9466196      3.0160269     -1.9411282      134.6491     
     29860   126.3684       158.5          158.5          158.5         -0.49217058    -1.3393612      1.5499303     -1.6870809      126.3684     
     29880   130.97611      158.5          158.5          158.5          2.646565      -1.4979551      1.8415184      7.5961317      130.97611    
     29900   131.37379      158.5          158.5          158.5          0.79421394     0.83106304    -1.1955966      2.7471754      131.37379    
     29920   134.64767      158.5          158.5          158.5         -1.502232       2.5262722     -3.0487917     -3.9841766      134.64767    
     29940   119.89715      158.5          158.5          158.5          2.4603766      2.7648925      2.226017       2.3902205      119.89715    
     29960   156.17268      158.5          158.5          158.5         -2.4667666     -4.3498517     -3.5574413      0.50699309     156.17268    
     29980   144.9272       158.5          158.5          158.5          0.13390007     0.1701962      0.32928911    -0.097785104    144.9272     
     30000   145.69446      158.5          158.5          158.5          1.4499977      4.4538239      0.76419923    -0.86803004     145.69446    
     30020   149.85767      158.5          158.5          158.5         -0.12908014     3.2838913     -2.0346369     -1.6364948      149.85767    
     30040   149.93183      158.5          158.5          158.5          4.9893056      3.9934252      6.2087153      4.7657762      149.93183    
     30060   149.13275      158.5          158.5          158.5          1.8380032      2.6243264      2.8926311     -0.0029477609   149.13275    
     30080   167.70807      158.5          158.5          158.5          3.1011185      5.0993408      2.6201328      1.5838818      167.70807    
     30100   143.89073      158.5          158.5          158.5          1.0187709      3.6906098      0.60273839    -1.2370354      143.89073    
     30120   157.06033      158.5          158.5          158.5         -3.5810913     -4.0549944     -2.93166       -3.7566194      157.06033    
     30140   143.43768      158.5          158.5          158.5          1.144608      -1.1453297      4.1383583      0.44079537     143.43768    
     30160   151.4084       158.5          158.5          158.5         -3.1955139     -3.9483195     -2.7650939     -2.8731283      151.4084     
     30180   146.9538       158.5          158.5          158.5         -3.0869352     -5.1389772      0.11603058    -4.2378589      146.9538     
     30200   159.58351      158.5          158.5          158.5          5.3372215      3.4023248      8.3813452      4.2279944      159.58351    
     30220   155.73181      158.5          158.5          158.5         -1.450579      -6.6615045      4.796967      -2.4871996      155.73181    
     30240   144.92197      158.5          158.5          158.5         -0.29450226    -1.5568253      0.44523905     0.22807947     144.92197    
     30260   161.14399      158.5          158.5          158.5          1.3434048      2.9610454     -2.8578793      3.9270483      161.14399    
     30280   141.65709      158.5          158.5          158.5         -1.1640113      1.2025255     -2.5853839     -2.1091755      141.65709    
     30300   141.4239       158.5          158.5          158.5          0.15606362    -0.85327445     0.98334462     0.3381207      141.4239     
     30320   139.67267      158.5          158.5          158.5          0.55367165    -2.1767763      1.1079087      2.7298825      139.67267    
     30340   135.71388      158.5          158.5          158.5          2.4246224      3.8205349      1.9381167      1.5152155      135.71388    
     30360   125.34847      158.5          158.5          158.5         -0.40909439     1.0157449     -1.5173635     -0.72566456     125.34847    
     30380   141.33813      158.5          158.5          158.5          0.75374138    -4.1591983      4.8702222      1.5502002      141.33813    
     30400   135.15566      158.5          158.5          158.5         -1.5003336     -0.086207199   -0.090532772   -4.3242608      135.15566    
     30420   130.28587      158.5          158.5          158.5         -2.0176541      1.7102101     -5.5956692     -2.1675031      130.28587    
     30440   133.42641      158.5          158.5          158.5          1.9226082     -0.37097464     0.41652912     5.7222702      133.42641    
     30460   130.11293      158.5          158.5          158.5         -1.388126      -1.8508878      0.57116066    -2.8846509      130.11293    
     30480   119.26699      158.5          158.5          158.5          1.7231693      7.0958192      0.25590532    -2.1822166      119.26699    
     30500   137.15708      158.5          158.5          158.5         -0.70082353     0.073516582   -4.3108751      2.134888       137.15708    
     30520   130.02292      158.5          158.5          158.5         -0.33162583    -0.60274828    -0.97251762     0.58038841     130.02292    
     30540   114.5685       158.5          158.5          158.5          0.25565389     1.8179248      0.94002228    -1.9909854      114.5685     
     30560   120.1343       158.5          158.5          158.5          0.98732093     3.3064376      0.70559737    -1.0500722      120.1343     
     30580   126.607        158.5          158.5          158.5          2.6381         5.8482595     -1.1155377      3.1815782      126.607      
     30600   106.85975      158.5          158.5          158.5         -0.21303556    -1.7848145      0.36793465     0.77777314     106.85975    
     30620   134.83755      158.5          158.5          158.5          1.8717726      0.55039485     5.4210967     -0.35617383     134.83755    
     30640   117.29454      158.5          158.5          158.5          0.42729288    -0.45379554     1.2880007      0.44767349     117.29454    
     30660   127.34335      158.5          158.5          158.5          0.19578072    -2.169046      -1.5142643      4.2706525      127.34335    
     30680   121.12807      158.5          158.5          158.5          3.1456203      3.6743758      2.346599       3.4158861      121.12807    
     30700   112.58548      158.5          158.5          158.5         -1.9275115     -2.1350228      1.1290721     -4.7765836      112.58548    
     30720   125.35237      158.5          158.5          158.5         -2.3173853     -1.6597877     -2.9321056     -2.3602626      125.35237    
     30740   121.09667      158.5          158.5          158.5         -0.14655654     0.58752379    -3.4593337      2.4321402      121.09667    
     30760   113.92525      158.5          158.5          158.5         -2.9397469     -3.1730009     -3.907253      -1.7389868      113.92525    
     30780   114.96818      158.5          158.5          158.5          0.16778809     0.86843172    -0.24545167    -0.11961578     114.96818    
     30800   122.04562      158.5          158.5          158.5          1.7565946      1.4905805      3.6364501      0.1427532      122.04562    
     30820   105.34932      158.5          158.5          158.5         -0.052682716    1.06599        0.84706931    -2.0711074      105.34932    
     30840   115.80132      158.5          158.5          158.5          1.3631949      1.7476683      0.57191784     1.7699985      115.80132    
     30860   123.0489       158.5          158.5          158.5         -1.2211893     -1.8891623      0.85339195    -2.6277976      123.0489     
     30880   127.04887      158.5          158.5          158.5          2.0298006      2.9658745      3.4551034     -0.33157625     127.04887    
     30900   115.62851      158.5          158.5          158.5          0.15668845    -1.1846429     -0.7275843      2.3822925      115.62851    
     30920   130.688        158.5          158.5          158.5         -0.94088082    -0.57084468    -2.9941729      0.74237511     130.688      
     30940   123.65231      158.5          158.5          158.5          2.9906973      4.6609559      2.4302961      1.88084        123.65231    
     30960   118.36529      158.5          158.5          158.5         -2.028308      -2.5368364     -1.4331934     -2.1148942      118.36529    
     30980   131.01119      158.5          158.5          158.5          5.3379766      4.1544815      4.7008849      7.1585635      131.01119    
     31000   146.15451      158.5          158.5          158.5          0.44848299     1.2497242     -1.502115       1.5978397      146.15451    
     31020   138.49412      158.5          158.5          158.5         -0.31095135     1.6551333     -3.1281111      0.54012377     138.49412    
     31040   135.49198      158.5          158.5          158.5          3.2973265      2.9220452      0.015459039    6.9544753      135.49198    
     31060   133.5817       158.5          158.5          158.5         -3.5889923     -3.6016996     -5.6921874     -1.4730899      133.5817     
     31080   138.19217      158.5          158.5          158.5          1.2048918      0.39313895     2.5015816      0.71995489     138.19217    
     31100   143.31178      158.5          158.5          158.5          1.2620859      2.3323542      0.10474941     1.3491541      143.31178    
     31120   134.62355      158.5          158.5          158.5         -1.3498222     -2.889141      -1.4036976      0.24337191     134.62355    
     31140   129.13369      158.5          158.5          158.5          2.2650967      0.49307212     3.8845755      2.4176426      129.13369    
     31160   130.83408      158.5          158.5          158.5         -1.1785212      0.71165421    -5.8290096      1.5817919      130.83408    
     31180   145.10501      158.5          158.5          158.5         -4.2071861     -1.230135      -11.437361      0.045937745    145.10501    
     31200   140.83887      158.5          158.5          158.5         -0.34718445    -0.83939775    -1.9341688      1.7320132      140.83887    
     31220   128.5165       158.5          158.5          158.5          0.14438469    -1.9116362      1.8411919      0.50359836     128.5165     
     31240   133.79222      158.5          158.5          158.5         -1.1401215      0.47769326    -2.7168856     -1.1811722      133.79222    
     31260   137.24835      158.5          158.5          158.5          2.8192719      7.0165129     -1.0376731      2.4789759      137.24835    
     31280   125.33583      158.5          158.5          158.5          0.55687815     3.3077485     -0.95101048    -0.68610357     125.33583    
     31300   146.04883      158.5          158.5          158.5         -0.67117411    -1.275936       1.0957746     -1.833361       146.04883    
     31320   118.22664      158.5          158.5          158.5          4.2956883      4.994316       5.0114497      2.8812992      118.22664    
     31340   124.06574      158.5          158.5          158.5         -1.3843646      1.3850753     -3.4501588     -2.0880104      124.06574    
     31360   108.71024      158.5          158.5          158.5          0.12294525     2.6137267     -3.4144375      1.1695466      108.71024    
     31380   123.49939      158.5          158.5          158.5         -1.4247668     -2.2125971     -2.5311303      0.46942695     123.49939    
     31400   117.06848      158.5          158.5          158.5         -3.1971238     -2.3140426     -2.213324      -5.0640047      117.06848    
     31420   126.87308      158.5          158.5          158.5          1.3574548      4.5337329     -1.062008       0.60063936     126.87308    
     31440   109.64409      158.5          158.5          158.5         -4.5800869     -3.2809026     -8.4809657     -1.9783925      109.64409    
     31460   117.60446      158.5          158.5          158.5         -0.3468291     -3.7378727      1.8153519      0.88203349     117.60446    
     31480   102.94774      158.5          158.5          158.5          0.84472802     2.5159905      0.86637082    -0.84817726     102.94774    
     31500   108.89025      158.5          158.5          158.5          0.74765143     5.6561848     -3.0345653     -0.37866514     108.89025    
     31520   112.19243      158.5          158.5          158.5          3.0871697      4.3899644      1.8706265      3.0009183      112.19243    
     31540   111.68093      158.5          158.5          158.5         -0.71485163    -3.8095843     -0.45395961     2.1189891      111.68093    
     31560   112.28052      158.5          158.5          158.5          2.8179714      0.26339217     6.733849       1.4566731      112.28052    
     31580   103.23644      158.5          158.5          158.5         -1.8655806      0.5086716      0.50078154    -6.6061949      103.23644    
     31600   111.66392      158.5          158.5          158.5         -4.5304483     -6.5931183     -5.6505092     -1.3477173      111.66392    
     31620   109.48479      158.5          158.5          158.5          1.226462       0.67724902     2.6964         0.30573701     109.48479    
     31640   122.45326      158.5          158.5          158.5         -3.159334      -2.6937175      1.1221656     -7.90645        122.45326    
     31660   135.0877       158.5          158.5          158.5          1.9967395      2.9444681      3.8948916     -0.84914108     135.0877     
     31680   117.60352      158.5          158.5          158.5         -0.3512045     -0.43411327    -0.27603181    -0.34346843     117.60352    
     31700   124.08236      158.5          158.5          158.5         -0.45158263    -1.5890537      0.83282543    -0.59851966     124.08236    
     31720   125.45962      158.5          158.5          158.5          3.0641746      3.6833123      5.1475915      0.36161997     125.45962    
     31740   128.27659      158.5          158.5          158.5         -1.8869486     -1.3503588     -1.6814621     -2.6290248      128.27659    
     31760   121.90212      158.5          158.5          158.5          1.0577864      0.84499354     0.94685564     1.3815101      121.90212    
     31780   131.45284      158.5          158.5          158.5          0.32583848     0.54687333     3.0415312     -2.6108891      131.45284    
     31800   120.26308      158.5          158.5          158.5         -0.62697667    -0.7470166      3.1968698     -4.3307833      120.26308    
     31820   121.65088      158.5          158.5          158.5          1.5672136      4.382432      -1.085842       1.4050508      121.65088    
     31840   129.85174      158.5          158.5          158.5          0.60989157     4.1452009     -3.9413049      1.6257788      129.85174    
     31860   112.68978      158.5          158.5          158.5          4.3487447      1.0464805      8.8261211      3.1736325      112.68978    
     31880   118.40113      158.5          158.5          158.5          0.25521179    -2.192313       3.4863103     -0.52836187     118.40113    
     31900   124.72753      158.5          158.5          158.5          0.80193124     0.25766431     0.55040694     1.5977225      124.72753    
     31920   120.31339      158.5          158.5          158.5          0.55816779    -1.3118583      2.3638925      0.62246922     120.31339    
     31940   116.98618      158.5          158.5          158.5         -4.7934196     -4.8367944     -4.8713352     -4.6721292      116.98618    
     31960   131.33116      158.5          158.5          158.5          1.3062915      1.1000033      1.7176708      1.1012002      131.33116    
     31980   130.84333      158.5          158.5          158.5         -3.6330092     -5.4968714     -1.7219086     -3.6802475      130.84333    
     32000   111.67577      158.5          158.5          158.5          0.95150433     0.092105619    0.061905314    2.7005021      111.67577    
     32020   122.77697      158.5          158.5          158.5          2.7453627      3.1453437      2.2651348      2.8256096      122.77697    
     32040   123.04945      158.5          158.5          158.5         -2.5573734     -4.2842757      1.048162      -4.4360064      123.04945    
     32060   125.5674       158.5          158.5          158.5          1.7731373      1.4082188      2.8560405      1.0551527      125.5674     
     32080   105.25659      158.5          158.5          158.5         -1.6458502      1.7467989     -6.7384287      0.054079185    105.25659    
     32100   121.35193      158.5          158.5          158.5         -1.2549315     -2.1715772     -0.19651893    -1.3966984      121.35193    
     32120   122.02374      158.5          158.5          158.5          0.75078564    -3.5244716      7.9161113     -2.1392827      122.02374    
     32140   135.33426      158.5          158.5          158.5         -4.8726655     -2.8041722     -5.1346752     -6.679149       135.33426    
     32160   128.58555      158.5          158.5          158.5         -0.0049980853   3.140177      -5.1036648      1.9484936      128.58555    
     32180   124.94231      158.5          158.5          158.5         -0.43026874     0.096484348   -1.5800618      0.19277118     124.94231    
     32200   142.48219      158.5          158.5          158.5         -2.1894288     -4.9932322      1.0851412     -2.6601955      142.48219    
     32220   136.51274      158.5          158.5          158.5          2.7266259      0.096086419    4.1168467      3.9669445      136.51274    
     32240   138.83615      158.5          158.5          158.5         -0.82910738    -0.024134172   -2.5239737      0.06078578     138.83615    
     32260   140.44195      158.5          158.5          158.5          0.33576808    -0.09937856    -0.053117757    1.1598006      140.44195    
     32280   129.5977       158.5          158.5          158.5          5.5388689      6.4108378      8.2799341      1.9258347      129.5977     
     32300   133.06433      158.5          158.5          158.5         -1.577117      -1.7187037     -0.57331795    -2.4393293      133.06433    
     32320   123.92076      158.5          158.5          158.5          1.8283349      0.78013143    -0.56692234     5.2717955      123.92076    
     32340   128.74491      158.5          158.5          158.5          2.7840865      2.7547673      2.8550738      2.7424185      128.74491    
     32360   129.1744       158.5          158.5          158.5         -5.8628972     -7.9815349     -1.7880899     -7.8190667      129.1744     
     32380   108.38445      158.5          158.5          158.5          0.7547877     -2.6867682      5.7456255     -0.79449416     108.38445    
     32400   106.28878      158.5          158.5          158.5          0.046424713    1.4999802     -3.3193789      1.9586729      106.28878    
     32420   109.07578      158.5          158.5          158.5         -2.732869      -0.35445183    -8.4068441      0.56268891     109.07578    
     32440   121.48412      158.5          158.5          158.5          1.6177342      2.0449226      1.66857        1.1397101      121.48412    
     32460   119.02376      158.5          158.5          158.5         -2.4903285     -1.5207273     -3.0618948     -2.8883635      119.02376    
     32480   121.70443      158.5          158.5          158.5         -2.2706066     -2.2078392     -2.0619668     -2.5420138      121.70443    
     32500   116.52697      158.5          158.5          158.5          3.6532581      1.3324462      5.4616581      4.1656698      116.52697    
     32520   117.89198      158.5          158.5          158.5          1.4184796     -3.4063358      5.5429839      2.1187908      117.89198    
     32540   124.18432      158.5          158.5          158.5          0.31915812    -1.8775634      0.8582049      1.9768328      124.18432    
     32560   114.97976      158.5          158.5          158.5          2.8467632      1.4641346      4.088655       2.9874999      114.97976    
     32580   120.18251      158.5          158.5          158.5         -2.1809943     -3.4282428     -2.8263277     -0.28841252     120.18251    
     32600   126.13008      158.5          158.5          158.5         -1.8326052     -4.5335551     -0.17565442    -0.78860613     126.13008    
     32620   122.59817      158.5          158.5          158.5          2.4001346      1.6567987      4.6800223      0.86358287     122.59817    
     32640   139.03916      158.5          158.5          158.5         -1.0808378      0.32623933    -1.5946568     -1.9740959      139.03916    
     32660   123.22912      158.5          158.5          158.5          1.0646094     -1.9211607      1.7603933      3.3545955      123.22912    
     32680   134.84099      158.5          158.5          158.5          0.870974      -0.49672632     3.6210911     -0.51144275     134.84099    
     32700   132.8083       158.5          158.5          158.5         -1.9736447      3.7227048     -5.1295732     -4.5140658      132.8083     
     32720   132.54771      158.5          158.5          158.5          3.3605156      4.3878377     -0.25244065     5.9461497      132.54771    
     32740   144.12668      158.5          158.5          158.5         -0.3298295     -4.5982926      0.55599619     3.0528079      144.12668    
     32760   148.30195      158.5          158.5          158.5         -2.1547099     -6.6755785      2.554787      -2.3433381      148.30195    
     32780   132.22601      158.5          158.5          158.5          1.3193332      1.885441       1.8460311      0.2265275      132.22601    
     32800   124.07902      158.5          158.5          158.5          0.87680844     2.632844      -1.1718682      1.1694495      124.07902    
     32820   141.43729      158.5          158.5          158.5         -2.3088563     -2.7660797     -0.3893928     -3.7710965      141.43729    
     32840   123.91714      158.5          158.5          158.5          2.2631343      3.7245751      2.9682001      0.096627707    123.91714    
     32860   138.71207      158.5          158.5          158.5          1.1099715      1.7899296      0.51706148     1.0229234      138.71207    
     32880   122.48895      158.5          158.5          158.5         -2.4559287     -4.3750554     -1.6991698     -1.2935608      122.48895    
     32900   131.4755       158.5          158.5          158.5          2.9469874      2.7946991      1.8853634      4.1608997      131.4755     
     32920   121.72215      158.5          158.5          158.5         -1.9363339      0.058810748   -5.6772408     -0.19057162     121.72215    
     32940   112.51435      158.5          158.5          158.5         -2.6601022     -1.1708359     -4.9365037     -1.8729671      112.51435    
     32960   129.96874      158.5          158.5          158.5          0.41284253     0.13097214     2.2537328     -1.1461773      129.96874    
     32980   121.25355      158.5          158.5          158.5         -6.330835      -5.8661404     -6.6142016     -6.5121628      121.25355    
     33000   120.25911      158.5          158.5          158.5          2.2309329      2.2927581      1.6972746      2.7027661      120.25911    
     33020   119.87608      158.5          158.5          158.5          2.7813357      1.1072758      4.8569738      2.3797576      119.87608    
     33040   130.25434      158.5          158.5          158.5         -1.0817638     -2.4628634      0.32538465    -1.1078126      130.25434    
     33060   115.27561      158.5          158.5          158.5          5.6305157      4.1595638      5.2996655      7.4323179      115.27561    
     33080   141.27102      158.5          158.5          158.5         -2.7806411     -4.4327043     -5.7578209      1.8486019      141.27102    
     33100   122.97456      158.5          158.5          158.5         -5.2631825     -9.802718      -3.0098915     -2.976938       122.97456    
     33120   124.49305      158.5          158.5          158.5          2.4142591      2.5911696      5.3349681     -0.68336053     124.49305    
     33140   125.61974      158.5          158.5          158.5         -4.212041       2.7059864     -8.0015069     -7.3406025      125.61974    
     33160   112.76975      158.5          158.5          158.5          0.30833537     0.24674085    -1.3215677      1.9998329      112.76975    
     33180   128.59774      158.5          158.5          158.5          3.2332274     -0.44755463     6.2854174      3.8618193      128.59774    
     33200   128.41865      158.5          158.5          158.5         -1.226374       0.4773125     -1.5462607     -2.6101739      128.41865    
     33220   129.78746      158.5          158.5          158.5          2.2245132      6.1719423      1.4829777     -0.98138054     129.78746    
     33240   122.65615      158.5          158.5          158.5          1.8874797      0.72909616     5.3323829     -0.39904011     122.65615    
     33260   132.8865       158.5          158.5          158.5         -3.7672487     -5.6604237     -3.9100429     -1.7312794      132.8865     
     33280   128.02763      158.5          158.5          158.5          0.80470028     8.1051222     -3.1330262     -2.5579951      128.02763    
     33300   145.17474      158.5          158.5          158.5          0.026086818    8.3006998     -1.0682328     -7.1542065      145.17474    
     33320   144.24628      158.5          158.5          158.5         -3.122726      -2.5855236     -4.7235202     -2.0591343      144.24628    
     33340   129.44356      158.5          158.5          158.5          1.9074071      1.3859729      1.830975       2.5052735      129.44356    
     33360   149.72747      158.5          158.5          158.5         -0.56790343     1.7562873     -2.5501852     -0.90981235     149.72747    
     33380   138.14412      158.5          158.5          158.5         -3.0707074     -2.3146947     -6.7577158     -0.13971161     138.14412    
     33400   143.16926      158.5          158.5          158.5          2.35363        1.827202       5.6590336     -0.4253458      143.16926    
     33420   132.38004      158.5          158.5          158.5          0.88585489    -1.8385229      4.4525077      0.043579867    132.38004    
     33440   146.95464      158.5          158.5          158.5         -1.6322543     -1.9106565     -5.825203       2.8390967      146.95464    
     33460   148.06239      158.5          158.5          158.5          4.3516368      3.4232234      4.405357       5.2263298      148.06239    
     33480   130.95759      158.5          158.5          158.5          3.599295       0.3840454      4.5226575      5.8911821      130.95759    
     33500   136.30807      158.5          158.5          158.5         -1.0698287     -2.6939675     -0.84408774     0.32856906     136.30807    
     33520   142.65509      158.5          158.5          158.5          1.8374886      0.058528102    5.4773624     -0.023424632    142.65509    
     33540   127.88931      158.5          158.5          158.5         -2.7519945     -4.6152978     -2.3327052     -1.3079806      127.88931    
     33560   124.12442      158.5          158.5          158.5         -6.421149      -4.9067117     -9.7176185     -4.6391169      124.12442    
     33580   133.03576      158.5          158.5          158.5          1.4754161      0.62947065     0.32062631     3.4761513      133.03576    
     33600   124.26534      158.5          158.5          158.5         -3.4561405     -5.0013996     -2.4722102     -2.8948117      124.26534    
     33620   114.57483      158.5          158.5          158.5         -0.56151076     2.0998613     -0.78410866    -3.0002849      114.57483    
     33640   133.06887      158.5          158.5          158.5          6.6527021      8.4967732      6.6285747      4.8327583      133.06887    
     33660   137.24106      158.5          158.5          158.5         -4.4843014     -4.3560948     -4.6542908     -4.4425187      137.24106    
     33680   120.68064      158.5          158.5          158.5          2.3565742     -0.4390511      5.3265851      2.1821885      120.68064    
     33700   127.52408      158.5          158.5          158.5          3.5491259      4.4137055      5.5631649      0.67050731     127.52408    
     33720   137.28521      158.5          158.5          158.5         -6.270506      -2.6222195     -8.942341      -7.2469577      137.28521    
     33740   122.67825      158.5          158.5          158.5          3.4694364      0.71926294     5.0623509      4.6266954      122.67825    
     33760   121.17183      158.5          158.5          158.5          0.10615045    -3.0533862      2.3456373      1.0262003      121.17183    
     33780   125.85183      158.5          158.5          158.5         -1.9745484      0.57406014    -5.4090011     -1.0887044      125.85183    
     33800   124.58413      158.5          158.5          158.5          5.9727016      9.4425209      4.4636278      4.0119562      124.58413    
     33820   126.09101      158.5          158.5          158.5         -1.1585509     -1.6395721      0.85596597    -2.6920466      126.09101    
     33840   154.08647      158.5          158.5          158.5          0.50234054     1.0963871     -3.1247159      3.5353505      154.08647    
     33860   140.71328      158.5          158.5          158.5          2.5276785      4.5494915      0.43412624     2.5994176      140.71328    
     33880   134.69848      158.5          158.5          158.5          0.90131502     1.9902787      1.6591347     -0.94546831     134.69848    
     33900   133.20254      158.5          158.5          158.5          3.3491491      1.4464695      3.0309328      5.5700452      133.20254    
     33920   146.47052      158.5          158.5          158.5         -0.89924275    -3.7454276     -2.0193448      3.0670441      146.47052    
     33940   142.1984       158.5          158.5          158.5         -0.66767382    -0.5020021     -0.17881619    -1.3222032      142.1984     
     33960   121.23251      158.5          158.5          158.5         -1.1284445     -0.52982071    -0.3444963     -2.5110165      121.23251    
     33980   147.09679      158.5          158.5          158.5         -0.65894829     0.37068313    -1.5235051     -0.82402285     147.09679    
     34000   140.31225      158.5          158.5          158.5          0.21736266     0.38882128    -0.019048657    0.28231537     140.31225    
     34020   146.57561      158.5          158.5          158.5         -3.9877218     -4.6703425     -5.468788      -1.8240349      146.57561    
     34040   121.81634      158.5          158.5          158.5          1.9396605      4.8990926      1.7587674     -0.83887845     121.81634    
     34060   136.81611      158.5          158.5          158.5         -0.16724757     2.2148147      1.6181595     -4.3347169      136.81611    
     34080   125.81003      158.5          158.5          158.5         -3.4095079     -4.6061758     -1.1192136     -4.5031344      125.81003    
     34100   128.17371      158.5          158.5          158.5          2.1164287      1.505118       3.2377635      1.6064046      128.17371    
     34120   125.04986      158.5          158.5          158.5         -2.8578979     -1.2967703     -4.8450006     -2.4319228      125.04986    
     34140   131.41348      158.5          158.5          158.5         -1.3076843      0.67574062     1.4618066     -6.0606003      131.41348    
     34160   122.32627      158.5          158.5          158.5          2.3569703      2.6854539      5.0707788     -0.68532194     122.32627    
     34180   130.51374      158.5          158.5          158.5         -5.1226974     -4.4043574     -5.8377818     -5.1259529      130.51374    
     34200   125.75038      158.5          158.5          158.5          1.6184018      3.7618525      1.6877427     -0.59438974     125.75038    
     34220   125.04594      158.5          158.5          158.5          2.0591234      1.8308478      4.1672646      0.17925767     125.04594    
     34240   122.40266      158.5          158.5          158.5         -0.42466482    -3.0688158      3.1168687     -1.3220474      122.40266    
     34260   118.03637      158.5          158.5          158.5          4.3106413      2.931101       4.8646161      5.1362066      118.03637    
     34280   125.4799       158.5          158.5          158.5         -1.9629771     -2.2505088     -2.8890701     -0.74935234     125.4799     
     34300   133.6758       158.5          158.5          158.5         -1.8907218      0.042405559   -0.14197884    -5.5725922      133.6758     
     34320   131.81745      158.5          158.5          158.5         -2.8504248     -2.9442305     -4.122877      -1.484167       131.81745    
     34340   113.53667      158.5          158.5          158.5         -1.4489147     -2.7408585     -3.2734138      1.6675282      113.53667    
     34360   130.62672      158.5          158.5          158.5          0.28748774     0.57145264    -1.6346182      1.9256288      130.62672    
     34380   114.59211      158.5          158.5          158.5         -0.16277786    -1.7126028     -0.72420871     1.9484779      114.59211    
     34400   143.25154      158.5          158.5          158.5          3.211607      -0.14209707     4.3788044      5.3981136      143.25154    
     34420   144.40356      158.5          158.5          158.5         -2.1014555     -1.5711398     -2.7462589     -1.9869679      144.40356    
     34440   144.5865       158.5          158.5          158.5         -1.6505672     -2.8769024     -3.2936797      1.2188804      144.5865     
     34460   130.06793      158.5          158.5          158.5         -1.6348024     -4.5020225     -2.3516946      1.94931        130.06793    
     34480   127.46455      158.5          158.5          158.5         -2.3317154      0.46228849    -3.3811999     -4.0762349      127.46455    
     34500   152.6454       158.5          158.5          158.5         -2.0865345     -0.50133973    -4.1010405     -1.6572233      152.6454     
     34520   132.30618      158.5          158.5          158.5          0.95725328    -1.9385956     -0.58925177     5.3996072      132.30618    
     34540   133.45709      158.5          158.5          158.5          2.6572688     -0.1487176      4.1460838      3.9744402      133.45709    
     34560   149.43452      158.5          158.5          158.5         -1.3642144      0.28227999     2.0878607     -6.4627838      149.43452    
     34580   152.87947      158.5          158.5          158.5          2.0745139      1.8348032      3.1602002      1.2285383      152.87947    
     34600   147.68038      158.5          158.5          158.5          0.16998976    -0.33487878    -0.28235263     1.1272007      147.68038    
     34620   147.01494      158.5          158.5          158.5          0.72702987     0.37947178     2.2634714     -0.46185357     147.01494    
     34640   146.81127      158.5          158.5          158.5          4.4268536     -0.46617457     12.431766      1.3149694      146.81127    
     34660   146.39823      158.5          158.5          158.5         -0.67432211    -5.0526769      3.0098615      0.019849109    146.39823    
     34680   157.67221      158.5          158.5          158.5          2.0107385      1.9580331      0.41722296     3.6569595      157.67221    
     34700   140.00814      158.5          158.5          158.5          1.6711273      0.94684751     0.61524176     3.4512925      140.00814    
     34720   140.81612      158.5          158.5          158.5         -1.6125012     -2.5182079      1.1630659     -3.4823615      140.81612    
     34740   130.90854      158.5          158.5          158.5          0.84386288     2.2489404      4.3665664     -4.0839182      130.90854    
     34760   126.17863      158.5          158.5          158.5         -1.6040196     -1.7052319     -3.1302753      0.023448491    126.17863    
     34780   116.04265      158.5          158.5          158.5          0.76477731     2.222366      -0.48674384     0.55870977     116.04265    
     34800   134.89069      158.5          158.5          158.5          3.5960699      1.6344069      7.102929       2.0508736      134.89069    
     34820   128.31272      158.5          158.5          158.5          1.303303      -2.3457979      3.800537       2.4551699      128.31272    
     34840   127.88018      158.5          158.5          158.5         -0.31013156    -0.58833885     0.5695718     -0.91162762     127.88018    
     34860   137.69038      158.5          158.5          158.5         -0.020907173   -2.2828041      1.6574609      0.56262173     137.69038    
     34880   132.06995      158.5          158.5          158.5         -1.4423315     -3.957757       0.73857105    -1.1078086      132.06995    
     34900   139.0112       158.5          158.5          158.5         -1.6252124     -0.35363548    -2.528015      -1.9939868      139.0112     
     34920   132.49072      158.5          158.5          158.5         -1.1149812      0.19795654    -4.0752451      0.53234487     132.49072    
     34940   129.65515      158.5          158.5          158.5         -2.9886499     -0.62857643    -6.8558504     -1.4815228      129.65515    
     34960   134.62619      158.5          158.5          158.5          2.1226136      2.9555289     -0.041817703    3.4541297      134.62619    
     34980   122.60313      158.5          158.5          158.5          2.9491334      1.8083669      6.5892206      0.44981283     122.60313    
     35000   119.68977      158.5          158.5          158.5          0.54976217     0.95134374     2.2036172     -1.5056744      119.68977    
     35020   143.40638      158.5          158.5          158.5          2.8475517      1.8967865      1.2089254      5.4369433      143.40638    
     35040   123.82672      158.5          158.5          158.5         -1.3000793      0.1292462     -2.1502879     -1.8791962      123.82672    
     35060   131.1397       158.5          158.5          158.5         -2.0029917      1.5830838     -0.96221579    -6.6298429      131.1397     
     35080   121.73481      158.5          158.5          158.5          0.81503493     1.3558811     -1.3058626      2.3950862      121.73481    
     35100   137.06165      158.5          158.5          158.5         -1.8476067     -1.6409899     -5.2720215      1.3701912      137.06165    
     35120   122.54813      158.5          158.5          158.5          0.68477445     0.82613456     1.5893446     -0.36115581     122.54813    
     35140   139.41271      158.5          158.5          158.5         -1.8964315      1.7973621      1.9684717     -9.4551282      139.41271    
     35160   137.35959      158.5          158.5          158.5          0.75093184     3.70781        1.7158565     -3.1708709      137.35959    
     35180   134.50683      158.5          158.5          158.5          1.0143279     -1.3304354      1.2736755      3.0997434      134.50683    
     35200   128.8706       158.5          158.5          158.5          0.35432811    -0.99478716    -0.04547199     2.1032435      128.8706     
     35220   123.56234      158.5          158.5          158.5          1.1335646      2.6873308      0.36976363     0.34359934     123.56234    
     35240   134.1687       158.5          158.5          158.5         -3.4348896      0.3191588     -8.9716995     -1.6521281      134.1687     
     35260   136.56854      158.5          158.5          158.5         -0.91660769    -0.37107917    -5.9011339      3.52239        136.56854    
     35280   139.91931      158.5          158.5          158.5         -3.3269381     -6.2123114     -4.9894538      1.2209509      139.91931    
     35300   128.91895      158.5          158.5          158.5         -1.8751341      0.71865395    -4.4907381     -1.8533183      128.91895    
     35320   121.22208      158.5          158.5          158.5          1.7726652      5.2023447     -0.31011256     0.42576352     121.22208    
     35340   129.72381      158.5          158.5          158.5          0.53212383    -0.74036236     0.073611529    2.2631223      129.72381    
     35360   147.91905      158.5          158.5          158.5          2.0561386     -0.76808537     0.34110554     6.5953957      147.91905    
     35380   125.24159      158.5          158.5          158.5         -0.84949405    -1.1963036     -2.0585279      0.70634935     125.24159    
     35400   139.47069      158.5          158.5          158.5         -1.0304486      2.9756336     -4.6722955     -1.3946839      139.47069    
     35420   128.46187      158.5          158.5          158.5         -1.4898788     -3.6147916     -4.0280164      3.1731715      128.46187    
     35440   132.42248      158.5          158.5          158.5         -2.2092377     -6.9483467     -2.6768403      2.9974738      132.42248    
     35460   120.66384      158.5          158.5          158.5          2.1661924      1.7332666      4.9588846     -0.19357384     120.66384    
     35480   122.36907      158.5          158.5          158.5         -0.18763605     2.183111      -0.32438663    -2.4216325      122.36907    
     35500   126.65781      158.5          158.5          158.5         -0.97895753    -1.3048763     -4.4276171      2.7956208      126.65781    
     35520   152.54636      158.5          158.5          158.5          1.9836964      1.0153398      2.1299429      2.8058065      152.54636    
     35540   130.19799      158.5          158.5          158.5         -1.2366703     -1.1563225      2.147764      -4.7014524      130.19799    
     35560   137.46408      158.5          158.5          158.5          1.6019164      4.0316402      0.39339622     0.38071275     137.46408    
     35580   135.9452       158.5          158.5          158.5          2.4532121      7.0923578     -0.88565977     1.1529383      135.9452     
     35600   122.71565      158.5          158.5          158.5          0.22026767     0.16125506    -0.61539944     1.1149474      122.71565    
     35620   124.21888      158.5          158.5          158.5          1.9319901     -1.5758489      4.8496321      2.5221871      124.21888    
     35640   117.41543      158.5          158.5          158.5         -0.079767985    0.63065133     1.6873445     -2.5572998      117.41543    
     35660   131.04031      158.5          158.5          158.5          1.8878432      2.328479       0.38032539     2.9547253      131.04031    
     35680   120.23804      158.5          158.5          158.5          4.3162529      0.38977568     6.0770618      6.4819211      120.23804    
     35700   128.8472       158.5          158.5          158.5          1.9419742     -1.5703679      3.5175649      3.8787254      128.8472     
     35720   127.63904      158.5          158.5          158.5          2.00264        2.1194692      1.3145758      2.5738749      127.63904    
     35740   139.95258      158.5          158.5          158.5          1.0444878      1.8564182      0.61007924     0.66696589     139.95258    
     35760   119.12112      158.5          158.5          158.5         -0.36760442    -5.7621031      0.40634507     4.2529447      119.12112    
     35780   118.35249      158.5          158.5          158.5          3.2443578     -1.2668079      8.4897201      2.5101613      118.35249    
     35800   107.2832       158.5          158.5          158.5          0.57110861     3.5534717      0.98612931    -2.8262752      107.2832     
     35820   120.90753      158.5          158.5          158.5         -0.61022381     0.6018772     -3.1641685      0.73161984     120.90753    
     35840   126.44456      158.5          158.5          158.5          0.30194225    -2.2974055      1.7495879      1.4536443      126.44456    
     35860   110.624        158.5          158.5          158.5         -3.3684683     -4.9686843     -4.5536194     -0.58310126     110.624      
     35880   101.17497      158.5          158.5          158.5         -0.007665235    1.1453079     -1.9649675      0.79666397     101.17497    
     35900   136.59048      158.5          158.5          158.5         -1.0538893      1.3473225     -0.21832004    -4.2906704      136.59048    
     35920   106.67915      158.5          158.5          158.5         -4.6139123     -7.2683322     -4.493134      -2.0802706      106.67915    
     35940   136.21686      158.5          158.5          158.5         -1.3213677     -2.4417086     -5.086619       3.5642245      136.21686    
     35960   113.39142      158.5          158.5          158.5         -3.1042433      0.83193425    -6.8499716     -3.2946925      113.39142    
     35980   114.8838       158.5          158.5          158.5         -3.55617       -3.9069625     -3.5785317     -3.1830158      114.8838     
     36000   115.20293      158.5          158.5          158.5          0.047997001   -3.4037201      0.94810174     2.5996094      115.20293    
     36020   128.74175      158.5          158.5          158.5         -4.1315392     -3.2983626     -5.4974514     -3.5988036      128.74175    
     36040   105.72051      158.5          158.5          158.5         -1.2945656      2.088185      -2.4134534     -3.5584283      105.72051    
     36060   102.97571      158.5          158.5          158.5          2.0341097      1.4393646      1.8305609      2.8324036      102.97571    
     36080   115.17232      158.5          158.5          158.5         -1.3230367     -4.8169975      0.38596829     0.46191906     115.17232    
     36100   92.688583      158.5          158.5          158.5          2.2602271      2.2072038      4.6821567     -0.10867913     92.688583    
     36120   107.66567      158.5          158.5          158.5          1.688912       3.4359458      4.4117755     -2.7809854      107.66567    
     36140   103.28126      158.5          158.5          158.5          1.0278003     -0.10589834     3.555181      -0.36588186     103.28126    
     36160   110.04511      158.5          158.5          158.5          3.2542288      0.68797675     5.2969188      3.7777907      110.04511    
     36180   116.57353      158.5          158.5          158.5          0.28962321    -0.71743938     4.0933337     -2.5070247      116.57353    
     36200   99.071192      158.5          158.5          158.5          1.2961493      0.81691178     4.1550103     -1.0834742      99.071192    
     36220   133.07595      158.5          158.5          158.5          0.57259471     0.28189536     1.9697086     -0.5338198      133.07595    
     36240   112.42195      158.5          158.5          158.5         -0.89912759    -0.36519523    -0.079175929   -2.2530116      112.42195    
     36260   130.17782      158.5          158.5          158.5          2.374849      -0.73429451     5.9880119      1.8708297      130.17782    
     36280   123.45326      158.5          158.5          158.5         -1.0681508     -3.3524455      1.7697767     -1.6217837      123.45326    
     36300   144.97627      158.5          158.5          158.5         -1.2469791     -0.18102229    -3.958662       0.39874688     144.97627    
     36320   126.94709      158.5          158.5          158.5          0.096372606   -0.048549612    0.15180788     0.18585955     126.94709    
     36340   126.60036      158.5          158.5          158.5         -1.5277083     -0.30120504     0.8951348     -5.1770547      126.60036    
     36360   138.74391      158.5          158.5          158.5          3.0960527      3.3542615      1.9048229      4.0290737      138.74391    
     36380   118.80287      158.5          158.5          158.5         -1.2824281     -1.1051743     -5.6068318      2.8647217      118.80287    
     36400   141.47244      158.5          158.5          158.5          0.23959454     0.90519373    -0.28456457     0.098154457    141.47244    
     36420   129.86932      158.5          158.5          158.5         -0.040305519   -1.5645079      0.65165236     0.79193903     129.86932    
     36440   139.82525      158.5          158.5          158.5         -1.1010577     -2.3713955     -3.346747       2.4149694      139.82525    
     36460   131.85255      158.5          158.5          158.5          0.80083758     2.3708124     -2.0647808      2.0964811      131.85255    
     36480   140.52581      158.5          158.5          158.5         -1.198041      -1.609959       2.5795153     -4.5636792      140.52581    
     36500   128.79936      158.5          158.5          158.5          1.5837421     -0.74882219     4.9838616      0.51618697     128.79936    
     36520   118.03504      158.5          158.5          158.5          3.8779503      5.9119029      0.91747334     4.8044747      118.03504    
     36540   137.89172      158.5          158.5          158.5         -0.44010781     2.3041893     -1.0545292     -2.5699836      137.89172    
     36560   128.89711      158.5          158.5          158.5         -1.4617888     -2.073887       0.46958416    -2.7810634      128.89711    
     36580   122.14726      158.5          158.5          158.5         -1.9744698     -4.375196      -2.6844318      1.1362184      122.14726    
     36600   110.27942      158.5          158.5          158.5          0.29487603    -0.15044824    -0.33866038     1.3737367      110.27942    
     36620   134.4307       158.5          158.5          158.5         -0.71146926     1.0436414     -0.18634639    -2.9917028      134.4307     
     36640   117.7431       158.5          158.5          158.5          1.3603653      1.5794816      2.8092434     -0.30762929     117.7431     
     36660   104.55121      158.5          158.5          158.5          4.1533517      1.9126232      4.5353038      6.0121281      104.55121    
     36680   110.45777      158.5          158.5          158.5          0.48314173     0.97710603     0.88578092    -0.41346176     110.45777    
     36700   110.78977      158.5          158.5          158.5          3.1229788      6.3694327      4.065277      -1.0657733      110.78977    
     36720   109.16958      158.5          158.5          158.5         -2.1350612     -3.1414038     -1.7645459     -1.4992339      109.16958    
     36740   104.83565      158.5          158.5          158.5         -3.9866321     -6.1903737     -2.6058238     -3.1636989      104.83565    
     36760   112.76439      158.5          158.5          158.5         -0.60421973     0.99838074     0.23565143    -3.0466914      112.76439    
     36780   112.39723      158.5          158.5          158.5         -6.371322      -6.2276121     -9.5022083     -3.3841454      112.39723    
     36800   96.764532      158.5          158.5          158.5          0.53083327     1.899327      -1.9991011      1.6922739      96.764532    
     36820   105.74055      158.5          158.5          158.5         -1.2239282      1.5720946     -2.9056329     -2.3382464      105.74055    
     36840   106.82043      158.5          158.5          158.5         -0.99279609    -2.8980168     -4.6538509      4.5734794      106.82043    
     36860   105.6157       158.5          158.5          158.5          5.0260026      5.888376       4.8972132      4.2924188      105.6157     
     36880   98.890631      158.5          158.5          158.5         -2.7673736      1.3126803     -0.4221042     -9.1926969      98.890631    
     36900   116.49928      158.5          158.5          158.5          3.9848647      1.793757       4.4227278      5.7381094      116.49928    
     36920   106.71148      158.5          158.5          158.5          2.7361822      2.2204824      2.669819       3.3182451      106.71148    
     36940   123.84506      158.5          158.5          158.5         -2.9611832     -1.4090121     -0.71032676    -6.7642108      123.84506    
     36960   105.82035      158.5          158.5          158.5          2.4698928      3.2060132      4.7117322     -0.50806683     105.82035    
     36980   111.26914      158.5          158.5          158.5         -2.9009981     -1.7431535     -2.9509557     -4.0088851      111.26914    
     37000   102.66928      158.5          158.5          158.5         -1.129204      -1.2091701     -3.9432086      1.7647666      102.66928    
     37020   114.12771      158.5          158.5          158.5          2.3159157      1.3719409      1.1442535      4.4315527      114.12771    
     37040   130.71494      158.5          158.5          158.5         -4.377179      -4.2737958     -5.9690026     -2.8887388      130.71494    
     37060   108.74339      158.5          158.5          158.5          0.52030275     0.69148157    -1.6644501      2.5338768      108.74339    
     37080   124.23471      158.5          158.5          158.5          1.331745       1.5196812      0.95204236     1.5235115      124.23471    
     37100   122.44762      158.5          158.5          158.5         -1.3101803     -1.4361297      2.8553151     -5.3497263      122.44762    
     37120   124.78061      158.5          158.5          158.5          4.1070845      3.5926363      6.3508073      2.3778098      124.78061    
     37140   129.78694      158.5          158.5          158.5         -0.6150193     -0.11282689    -2.5284856      0.79625458     129.78694    
     37160   112.31806      158.5          158.5          158.5         -3.8395329     -4.3707884     -5.1658902     -1.9819201      112.31806    
     37180   136.5624       158.5          158.5          158.5          1.2333215      2.6316666      1.6534149     -0.58511704     136.5624     
     37200   106.38015      158.5          158.5          158.5         -2.4993342     -0.32155133    -4.1963282     -2.980123       106.38015    
     37220   118.71676      158.5          158.5          158.5          0.19866919    -0.20450737     0.36736045     0.4331545      118.71676    
     37240   118.15241      158.5          158.5          158.5          4.7326812      4.9720193      4.33802        4.8880044      118.15241    
     37260   123.9601       158.5          158.5          158.5          0.96336105     1.4472091      3.0531748     -1.6103007      123.9601     
     37280   110.08209      158.5          158.5          158.5          2.3652455      1.8604684      4.5622493      0.67301872     110.08209    
     37300   103.51914      158.5          158.5          158.5          0.50188022     3.0559878     -4.8338647      3.2835176      103.51914    
     37320   108.88758      158.5          158.5          158.5         -3.5481587     -0.49427512    -8.9778674     -1.1723337      108.88758    
     37340   103.56147      158.5          158.5          158.5          0.99678313     0.43014735     1.4192201      1.1409819      103.56147    
     37360   113.13831      158.5          158.5          158.5         -5.0012083     -4.0342226     -6.1643747     -4.8050277      113.13831    
     37380   102.9798       158.5          158.5          158.5         -1.9869405     -0.90663108    -5.0546108      0.00042021692  102.9798     
     37400   96.573834      158.5          158.5          158.5          3.8210406      3.1809761      2.8311988      5.450947       96.573834    
     37420   104.52034      158.5          158.5          158.5         -3.0057341     -3.0850453     -3.6124857     -2.3196713      104.52034    
     37440   102.46779      158.5          158.5          158.5          2.963525       5.5582833      1.2776938      2.0545978      102.46779    
     37460   102.6818       158.5          158.5          158.5         -0.69325087     1.7456408     -2.8249318     -1.0004616      102.6818     
     37480   93.484305      158.5          158.5          158.5         -3.3829024     -4.1934518     -5.7861503     -0.16910509     93.484305    
     37500   114.56759      158.5          158.5          158.5          1.0107784      2.4382426      2.1377788     -1.5436862      114.56759    
     37520   106.96248      158.5          158.5          158.5         -4.4679841     -1.8561556     -1.9604464     -9.5873504      106.96248    
     37540   103.60458      158.5          158.5          158.5          0.3052481     -1.3713687      0.35223309     1.9348799      103.60458    
     37560   118.38212      158.5          158.5          158.5          1.6930301     -1.4175108      3.2067854      3.2898157      118.38212    
     37580   99.087946      158.5          158.5          158.5         -2.6144175     -3.012738       1.0375093     -5.8680237      99.087946    
     37600   125.53347      158.5          158.5          158.5          3.1638082     -0.19296391     7.7027625      1.9816261      125.53347    
     37620   109.08911      158.5          158.5          158.5         -1.1839627     -1.9513063     -0.78857703    -0.8120048      109.08911    
     37640   118.53239      158.5          158.5          158.5         -0.050603874    2.1663457      0.54571254    -2.8638698      118.53239    
     37660   124.88173      158.5          158.5          158.5          2.8699668     -0.92310219     5.1921627      4.3408399      124.88173    
     37680   123.64667      158.5          158.5          158.5         -1.61478       -2.8902411      0.14859921    -2.1026981      123.64667    
     37700   119.78279      158.5          158.5          158.5          0.53874211     3.9438364     -0.22310326    -2.1045068      119.78279    
     37720   124.98964      158.5          158.5          158.5          1.0068993      0.93108744     0.18991998     1.8996906      124.98964    
     37740   132.07476      158.5          158.5          158.5         -2.4288035     -4.1055571      0.56869963    -3.7495532      132.07476    
     37760   119.23743      158.5          158.5          158.5          2.7671467      4.2211751      2.1246226      1.9556425      119.23743    
     37780   116.93915      158.5          158.5          158.5          1.890548       3.1517829     -0.65667361     3.1765347      116.93915    
     37800   125.87121      158.5          158.5          158.5         -0.57686333    -2.3252506      1.9197954     -1.3251348      125.87121    
     37820   119.61404      158.5          158.5          158.5          4.8819833      5.1021212      7.2214847      2.322344       119.61404    
     37840   127.8091       158.5          158.5          158.5         -2.6755276      2.4086466     -7.1773797     -3.2578497      127.8091     
     37860   112.8229       158.5          158.5          158.5         -2.5231507     -1.2619385     -4.9732856     -1.3342281      112.8229     
     37880   123.43649      158.5          158.5          158.5          0.73571187    -1.2747861      3.6559596     -0.17403794     123.43649    
     37900   124.91204      158.5          158.5          158.5         -3.7532489     -2.2427587     -3.7241366     -5.2928514      124.91204    
     37920   131.46035      158.5          158.5          158.5          0.59476642     2.2935997     -0.71061212     0.20131172     131.46035    
     37940   102.71508      158.5          158.5          158.5          2.6082872      2.7827582      2.5426312      2.4994722      102.71508    
     37960   127.0326       158.5          158.5          158.5         -3.0428308     -4.3941071     -0.60783256    -4.1265529      127.0326     
     37980   124.58195      158.5          158.5          158.5          0.90052374     2.5027061      0.84762425    -0.64875917     124.58195    
     38000   113.19496      158.5          158.5          158.5          1.3181081      4.2874953     -5.4662783      5.1331074      113.19496    
     38020   119.36177      158.5          158.5          158.5         -2.1634335     -1.1116919     -4.535528      -0.84308068     119.36177    
     38040   108.13367      158.5          158.5          158.5          4.4456272     -0.82289737     13.424994      0.73478461     108.13367    
     38060   108.08214      158.5          158.5          158.5         -0.65745158    -0.30389879    -1.7121285      0.043672571    108.08214    
     38080   103.70457      158.5          158.5          158.5         -0.044551224    3.424318      -5.6605963      2.1026247      103.70457    
     38100   105.50844      158.5          158.5          158.5          2.6790064      0.70592322     8.2111781     -0.88008216     105.50844    
     38120   116.89507      158.5          158.5          158.5         -3.8829386     -4.7390295     -1.8663373     -5.0434492      116.89507    
     38140   93.508885      158.5          158.5          158.5          3.1544646      4.0466883     -0.58247063     5.9991763      93.508885    
     38160   100.98007      158.5          158.5          158.5         -2.0897964     -2.7378177     -1.7916904     -1.7398811      100.98007    
     38180   122.61164      158.5          158.5          158.5         -1.3668431     -3.6144144      1.6378768     -2.1239917      122.61164    
     38200   123.67629      158.5          158.5          158.5          2.8244298      1.1452429      6.234493       1.0935534      123.67629    
     38220   121.20611      158.5          158.5          158.5         -4.4590389     -3.3523801     -8.5390139     -1.4857226      121.20611    
     38240   124.94311      158.5          158.5          158.5          1.2777245      5.016576      -5.8203171      4.6369147      124.94311    
     38260   131.37316      158.5          158.5          158.5          0.56986258    -2.1033449      3.3761698      0.43676286     131.37316    
     38280   128.66516      158.5          158.5          158.5         -0.76491078    -6.3023204      2.7156241      1.291964       128.66516    
     38300   121.25712      158.5          158.5          158.5          3.0020724      4.9869499     -2.6370639      6.6563313      121.25712    
     38320   146.24864      158.5          158.5          158.5         -2.1433325     -0.71797483    -5.0389697     -0.67305289     146.24864    
     38340   138.32619      158.5          158.5          158.5          1.1678111      0.14832243     6.3042636     -2.9491526      138.32619    
     38360   136.7775       158.5          158.5          158.5         -0.3855581     -3.037715       1.2222761      0.65876455     136.7775     
     38380   133.2137       158.5          158.5          158.5          0.20997612     1.7525308     -3.5604961      2.4378937      133.2137     
     38400   127.81061      158.5          158.5          158.5          2.2959609      3.0882494     -0.20358572     4.0032191      127.81061    
     38420   135.83852      158.5          158.5          158.5         -2.4688056     -5.4168255     -0.0060010822  -1.9835902      135.83852    
     38440   115.87972      158.5          158.5          158.5          3.3692104      2.4822321      5.9487279      1.676671       115.87972    
     38460   136.15257      158.5          158.5          158.5         -0.8509808     -0.74886773    -0.90788039    -0.89619429     136.15257    
     38480   117.04849      158.5          158.5          158.5         -0.65146146     3.1260171     -3.3727338     -1.7076677      117.04849    
     38500   131.34802      158.5          158.5          158.5          0.51596809     0.26089397     1.472724      -0.1857137      131.34802    
     38520   109.89899      158.5          158.5          158.5         -2.4425586     -6.1870037      2.6354159     -3.776088       109.89899    
     38540   108.3275       158.5          158.5          158.5          3.8425195      4.1538825      2.7246713      4.6490048      108.3275     
     38560   122.19908      158.5          158.5          158.5          1.2696364      3.93305       -2.2441628      2.120022       122.19908    
     38580   107.0617       158.5          158.5          158.5         -1.0160507     -2.4010352      4.3186503     -4.9657673      107.0617     
     38600   110.50856      158.5          158.5          158.5          2.2795321     -1.2072078      7.5275688      0.5182353      110.50856    
     38620   101.11022      158.5          158.5          158.5         -1.1352226     -1.0059883     -3.5631269      1.1634474      101.11022    
     38640   99.756411      158.5          158.5          158.5         -1.7018449      0.47771966    -4.7197626     -0.86349172     99.756411    
     38660   122.90766      158.5          158.5          158.5         -1.9286138     -2.5209357      0.73429449    -3.9992002      122.90766    
     38680   112.42345      158.5          158.5          158.5          0.7660353     -3.7700797      4.9952495      1.0729361      112.42345    
     38700   96.535273      158.5          158.5          158.5          2.3403679      0.15550903     1.6448833      5.2207112      96.535273    
     38720   93.687301      158.5          158.5          158.5          2.1570044      3.6715896     -1.2318309      4.0312544      93.687301    
     38740   117.2479       158.5          158.5          158.5          0.097344075    1.9343665     -0.44026827    -1.202066       117.2479     
     38760   115.59234      158.5          158.5          158.5         -3.0494273     -4.5035921     -0.90807786    -3.736612       115.59234    
     38780   119.99029      158.5          158.5          158.5         -1.4218963     -1.9819104     -0.76935913    -1.5144194      119.99029    
     38800   125.9002       158.5          158.5          158.5         -3.8130957     -0.70172861    -7.2182405     -3.5193179      125.9002     
     38820   111.41497      158.5          158.5          158.5          1.1526883      3.7643846     -3.8405492      3.5342295      111.41497    
     38840   108.76893      158.5          158.5          158.5          0.11785223    -3.379951       1.0953247      2.6381831      108.76893    
     38860   104.08892      158.5          158.5          158.5          0.15311499    -3.5041907      6.1694823     -2.2059467      104.08892    
     38880   120.00376      158.5          158.5          158.5         -0.20715016     3.7705736     -2.7501981     -1.641826       120.00376    
     38900   118.44724      158.5          158.5          158.5         -3.5643224      0.45895144    -9.5466272     -1.6052914      118.44724    
     38920   118.74982      158.5          158.5          158.5          3.2393815      1.2932403      5.8210565      2.6038476      118.74982    
     38940   105.55283      158.5          158.5          158.5          0.78861231    -2.0914436      6.6339304     -2.1766499      105.55283    
     38960   130.54902      158.5          158.5          158.5          2.4263917     -0.48244425     3.1212139      4.6404054      130.54902    
     38980   113.16006      158.5          158.5          158.5          2.3935172      6.5218595     -1.073984       1.7326761      113.16006    
     39000   139.421        158.5          158.5          158.5         -4.50757        0.15328352    -4.0776732     -9.5983205      139.421      
     39020   117.95625      158.5          158.5          158.5          2.5190667      1.1573027      1.6265797      4.7733176      117.95625    
     39040   121.58605      158.5          158.5          158.5         -0.71928985     1.228072      -5.5474342      2.1614927      121.58605    
     39060   104.28254      158.5          158.5          158.5         -1.2789516     -1.1078357     -0.95668465    -1.7723345      104.28254    
     39080   132.13116      158.5          158.5          158.5          6.4429559      4.3103135      10.439879      4.5786755      132.13116    
     39100   137.0021       158.5          158.5          158.5         -3.4676691     -3.66328       -4.7606329     -1.9790943      137.0021     
     39120   109.98474      158.5          158.5          158.5         -0.94934885    -2.9068653     -0.8134019      0.87222062     109.98474    
     39140   133.86222      158.5          158.5          158.5          0.84097206     4.297077       0.70974527    -2.4839061      133.86222    
     39160   152.3887       158.5          158.5          158.5         -5.3118141     -4.8507703     -6.6771756     -4.4074964      152.3887     
     39180   118.8494       158.5          158.5          158.5          1.0626671     -6.5645519      4.7628577      4.9896955      118.8494     
     39200   131.98685      158.5          158.5          158.5          2.2549332      1.2146975      5.3906542      0.15944808     131.98685    
     39220   138.38819      158.5          158.5          158.5         -1.2177406      3.8751959     -2.984441      -4.5439767      138.38819    
     39240   136.77481      158.5          158.5          158.5          2.9219944      3.688775       1.7561565      3.3210518      136.77481    
     39260   146.83526      158.5          158.5          158.5         -0.52053252     1.7578972     -3.0685076     -0.25098717     146.83526    
     39280   143.31827      158.5          158.5          158.5         -4.1735996     -4.4975336     -7.2635158     -0.75974928     143.31827    
     39300   140.46214      158.5          158.5          158.5          1.0206292     -0.17148971     2.2639899      0.96938726     140.46214    
     39320   127.0093       158.5          158.5          158.5         -2.7864655     -3.1187422     -1.9301559     -3.3104985      127.0093     
     39340   136.37576      158.5          158.5          158.5         -1.1084074     -4.9188587     -1.392667       2.9863034      136.37576    
     39360   125.42859      158.5          158.5          158.5         -2.4858639     -1.9594184     -4.9855773     -0.51259592     125.42859    
     39380   129.54286      158.5          158.5          158.5         -0.90681227     2.0353166     -1.2634444     -3.492309       129.54286    
     39400   124.62329      158.5          158.5          158.5          1.7561063      2.3530223      3.7441343     -0.82883755     124.62329    
     39420   116.11495      158.5          158.5          158.5         -1.4282238     -3.0812575     -1.5398161      0.33640213     116.11495    
     39440   122.55146      158.5          158.5          158.5          5.1880113      5.498312       4.9260197      5.1397022      122.55146    
     39460   124.39454      158.5          158.5          158.5          1.2273879      2.1678082      3.3782871     -1.8639317      124.39454    
     39480   106.69361      158.5          158.5          158.5          1.3549848      3.7660182      1.7612187     -1.4622825      106.69361    
     39500   121.33601      158.5          158.5          158.5          2.9928113      2.0543866     -0.032273709    6.9563209      121.33601    
     39520   105.585        158.5          158.5          158.5         -3.6127842     -7.5958351     -4.364932       1.1224146      105.585      
     39540   133.68188      158.5          158.5          158.5          2.2579354      2.8125421      7.6600815     -3.6988173      133.68188    
     39560   111.27211      158.5          158.5          158.5          0.4147069      6.6967173     -3.762452      -1.6901446      111.27211    
     39580   124.27126      158.5          158.5          158.5         -1.6828059     -3.3835413     -3.1951165      1.53024        124.27126    
     39600   120.14722      158.5          158.5          158.5          1.5727676     -2.1289548      7.8986124     -1.0513549      120.14722    
     39620   124.06561      158.5          158.5          158.5         -0.047268266    1.5032806      3.4168017     -5.061887       124.06561    
     39640   114.70951      158.5          158.5          158.5         -1.8159643      0.401218      -4.1395626     -1.7095481      114.70951    
     39660   128.9834       158.5          158.5          158.5         -0.49816788    -0.03383809    -2.2650613      0.80439574     128.9834     
     39680   124.16936      158.5          158.5          158.5          3.03202        5.2324545      1.8814376      1.982168       124.16936    
     39700   109.82888      158.5          158.5          158.5         -3.2270643     -1.4937719     -2.7468154     -5.4406056      109.82888    
     39720   127.15921      158.5          158.5          158.5          2.1817228      1.5871324      3.6841696      1.2738663      127.15921    
     39740   120.6051       158.5          158.5          158.5          3.3540004      4.2066484     -1.4780127      7.3333655      120.6051     
     39760   138.46078      158.5          158.5          158.5         -4.3979946     -2.4129214     -7.0369287     -3.7441337      138.46078    
     39780   134.0565       158.5          158.5          158.5          4.6096503      7.0658218      3.7066078      3.0565213      134.0565     
     39800   127.16924      158.5          158.5          158.5         -3.4873962     -2.4245402     -4.4846862     -3.5529623      127.16924    
     39820   132.16963      158.5          158.5          158.5         -1.4686828     -4.4858001      0.28829367    -0.20854201     132.16963    
     39840   126.76375      158.5          158.5          158.5          6.0632695      6.6395104      4.4454517      7.1048465      126.76375    
     39860   128.76474      158.5          158.5          158.5         -7.0461462     -1.1133268     -13.125613     -6.8994986      128.76474    
     39880   145.34988      158.5          158.5          158.5          2.0576294      0.99268041     3.115237       2.0649707      145.34988    
     39900   136.6248       158.5          158.5          158.5         -2.0464583     -2.768967      -5.0297582      1.6593504      136.6248     
     39920   129.19208      158.5          158.5          158.5         -4.2347376     -1.46921       -7.0993017     -4.1357011      129.19208    
     39940   130.08735      158.5          158.5          158.5          6.3936901      7.3220956      7.9148456      3.9441291      130.08735    
     39960   128.93512      158.5          158.5          158.5         -3.055605      -4.3049048     -3.6504788     -1.2114315      128.93512    
     39980   131.01908      158.5          158.5          158.5          0.41495028    -1.3399829     -0.21868132     2.8035151      131.01908    
     40000   122.23571      158.5          158.5          158.5          1.0480982      0.105499       1.7755939      1.2632017      122.23571    
     40020   134.25844      158.5          158.5          158.5         -5.0470385     -4.0622811     -5.2359787     -5.8428559      134.25844    
     40040   105.66243      158.5          158.5          158.5          2.5957526     -0.29182257     6.9431233      1.135957       105.66243    
     40060   126.52854      158.5          158.5          158.5          0.42868073    -0.65062638     0.11323059     1.823438       126.52854    
     40080   116.03824      158.5          158.5          158.5          1.9034126      1.998669      -1.2810218      4.9925907      116.03824    
     40100   105.69881      158.5          158.5          158.5          2.4953885      2.5265655      5.2383253     -0.27872515     105.69881    
     40120   109.10775      158.5          158.5          158.5         -1.253237      -4.234379       2.8749369     -2.4002688      109.10775    
     40140   95.48492       158.5          158.5          158.5         -0.57415254    -3.3573004     -1.3307197      2.9655625      95.48492     
     40160   114.20907      158.5          158.5          158.5         -0.95740346    -0.33603362    -2.9347316      0.39855489     114.20907    
     40180   117.58815      158.5          158.5          158.5          0.80195848     1.3325779      4.9156492     -3.8423516      117.58815    
     40200   106.76449      158.5          158.5          158.5          0.98592296     2.8006121      4.5087898     -4.3516331      106.76449    
     40220   102.84566      158.5          158.5          158.5          2.2337559      2.2457935      0.56694469     3.8885293      102.84566    
     40240   108.13606      158.5          158.5          158.5          2.0138633      1.3088478      2.0467613      2.6859808      108.13606    
     40260   101.47227      158.5          158.5          158.5         -3.1696372     -0.34210283    -2.4862118     -6.680597       101.47227    
     40280   111.96994      158.5          158.5          158.5         -0.094311874    2.0830139     -0.033844746   -2.3321048      111.96994    
     40300   97.28308       158.5          158.5          158.5          0.81144555     0.38844028     1.0368095      1.0090868      97.28308     
     40320   106.43939      158.5          158.5          158.5         -0.42898253     0.8161864      0.48911109    -2.5922451      106.43939    
     40340   116.65452      158.5          158.5          158.5          2.1717686      4.7125614      1.7446482      0.058096194    116.65452    
     40360   116.41035      158.5          158.5          158.5          0.20606053    -3.8367665      3.9519493      0.50299871     116.41035    
     40380   101.70417      158.5          158.5          158.5          0.31739067    -2.123354       2.0713544      1.0041717      101.70417    
     40400   108.10017      158.5          158.5          158.5          1.4618283      5.7303145     -3.8537497      2.5089201      108.10017    
     40420   141.44129      158.5          158.5          158.5         -1.7183871      1.1626604     -5.2405919     -1.07723        141.44129    
     40440   137.9857       158.5          158.5          158.5         -4.2004718     -1.8644653     -2.4875265     -8.2494237      137.9857     
     40460   136.96317      158.5          158.5          158.5          1.433168       2.0950846      1.1117324      1.0926872      136.96317    
     40480   131.10995      158.5          158.5          158.5         -0.25042356     0.92047197    -5.3563706      3.684628       131.10995    
     40500   117.16106      158.5          158.5          158.5          0.36902143     1.5913771     -2.2031161      1.7188033      117.16106    
     40520   131.62844      158.5          158.5          158.5          2.3794414      0.27608143     6.8373899      0.024852878    131.62844    
     40540   136.76013      158.5          158.5          158.5         -1.7538704     -5.4481173      0.025918558    0.16058749     136.76013    
     40560   125.98388      158.5          158.5          158.5         -0.95733759     0.55111643    -6.8663466      3.4432174      125.98388    
     40580   119.50771      158.5          158.5          158.5         -1.1800714      0.78481936    -1.9844285     -2.3406051      119.50771    
     40600   123.20009      158.5          158.5          158.5         -2.9308619     -6.0470977      1.6172821     -4.3627701      123.20009    
     40620   111.53606      158.5          158.5          158.5         -0.41983837    -2.0825261      2.1442177     -1.3212067      111.53606    
     40640   100.92848      158.5          158.5          158.5         -0.16681016     2.3052903     -1.9519401     -0.85378073     100.92848    
     40660   108.26106      158.5          158.5          158.5          0.13885515    -0.29965977     0.82944341    -0.11321819     108.26106    
     40680   102.73758      158.5          158.5          158.5          1.2352125      0.11107339     4.1230329     -0.52846873     102.73758    
     40700   98.18009       158.5          158.5          158.5         -0.044131501   -1.026372       0.27073441     0.62324304     98.18009     
     40720   124.38575      158.5          158.5          158.5          0.65101735    -0.92677387    -0.76297266     3.6427986      124.38575    
     40740   111.67678      158.5          158.5          158.5         -0.20202514    -0.59136367    -0.074462297    0.059750534    111.67678    
     40760   89.9099        158.5          158.5          158.5          3.0304976      2.4408144      6.1372164      0.51346194     89.9099      
     40780   103.65578      158.5          158.5          158.5          3.1071468      2.0485801      5.1683339      2.1045265      103.65578    
     40800   112.21959      158.5          158.5          158.5          0.39389194    -2.9609321      1.0090022      3.1336056      112.21959    
     40820   108.94065      158.5          158.5          158.5          2.3804868      1.1643352      3.0943067      2.8828184      108.94065    
     40840   118.63849      158.5          158.5          158.5         -0.88759179     0.44309707     0.76428418    -3.8701566      118.63849    
     40860   101.26688      158.5          158.5          158.5          0.41621385     1.2714899     -0.50279435     0.47994604     101.26688    
     40880   93.703456      158.5          158.5          158.5          2.9936913     -0.62016901     5.1769956      4.4242474      93.703456    
     40900   110.32724      158.5          158.5          158.5         -1.6515178     -5.3514125      2.0143223     -1.617463       110.32724    
     40920   112.3915       158.5          158.5          158.5         -1.3026247     -0.030080083   -2.7903817     -1.0874123      112.3915     
     40940   109.41655      158.5          158.5          158.5          1.1551405      0.82651028     0.30506206     2.3338491      109.41655    
     40960   125.19451      158.5          158.5          158.5         -1.6720129     -1.0686521     -1.4449234     -2.5024632      125.19451    
     40980   97.047038      158.5          158.5          158.5         -1.4055393      0.10267104    -1.8409258     -2.4783631      97.047038    
     41000   112.50992      158.5          158.5          158.5          0.74202741    -1.8641502      3.7377914      0.35244109     112.50992    
     41020   109.78201      158.5          158.5          158.5         -1.6661268     -2.7325552     -1.1879917     -1.0778335      109.78201    
     41040   124.87038      158.5          158.5          158.5          0.33897752     5.6641489     -4.1230379     -0.52417844     124.87038    
     41060   115.85541      158.5          158.5          158.5          3.8533336      6.2782241      0.91682038     4.3649562      115.85541    
     41080   100.74221      158.5          158.5          158.5         -3.5093814     -4.9765846     -3.408646      -2.1429136      100.74221    
     41100   102.27356      158.5          158.5          158.5          0.65321912     2.3881831      1.1088635     -1.5373892      102.27356    
     41120   126.25279      158.5          158.5          158.5         -1.5337857     -2.1230402      1.1404764     -3.6187935      126.25279    
     41140   113.65795      158.5          158.5          158.5         -5.3996412     -9.5238062     -2.9287416     -3.7463756      113.65795    
     41160   117.19191      158.5          158.5          158.5          0.067570883    0.19147603     0.42602177    -0.41478515     117.19191    
     41180   111.14201      158.5          158.5          158.5          1.11284        0.89299685     2.3979356      0.04758754     111.14201    
     41200   98.532416      158.5          158.5          158.5          0.73842629     0.33353856     1.1150005      0.76673984     98.532416    
     41220   99.588207      158.5          158.5          158.5          1.983085       1.4559848      3.0489411      1.4443292      99.588207    
     41240   113.06887      158.5          158.5          158.5          0.56232914    -0.56027649     1.9853488      0.26191512     113.06887    
     41260   108.35994      158.5          158.5          158.5         -1.3673096     -1.7771097     -1.5436641     -0.78115482     108.35994    
     41280   108.19789      158.5          158.5          158.5         -0.12402764     0.19658853    -0.29828616    -0.2703853      108.19789    
     41300   105.15776      158.5          158.5          158.5          0.33353305    -1.7631737      0.94884147     1.8149313      105.15776    
     41320   115.63407      158.5          158.5          158.5         -2.4452227     -6.6741345      0.52195828    -1.1834918      115.63407    
     41340   99.592253      158.5          158.5          158.5         -0.27420349    -0.50107651     1.1857884     -1.5073224      99.592253    
     41360   116.34627      158.5          158.5          158.5          1.2108473      1.2630785      2.0922842      0.27717919     116.34627    
     41380   112.66051      158.5          158.5          158.5         -0.93084306     0.1471548     -0.49929632    -2.4403876      112.66051    
     41400   103.88865      158.5          158.5          158.5         -0.49971145     1.1763455      1.6874253     -4.3629052      103.88865    
     41420   100.01445      158.5          158.5          158.5          1.0252835      2.0561794      0.77908138     0.24058982     100.01445    
     41440   106.26994      158.5          158.5          158.5         -2.5679448      0.62528779    -6.336721      -1.9924011      106.26994    
     41460   105.73755      158.5          158.5          158.5         -0.91094687     1.3379321     -2.3097971     -1.7609756      105.73755    
     41480   112.76709      158.5          158.5          158.5          3.484234       1.2964994      4.220323       4.9358795      112.76709    
     41500   121.3665       158.5          158.5          158.5         -1.0801314      0.22161612    -3.9647972      0.50278684     121.3665     
     41520   114.45664      158.5          158.5          158.5          0.51860898     3.5081284     -3.0856682      1.1333667      114.45664    
     41540   117.02291      158.5          158.5          158.5          3.2784495      3.6512619      3.7752576      2.408829       117.02291    
     41560   106.10224      158.5          158.5          158.5         -2.2734481     -5.0377581     -0.47571652    -1.3068697      106.10224    
     41580   100.87015      158.5          158.5          158.5          0.99547806    -0.28085633     1.5187019      1.7485886      100.87015    
     41600   99.684259      158.5          158.5          158.5          5.9428257      7.9773586      6.432117       3.4190015      99.684259    
     41620   100.64079      158.5          158.5          158.5         -3.4238262      0.28313271    -5.3470964     -5.207515       100.64079    
     41640   112.11116      158.5          158.5          158.5          1.0207926      0.23423326     1.7105078      1.1176366      112.11116    
     41660   109.65771      158.5          158.5          158.5         -0.16929131    -5.0470093      3.2020912      1.3370442      109.65771    
     41680   100.18639      158.5          158.5          158.5         -3.8198066     -1.1816502     -6.8388096     -3.4389601      100.18639    
     41700   92.813403      158.5          158.5          158.5          2.1678904      3.3716076      0.62059245     2.5114713      92.813403    
     41720   94.834673      158.5          158.5          158.5          0.48648415    -2.9042381      5.662424      -1.2987334      94.834673    
     41740   111.12954      158.5          158.5          158.5         -1.2158583      0.82300754    -1.3191785     -3.151404       111.12954    
     41760   103.66838      158.5          158.5          158.5         -0.78435552    -2.1087507      0.80992422    -1.05424        103.66838    
     41780   91.27064       158.5          158.5          158.5          2.8305419     -0.68386577     4.5832279      4.5922637      91.27064     
     41800   97.892565      158.5          158.5          158.5         -2.4111757     -6.1307298     -0.25909964    -0.84369761     97.892565    
     41820   97.639318      158.5          158.5          158.5          0.59797081    -0.96190247     1.472795       1.2830199      97.639318    
     41840   114.89672      158.5          158.5          158.5          3.1138622      6.0416762     -2.184657       5.4845672      114.89672    
     41860   117.1017       158.5          158.5          158.5         -5.3173534     -4.9030203     -6.4144828     -4.634557       117.1017     
     41880   103.79688      158.5          158.5          158.5          3.0607188      1.3852642      7.1008171      0.6960751      103.79688    
     41900   110.90664      158.5          158.5          158.5          0.43440904    -1.2396745      1.5778502      0.96505138     110.90664    
     41920   113.69211      158.5          158.5          158.5         -4.3802016     -4.1647987     -8.4904064     -0.48539974     113.69211    
     41940   134.60754      158.5          158.5          158.5          5.7754252      5.8840271      5.0377418      6.4045067      134.60754    
     41960   131.53621      158.5          158.5          158.5          0.93085659    -0.9478535      4.0938012     -0.35337798     131.53621    
     41980   143.00783      158.5          158.5          158.5         -0.83747446     2.628942      -3.4933313     -1.6480341      143.00783    
     42000   129.60997      158.5          158.5          158.5          3.3549319      5.5012167     -1.9224499      6.4860291      129.60997    
     42020   146.44888      158.5          158.5          158.5         -0.82071009    -3.5773675     -1.8957058      3.010943       146.44888    
     42040   141.15006      158.5          158.5          158.5         -3.5049014     -5.0926561     -1.1337924     -4.2882558      141.15006    
     42060   146.13042      158.5          158.5          158.5          2.5731029      1.5942909      2.9512614      3.1737563      146.13042    
     42080   127.84689      158.5          158.5          158.5         -1.9489025     -0.86710236    -5.1024021      0.12279709     127.84689    
     42100   136.19033      158.5          158.5          158.5         -3.8914538     -5.4470027      0.185417      -6.4127757      136.19033    
     42120   134.90835      158.5          158.5          158.5          0.65521332     0.34521772     2.4245618     -0.80413954     134.90835    
     42140   136.05188      158.5          158.5          158.5         -4.1646364     -3.3653857     -7.4085531     -1.7199705      136.05188    
     42160   129.02111      158.5          158.5          158.5         -0.77880012    -2.8103495      0.84588153    -0.37193239     129.02111    
     42180   129.03157      158.5          158.5          158.5          3.1253371      2.1472026      3.8897723      3.3390363      129.03157    
     42200   130.70016      158.5          158.5          158.5          0.031019016    0.99452215     0.89056973    -1.7920348      130.70016    
     42220   128.07101      158.5          158.5          158.5          1.501407       4.7163492      1.6655999     -1.8777282      128.07101    
     42240   113.08581      158.5          158.5          158.5         -1.2256081     -2.6663031     -3.5740222      2.563501       113.08581    
     42260   133.17632      158.5          158.5          158.5         -1.7988695     -4.2126189      0.25187095    -1.4358606      133.17632    
     42280   111.83535      158.5          158.5          158.5         -3.408235      -2.4472424     -2.9296087     -4.847854       111.83535    
     42300   127.40029      158.5          158.5          158.5         -1.4278761     -2.7021784     -2.0097482      0.42829838     127.40029    
     42320   114.67619      158.5          158.5          158.5          0.88389571     1.6243429     -1.3883841      2.4157283      114.67619    
     42340   120.17163      158.5          158.5          158.5          0.099209225    1.361191       1.5812553     -2.6448187      120.17163    
     42360   92.185989      158.5          158.5          158.5          2.5480039      2.2110802      7.5430596     -2.110128       92.185989    
     42380   105.50867      158.5          158.5          158.5         -3.3428051     -1.6850432     -3.8154007     -4.5279715      105.50867    
     42400   122.95593      158.5          158.5          158.5          0.72726988    -1.7318126     -3.2545759      7.1681981      122.95593    
     42420   116.55149      158.5          158.5          158.5          1.5951006      0.44869715     2.8520298      1.4845749      116.55149    
     42440   108.16988      158.5          158.5          158.5          0.73075836     6.2135106     -0.24028932    -3.7809462      108.16988    
     42460   116.04641      158.5          158.5          158.5          4.5930024      6.4158062      3.5676042      3.7955967      116.04641    
     42480   120.31046      158.5          158.5          158.5         -0.14626401    -3.2647431      0.21633263     2.6096184      120.31046    
     42500   109.20077      158.5          158.5          158.5          0.73516968     0.51605443     0.6881754      1.0012792      109.20077    
     42520   123.42995      158.5          158.5          158.5          0.76718968     2.4259176      0.88198242    -1.006331       123.42995    
     42540   135.59327      158.5          158.5          158.5         -5.7835241     -5.7085939     -5.3133262     -6.3286523      135.59327    
     42560   122.53723      158.5          158.5          158.5          1.1473602     -0.39655947     0.41850713     3.4201331      122.53723    
     42580   131.47495      158.5          158.5          158.5         -2.5316605     -0.82530589    -4.0156634     -2.7540122      131.47495    
     42600   122.18182      158.5          158.5          158.5         -1.8572465      4.2043247     -4.4324496     -5.3436144      122.18182    
     42620   145.96921      158.5          158.5          158.5          4.788658       6.2323416      7.4726173      0.6610153      145.96921    
     42640   129.75465      158.5          158.5          158.5         -5.7265588     -5.4078918     -6.5949661     -5.1768185      129.75465    
     42660   121.73303      158.5          158.5          158.5          3.5203701      6.1471036     -1.209788       5.6237946      121.73303    
     42680   127.34373      158.5          158.5          158.5          1.0069209      2.5185304      2.2929703     -1.7907381      127.34373    
     42700   139.11052      158.5          158.5          158.5         -4.0302518     -4.9410522     -0.67791451    -6.4717887      139.11052    
     42720   140.79914      158.5          158.5          158.5          4.0459025      0.33135849     4.4471842      7.3591649      140.79914    
     42740   130.07995      158.5          158.5          158.5         -4.0577522     -5.336688      -5.6823044     -1.1542644      130.07995    
     42760   134.18923      158.5          158.5          158.5          0.29671945     1.9466165     -0.97819097    -0.078267182    134.18923    
     42780   117.27485      158.5          158.5          158.5          1.9808614      1.0970267      0.81126292     4.0342945      117.27485    
     42800   147.69309      158.5          158.5          158.5         -1.5042124     -1.8660014     -2.1851635     -0.46147241     147.69309    
     42820   105.81096      158.5          158.5          158.5          4.0355143      5.2197442      3.557556       3.3292427      105.81096    
     42840   116.43695      158.5          158.5          158.5         -0.08426432     2.4097669     -2.296227      -0.36633291     116.43695    
     42860   126.51857      158.5          158.5          158.5         -3.2391923      1.6420741     -7.3666391     -3.9930119      126.51857    
     42880   109.0863       158.5          158.5          158.5         -0.57242329    -2.027018       0.78070161    -0.47095346     109.0863     
     42900   113.31354      158.5          158.5          158.5         -1.4458605     -4.3863953      0.52403602    -0.47522224     113.31354    
     42920   104.16836      158.5          158.5          158.5          0.15559906     2.0091284      0.26749973    -1.8098309      104.16836    
     42940   122.67001      158.5          158.5          158.5          1.0469673      3.3273878      0.71772538    -0.90421135     122.67001    
     42960   107.55062      158.5          158.5          158.5         -2.9560507     -4.6287        -4.4505356      0.21108354     107.55062    
     42980   106.68135      158.5          158.5          158.5          0.907683      -3.1258267      1.8544304      3.9944453      106.68135    
     43000   105.41066      158.5          158.5          158.5          2.8764429      3.0970877      4.7063434      0.82589768     105.41066    
     43020   102.61615      158.5          158.5          158.5          3.0169665      8.5391862      0.57379516    -0.062081888    102.61615    
     43040   110.44337      158.5          158.5          158.5          3.2376399      4.9014816      1.5620582      3.24938        110.44337    
     43060   117.93131      158.5          158.5          158.5         -1.4679776     -1.8867476     -1.4081642     -1.1090211      117.93131    
     43080   119.19959      158.5          158.5          158.5         -2.149834       0.0037172323   0.98866375    -7.4418831      119.19959    
     43100   111.72262      158.5          158.5          158.5         -1.8637206      4.3909142     -1.6749034     -8.3071725      111.72262    
     43120   121.04081      158.5          158.5          158.5         -4.1313354     -1.6862402     -6.0773483     -4.6304176      121.04081    
     43140   130.42677      158.5          158.5          158.5          1.3267661     -2.7527161      4.538326       2.1946885      130.42677    
     43160   116.63516      158.5          158.5          158.5          0.37528166    -0.94296003     1.8912859      0.17751906     116.63516    
     43180   119.37521      158.5          158.5          158.5          0.31423111    -0.27670483    -0.1154756      1.3348738      119.37521    
     43200   114.43342      158.5          158.5          158.5          4.5444069      5.8439005      2.9419412      4.847379       114.43342    
     43220   144.8512       158.5          158.5          158.5         -2.8556998     -1.3082453     -5.4363209     -1.822533       144.8512     
     43240   123.58175      158.5          158.5          158.5          0.41976819    -0.055671021    0.202466       1.1125096      123.58175    
     43260   124.71561      158.5          158.5          158.5          1.4089343      5.3676497      1.678976      -2.8198227      124.71561    
     43280   132.16021      158.5          158.5          158.5         -1.6261092     -2.2699821     -0.89370992    -1.7146356      132.16021    
     43300   129.19319      158.5          158.5          158.5          3.9373146     -0.055041008    3.7010955      8.1658892      129.19319    
     43320   121.88082      158.5          158.5          158.5         -1.9468188     -1.9083651     -3.6265863     -0.30550483     121.88082    
     43340   141.72095      158.5          158.5          158.5         -1.6129697      0.9452031     -1.6927713     -4.091341       141.72095    
     43360   118.57562      158.5          158.5          158.5          1.7313645      0.61906641     4.9325325     -0.35750537     118.57562    
     43380   135.40204      158.5          158.5          158.5         -0.54194923    -0.5097155      0.79351907    -1.9096513      135.40204    
     43400   112.97069      158.5          158.5          158.5         -0.20556493     0.17811802    -1.018162       0.22334917     112.97069    
     43420   140.45879      158.5          158.5          158.5          1.5818588      0.6824939      0.87805989     3.1850227      140.45879    
     43440   118.32008      158.5          158.5          158.5          1.4721851      2.0378437     -0.4381304      2.816842       118.32008    
     43460   123.19601      158.5          158.5          158.5          2.9653249      2.3156125      3.2518894      3.3284728      123.19601    
     43480   130.48719      158.5          158.5          158.5          3.1543842      0.87852959     6.270812       2.3138109      130.48719    
     43500   125.62121      158.5          158.5          158.5         -2.0576028     -1.0895818     -0.51721929    -4.5660074      125.62121    
     43520   117.39575      158.5          158.5          158.5          0.37343459     4.3133814     -1.6558831     -1.5371945      117.39575    
     43540   131.35548      158.5          158.5          158.5         -4.1204945     -5.1295931     -1.3244634     -5.9074271      131.35548    
     43560   124.55811      158.5          158.5          158.5         -2.6496809     -2.7547125     -0.093815719   -5.1005145      124.55811    
     43580   116.28519      158.5          158.5          158.5         -0.37504968     2.2257172     -1.6070137     -1.7438525      116.28519    
     43600   121.78199      158.5          158.5          158.5         -1.5113088     -2.1667866     -0.21858159    -2.1485581      121.78199    
     43620   108.18711      158.5          158.5          158.5          3.4133755      3.5387979      6.5997297      0.10159875     108.18711    
     43640   102.86212      158.5          158.5          158.5          2.5819843      5.4085052      0.67071013     1.6667377      102.86212    
     43660   116.41588      158.5          158.5          158.5          1.2963353      3.3939719     -3.1457385      3.6407724      116.41588    
     43680   109.82018      158.5          158.5          158.5          2.1959876      1.1560463      2.5141517      2.9177648      109.82018    
     43700   120.26693      158.5          158.5          158.5          0.58150677    -3.886327       3.3668052      2.2640421      120.26693    
     43720   102.64897      158.5          158.5          158.5         -0.30388963    -0.73415474    -0.16783863    -0.0096755148   102.64897    
     43740   104.31036      158.5          158.5          158.5         -3.1681516     -0.21510635    -8.995045      -0.29430358     104.31036    
     43760   112.52371      158.5          158.5          158.5         -2.2372357     -4.0155282     -3.5639251      0.8677463      112.52371    
     43780   108.32835      158.5          158.5          158.5         -0.98616486    -1.7953478      4.7472193     -5.9103661      108.32835    
     43800   113.66316      158.5          158.5          158.5          2.0440898      3.4871078      1.9249474      0.72021428     113.66316    
     43820   116.36689      158.5          158.5          158.5          5.1942141      5.2044725     -2.6729383      13.051108      116.36689    
     43840   123.84328      158.5          158.5          158.5          0.75211138    -2.288623       2.7863866      1.7585705      123.84328    
     43860   112.09786      158.5          158.5          158.5          0.61646281     0.10651063     7.134987      -5.3921092      112.09786    
     43880   140.27098      158.5          158.5          158.5          0.017226532    2.9065643     -2.6800227     -0.17486205     140.27098    
     43900   135.16928      158.5          158.5          158.5         -1.5486861      0.99867104    -6.8309855      1.1862562      135.16928    
     43920   131.90647      158.5          158.5          158.5          0.87253015     2.5656869      2.8318405     -2.7799369      131.90647    
     43940   132.57114      158.5          158.5          158.5          1.1012996      2.0040703      4.6672375     -3.367409       132.57114    
     43960   137.27877      158.5          158.5          158.5          0.13714219     1.0943768     -1.1178846      0.43493434     137.27877    
     43980   123.49319      158.5          158.5          158.5          1.8527808     -2.1135963      0.098910706    7.5730279      123.49319    
     44000   142.71288      158.5          158.5          158.5          2.8185451     -0.47397215     3.7961449      5.1334626      142.71288    
     44020   133.1554       158.5          158.5          158.5          0.77620319     1.3549338      3.5120848     -2.5384091      133.1554     
     44040   149.21778      158.5          158.5          158.5         -0.93836901     0.76117081    -4.4383675      0.86208966     149.21778    
     44060   130.05392      158.5          158.5          158.5         -0.41145549    -2.6406255     -2.1292499      3.5355089      130.05392    
     44080   130.17087      158.5          158.5          158.5         -3.2942599     -4.6591936      1.095714      -6.3193001      130.17087    
     44100   137.91942      158.5          158.5          158.5          1.6872887      0.81119999     5.0487367     -0.79807061     137.91942    
     44120   111.12965      158.5          158.5          158.5          1.7853016      1.4218165      3.5600776      0.37401081     111.12965    
     44140   128.43367      158.5          158.5          158.5         -1.1851424     -1.6898519     -1.5871822     -0.27839322     128.43367    
     44160   151.0426       158.5          158.5          158.5          2.822464       2.6757528      1.6805836      4.1110556      151.0426     
     44180   131.53757      158.5          158.5          158.5         -2.0714708     -0.49178296    -1.911312      -3.8113174      131.53757    
     44200   131.1054       158.5          158.5          158.5         -0.16680414    -0.977686      -0.078992784    0.55626635     131.1054     
     44220   130.78302      158.5          158.5          158.5         -2.4372894     -4.054062      -0.25340282    -3.0044032      130.78302    
     44240   128.27365      158.5          158.5          158.5         -5.1187388     -6.9564979     -2.530847      -5.8688715      128.27365    
     44260   128.79653      158.5          158.5          158.5         -0.99566056    -2.6790776      1.285149      -1.5930531      128.79653    
     44280   137.06661      158.5          158.5          158.5         -4.4487185     -5.3202971     -3.117296      -4.9085623      137.06661    
     44300   125.80209      158.5          158.5          158.5         -1.3753977     -2.096717      -1.2930519     -0.73642401     125.80209    
     44320   127.87819      158.5          158.5          158.5         -0.10998594    -4.2938986      0.4068957      3.557045       127.87819    
     44340   145.26073      158.5          158.5          158.5         -1.7383927     -3.1921081      0.52162666    -2.5446966      145.26073    
     44360   130.88506      158.5          158.5          158.5          2.6028945      5.0407025      2.6477729      0.12020808     130.88506    
     44380   136.58191      158.5          158.5          158.5          1.7775396      1.4188272      3.2182788      0.69551285     136.58191    
     44400   147.91492      158.5          158.5          158.5         -3.2480088     -5.2393192     -0.89099855    -3.6137088      147.91492    
     44420   150.52919      158.5          158.5          158.5          0.67202929     1.9842298      0.68026902    -0.64841098     150.52919    
     44440   144.28462      158.5          158.5          158.5         -0.4795087      1.8284748     -0.44832727    -2.8186736      144.28462    
     44460   168.76948      158.5          158.5          158.5         -0.91881584    -0.78768606     0.72146023    -2.6902217      168.76948    
     44480   150.34893      158.5          158.5          158.5          1.1195195      4.1040568     -0.76574232     0.020244119    150.34893    
     44500   138.8152       158.5          158.5          158.5         -0.065159807    1.7107109     -3.0169914      1.110801       138.8152     
     44520   159.29316      158.5          158.5          158.5          0.41968472     3.2874275     -1.5868155     -0.44155783     159.29316    
     44540   143.62888      158.5          158.5          158.5          0.11713636     1.2205108     -0.069325501   -0.79977618     143.62888    
     44560   145.38178      158.5          158.5          158.5          1.1293345     -1.5866185      0.94654023     4.0280817      145.38178    
     44580   137.86068      158.5          158.5          158.5          1.1537242      2.9785126     -0.63070819     1.113368       137.86068    
     44600   151.74469      158.5          158.5          158.5          0.75958505     5.9329772     -1.351228      -2.3029941      151.74469    
     44620   138.30135      158.5          158.5          158.5          4.4423254      3.366909       5.3784031      4.581664       138.30135    
     44640   143.39401      158.5          158.5          158.5          2.049859       2.2858215     -0.69583313     4.5595885      143.39401    
     44660   132.3857       158.5          158.5          158.5         -0.14663361     1.7096275     -1.3972123     -0.75231599     132.3857     
     44680   138.21844      158.5          158.5          158.5          1.7130344      1.7870413      4.1359458     -0.78388372     138.21844    
     44700   133.6724       158.5          158.5          158.5         -1.4392469     -2.3173423     -2.66236        0.66196164     133.6724     
     44720   133.67656      158.5          158.5          158.5         -1.0414353     -0.69577655    -1.894582      -0.53394745     133.67656    
     44740   141.78601      158.5          158.5          158.5          1.484954       4.3247509      0.64221532    -0.51210429     141.78601    
     44760   129.32687      158.5          158.5          158.5          0.57195633    -1.32903        3.2461696     -0.20127062     129.32687    
     44780   125.7035       158.5          158.5          158.5         -0.17132924    -3.4343086      3.4945757     -0.57425489     125.7035     
     44800   139.41946      158.5          158.5          158.5          0.92259857     4.6456172     -3.201417       1.3235955      139.41946    
     44820   121.38117      158.5          158.5          158.5         -0.25064936     0.4298448     -3.6897578      2.5079649      121.38117    
     44840   136.50788      158.5          158.5          158.5         -0.19859288    -4.812857       4.1567721      0.060306303    136.50788    
     44860   131.2157       158.5          158.5          158.5         -1.3100167      2.1245442     -0.46576758    -5.5888266      131.2157     
     44880   153.9127       158.5          158.5          158.5         -1.4025086      2.9404246     -3.3914123     -3.7565382      153.9127     
     44900   126.36194      158.5          158.5          158.5         -1.0949752     -1.9583086      0.36385173    -1.6904687      126.36194    
     44920   147.04801      158.5          158.5          158.5         -0.94317946    -1.3788672      2.3732357     -3.8239068      147.04801    
     44940   131.82864      158.5          158.5          158.5         -0.29390117     3.4310082     -0.40460451    -3.9081072      131.82864    
     44960   134.63028      158.5          158.5          158.5          2.1161439      6.3551708     -0.99691333     0.99017416     134.63028    
     44980   123.67255      158.5          158.5          158.5         -0.17319105     2.3042258     -3.0936792      0.26988032     123.67255    
     45000   145.87325      158.5          158.5          158.5         -1.0493699      0.31354624     2.3655363     -5.8271923      145.87325    
     45020   125.60864      158.5          158.5          158.5          1.495982       0.60576262     2.8318608      1.0503225      125.60864    
     45040   141.0333       158.5          158.5          158.5         -3.9379815     -2.6060422     -9.1504807     -0.057421653    141.0333     
     45060   140.83424      158.5          158.5          158.5          2.4830728      6.3509583      0.28345212     0.81480794     140.83424    
     45080   137.51909      158.5          158.5          158.5         -0.43232148    -4.8203723      2.9552737      0.5681342      137.51909    
     45100   137.65045      158.5          158.5          158.5         -1.394955      -6.541198      -0.60011267     2.9564456      137.65045    
     45120   148.01021      158.5          158.5          158.5          3.0115962      3.5129785     -1.825933       7.3477431      148.01021    
     45140   133.65983      158.5          158.5          158.5         -2.1330293     -1.0539782     -6.4980501      1.1529404      133.65983    
     45160   143.73069      158.5          158.5          158.5          0.77073847     0.44254265     1.3793859      0.49028685     143.73069    
     45180   137.70177      158.5          158.5          158.5          2.4639065      1.85444        3.0397762      2.4975032      137.70177    
     45200   132.54232      158.5          158.5          158.5         -1.1413578     -2.929602      -1.5163683      1.0218968      132.54232    
     45220   145.6264       158.5          158.5          158.5         -0.7978179      1.5148399     -2.6994149     -1.2088787      145.6264     
     45240   123.75276      158.5          158.5          158.5         -1.7316886     -3.5803139     -0.063281696   -1.5514701      123.75276    
     45260   133.082        158.5          158.5          158.5         -2.4839129     -6.9067992      2.4559177     -3.0008573      133.082      
     45280   126.81021      158.5          158.5          158.5         -0.53188485     3.622865      -0.77545649    -4.443063       126.81021    
     45300   116.78459      158.5          158.5          158.5          0.93198805     2.7229352     -4.3095904      4.3826194      116.78459    
     45320   114.66402      158.5          158.5          158.5          2.6998724     -0.26220763     2.4369453      5.9248796      114.66402    
     45340   118.69517      158.5          158.5          158.5          0.099176674   -1.0021733      2.928614      -1.6289106      118.69517    
     45360   117.6493       158.5          158.5          158.5          0.6119367      2.0226671      1.0236013     -1.2104584      117.6493     
     45380   127.18465      158.5          158.5          158.5         -0.017623737    1.024699      -0.78945789    -0.28811234     127.18465    
     45400   117.99074      158.5          158.5          158.5         -1.4722905     -0.30333407    -2.81889       -1.2946473      117.99074    
     45420   99.994197      158.5          158.5          158.5         -1.5584612     -2.0530392     -1.2393002     -1.3830441      99.994197    
     45440   114.13014      158.5          158.5          158.5         -3.6397539     -5.5288615     -0.97822958    -4.4121706      114.13014    
     45460   111.13999      158.5          158.5          158.5         -0.20475753    -2.6861492     -0.71113079     2.7830073      111.13999    
     45480   100.39797      158.5          158.5          158.5         -0.031034475   -1.4858113     -0.89389783     2.2866057      100.39797    
     45500   116.94546      158.5          158.5          158.5         -0.85581796    -5.94658        2.9887111      0.39041497     116.94546    
     45520   111.49686      158.5          158.5          158.5          0.52413158    -1.2859437      2.9640945     -0.10575604     111.49686    
     45540   112.77273      158.5          158.5          158.5         -1.9253921     -1.3005169     -4.0038327     -0.47182665     112.77273    
     45560   124.08002      158.5          158.5          158.5         -0.57084318    -1.9570141     -3.0016246      3.2461092      124.08002    
     45580   107.92239      158.5          158.5          158.5          0.32693558     0.34470151    -0.12377217     0.75987739     107.92239    
     45600   124.62227      158.5          158.5          158.5         -1.5108946     -1.8348222     -0.0042688793  -2.6935927      124.62227    
     45620   118.16713      158.5          158.5          158.5          1.52119        1.4860458      0.081948067    2.9955761      118.16713    
     45640   129.79802      158.5          158.5          158.5         -0.22845029     1.825231      -4.5057795      1.9951976      129.79802    
     45660   117.0584       158.5          158.5          158.5          0.205549       1.7244657     -0.25646855    -0.85135018     117.0584     
     45680   134.68915      158.5          158.5          158.5          3.0840749      4.4087522      3.1284119      1.7150605      134.68915    
     45700   127.76581      158.5          158.5          158.5         -1.9836467     -0.97844831    -2.9370743     -2.0354176      127.76581    
     45720   132.59159      158.5          158.5          158.5          1.2803507      2.1973799     -0.045248292    1.6889205      132.59159    
     45740   124.42343      158.5          158.5          158.5          1.3712281      0.32510878     3.2305144      0.55806108     124.42343    
     45760   145.30025      158.5          158.5          158.5         -3.0695226     -4.2453435     -0.79369906    -4.1695252      145.30025    
     45780   105.50893      158.5          158.5          158.5          3.297563       2.9662683      1.6551288      5.271292       105.50893    
     45800   147.48487      158.5          158.5          158.5          2.4207231     -2.6170273     -0.095448727    9.9746454      147.48487    
     45820   115.1805       158.5          158.5          158.5          0.21790739    -2.6186405      3.3635307     -0.091168059    115.1805     
     45840   123.6578       158.5          158.5          158.5          2.6354489      2.5249725      6.0003076     -0.6189334      123.6578     
     45860   124.29633      158.5          158.5          158.5          0.32840375    -1.6126444     -3.4185884      6.016444       124.29633    
     45880   136.32269      158.5          158.5          158.5         -1.8401895     -2.2082937     -3.6780214      0.36574672     136.32269    
     45900   126.42531      158.5          158.5          158.5          1.1017057      2.2340265      2.5627789     -1.4916884      126.42531    
     45920   108.44315      158.5          158.5          158.5         -1.5917869     -0.36784297    -2.4626395     -1.9448781      108.44315    
     45940   111.64819      158.5          158.5          158.5         -2.934813      -2.5994617     -5.9382299     -0.2667473      111.64819    
     45960   132.48929      158.5          158.5          158.5         -0.69387948     1.1821782     -2.9930078     -0.2708089      132.48929    
     45980   99.030655      158.5          158.5          158.5         -0.17159061     0.48391882    -0.37355955    -0.62513111     99.030655    
     46000   115.39708      158.5          158.5          158.5          0.20676633     0.71096807    -0.88277944     0.79211037     115.39708    
     46020   113.57012      158.5          158.5          158.5          2.0380853      3.1449174      0.53762058     2.431718       113.57012    
     46040   111.11645      158.5          158.5          158.5          0.11251664    -2.5990414      0.90223883     2.0343525      111.11645    
     46060   119.61115      158.5          158.5          158.5         -2.9436103     -1.1288992     -1.8794566     -5.822475       119.61115    
     46080   127.34537      158.5          158.5          158.5         -1.6302784      1.1041817     -2.2932534     -3.7017634      127.34537    
     46100   123.81732      158.5          158.5          158.5         -0.80910594    -3.0372786     -0.71554722     1.325508       123.81732    
     46120   102.93603      158.5          158.5          158.5          0.43241734    -1.5152853     -1.0180336      3.8305709      102.93603    
     46140   120.44799      158.5          158.5          158.5          2.9953779      3.5977571      4.5207991      0.86757757     120.44799    
     46160   126.70882      158.5          158.5          158.5          3.1721556      1.8575308      6.4486568      1.2102794      126.70882    
     46180   123.61327      158.5          158.5          158.5          1.8371338     -1.0819998      2.8022605      3.7911408      123.61327    
     46200   126.95811      158.5          158.5          158.5          1.9977419     -1.7075272      4.8080791      2.8926738      126.95811    
     46220   130.2176       158.5          158.5          158.5          0.96111144     0.9587155      3.3739754     -1.4493565      130.2176     
     46240   129.41714      158.5          158.5          158.5         -2.0861423     -1.7096153      0.094261276   -4.6430728      129.41714    
     46260   133.53286      158.5          158.5          158.5         -0.24952239    -3.0594294     -1.6376943      3.9485565      133.53286    
     46280   126.75355      158.5          158.5          158.5          0.91893892    -0.75327953     0.47985871     3.0302376      126.75355    
     46300   144.05331      158.5          158.5          158.5         -1.3823456      0.31067611     1.2654538     -5.7231667      144.05331    
     46320   142.44336      158.5          158.5          158.5          1.326945       3.362747      -0.08945016     0.70753831     142.44336    
     46340   155.62286      158.5          158.5          158.5          0.81949008    -1.6999472     -0.49418375     4.6526012      155.62286    
     46360   131.29967      158.5          158.5          158.5         -0.38123437    -0.45428089    -1.0336545      0.34423231     131.29967    
     46380   146.27299      158.5          158.5          158.5          2.9710414      6.2385361      1.6329715      1.0416166      146.27299    
     46400   121.83168      158.5          158.5          158.5         -2.7713369     -1.630679      -2.5052084     -4.1781231      121.83168    
     46420   149.00108      158.5          158.5          158.5         -0.20893404    -0.72052175    -1.8294924      1.923212       149.00108    
     46440   135.85834      158.5          158.5          158.5         -1.2877333     -2.0645927      2.1788783     -3.9774853      135.85834    
     46460   146.10454      158.5          158.5          158.5         -6.7508754     -3.5588281     -9.6344084     -7.0593899      146.10454    
     46480   126.11491      158.5          158.5          158.5         -2.0631577      0.024742637   -7.6110989      1.3968832      126.11491    
     46500   132.70836      158.5          158.5          158.5         -4.4604941     -7.5545873     -0.34213419    -5.4847608      132.70836    
     46520   126.27684      158.5          158.5          158.5         -0.72709509     0.28987642    -1.6817634     -0.78939834     126.27684    
     46540   127.37056      158.5          158.5          158.5          1.3743717      2.485267      -0.24878103     1.8866289      127.37056    
     46560   126.16782      158.5          158.5          158.5         -0.31639895    -1.069521      -0.043976393    0.16430059     126.16782    
     46580   131.40329      158.5          158.5          158.5          1.6369678      1.1530684      0.37132051     3.3865145      131.40329    
     46600   109.30837      158.5          158.5          158.5          2.0838183      1.6919884      1.6958236      2.8636431      109.30837    
     46620   113.54461      158.5          158.5          158.5          0.81396648     0.65456156     1.2600572      0.52728065     113.54461    
     46640   125.2509       158.5          158.5          158.5         -0.052012372    0.045771023    0.70505015    -0.90685829     125.2509     
     46660   113.58894      158.5          158.5          158.5          1.0592022     -1.0733866      3.0951276      1.1558656      113.58894    
     46680   116.66901      158.5          158.5          158.5          0.44254665    -0.92985635     0.69874308     1.5587532      116.66901    
     46700   118.81265      158.5          158.5          158.5          2.500441       3.1769713      5.425553      -1.1012013      118.81265    
     46720   109.86997      158.5          158.5          158.5          2.8139135      5.128407       4.9526287     -1.6392951      109.86997    
     46740   119.78         158.5          158.5          158.5          1.6094057     -0.075107623    0.88684086     4.0164838      119.78       
     46760   105.65808      158.5          158.5          158.5          2.6679704      1.7187133      3.9891517      2.2960463      105.65808    
     46780   113.95397      158.5          158.5          158.5         -0.31543877     3.7970329      1.6092646     -6.3526138      113.95397    
     46800   126.22439      158.5          158.5          158.5          1.3475402      2.2701151      0.94476907     0.82773644     126.22439    
     46820   121.46002      158.5          158.5          158.5         -2.4867708     -2.2266931     -4.3197114     -0.91390802     121.46002    
     46840   127.49454      158.5          158.5          158.5         -2.7602201     -0.10969653     0.69416188    -8.8651255      127.49454    
     46860   127.96076      158.5          158.5          158.5          2.8014608      6.629028       4.0546878     -2.2793334      127.96076    
     46880   130.48459      158.5          158.5          158.5         -2.6192601      0.97240323    -7.8207092     -1.0094745      130.48459    
     46900   130.97311      158.5          158.5          158.5          1.4027632      2.4352837     -1.5069166      3.2799225      130.97311    
     46920   112.18441      158.5          158.5          158.5         -1.0832264     -1.3490803      0.15824776    -2.0588466      112.18441    
     46940   130.83104      158.5          158.5          158.5         -4.1332739     -4.515389      -1.9506085     -5.9338243      130.83104    
     46960   136.20752      158.5          158.5          158.5          1.0797794      2.9320581     -1.4814562      1.7887363      136.20752    
     46980   120.83246      158.5          158.5          158.5         -4.4024321     -1.9275233     -9.3108763     -1.9688966      120.83246    
     47000   125.62002      158.5          158.5          158.5         -0.99660515    -0.77600189     0.74435358    -2.9581671      125.62002    
     47020   138.17842      158.5          158.5          158.5          3.0955982     -0.63659428     3.6360137      6.2873753      138.17842    
     47040   124.19692      158.5          158.5          158.5         -1.8442619     -3.13931       -4.889156       2.4956804      124.19692    
     47060   148.75674      158.5          158.5          158.5          2.9832677      7.3857417     -0.25930867     1.82337        148.75674    
     47080   135.98598      158.5          158.5          158.5          1.1677835      0.89156728     2.8919833     -0.28020003     135.98598    
     47100   132.5129       158.5          158.5          158.5         -1.4401854     -2.0053746      0.60914992    -2.9243315      132.5129     
     47120   141.9491       158.5          158.5          158.5          1.2425081      2.0305595     -2.0749402      3.7719049      141.9491     
     47140   124.06082      158.5          158.5          158.5         -1.7180978      0.18701446    -5.3331688     -0.0081390736   124.06082    
     47160   121.87713      158.5          158.5          158.5          1.470825       2.7120564      0.77343601     0.92698265     121.87713    
     47180   119.57094      158.5          158.5          158.5          0.1225149     -0.60895621     1.6801194     -0.70361844     119.57094    
     47200   114.16442      158.5          158.5          158.5         -0.99926818    -4.2079217      0.011636001    1.1984812      114.16442    
     47220   126.58079      158.5          158.5          158.5          2.7640914      1.769462       0.34401207     6.1788001      126.58079    
     47240   130.89344      158.5          158.5          158.5         -2.1651176     -0.42697016    -0.79109275    -5.27729        130.89344    
     47260   111.01305      158.5          158.5          158.5          1.0472706     -0.77147505     3.3299159      0.58337099     111.01305    
     47280   103.24775      158.5          158.5          158.5         -2.5160986     -4.8356939     -2.7798951      0.067293206    103.24775    
     47300   113.82828      158.5          158.5          158.5         -1.0608406      2.0081693     -1.2309625     -3.9597286      113.82828    
     47320   127.78083      158.5          158.5          158.5          0.082647479    4.4108329     -0.44405257    -3.7188379      127.78083    
     47340   111.59961      158.5          158.5          158.5         -1.6055731     -1.9460682      0.23993769    -3.110589       111.59961    
     47360   124.56261      158.5          158.5          158.5          4.0231417     -0.4907839      5.6776691      6.8825398      124.56261    
     47380   127.23898      158.5          158.5          158.5          0.24807674    -0.70193141    -0.074692991    1.5208546      127.23898    
     47400   135.84719      158.5          158.5          158.5          1.5550704      1.0162858      1.6262655      2.0226598      135.84719    
     47420   139.14085      158.5          158.5          158.5          3.2651649      1.4828         3.363884       4.9488106      139.14085    
     47440   132.7001       158.5          158.5          158.5         -1.9658144     -0.20123534    -5.101243      -0.59496493     132.7001     
     47460   125.35755      158.5          158.5          158.5          0.68114256     2.3553148     -0.12687624    -0.18501085     125.35755    
     47480   123.93231      158.5          158.5          158.5         -2.8228424     -0.095768109   -1.4630845     -6.9096747      123.93231    
     47500   128.85373      158.5          158.5          158.5         -4.3845752     -6.3835751     -2.0407492     -4.7294013      128.85373    
     47520   116.9591       158.5          158.5          158.5          0.73408266     1.065073      -2.1328958      3.2700708      116.9591     
     47540   128.48774      158.5          158.5          158.5         -1.8310217     -1.2391737     -4.3303293      0.076438019    128.48774    
     47560   129.95395      158.5          158.5          158.5          4.2782668     -1.5374669      6.604365       7.7679023      129.95395    
     47580   121.5531       158.5          158.5          158.5          4.1212854      1.6895451      4.3007851      6.373526       121.5531     
     47600   125.73423      158.5          158.5          158.5         -0.25862711    -0.64114007     0.38652479    -0.52126604     125.73423    
     47620   128.07942      158.5          158.5          158.5          1.4598791      1.3118782      1.6845525      1.3832065      128.07942    
     47640   129.07831      158.5          158.5          158.5         -2.3427699     -1.79374       -1.8866315     -3.3479381      129.07831    
     47660   129.03952      158.5          158.5          158.5         -0.021692488   -4.4403158      3.5686823      0.80655602     129.03952    
     47680   134.54669      158.5          158.5          158.5          1.1193063     -1.7894668      2.0902633      3.0571225      134.54669    
     47700   118.57686      158.5          158.5          158.5          0.25668754     2.8186456     -0.75910329    -1.2894797      118.57686    
     47720   120.86026      158.5          158.5          158.5          4.8268178      6.8905767      5.2818724      2.3080044      120.86026    
     47740   123.48152      158.5          158.5          158.5          1.0375437      0.10641707    -1.0881971      4.0944111      123.48152    
     47760   121.89676      158.5          158.5          158.5          1.6899894      1.0537038      1.481676       2.5345885      121.89676    
     47780   121.51988      158.5          158.5          158.5         -1.0944997      1.4375288     -2.9360298     -1.7849983      121.51988    
     47800   124.83829      158.5          158.5          158.5         -3.5635279     -2.4959799     -2.3593042     -5.8352996      124.83829    
     47820   124.78756      158.5          158.5          158.5         -2.5212365     -6.1922905     -0.36706859    -1.0043503      124.78756    
     47840   124.04207      158.5          158.5          158.5         -5.6715956     -7.332406      -6.8321011     -2.8502796      124.04207    
     47860   135.19243      158.5          158.5          158.5          1.0587226      6.7560745     -0.04252403    -3.5373827      135.19243    
     47880   127.69909      158.5          158.5          158.5         -0.43824595     3.2861548     -3.0837728     -1.5171199      127.69909    
     47900   123.06322      158.5          158.5          158.5          1.4885955      0.55844767    -2.2113636      6.1187024      123.06322    
     47920   129.32546      158.5          158.5          158.5          5.1214895      7.7428178      4.7385605      2.8830903      129.32546    
     47940   137.02228      158.5          158.5          158.5         -2.2843525      2.0385928     -1.2264286     -7.6652217      137.02228    
     47960   127.29216      158.5          158.5          158.5         -1.0696678      0.61676957    -2.4183215     -1.4074516      127.29216    
     47980   133.71674      158.5          158.5          158.5         -1.1338786     -3.7663703      0.40764903    -0.042914662    133.71674    
     48000   136.27207      158.5          158.5          158.5         -3.0463552     -7.3888945     -1.0942942     -0.65587695     136.27207    
     48020   123.50626      158.5          158.5          158.5          1.3313004      3.6387909     -2.131487       2.4865973      123.50626    
     48040   135.42181      158.5          158.5          158.5          3.5133593      3.6268702      2.2739974      4.6392102      135.42181    
     48060   139.68125      158.5          158.5          158.5         -0.9142246     -8.0823251      2.7743852      2.5652661      139.68125    
     48080   133.62622      158.5          158.5          158.5          0.80631383    -2.9596838      1.6955873      3.683038       133.62622    
     48100   131.06439      158.5          158.5          158.5          0.61282813     2.1031339     -0.44874696     0.18409743     131.06439    
     48120   127.27893      158.5          158.5          158.5         -0.11355603    -2.5893481      2.2924697     -0.043789677    127.27893    
     48140   134.3704       158.5          158.5          158.5          2.4720686     -1.7183312      4.1784613      4.9560757      134.3704     
     48160   118.05756      158.5          158.5          158.5         -0.19725261    -0.55801528    -1.343528       1.3097855      118.05756    
     48180   106.31325      158.5          158.5          158.5         -0.82984405     0.76581281    -2.5174327     -0.73791222     106.31325    
     48200   126.78866      158.5          158.5          158.5          0.14666748     1.9755027      1.6902158     -3.2257161      126.78866    
     48220   116.47873      158.5          158.5          158.5         -2.3175427     -2.8500673     -1.807386      -2.2951748      116.47873    
     48240   127.3774       158.5          158.5          158.5         -1.6342262     -1.353269      -3.6282738      0.078864214    127.3774     
     48260   112.4212       158.5          158.5          158.5         -2.3482417     -4.978113      -1.0394228     -1.0271891      112.4212     
     48280   122.17536      158.5          158.5          158.5          0.17611573    -2.628874       2.8046757      0.35254553     122.17536    
     48300   113.02982      158.5          158.5          158.5          1.6277196      1.2534804     -0.20024797     3.8299264      113.02982    
     48320   119.90443      158.5          158.5          158.5          1.3992046      3.6097312      0.60843535    -0.020552645    119.90443    
     48340   127.58853      158.5          158.5          158.5          0.34959938     2.4333288      0.21804927    -1.6025799      127.58853    
     48360   117.73408      158.5          158.5          158.5         -0.46588172    -0.077563164   -1.0454034     -0.27467862     117.73408    
     48380   121.27553      158.5          158.5          158.5         -2.1476937     -0.75480562    -3.5024105     -2.1858649      121.27553    
     48400   134.90196      158.5          158.5          158.5         -1.6044181     -3.1602312     -1.842786       0.18976291     134.90196    
     48420   122.93686      158.5          158.5          158.5          1.1005714     -0.47096063     0.54892754     3.2237474      122.93686    
     48440   142.16917      158.5          158.5          158.5         -0.272384      -0.44711545     2.4218871     -2.7919236      142.16917    
     48460   140.2099       158.5          158.5          158.5          5.2154054      4.2951991      6.0794354      5.2715816      140.2099     
     48480   142.64777      158.5          158.5          158.5          0.9767442      2.8068007     -4.0361533      4.1595852      142.64777    
     48500   145.66892      158.5          158.5          158.5          1.1055983      3.0337762      0.81327991    -0.53026115     145.66892    
     48520   146.1009       158.5          158.5          158.5          2.1409232      0.6565772      4.1761412      1.5900511      146.1009     
     48540   149.89587      158.5          158.5          158.5         -6.5481828     -6.6014415     -8.9713526     -4.0717544      149.89587    
     48560   143.66709      158.5          158.5          158.5         -0.56217679     0.3608092     -0.42693449    -1.6204051      143.66709    
     48580   132.00477      158.5          158.5          158.5         -3.1048659     -6.2308631     -0.12387855    -2.959856       132.00477    
     48600   133.11248      158.5          158.5          158.5         -2.200295      -5.874191       0.041267314   -0.76796141     133.11248    
     48620   128.90533      158.5          158.5          158.5          5.2044995      6.9188706      4.7537702      3.9408576      128.90533    
     48640   144.56755      158.5          158.5          158.5         -1.3824484     -1.8392838     -5.2161699      2.9081085      144.56755    
     48660   127.45267      158.5          158.5          158.5          0.43344035    -2.2614265      0.80369049     2.7580571      127.45267    
     48680   132.29672      158.5          158.5          158.5          1.0187719     -0.29740474     4.0621403     -0.70841999     132.29672    
     48700   140.83178      158.5          158.5          158.5         -3.7641729     -4.3652652     -4.6283911     -2.2988624      140.83178    
     48720   143.65138      158.5          158.5          158.5          0.91416911     1.1982563     -1.7471242      3.2913753      143.65138    
     48740   120.79642      158.5          158.5          158.5          0.41320929    -1.4599696      3.4635649     -0.76396743     120.79642    
     48760   134.78602      158.5          158.5          158.5         -0.83979042    -1.2655684      5.3573319     -6.6111348      134.78602    
     48780   118.83559      158.5          158.5          158.5          0.30788119     2.1148811     -0.58814877    -0.60308879     118.83559    
     48800   131.99839      158.5          158.5          158.5         -3.0423589     -6.1807604     -2.647573      -0.29874331     131.99839    
     48820   112.32103      158.5          158.5          158.5         -2.541744      -3.4584505     -2.2073122     -1.9594693      112.32103    
     48840   119.97662      158.5          158.5          158.5         -0.35729046     3.8034709     -2.2398644     -2.6354779      119.97662    
     48860   108.04528      158.5          158.5          158.5         -0.4147514      2.9295462     -1.8558775     -2.317923       108.04528    
     48880   118.26434      158.5          158.5          158.5         -0.90417962     0.18970474    -3.2744963      0.37225268     118.26434    
     48900   119.23141      158.5          158.5          158.5          2.9478656      2.127002       2.5649441      4.1516506      119.23141    
     48920   108.64257      158.5          158.5          158.5          3.1996083      5.0452318      5.7814449     -1.2278518      108.64257    
     48940   112.42281      158.5          158.5          158.5          1.5622841      5.4932886      2.0127602     -2.8191964      112.42281    
     48960   114.79416      158.5          158.5          158.5          2.7147238      2.3225446     -1.0545106      6.8761375      114.79416    
     48980   107.22463      158.5          158.5          158.5         -0.8542115     -3.3824997     -0.71982277     1.5396879      107.22463    
     49000   117.62577      158.5          158.5          158.5         -3.2495558      0.35882173    -2.1587855     -7.9487038      117.62577    
     49020   100.28446      158.5          158.5          158.5         -1.2309031      1.4535889     -3.6332063     -1.513092       100.28446    
     49040   105.95825      158.5          158.5          158.5         -1.9966923     -3.4673768     -6.4931178      3.9704177      105.95825    
     49060   112.71217      158.5          158.5          158.5          4.0617039      3.7312378      4.6878772      3.7659967      112.71217    
     49080   121.79486      158.5          158.5          158.5          3.9023662      3.5939027      6.4250296      1.6881661      121.79486    
     49100   116.74244      158.5          158.5          158.5         -1.5167874     -2.7365174      1.6080057     -3.4218504      116.74244    
     49120   120.21729      158.5          158.5          158.5          1.9418139      1.0701924      1.6795324      3.0757169      120.21729    
     49140   122.04944      158.5          158.5          158.5         -2.018853      -2.7380895     -3.7850586      0.46658902     122.04944    
     49160   128.89259      158.5          158.5          158.5         -0.93178875    -0.50959725     1.9862835     -4.2720526      128.89259    
     49180   122.80253      158.5          158.5          158.5          1.3718285      1.5998728      3.3836989     -0.86808621     122.80253    
     49200   120.06305      158.5          158.5          158.5         -3.5955636     -2.8174447     -5.7937504     -2.1754958      120.06305    
     49220   111.39223      158.5          158.5          158.5          0.94425142     2.1124432     -0.73991574     1.4602268      111.39223    
     49240   112.99094      158.5          158.5          158.5         -0.33965376    -0.7036625      2.3142193     -2.6295181      112.99094    
     49260   120.16902      158.5          158.5          158.5         -3.8113312     -3.2439898     -2.6237979     -5.5662058      120.16902    
     49280   120.68861      158.5          158.5          158.5         -1.0162581     -0.25321625    -2.0766754     -0.71888262     120.68861    
     49300   115.62781      158.5          158.5          158.5         -1.5108515     -2.5373924      1.2695329     -3.2646949      115.62781    
     49320   127.61318      158.5          158.5          158.5          2.1504941      2.1086089      5.5175049     -1.1746316      127.61318    
     49340   132.7158       158.5          158.5          158.5          1.2465187      3.4205765     -1.0655383      1.3845177      132.7158     
     49360   134.08138      158.5          158.5          158.5         -0.23592856     0.31208969    -0.66503507    -0.35484031     134.08138    
     49380   124.78184      158.5          158.5          158.5          3.9495513      4.3713391      4.2772147      3.2001002      124.78184    
     49400   127.47252      158.5          158.5          158.5         -1.412763      -1.2640644      1.2004952     -4.1747198      127.47252    
     49420   141.20212      158.5          158.5          158.5         -1.8606474     -4.4767126      0.98659325    -2.0918228      141.20212    
     49440   128.42094      158.5          158.5          158.5          1.8487145      1.6337688     -3.4153595      7.3277341      128.42094    
     49460   131.78333      158.5          158.5          158.5         -1.9550376     -0.63984542    -5.3087733      0.083505814    131.78333    
     49480   110.45889      158.5          158.5          158.5          1.1748982     -1.238863       3.9236774      0.83988019     110.45889    
     49500   143.68616      158.5          158.5          158.5          2.7255706      1.4039853      6.5705676      0.20215886     143.68616    
     49520   147.01389      158.5          158.5          158.5         -3.1767259     -3.6159881     -2.0999181     -3.8142715      147.01389    
     49540   137.91779      158.5          158.5          158.5          3.1717324      1.7347674      0.043595056    7.7368348      137.91779    
     49560   133.46446      158.5          158.5          158.5          0.46605478    -2.5961361      2.5236834      1.470617       133.46446    
     49580   135.49374      158.5          158.5          158.5         -2.6374768     -5.5362055     -1.0162101     -1.3600149      135.49374    
     49600   139.38019      158.5          158.5          158.5          2.6159953      6.0453083     -3.3183161      5.1209936      139.38019    
     49620   140.898        158.5          158.5          158.5         -2.9144927     -0.06058685    -6.6271572     -2.055734       140.898      
     49640   124.92715      158.5          158.5          158.5          0.50626971    -2.5633539      0.22564279     3.8565202      124.92715    
     49660   127.41495      158.5          158.5          158.5          2.5160523      1.6118946      5.6364216      0.29984071     127.41495    
     49680   141.79366      158.5          158.5          158.5         -1.4952697     -1.6814281     -0.58277393    -2.2216071      141.79366    
     49700   138.91983      158.5          158.5          158.5         -0.38421716    -0.41660795    -3.3621457      2.6261021      138.91983    
     49720   131.65555      158.5          158.5          158.5          0.38113109     3.2585089     -1.0607012     -1.0544144      131.65555    
     49740   130.3634       158.5          158.5          158.5         -0.4983501      0.99900229    -1.0100048     -1.4840478      130.3634     
     49760   130.83892      158.5          158.5          158.5          2.396211       4.7289884     -0.25198131     2.7116258      130.83892    
     49780   143.23607      158.5          158.5          158.5          2.1143226      3.8359611      1.6058313      0.90117528     143.23607    
     49800   116.28536      158.5          158.5          158.5          0.78768194    -0.32032739     1.4645433      1.2188299      116.28536    
     49820   120.33214      158.5          158.5          158.5          1.3027207     -1.6845954      2.0293913      3.5633661      120.33214    
     49840   116.52733      158.5          158.5          158.5         -0.013472768   -2.6386352      1.9591378      0.63907902     116.52733    
     49860   132.23719      158.5          158.5          158.5          0.21577875     3.7462283     -0.59316069    -2.5057314      132.23719    
     49880   109.94632      158.5          158.5          158.5         -0.42206224     2.4262595     -2.711176      -0.98127019     109.94632    
     49900   116.54893      158.5          158.5          158.5         -0.90688164    -4.753459       1.2252433      0.80757071     116.54893    
     49920   119.90536      158.5          158.5          158.5         -0.28172342    -3.1264728     -0.27017599     2.5514785      119.90536    
     49940   131.04635      158.5          158.5          158.5         -1.3275653      2.2061366     -4.7886406     -1.400192       131.04635    
     49960   125.99479      158.5          158.5          158.5          0.40142114     2.2682616     -1.0929361      0.028937903    125.99479    
     49980   117.23464      158.5          158.5          158.5          1.4501243      1.4605942      2.4543426      0.43543602     117.23464    
     50000   128.33936      158.5          158.5          158.5          0.16310003    -2.7044605      0.059199073    3.1345616      128.33936    
     50020   144.68941      158.5          158.5          158.5          1.2118018     -0.47311614     1.7617824      2.3467391      144.68941    
     50040   125.97147      158.5          158.5          158.5          0.028839227   -0.76297221     0.18829635     0.66119355     125.97147    
     50060   123.18035      158.5          158.5          158.5         -0.720955      -1.8131709     -0.30386137    -0.04583269     123.18035    
     50080   142.28101      158.5          158.5          158.5          1.1711343      1.0995801      1.1094595      1.3043635      142.28101    
     50100   157.7682       158.5          158.5          158.5         -0.17630746     2.460411      -1.0368315     -1.9525019      157.7682     
     50120   133.26473      158.5          158.5          158.5          3.4748682      4.8122833      0.31064159     5.3016799      133.26473    
     50140   141.88574      158.5          158.5          158.5          1.1925623      0.16804834     0.61127359     2.7983649      141.88574    
     50160   143.30097      158.5          158.5          158.5         -1.8031292     -6.0004845      1.1952275     -0.60413059     143.30097    
     50180   126.63921      158.5          158.5          158.5          0.93161666    -3.1754488      0.979253       4.9910458      126.63921    
     50200   129.65758      158.5          158.5          158.5         -2.123177       0.78314528    -3.3060479     -3.8466285      129.65758    
     50220   143.57932      158.5          158.5          158.5          0.26875602     1.5265668     -1.6810568      0.9607581      143.57932    
     50240   117.7323       158.5          158.5          158.5          3.0508499      0.14377653     2.1206359      6.8881374      117.7323     
     50260   131.34176      158.5          158.5          158.5         -1.7081584     -2.3255111      0.55036159    -3.3493257      131.34176    
     50280   152.43999      158.5          158.5          158.5          0.93341307     3.4047892     -1.5566869      0.95213688     152.43999    
     50300   142.72257      158.5          158.5          158.5         -2.6320606     -1.2760731     -3.0109526     -3.6091563      142.72257    
     50320   129.16201      158.5          158.5          158.5         -0.63498531    -1.5826311      2.1336474     -2.4559722      129.16201    
     50340   133.24023      158.5          158.5          158.5          0.95363361     0.82621179    -0.50356244     2.5382515      133.24023    
     50360   150.17433      158.5          158.5          158.5         -1.833704      -3.6017767      0.25343838    -2.1527737      150.17433    
     50380   120.57193      158.5          158.5          158.5          0.69742926     0.29171551     1.2019058      0.5986665      120.57193    
     50400   137.31538      158.5          158.5          158.5         -0.1930411      1.2352286     -2.4432939      0.62894209     137.31538    
     50420   144.41781      158.5          158.5          158.5         -1.2742978      0.79800288    -2.9210047     -1.6998915      144.41781    
     50440   139.62431      158.5          158.5          158.5          0.96220909     0.99500474     1.7918287      0.099793811    139.62431    
     50460   136.90667      158.5          158.5          158.5          0.53694308    -2.0446368      2.8114549      0.8440111      136.90667    
     50480   133.59298      158.5          158.5          158.5         -0.29714094    -2.8666251      1.0120056      0.96319673     133.59298    
     50500   147.00267      158.5          158.5          158.5          0.87923093     1.1174842      1.002456       0.5177526      147.00267    
     50520   148.7496       158.5          158.5          158.5         -1.1362124     -0.69380168    -1.3928867     -1.3219488      148.7496     
     50540   138.67494      158.5          158.5          158.5         -1.675982      -0.43570201    -1.3297906     -3.2624535      138.67494    
     50560   132.79952      158.5          158.5          158.5          0.30005957    -3.5518291      3.4386378      1.01337        132.79952    
     50580   153.21787      158.5          158.5          158.5         -2.9341489     -6.5687568      0.45808017    -2.6917702      153.21787    
     50600   153.64343      158.5          158.5          158.5         -1.398805      -0.79227396    -0.59200024    -2.8121407      153.64343    
     50620   143.02039      158.5          158.5          158.5          2.4368373      2.5220939      3.5345557      1.2538624      143.02039    
     50640   148.69807      158.5          158.5          158.5         -3.4730995     -5.3994482     -3.7912151     -1.2286353      148.69807    
     50660   145.49373      158.5          158.5          158.5          1.1729182      1.7280658      3.4795696     -1.6888809      145.49373    
     50680   145.34781      158.5          158.5          158.5          0.49226938     2.2856915      0.77917844    -1.5880618      145.34781    
     50700   150.06974      158.5          158.5          158.5         -2.7396825     -5.6952891     -2.9639382      0.44017973     150.06974    
     50720   146.16179      158.5          158.5          158.5          3.4876066      2.1987623      7.3216862      0.94237117     146.16179    
     50740   130.56587      158.5          158.5          158.5         -1.9521838     -2.2351299      0.50005932    -4.1214807      130.56587    
     50760   141.8186       158.5          158.5          158.5         -0.32096097     1.2868834     -3.4323457      1.1825794      141.8186     
     50780   148.27365      158.5          158.5          158.5          4.1276844      6.3971417      2.3968892      3.5890222      148.27365    
     50800   131.55578      158.5          158.5          158.5         -0.92929585    -4.078576       1.39963       -0.10894152     131.55578    
     50820   128.03004      158.5          158.5          158.5          0.60654312    -2.1879636      1.8014096      2.2061834      128.03004    
     50840   164.77637      158.5          158.5          158.5          1.6439657      4.1726573      0.60513106     0.15410863     164.77637    
     50860   125.44542      158.5          158.5          158.5         -4.1245578     -0.39425807    -6.6843571     -5.2950583      125.44542    
     50880   132.79733      158.5          158.5          158.5          1.0839592      1.4650515     -0.51577812     2.3026043      132.79733    
     50900   123.78742      158.5          158.5          158.5          3.4499138      0.7367355      5.2514147      4.3615912      123.78742    
     50920   134.90171      158.5          158.5          158.5         -1.358012      -2.4342133     -1.3549317     -0.2848909      134.90171    
     50940   141.10597      158.5          158.5          158.5          4.0065467      5.3223983      3.4123699      3.2848719      141.10597    
     50960   139.15445      158.5          158.5          158.5          3.110528       4.0092635      2.0115923      3.3107282      139.15445    
     50980   129.84947      158.5          158.5          158.5         -2.3827255     -4.6320716     -3.0322653      0.51616048     129.84947    
     51000   129.38119      158.5          158.5          158.5          1.4625532      0.91040806     1.4865355      1.990716       129.38119    
     51020   127.27158      158.5          158.5          158.5          0.7025331      3.8749868     -1.3912157     -0.37617177     127.27158    
     51040   144.04057      158.5          158.5          158.5         -0.23490879    -0.24801869    -0.55656504     0.099857358    144.04057    
     51060   119.50194      158.5          158.5          158.5          1.457269       0.022676526    4.137104       0.21202643     119.50194    
     51080   131.98718      158.5          158.5          158.5         -0.62050811     0.41073168    -1.6927534     -0.57950258     131.98718    
     51100   150.23009      158.5          158.5          158.5         -1.661373      -3.0643426      1.1404891     -3.0602656      150.23009    
     51120   157.4122       158.5          158.5          158.5          0.72330148     0.05966218     3.6410389     -1.5307967      157.4122     
     51140   134.75309      158.5          158.5          158.5         -0.48572705     1.5001531     -1.837171      -1.1201633      134.75309    
     51160   153.43213      158.5          158.5          158.5         -3.0532147     -3.764997      -1.9520129     -3.4426342      153.43213    
     51180   160.02189      158.5          158.5          158.5          0.01984201     1.6822199     -0.54913096    -1.0735629      160.02189    
     51200   150.82205      158.5          158.5          158.5         -0.55321322     1.3982524     -3.958497       0.90060488     150.82205    
     51220   153.67691      158.5          158.5          158.5         -1.9985592     -2.9571393      0.686371      -3.7249095      153.67691    
     51240   153.87905      158.5          158.5          158.5          2.6781737      1.8620379      1.4921889      4.6802942      153.87905    
     51260   142.87446      158.5          158.5          158.5          0.3049434      2.0737247     -2.2055396      1.0466451      142.87446    
     51280   160.0427       158.5          158.5          158.5         -0.3976432      0.87426189     3.2825552     -5.3497467      160.0427     
     51300   143.13745      158.5          158.5          158.5         -0.18646834    -1.6812724      1.3302539     -0.2083865      143.13745    
     51320   146.01213      158.5          158.5          158.5         -4.2549636     -8.1864861     -6.4349509      1.8565463      146.01213    
     51340   150.27125      158.5          158.5          158.5         -2.3231931     -3.1706464     -3.6535318     -0.14540092     150.27125    
     51360   152.89772      158.5          158.5          158.5         -2.9831325     -2.1673864     -1.9156636     -4.8663476      152.89772    
     51380   126.78627      158.5          158.5          158.5         -3.2833841     -3.5737041     -4.1529958     -2.1234524      126.78627    
     51400   139.29374      158.5          158.5          158.5          1.2425192      1.7901129     -2.29527        4.2327147      139.29374    
     51420   148.7026       158.5          158.5          158.5          0.76257707     1.2556743      2.1369534     -1.1048966      148.7026     
     51440   135.06318      158.5          158.5          158.5          0.87038721     4.5930888     -1.3861687     -0.59575844     135.06318    
     51460   136.86874      158.5          158.5          158.5          2.5156694      1.0209106      0.62521476     5.9008829      136.86874    
     51480   132.81877      158.5          158.5          158.5          1.5029152     -2.311677       2.4730953      4.3473275      132.81877    
     51500   134.56968      158.5          158.5          158.5         -0.17813574     3.561854      -1.2609468     -2.8353144      134.56968    
     51520   124.62381      158.5          158.5          158.5          0.20105064     2.9645184      0.90800797    -3.2693744      124.62381    
     51540   132.38809      158.5          158.5          158.5         -0.12529049    -2.234434       0.64136616     1.2171963      132.38809    
     51560   120.56214      158.5          158.5          158.5          0.14190106    -0.044037584   -1.5438173      2.0135581      120.56214    
     51580   122.71526      158.5          158.5          158.5          2.5669035      4.9665617     -0.39912872     3.1332776      122.71526    
     51600   128.57041      158.5          158.5          158.5         -2.1619741     -0.32219258    -1.6605832     -4.5031466      128.57041    
     51620   140.65144      158.5          158.5          158.5         -0.99985429    -5.5246097      3.5773659     -1.0523191      140.65144    
     51640   130.56256      158.5          158.5          158.5         -1.8218655     -6.2991881     -0.13885862     0.97245035     130.56256    
     51660   134.67788      158.5          158.5          158.5         -2.6798549     -1.4296088     -4.5171341     -2.0928219      134.67788    
     51680   140.31382      158.5          158.5          158.5          4.5546862      6.950693       4.4423342      2.2710315      140.31382    
     51700   159.33704      158.5          158.5          158.5         -0.31223859    -0.13828135     1.0886832     -1.8871177      159.33704    
     51720   137.8927       158.5          158.5          158.5         -0.11272922    -1.0303987     -0.15574484     0.84795589     137.8927     
     51740   128.37066      158.5          158.5          158.5         -0.28328369     0.71863778    -1.9540754      0.38558652     128.37066    
     51760   145.02505      158.5          158.5          158.5         -7.893604      -8.1459655     -6.8788299     -8.6560165      145.02505    
     51780   141.32822      158.5          158.5          158.5         -0.47417458    -2.3236496      0.44032219     0.46080367     141.32822    
     51800   132.35807      158.5          158.5          158.5         -3.5116069     -5.0389619     -3.3845816     -2.1112773      132.35807    
     51820   143.83383      158.5          158.5          158.5          0.29914189    -1.5282919     -0.72731454     3.1530321      143.83383    
     51840   119.56727      158.5          158.5          158.5          8.6364741      10.532391      10.075207      5.3018245      119.56727    
     51860   144.57003      158.5          158.5          158.5         -0.8227982     -1.1923084      2.1317033     -3.4077895      144.57003    
     51880   139.34583      158.5          158.5          158.5          2.3557653     -2.1228335      3.2421185      5.948011       139.34583    
     51900   155.19407      158.5          158.5          158.5          1.1039503      2.0132234      1.1888071      0.10982047     155.19407    
     51920   148.2551       158.5          158.5          158.5         -3.1721481     -5.7044986     -0.43068729    -3.3812586      148.2551     
     51940   134.73321      158.5          158.5          158.5          4.0136784      0.59698887     6.6132439      4.8308025      134.73321    
     51960   137.09835      158.5          158.5          158.5         -1.6652215     -1.6056191      0.070064647   -3.4601101      137.09835    
     51980   140.13755      158.5          158.5          158.5          0.28025715     2.3102447     -0.066758919   -1.4027143      140.13755    
     52000   135.26409      158.5          158.5          158.5          4.3120909      6.2185149      2.1137116      4.6040462      135.26409    
     52020   138.35019      158.5          158.5          158.5         -3.2238663     -2.934025      -1.9352823     -4.8022917      138.35019    
     52040   120.68011      158.5          158.5          158.5          4.0222656      3.8926311      5.4192814      2.7548841      120.68011    
     52060   138.06286      158.5          158.5          158.5         -0.31110477     1.1702986     -4.2464105      2.1427976      138.06286    
     52080   127.98305      158.5          158.5          158.5         -4.2916729     -6.1285926     -3.8832877     -2.8631385      127.98305    
     52100   125.61187      158.5          158.5          158.5          3.2049418      2.4376703      4.4922514      2.6849036      125.61187    
     52120   127.71215      158.5          158.5          158.5         -2.5161462     -0.88991263    -6.0117983     -0.64672761     127.71215    
     52140   135.3489       158.5          158.5          158.5         -1.1666261      1.9334864     -2.1868937     -3.246471       135.3489     
     52160   139.66146      158.5          158.5          158.5          0.76006227    -0.35047616     1.1186964      1.5119665      139.66146    
     52180   120.80372      158.5          158.5          158.5         -3.4348346     -6.1888187     -2.4598129     -1.6558723      120.80372    
     52200   120.18876      158.5          158.5          158.5          2.9998798      5.3183503      3.8432625     -0.1619734      120.18876    
     52220   135.22504      158.5          158.5          158.5         -1.1509815      1.863229      -4.2849249     -1.0312486      135.22504    
     52240   122.28259      158.5          158.5          158.5         -0.082919866    1.3777447     -1.7619618      0.13545755     122.28259    
     52260   128.47291      158.5          158.5          158.5          2.2722727      1.0251111      2.9084376      2.8832694      128.47291    
     52280   130.00004      158.5          158.5          158.5         -3.0294446     -4.422469      -1.8250583     -2.8408063      130.00004    
     52300   128.39408      158.5          158.5          158.5          2.1555455      5.0892856     -0.22128437     1.5986354      128.39408    
     52320   133.73699      158.5          158.5          158.5         -0.31618981     1.4860839     -4.751257       2.3166037      133.73699    
     52340   124.3016       158.5          158.5          158.5         -1.4479823     -2.7754213      1.4651163     -3.033642       124.3016     
     52360   133.01187      158.5          158.5          158.5          3.4866192      4.374582       3.2480512      2.8372242      133.01187    
     52380   130.1782       158.5          158.5          158.5         -2.5279905      1.8278321     -7.9208819     -1.4909218      130.1782     
     52400   137.3046       158.5          158.5          158.5          1.7239711      3.1881916      0.46151845     1.5222033      137.3046     
     52420   132.55132      158.5          158.5          158.5          1.2408985     -0.38928599     2.8978058      1.2141757      132.55132    
     52440   138.62237      158.5          158.5          158.5         -2.4251824     -2.9934416      0.37512892    -4.6572344      138.62237    
     52460   142.18377      158.5          158.5          158.5          4.2094457      6.0089873      3.753616       2.8657337      142.18377    
     52480   141.55316      158.5          158.5          158.5          0.35875922     2.2540488     -2.5647346      1.3869635      141.55316    
     52500   136.09951      158.5          158.5          158.5          1.2192304     -0.058429157    3.3805941      0.33552607     136.09951    
     52520   151.48042      158.5          158.5          158.5          0.94135921    -2.5778974      3.827619       1.574356       151.48042    
     52540   145.6883       158.5          158.5          158.5         -3.0129708     -2.478049      -3.7636115     -2.7972517      145.6883     
     52560   156.4171       158.5          158.5          158.5         -0.60664398    -1.011556      -2.54753        1.739154       156.4171     
     52580   150.46009      158.5          158.5          158.5         -0.072198709   -3.5414736      2.9243087      0.40056877     150.46009    
     52600   167.78924      158.5          158.5          158.5         -0.54350778    -2.8172631      6.8104299     -5.6236901      167.78924    
     52620   146.70151      158.5          158.5          158.5          2.8693049      6.1775893      0.25543738     2.174888       146.70151    
     52640   153.34786      158.5          158.5          158.5         -0.53913502    -1.4179197     -3.1189942      2.9195088      153.34786    
     52660   139.02364      158.5          158.5          158.5         -3.7012652     -8.1314257     -0.016716069   -2.9556538      139.02364    
     52680   150.25893      158.5          158.5          158.5          0.97160162     2.3726443     -0.33977592     0.88193646     150.25893    
     52700   150.77542      158.5          158.5          158.5         -2.6863779     -2.5921939     -4.5476458     -0.91929414     150.77542    
     52720   137.39943      158.5          158.5          158.5         -1.0311261     -3.1052302     -1.2538875      1.2657393      137.39943    
     52740   136.58039      158.5          158.5          158.5          3.4798753      5.0987828      3.3112449      2.0295983      136.58039    
     52760   147.29531      158.5          158.5          158.5         -2.3106273     -0.69971174    -1.1523149     -5.0798552      147.29531    
     52780   132.91166      158.5          158.5          158.5          4.386683       3.2234155      4.2204105      5.716223       132.91166    
     52800   128.62598      158.5          158.5          158.5          2.8449851      4.9294385      2.2672362      1.3382808      128.62598    
     52820   138.13562      158.5          158.5          158.5         -3.0168416     -0.55551946    -4.3156279     -4.1793775      138.13562    
     52840   120.4237       158.5          158.5          158.5          2.1416693      2.583075       0.18649768     3.6554351      120.4237     
     52860   111.86221      158.5          158.5          158.5         -0.48909482     2.4156359     -2.501566      -1.3813544      111.86221    
     52880   112.89507      158.5          158.5          158.5          1.4817028      3.9750237     -0.29752567     0.76761048     112.89507    
     52900   132.44238      158.5          158.5          158.5          0.087580192   -2.753035       2.8977485      0.11802716     132.44238    
     52920   122.72467      158.5          158.5          158.5         -4.8549845     -4.9291302     -2.8373181     -6.7985052      122.72467    
     52940   126.17637      158.5          158.5          158.5          0.79774255     1.9130639     -2.5951212      3.075285       126.17637    
     52960   128.68229      158.5          158.5          158.5         -3.2598084     -2.9165344     -3.4044185     -3.4584721      128.68229    
     52980   129.04355      158.5          158.5          158.5         -2.052231      -1.4509325      2.5983298     -7.3040902      129.04355    
     53000   129.81567      158.5          158.5          158.5         -0.63992127    -1.6874703      0.7682186     -1.0005121      129.81567    
     53020   136.58475      158.5          158.5          158.5         -3.3560261     -5.5880791     -4.9477778      0.46777851     136.58475    
     53040   115.49195      158.5          158.5          158.5          2.6946962      4.6375922     -0.12316889     3.5696652      115.49195    
     53060   134.75486      158.5          158.5          158.5         -0.7358169     -0.69136541     1.4219733     -2.9380586      134.75486    
     53080   133.41264      158.5          158.5          158.5          1.9133331     -0.68319565     2.7496875      3.6735076      133.41264    
     53100   135.83952      158.5          158.5          158.5          1.72699        0.40751502    -1.5864811      6.359936       135.83952    
     53120   126.4825       158.5          158.5          158.5         -2.6611177     -5.6705661     -2.8968306      0.58404352     126.4825     
     53140   141.73492      158.5          158.5          158.5          3.7582384      3.2172671      4.1975106      3.8599376      141.73492    
     53160   145.7131       158.5          158.5          158.5         -3.3676442     -5.9168528     -3.489783      -0.6962968      145.7131     
     53180   136.52812      158.5          158.5          158.5          0.61678635    -1.8159357     -2.2470349      5.9133297      136.52812    
     53200   132.51804      158.5          158.5          158.5          1.8332036      0.13212008     3.9382488      1.4292418      132.51804    
     53220   143.33982      158.5          158.5          158.5         -2.1892951     -3.122929       2.7175636     -6.1625198      143.33982    
     53240   136.1453       158.5          158.5          158.5          3.2247236      3.5109926      0.62283016     5.5403479      136.1453     
     53260   142.82711      158.5          158.5          158.5         -0.02426675    -4.1333369     -2.8897607      6.9502974      142.82711    
     53280   138.46661      158.5          158.5          158.5          0.67393601     0.37142394     1.2144135      0.43597058     138.46661    
     53300   147.61988      158.5          158.5          158.5          1.2593998      4.7956637      3.9981196     -5.0155838      147.61988    
     53320   145.33257      158.5          158.5          158.5         -3.1277525     -2.4397271     -1.1092075     -5.834323       145.33257    
     53340   129.76696      158.5          158.5          158.5          1.4470657     -2.7753726      2.9555658      4.1610037      129.76696    
     53360   142.48076      158.5          158.5          158.5         -1.0834078     -1.6243732     -3.5523593      1.9265092      142.48076    
     53380   144.42627      158.5          158.5          158.5         -2.6678566     -1.388154      -1.6014102     -5.0140055      144.42627    
     53400   136.90946      158.5          158.5          158.5         -0.37594772     0.10172036     1.9273837     -3.1569472      136.90946    
     53420   129.93992      158.5          158.5          158.5         -0.84425506    -0.43418251    -4.9122258      2.8136432      129.93992    
     53440   138.45056      158.5          158.5          158.5          2.3677241      2.7167776      0.8377148      3.5486798      138.45056    
     53460   129.5018       158.5          158.5          158.5         -0.510126       0.97797866     2.7964496     -5.3048063      129.5018     
     53480   129.8367       158.5          158.5          158.5         -1.3872972     -0.3036548     -0.19414051    -3.6640962      129.8367     
     53500   134.70748      158.5          158.5          158.5          1.3944731     -1.6101078      0.70793093     5.0855962      134.70748    
     53520   124.05652      158.5          158.5          158.5         -1.4199315     -2.0575636     -5.1028367      2.9006057      124.05652    
     53540   133.48645      158.5          158.5          158.5         -3.4777364     -1.0169187     -3.1697405     -6.2465499      133.48645    
     53560   121.28269      158.5          158.5          158.5         -0.21137266    -0.25075081     4.4201769     -4.8035441      121.28269    
     53580   134.99101      158.5          158.5          158.5         -1.9607339     -2.7857746     -2.4204101     -0.67601706     134.99101    
     53600   138.42866      158.5          158.5          158.5         -1.2966833     -2.1055979     -3.20172        1.4172681      138.42866    
     53620   124.63488      158.5          158.5          158.5          2.5104429     -2.1539581      8.2742621      1.4110247      124.63488    
     53640   128.26477      158.5          158.5          158.5         -1.0148687     -1.5080588      0.77733619    -2.3138834      128.26477    
     53660   125.72065      158.5          158.5          158.5          4.3449434      6.8374997     -0.91676158     7.1140922      125.72065    
     53680   134.4493       158.5          158.5          158.5          0.90362526    -3.4092939      0.42789716     5.6922726      134.4493     
     53700   133.64529      158.5          158.5          158.5         -3.8523551     -7.5543288     -0.44390047    -3.5588361      133.64529    
     53720   140.94648      158.5          158.5          158.5          3.7696686      4.3434609      5.2032717      1.7622733      140.94648    
     53740   128.37788      158.5          158.5          158.5         -3.87332       -0.74823628    -6.8007857     -4.070938       128.37788    
     53760   128.43585      158.5          158.5          158.5         -1.1679758     -1.7303658     -0.90525328    -0.86830836     128.43585    
     53780   131.67848      158.5          158.5          158.5          4.4968253      2.1180517      5.4505981      5.921826       131.67848    
     53800   146.59866      158.5          158.5          158.5         -4.7282668     -2.3066727     -5.1691586     -6.708969       146.59866    
     53820   139.35815      158.5          158.5          158.5          2.5564112      3.329709       3.3767452      0.96277945     139.35815    
     53840   143.87405      158.5          158.5          158.5          0.76684028    -2.8637884      1.5683107      3.5959986      143.87405    
     53860   148.62485      158.5          158.5          158.5         -5.7669777     -7.489138      -5.4158284     -4.3959666      148.62485    
     53880   149.57921      158.5          158.5          158.5          2.8885872      5.4138867      4.0335159     -0.78164106     149.57921    
     53900   146.2428       158.5          158.5          158.5         -0.71324077     0.60445284    -1.788172      -0.95600312     146.2428     
     53920   148.10824      158.5          158.5          158.5         -1.3121374     -1.1602295     -2.0301439     -0.74603883     148.10824    
     53940   144.14942      158.5          158.5          158.5          5.2573013      4.1383732      5.7395398      5.893991       144.14942    
     53960   132.50069      158.5          158.5          158.5         -2.7835883     -1.4571302     -4.9474271     -1.9462075      132.50069    
     53980   130.46722      158.5          158.5          158.5          0.46555621     4.090344      -1.8954087     -0.79826666     130.46722    
     54000   140.33344      158.5          158.5          158.5          3.0229579      2.086838       3.7468294      3.2352061      140.33344    
     54020   130.98881      158.5          158.5          158.5          0.14453363    -2.6448982      3.6697426     -0.59124353     130.98881    
     54040   134.89612      158.5          158.5          158.5          2.1006618      4.1305631      2.4884804     -0.31705804     134.89612    
     54060   127.07591      158.5          158.5          158.5         -0.43480651     1.6120673     -1.1743628     -1.742124       127.07591    
     54080   136.0187       158.5          158.5          158.5          0.47699997    -2.0979728      2.1992244      1.3297483      136.0187     
     54100   132.07554      158.5          158.5          158.5         -1.0525548     -6.6088105      2.7236303      0.72751579     132.07554    
     54120   126.53165      158.5          158.5          158.5          0.84237951    -0.17012373     3.8214212     -1.124159       126.53165    
     54140   126.13387      158.5          158.5          158.5          3.6388431      9.4781003      1.9752247     -0.53679554     126.13387    
     54160   125.33871      158.5          158.5          158.5         -4.3929515     -3.2438814     -5.503272      -4.4317012      125.33871    
     54180   131.70761      158.5          158.5          158.5         -0.81307912    -2.5363781     -2.5943833      2.6915241      131.70761    
     54200   128.45567      158.5          158.5          158.5         -3.3904161     -0.96828677    -3.8676299     -5.3353318      128.45567    
     54220   136.62748      158.5          158.5          158.5         -4.6644408     -1.7060616     -3.3087447     -8.9785162      136.62748    
     54240   123.81544      158.5          158.5          158.5          5.55713        2.6944727      3.6803483      10.296569      123.81544    
     54260   142.70201      158.5          158.5          158.5         -1.0721464     -3.7423348     -1.4455234      1.9714188      142.70201    
     54280   114.86456      158.5          158.5          158.5          1.6784885      4.6340003      3.724407      -3.3229419      114.86456    
     54300   130.5174       158.5          158.5          158.5          5.1624131      6.1931283      4.6629134      4.6311977      130.5174     
     54320   127.8536       158.5          158.5          158.5         -4.0135006     -4.7303879     -7.013524      -0.29658983     127.8536     
     54340   160.40836      158.5          158.5          158.5          0.026574773   -0.40473598     0.13685567     0.34760463     160.40836    
     54360   138.99107      158.5          158.5          158.5          1.1482328      0.39491887     1.4357489      1.6140305      138.99107    
     54380   155.80435      158.5          158.5          158.5         -3.3838397      0.90447016    -4.1837397     -6.8722495      155.80435    
     54400   134.62026      158.5          158.5          158.5          3.0427148      5.5628162      0.26060145     3.3047267      134.62026    
     54420   153.17245      158.5          158.5          158.5          3.5330137      0.8183278      3.2131358      6.5675774      153.17245    
     54440   150.55896      158.5          158.5          158.5          0.42068131     4.9668499      0.4475667     -4.1523726      150.55896    
     54460   154.24758      158.5          158.5          158.5          1.9605235      3.9854947      1.1641363      0.73193949     154.24758    
     54480   151.63328      158.5          158.5          158.5          1.7094386     -0.96414785     4.3159503      1.7765132      151.63328    
     54500   156.07966      158.5          158.5          158.5         -1.3234699     -0.33221089    -2.7385514     -0.89964754     156.07966    
     54520   158.62669      158.5          158.5          158.5         -0.99930225    -0.50822249    -6.5223566      4.0326724      158.62669    
     54540   137.70721      158.5          158.5          158.5         -2.2137327     -3.884402      -0.92836532    -1.8284308      137.70721    
     54560   135.48671      158.5          158.5          158.5         -1.5896769     -1.5988297      2.3758743     -5.5460754      135.48671    
     54580   138.14997      158.5          158.5          158.5         -1.1026956     -2.6185443     -1.9576193      1.2680768      138.14997    
     54600   136.67111      158.5          158.5          158.5         -1.0533752     -2.5131082     -3.2551919      2.6081743      136.67111    
     54620   135.77106      158.5          158.5          158.5          1.2547297      0.42558372     4.7844223     -1.4458169      135.77106    
     54640   136.0744       158.5          158.5          158.5          0.2511169     -1.1010772      2.75388       -0.89945216     136.0744     
     54660   127.42888      158.5          158.5          158.5          1.1630436     -1.6660566      1.5044865      3.6507008      127.42888    
     54680   123.14324      158.5          158.5          158.5          1.7399592      2.0965955      2.1878221      0.93545983     123.14324    
     54700   115.27545      158.5          158.5          158.5          1.5705641      4.1447568      0.29317226     0.27376306     115.27545    
     54720   126.80661      158.5          158.5          158.5          2.0078248      0.016318272    3.3688995      2.6382566      126.80661    
     54740   133.39648      158.5          158.5          158.5         -1.650183      -7.1797687     -0.14508698     2.3743068      133.39648    
     54760   125.64197      158.5          158.5          158.5          0.65932411    -1.2089597     -0.73528079     3.9222128      125.64197    
     54780   119.26908      158.5          158.5          158.5         -1.2059547      2.9629766     -3.121308      -3.4595327      119.26908    
     54800   128.9814       158.5          158.5          158.5         -3.692765      -3.6123639     -2.6031559     -4.8627752      128.9814     
     54820   129.60121      158.5          158.5          158.5          0.26824247    -2.1661621      0.85201456     2.118875       129.60121    
     54840   123.85801      158.5          158.5          158.5         -2.8655466     -2.1034718     -4.1034506     -2.3897175      123.85801    
     54860   120.65736      158.5          158.5          158.5         -3.2853692     -1.9077297     -2.1566034     -5.7917743      120.65736    
     54880   116.41566      158.5          158.5          158.5         -0.66380715    -3.3043241     -0.53117195     1.8440746      116.41566    
     54900   131.90477      158.5          158.5          158.5         -2.9133434     -3.8779097     -6.7197292      1.8576086      131.90477    
     54920   136.6343       158.5          158.5          158.5          0.39323675     2.2624307     -1.2091738      0.12645334     136.6343     
     54940   127.16849      158.5          158.5          158.5         -1.1072875      0.54906183    -3.2041198     -0.6668045      127.16849    
     54960   115.69819      158.5          158.5          158.5         -2.166661      -1.6374857     -3.8531316     -1.0093656      115.69819    
     54980   134.63983      158.5          158.5          158.5          2.0691598     -1.9102384      5.6452571      2.4724608      134.63983    
     55000   138.06878      158.5          158.5          158.5          0.76912184    -0.14061294     4.7798725     -2.3318941      138.06878    
     55020   153.81706      158.5          158.5          158.5          2.9669146      6.0109301      0.7511583      2.1386555      153.81706    
     55040   128.75488      158.5          158.5          158.5         -0.089869325    1.5411049     -6.1807278      4.3700149      128.75488    
     55060   143.73391      158.5          158.5          158.5         -1.5612253     -5.4628751     -0.23560031     1.0147996      143.73391    
     55080   139.56814      158.5          158.5          158.5          1.8113624     -0.040276168    4.0341018      1.4402615      139.56814    
     55100   153.78475      158.5          158.5          158.5         -2.27861        0.30952436    -3.6025417     -3.5428128      153.78475    
     55120   127.59891      158.5          158.5          158.5          4.0808652      5.6015754      2.3778437      4.2631764      127.59891    
     55140   152.7941       158.5          158.5          158.5          4.6983172      1.8646363      5.9175239      6.3127914      152.7941     
     55160   134.94836      158.5          158.5          158.5          1.0437909      0.7445931      3.3479702     -0.96119054     134.94836    
     55180   138.97109      158.5          158.5          158.5          6.9353033      8.8326702      5.1889488      6.7842908      138.97109    
     55200   136.40965      158.5          158.5          158.5         -0.54170297    -1.1405448     -1.0560905      0.57152633     136.40965    
     55220   138.98247      158.5          158.5          158.5         -1.093286      -2.8177739      1.3098121     -1.7718963      138.98247    
     55240   120.05918      158.5          158.5          158.5          2.9793809      1.8654628      3.90282        3.1698598      120.05918    
     55260   130.94786      158.5          158.5          158.5         -1.9624519     -0.65562414    -8.5141997      3.282468       130.94786    
     55280   118.64304      158.5          158.5          158.5          5.0069765      5.9934883      1.0645766      7.9628646      118.64304    
     55300   126.15505      158.5          158.5          158.5          0.66242768    -2.5149607      3.6094983      0.89274552     126.15505    
     55320   115.76314      158.5          158.5          158.5         -2.8107547     -4.3450016     -3.5388297     -0.54843281     115.76314    
     55340   123.22773      158.5          158.5          158.5          2.1366022      4.8090167     -0.58809666     2.1888864      123.22773    
     55360   134.43024      158.5          158.5          158.5         -2.7897107     -1.7527983     -2.9989905     -3.6173433      134.43024    
     55380   107.39106      158.5          158.5          158.5         -2.2547413     -5.5501017     -1.2856482      0.071525901    107.39106    
     55400   113.99517      158.5          158.5          158.5          1.9998192      1.0882846      1.8470385      3.0641346      113.99517    
     55420   125.26284      158.5          158.5          158.5         -0.062501089    8.3275588     -1.7675279     -6.7475342      125.26284    
     55440   120.46334      158.5          158.5          158.5         -2.3824802      2.0377087     -6.4805631     -2.7045861      120.46334    
     55460   111.84574      158.5          158.5          158.5          1.3595403     -5.3395388      6.2912722      3.1268874      111.84574    
     55480   124.19988      158.5          158.5          158.5         -2.4849034     -4.5433786      1.4042612     -4.3155927      124.19988    
     55500   119.33552      158.5          158.5          158.5         -3.0796597      1.8658928     -8.9045324     -2.2003395      119.33552    
     55520   124.33663      158.5          158.5          158.5          1.4747766      2.7852611     -1.0795027      2.7185716      124.33663    
     55540   110.28366      158.5          158.5          158.5         -1.7338451     -4.8761975      2.8783955     -3.2037335      110.28366    
     55560   128.27408      158.5          158.5          158.5          1.8395954      2.298459       0.89171549     2.3286117      128.27408    
     55580   114.20526      158.5          158.5          158.5          0.41261087     1.4818855     -2.1873024      1.9432495      114.20526    
     55600   137.42875      158.5          158.5          158.5         -2.823006      -2.1585514     -3.553171      -2.7572956      137.42875    
     55620   122.70497      158.5          158.5          158.5          2.1457395      0.068364182    3.9705367      2.3983175      122.70497    
     55640   136.58636      158.5          158.5          158.5         -1.3596221     -2.8674823      1.4632635     -2.6746477      136.58636    
     55660   122.76858      158.5          158.5          158.5          1.9228766      4.8757058      1.7436723     -0.85074827     122.76858    
     55680   131.82201      158.5          158.5          158.5          2.5689283      5.1938612     -1.1762667      3.6891904      131.82201    
     55700   154.20084      158.5          158.5          158.5         -0.26145441    -1.3791676     -4.586549       5.1813533      154.20084    
     55720   137.34917      158.5          158.5          158.5          3.0389556      1.9730949      2.5289574      4.6148147      137.34917    
     55740   145.27417      158.5          158.5          158.5         -0.15359544     1.7433434      2.5184588     -4.7225885      145.27417    
     55760   142.96823      158.5          158.5          158.5         -1.3126408     -0.37426856    -3.2293603     -0.33429346     142.96823    
     55780   125.93231      158.5          158.5          158.5         -0.47861877    -0.24506567    -4.4125889      3.2217983      125.93231    
     55800   157.26323      158.5          158.5          158.5         -1.3043217     -1.3222709     -0.53363521    -2.057059       157.26323    
     55820   131.40675      158.5          158.5          158.5         -2.1413132     -3.5490604      1.1391902     -4.0140695      131.40675    
     55840   132.35942      158.5          158.5          158.5         -2.0511522     -1.8550673     -3.3268112     -0.97157814     132.35942    
     55860   124.81259      158.5          158.5          158.5          0.49078992    -0.87310423     2.3945637     -0.049089738    124.81259    
     55880   121.64754      158.5          158.5          158.5          0.24313936    -0.015579782    2.5071689     -1.7621711      121.64754    
     55900   122.42541      158.5          158.5          158.5          0.62372156     4.5140432     -1.6273442     -1.0155343      122.42541    
     55920   105.97419      158.5          158.5          158.5          1.1874103      8.066941      -0.65409285    -3.8506172      105.97419    
     55940   117.90688      158.5          158.5          158.5          0.62113071     0.62090578     1.593537      -0.35105069     117.90688    
     55960   126.32723      158.5          158.5          158.5         -1.0589038     -3.889602       1.1484893     -0.43559881     126.32723    
     55980   112.47856      158.5          158.5          158.5         -1.4448537      1.4097673     -2.0701569     -3.6741715      112.47856    
     56000   111.31418      158.5          158.5          158.5         -0.38205788     3.9560952     -2.9773227     -2.1249461      111.31418    
     56020   103.05251      158.5          158.5          158.5          1.0242745      1.6919389      1.8308142     -0.44992969     103.05251    
     56040   115.64887      158.5          158.5          158.5         -0.18740333    -1.7407285      0.99028642     0.18823213     115.64887    
     56060   103.18629      158.5          158.5          158.5          0.62347756     3.3026802      2.5067484     -3.9389959      103.18629    
     56080   118.27987      158.5          158.5          158.5         -2.0573408      0.49833759     0.23049408    -6.9008541      118.27987    
     56100   111.62043      158.5          158.5          158.5         -1.6943324     -5.7495789     -3.5406369      4.2072186      111.62043    
     56120   103.49549      158.5          158.5          158.5          1.0878051     -5.5276202      2.9085858      5.8824495      103.49549    
     56140   104.57107      158.5          158.5          158.5         -1.5844143     -1.7888374     -0.29270781    -2.6716976      104.57107    
     56160   111.84186      158.5          158.5          158.5          1.8574951      6.2104216     -1.315678       0.67774162     111.84186    
     56180   107.44472      158.5          158.5          158.5          1.9704293      2.099475       2.7537894      1.0580235      107.44472    
     56200   123.25449      158.5          158.5          158.5         -1.020623      -5.485063       0.61262395     1.81057        123.25449    
     56220   109.33789      158.5          158.5          158.5          2.7290042      2.1404683      2.2145961      3.8319481      109.33789    
     56240   111.13271      158.5          158.5          158.5         -0.9826905      2.7797438     -4.9595898     -0.76822543     111.13271    
     56260   133.951        158.5          158.5          158.5         -0.70349974    -0.58515237    -0.64751178    -0.87783508     133.951      
     56280   130.44156      158.5          158.5          158.5          1.65578       -2.1073618      5.4219501      1.6527518      130.44156    
     56300   121.10271      158.5          158.5          158.5         -2.5079373     -0.27334826    -1.9879591     -5.2625046      121.10271    
     56320   121.21704      158.5          158.5          158.5          2.5113656      7.1392435      1.2103409     -0.81548765     121.21704    
     56340   122.11613      158.5          158.5          158.5         -0.34348335    -2.3513971     -1.2967264      2.6176735      122.11613    
     56360   130.95067      158.5          158.5          158.5          1.5163876     -0.91940196     1.9400973      3.5284676      130.95067    
     56380   154.65393      158.5          158.5          158.5          2.6685856      5.0443287      1.145539       1.8158891      154.65393    
     56400   131.44063      158.5          158.5          158.5         -4.824299      -1.3916758     -5.1528521     -7.9283692      131.44063    
     56420   130.90311      158.5          158.5          158.5          4.1747621      0.86211534     8.3688835      3.2932874      130.90311    
     56440   140.18122      158.5          158.5          158.5         -2.3550813     -7.9071671      2.1433717     -1.3014484      140.18122    
     56460   134.75357      158.5          158.5          158.5         -1.3744987     -2.2765988     -3.682667       1.8357697      134.75357    
     56480   139.24294      158.5          158.5          158.5          3.265725       7.2814601      4.6481961     -2.1324811      139.24294    
     56500   131.9623       158.5          158.5          158.5         -5.1312072     -3.784789      -4.4411533     -7.1676793      131.9623     
     56520   133.91953      158.5          158.5          158.5          2.6818283      1.3739533      0.50483546     6.1666961      133.91953    
     56540   116.07155      158.5          158.5          158.5         -0.70368143    -2.3066698      0.12365451     0.071971019    116.07155    
     56560   126.72414      158.5          158.5          158.5         -2.9451858     -3.6029243     -0.48356823    -4.7490647      126.72414    
     56580   118.39054      158.5          158.5          158.5          4.5026244      4.7284476      0.13565847     8.6437672      118.39054    
     56600   125.98078      158.5          158.5          158.5         -4.6016154     -3.289422      -9.0273842     -1.4880401      125.98078    
     56620   108.85058      158.5          158.5          158.5          0.0085026162  -1.4179181      1.9405519     -0.49712592     108.85058    
     56640   113.59373      158.5          158.5          158.5         -0.016800242   -0.8920727      1.889945      -1.0482731      113.59373    
     56660   114.15089      158.5          158.5          158.5         -5.3585242     -5.3849018     -8.4698339     -2.2208369      114.15089    
     56680   111.17024      158.5          158.5          158.5          2.4830944      1.1781782      1.028055       5.24305        111.17024    
     56700   117.38808      158.5          158.5          158.5          0.1071699     -3.5844067      1.0793261      2.8265903      117.38808    
     56720   121.11752      158.5          158.5          158.5         -0.78289243     2.8566465     -3.3398493     -1.8654745      121.11752    
     56740   120.84116      158.5          158.5          158.5          2.8547095      6.7350074      2.4129572     -0.58383606     120.84116    
     56760   129.96891      158.5          158.5          158.5          1.4759211     -0.6309517      2.8478098      2.2109053      129.96891    
     56780   122.9704       158.5          158.5          158.5          0.42312982    -4.0104326      1.3011254      3.9786966      122.9704     
     56800   134.48447      158.5          158.5          158.5         -0.11558768    -0.23353515     1.2327942     -1.3460221      134.48447    
     56820   114.53559      158.5          158.5          158.5          2.5460921      4.3978875      0.81758938     2.4227995      114.53559    
     56840   122.24614      158.5          158.5          158.5         -0.05778081    -4.4515126     -1.0693579      5.347528       122.24614    
     56860   126.39062      158.5          158.5          158.5         -0.13551383    -3.3479824      3.2368281     -0.29538719     126.39062    
     56880   145.23596      158.5          158.5          158.5         -1.3152332      3.3079957      0.72080589    -7.9745012      145.23596    
     56900   123.97435      158.5          158.5          158.5         -2.0393329      0.59644605    -1.714053      -5.0003916      123.97435    
     56920   120.1135       158.5          158.5          158.5          3.0282561      1.0953156      3.5656519      4.4238008      120.1135     
     56940   132.16463      158.5          158.5          158.5         -0.53338775    -2.8043824      2.5501565     -1.3459374      132.16463    
     56960   146.27484      158.5          158.5          158.5          0.5113397     -0.40112132     3.2472152     -1.3120747      146.27484    
     56980   110.88265      158.5          158.5          158.5          4.4210636      4.996496       3.6481196      4.6185751      110.88265    
     57000   129.65484      158.5          158.5          158.5         -3.8470099     -3.5028479     -7.9290904     -0.10909135     129.65484    
     57020   118.47769      158.5          158.5          158.5          0.81210065     0.86690874     3.689623      -2.1202298      118.47769    
     57040   119.48278      158.5          158.5          158.5         -0.1420429      2.1623733      1.3550596     -3.9435615      119.48278    
     57060   114.4365       158.5          158.5          158.5         -5.2810243     -3.3021643     -6.5336622     -6.0072465      114.4365     
     57080   122.15775      158.5          158.5          158.5          1.3995094      4.1171809      1.5138895     -1.4325422      122.15775    
     57100   119.67729      158.5          158.5          158.5          0.84017439     0.15915029    -1.2301018      3.5914746      119.67729    
     57120   104.91428      158.5          158.5          158.5         -0.13457194    -3.4331905      1.2817534      1.7477213      104.91428    
     57140   111.95638      158.5          158.5          158.5          3.8659618      4.2865875      3.7086705      3.6026274      111.95638    
     57160   116.62856      158.5          158.5          158.5          1.5877767      1.3728787      2.5599415      0.83050983     116.62856    
     57180   112.79092      158.5          158.5          158.5         -1.7868686     -3.4011591      1.0709108     -3.0303577      112.79092    
     57200   117.49671      158.5          158.5          158.5          0.22516776     1.3377171     -1.7790839      1.1168701      117.49671    
     57220   113.00917      158.5          158.5          158.5         -2.7124261     -2.8875264     -3.4015421     -1.8482098      113.00917    
     57240   122.59813      158.5          158.5          158.5         -0.66421005     0.066642478   -0.16400811    -1.8952645      122.59813    
     57260   112.40136      158.5          158.5          158.5          0.53254753     0.80999334     1.3995298     -0.61188059     112.40136    
     57280   113.01791      158.5          158.5          158.5         -5.0818884     -5.7786912     -3.8978079     -5.5691662      113.01791    
     57300   113.39973      158.5          158.5          158.5          1.8887297      0.71921567     1.0035785      3.9433949      113.39973    
     57320   120.39321      158.5          158.5          158.5          3.3401799      4.3393791     -0.41666423     6.0978248      120.39321    
     57340   126.69414      158.5          158.5          158.5         -1.377911      -1.6585856      0.62518128    -3.1003288      126.69414    
     57360   117.94955      158.5          158.5          158.5          1.5004         2.757922       2.20295       -0.4596719      117.94955    
     57380   126.45605      158.5          158.5          158.5         -3.4470714     -0.90819507    -7.7141337     -1.7188855      126.45605    
     57400   126.2082       158.5          158.5          158.5         -4.388187      -3.9126111     -7.229668      -2.022282       126.2082     
     57420   121.72586      158.5          158.5          158.5         -0.89369019     1.5853255      0.011173632   -4.2775697      121.72586    
     57440   123.83135      158.5          158.5          158.5         -2.7252262     -5.0207628     -1.0217115     -2.1332043      123.83135    
     57460   122.78073      158.5          158.5          158.5         -0.18133958     0.5831173     -5.5920812      4.4649452      122.78073    
     57480   127.56747      158.5          158.5          158.5          1.4921817      4.6985972     -2.8418056      2.6197535      127.56747    
     57500   131.15404      158.5          158.5          158.5          0.87937094     0.32090836     3.1717959     -0.85459148     131.15404    
     57520   133.03587      158.5          158.5          158.5          4.0032287      3.1964769      5.7569393      3.0562699      133.03587    
     57540   138.43292      158.5          158.5          158.5          3.1264698      1.8798594      0.78391987     6.7156299      138.43292    
     57560   130.03726      158.5          158.5          158.5          2.6279002      3.1561621      0.30880107     4.4187375      130.03726    
     57580   130.72842      158.5          158.5          158.5          1.2826928      0.7154625      4.9378595     -1.8052437      130.72842    
     57600   120.46745      158.5          158.5          158.5         -1.8907257     -0.79765028    -0.78228477    -4.0922421      120.46745    
     57620   160.42935      158.5          158.5          158.5         -2.4021728     -0.33647512    -5.0411785     -1.8288648      160.42935    
     57640   118.54219      158.5          158.5          158.5         -0.79245479    -2.972985      -0.48070826     1.0763289      118.54219    
     57660   155.44611      158.5          158.5          158.5         -0.69789389    -4.0399236      2.0523392     -0.10609726     155.44611    
     57680   137.73005      158.5          158.5          158.5          0.54819232     0.29863259     1.8345034     -0.48855903     137.73005    
     57700   144.14604      158.5          158.5          158.5          0.7994782     -0.77184285    -2.2191046      5.3893821      144.14604    
     57720   129.71738      158.5          158.5          158.5          0.34758386    -1.2545223     -2.1787376      4.4760114      129.71738    
     57740   136.46489      158.5          158.5          158.5         -1.895656      -1.0562309      1.1942635     -5.8250005      136.46489    
     57760   131.17278      158.5          158.5          158.5         -4.4500425     -0.70816586    -5.5186338     -7.1233278      131.17278    
     57780   140.26697      158.5          158.5          158.5          0.52892109    -0.383778      -0.094343263    2.0648845      140.26697    
     57800   128.04028      158.5          158.5          158.5         -1.7128764     -3.1159709     -2.1908854      0.16822701     128.04028    
     57820   123.93023      158.5          158.5          158.5          0.42025279    -1.5986898      3.7275957     -0.86814752     123.93023    
     57840   120.82493      158.5          158.5          158.5          1.986906       2.8870752      0.26568733     2.8079556      120.82493    
     57860   120.08407      158.5          158.5          158.5         -1.7722937     -1.3649903     -2.7511966     -1.2006942      120.08407    
     57880   118.36524      158.5          158.5          158.5          0.95416238    -0.86181004     6.5146069     -2.7903097      118.36524    
     57900   124.33904      158.5          158.5          158.5         -0.066409762   -0.95007814     3.2667813     -2.5159324      124.33904    
     57920   130.23416      158.5          158.5          158.5          0.9717682      2.899386      -2.9267303      2.9426489      130.23416    
     57940   121.49341      158.5          158.5          158.5          2.8283852      0.7407168      2.3385268      5.4059119      121.49341    
     57960   117.45373      158.5          158.5          158.5          1.3698882     -1.7176434      4.5988355      1.2284726      117.45373    
     57980   127.32091      158.5          158.5          158.5          1.0187299      3.0707179      2.1840737     -2.198602       127.32091    
     58000   130.66937      158.5          158.5          158.5          0.56675261     3.2076597     -1.6619982      0.15459634     130.66937    
     58020   123.71146      158.5          158.5          158.5         -0.80227919    -1.7512035     -1.6574093      1.0017752      123.71146    
     58040   132.52849      158.5          158.5          158.5         -0.93980955    -6.257924       5.6182071     -2.1797118      132.52849    
     58060   145.05934      158.5          158.5          158.5          0.32346845    -1.2606716      3.926638      -1.695561       145.05934    
     58080   129.43644      158.5          158.5          158.5          0.86818001     4.4832739     -5.6527879      3.774054       129.43644    
     58100   145.08193      158.5          158.5          158.5          1.3155795     -1.6033486      3.3712133      2.178874       145.08193    
     58120   112.90645      158.5          158.5          158.5          2.7231763     -1.6328048      9.1513924      0.65094127     112.90645    
     58140   150.91964      158.5          158.5          158.5         -1.7752158     -1.1566506     -4.0105996     -0.15839714     150.91964    
     58160   146.65368      158.5          158.5          158.5         -1.6847406      1.3255152     -2.0410204     -4.3387166      146.65368    
     58180   133.31174      158.5          158.5          158.5         -3.0143323     -3.663812       0.46306138    -5.8422463      133.31174    
     58200   128.46267      158.5          158.5          158.5         -3.0978551     -3.7897764     -3.1980186     -2.3057703      128.46267    
     58220   138.82646      158.5          158.5          158.5          3.606398       3.3699819      2.1762691      5.2729431      138.82646    
     58240   129.75816      158.5          158.5          158.5         -1.4345019     -1.0843564     -0.64744711    -2.5717022      129.75816    
     58260   143.58686      158.5          158.5          158.5          1.2290009      1.9838071     -0.83745717     2.5406528      143.58686    
     58280   127.26385      158.5          158.5          158.5          3.4439224      4.335694       1.2405172      4.755556       127.26385    
     58300   141.54616      158.5          158.5          158.5         -2.8307124     -6.5928945     -1.2154518     -0.68379097     141.54616    
     58320   135.04454      158.5          158.5          158.5          2.8955298      3.6763914      1.4054412      3.6047567      135.04454    
     58340   134.28315      158.5          158.5          158.5         -0.37152397     3.6209012     -5.5154807      0.78000759     134.28315    
     58360   128.68662      158.5          158.5          158.5         -2.4042119     -2.1361906     -3.1278041     -1.948641       128.68662    
     58380   106.28146      158.5          158.5          158.5          3.1160196      1.2077537      5.3154767      2.8248284      106.28146    
     58400   129.14946      158.5          158.5          158.5         -0.263798       0.36565014     1.225026      -2.3820702      129.14946    
     58420   139.18006      158.5          158.5          158.5          0.074480268   -2.6239844      1.1701761      1.6772492      139.18006    
     58440   116.38036      158.5          158.5          158.5          2.6049603      0.94327011     6.2682525      0.6033582      116.38036    
     58460   121.20117      158.5          158.5          158.5          0.50161875     1.0448561      3.3391874     -2.8791873      121.20117    
     58480   121.83135      158.5          158.5          158.5          3.2176979      2.2446602      3.4180796      3.990354       121.83135    
     58500   115.04068      158.5          158.5          158.5          1.9932318      3.3962026      0.71274206     1.8707508      115.04068    
     58520   136.60003      158.5          158.5          158.5         -3.0427717     -1.0168383     -2.6641692     -5.4473076      136.60003    
     58540   118.53406      158.5          158.5          158.5          0.36536831    -2.2479927      2.1178618      1.2262358      118.53406    
     58560   127.71683      158.5          158.5          158.5          0.65325146    -2.6499871      1.4867468      3.1229946      127.71683    
     58580   106.6993       158.5          158.5          158.5         -0.81115932     1.7673496      0.91661207    -5.1174397      106.6993     
     58600   105.10507      158.5          158.5          158.5          1.3770467      2.6697109      2.5296743     -1.0682451      105.10507    
     58620   112.94793      158.5          158.5          158.5         -1.8097932     -3.3897908      0.33448037    -2.374069       112.94793    
     58640   129.11524      158.5          158.5          158.5         -2.1843262     -5.067863       1.686711      -3.1718267      129.11524    
     58660   111.95656      158.5          158.5          158.5          0.30526829     1.677159      -1.2304808      0.46912663     111.95656    
     58680   112.05979      158.5          158.5          158.5         -1.2883507     -1.1932013     -3.072667       0.40081613     112.05979    
     58700   123.28419      158.5          158.5          158.5          0.5458869     -2.0538673      1.4510363      2.2404918      123.28419    
     58720   116.69711      158.5          158.5          158.5         -0.099556989    0.36104629    -0.40851369    -0.25120358     116.69711    
     58740   121.7686       158.5          158.5          158.5         -2.8397533      1.4763421     -6.7027366     -3.2928655      121.7686     
     58760   127.56245      158.5          158.5          158.5         -1.8670228     -2.0573847     -7.160395       3.6167113      127.56245    
     58780   125.66584      158.5          158.5          158.5         -1.5325463     -0.56040764    -1.2018481     -2.8353833      125.66584    
     58800   127.09778      158.5          158.5          158.5          0.40222326     2.0965157      3.0372438     -3.9270897      127.09778    
     58820   107.94344      158.5          158.5          158.5         -0.979603       0.34585217    -6.6139632      3.329302       107.94344    
     58840   132.64807      158.5          158.5          158.5          0.057235882    0.49146782    -5.2101097      4.8903496      132.64807    
     58860   142.37179      158.5          158.5          158.5          0.92664696    -2.0020504      3.5538103      1.2281809      142.37179    
     58880   129.94106      158.5          158.5          158.5         -1.7340252     -0.51055416    -2.814885      -1.8766365      129.94106    
     58900   131.19062      158.5          158.5          158.5          4.6066611      7.7304031      2.782923       3.3066571      131.19062    
     58920   128.85587      158.5          158.5          158.5         -0.21317932     3.6647224     -3.9998256     -0.30443478     128.85587    
     58940   120.47469      158.5          158.5          158.5         -0.0790601      1.4364187     -4.883449       3.20985        120.47469    
     58960   150.39793      158.5          158.5          158.5          4.1026953      1.6201243      1.8555713      8.8323904      150.39793    
     58980   136.34549      158.5          158.5          158.5         -2.240665      -0.60267804    -7.2389909      1.119674       136.34549    
     59000   125.93497      158.5          158.5          158.5          4.6843619      5.4619724      5.5517718      3.0393416      125.93497    
     59020   119.44588      158.5          158.5          158.5         -0.43459695    -1.400574       1.0020155     -0.90523232     119.44588    
     59040   126.88422      158.5          158.5          158.5          0.044256273    1.5463466     -0.048597214   -1.3649805      126.88422    
     59060   112.43745      158.5          158.5          158.5          4.2292162      5.538333       4.1603447      2.9889709      112.43745    
     59080   122.59385      158.5          158.5          158.5         -3.9012122     -6.4300982     -4.2868325     -0.98670587     122.59385    
     59100   109.97685      158.5          158.5          158.5          3.4357909     -1.1443364      6.4521866      4.9995225      109.97685    
     59120   112.87561      158.5          158.5          158.5         -1.0194942     -2.6200551     -0.30984973    -0.12857785     112.87561    
     59140   119.44288      158.5          158.5          158.5         -3.4125452     -1.6007859     -3.9314189     -4.7054308      119.44288    
     59160   120.85217      158.5          158.5          158.5          1.4610065      0.62934709     4.3673555     -0.61368301     120.85217    
     59180   110.91932      158.5          158.5          158.5         -2.927532      -6.9852227      0.85640155    -2.653775       110.91932    
     59200   124.28063      158.5          158.5          158.5          2.593865       2.1423985      2.6245635      3.0146329      124.28063    
     59220   103.49108      158.5          158.5          158.5          2.5749365      5.9864002     -1.2781182      3.0165274      103.49108    
     59240   119.17558      158.5          158.5          158.5         -0.84500113    -2.8602818     -1.9346988      2.2599772      119.17558    
     59260   110.95361      158.5          158.5          158.5         -0.16552795    -0.58304691    -1.6519811      1.7384441      110.95361    
     59280   124.71771      158.5          158.5          158.5         -4.0416985     -1.0089367     -6.4743768     -4.641782       124.71771    
     59300   125.05686      158.5          158.5          158.5         -2.5517763     -0.46268522    -3.5093502     -3.6832935      125.05686    
     59320   123.34361      158.5          158.5          158.5         -2.2186589     -0.59326019    -5.2892221     -0.77349438     123.34361    
     59340   121.92964      158.5          158.5          158.5         -3.1901999     -4.4138742     -0.86967446    -4.2870511      121.92964    
     59360   114.96522      158.5          158.5          158.5          2.6566571      2.7607291      5.8727311     -0.66348881     114.96522    
     59380   137.31321      158.5          158.5          158.5         -0.33052916     2.4067185     -5.1956485      1.7973426      137.31321    
     59400   128.40116      158.5          158.5          158.5          0.16359249    -0.95678766    -0.54959395     1.9971591      128.40116    
     59420   140.82527      158.5          158.5          158.5          1.607886       0.47852443     0.95478814     3.3903453      140.82527    
     59440   112.64309      158.5          158.5          158.5         -3.1737779     -2.3205809     -6.5331919     -0.66756086     112.64309    
     59460   120.22531      158.5          158.5          158.5          3.9873365      8.4881489      2.7558805      0.71798013     120.22531    
     59480   122.76303      158.5          158.5          158.5         -0.60022736     2.9235898     -2.5558848     -2.168387       122.76303    
     59500   131.26297      158.5          158.5          158.5         -0.22311784    -5.1181091      0.33859747     4.1101582      131.26297    
     59520   144.88651      158.5          158.5          158.5          4.2133371      3.31614        5.8943643      3.4295071      144.88651    
     59540   122.52596      158.5          158.5          158.5         -3.5098086     -0.85213364    -4.7305224     -4.9467698      122.52596    
     59560   129.79203      158.5          158.5          158.5          5.0068477      2.0404394      4.8451178      8.1349859      129.79203    
     59580   119.75894      158.5          158.5          158.5          0.89465375     0.5535683      1.1481993      0.98219369     119.75894    
     59600   126.55648      158.5          158.5          158.5         -5.8517633     -1.4822349     -10.303621     -5.7694335      126.55648    
     59620   121.59845      158.5          158.5          158.5          2.007423       3.6874043      0.16234103     2.1725236      121.59845    
     59640   136.17567      158.5          158.5          158.5         -6.6336639     -14.243836     -3.0995914     -2.5575643      136.17567    
     59660   119.26537      158.5          158.5          158.5         -1.7210853     -0.25474763    -4.0026585     -0.90584964     119.26537    
     59680   129.57303      158.5          158.5          158.5          1.2036367      5.0103593     -2.6030102      1.2035608      129.57303    
     59700   109.92033      158.5          158.5          158.5         -2.9514116     -7.2472989     -1.4740207     -0.13291519     109.92033    
     59720   114.34479      158.5          158.5          158.5          1.8313858     -0.16834806     3.8963487      1.7661567      114.34479    
     59740   121.48264      158.5          158.5          158.5         -2.6545455     -1.9223822     -2.2600826     -3.7811717      121.48264    
     59760   111.52106      158.5          158.5          158.5         -0.83056808    -1.394409      -0.82793168    -0.26936353     111.52106    
     59780   104.23529      158.5          158.5          158.5          1.8162063      3.7065159     -0.64901632     2.3911194      104.23529    
     59800   113.52437      158.5          158.5          158.5          0.94402293     2.8471761     -0.72370214     0.70859481     113.52437    
     59820   115.98868      158.5          158.5          158.5          2.6575265      1.2555089      2.5614218      4.1556489      115.98868    
     59840   96.936755      158.5          158.5          158.5         -0.17170101    -0.69317258    -0.62135105     0.79942059     96.936755    
     59860   118.269        158.5          158.5          158.5          1.7300795      3.6859799      2.3430288     -0.83877031     118.269      
     59880   109.02648      158.5          158.5          158.5          0.083931648   -1.5309505      2.165469      -0.3827236      109.02648    
     59900   119.0185       158.5          158.5          158.5         -1.3831604     -1.4195395     -3.5481619      0.81822024     119.0185     
     59920   101.54386      158.5          158.5          158.5          2.6264477      5.2060249     -1.8575905      4.5309088      101.54386    
     59940   124.58286      158.5          158.5          158.5          1.5552758     -0.54913344     1.9046005      3.3103605      124.58286    
     59960   115.89442      158.5          158.5          158.5          3.5016049     -1.1529302      5.8505015      5.8072434      115.89442    
     59980   123.27299      158.5          158.5          158.5          2.7666112      0.83285735     3.5931177      3.8738584      123.27299    
     60000   122.36804      158.5          158.5          158.5         -4.2078569     -0.80883738    -6.8644171     -4.9503164      122.36804    
     60020   114.47672      158.5          158.5          158.5          2.6906037      1.0869044      3.2252787      3.759628       114.47672    
     60040   138.2776       158.5          158.5          158.5         -3.6459937     -8.3486341     -0.15754105    -2.431806       138.2776     
     60060   127.71326      158.5          158.5          158.5         -2.4207578      1.6783731     -5.0588822     -3.8817642      127.71326    
     60080   122.4012       158.5          158.5          158.5          4.5225314      5.7173729      3.6525739      4.1976474      122.4012     
     60100   136.25293      158.5          158.5          158.5         -5.5428391     -12.68034       0.49606481    -4.4442418      136.25293    
     60120   129.36327      158.5          158.5          158.5          3.5401841      5.136241       2.3514771      3.1328343      129.36327    
     60140   117.82362      158.5          158.5          158.5          2.9853507      7.0398369      1.1570367      0.75917848     117.82362    
     60160   130.45816      158.5          158.5          158.5         -4.0340065     -5.7757713     -2.4754789     -3.8507692      130.45816    
     60180   118.9502       158.5          158.5          158.5          1.6009188     -0.69440646     3.2225944      2.2745684      118.9502     
     60200   120.06693      158.5          158.5          158.5         -1.8105892     -1.4475903     -2.260083      -1.7240944      120.06693    
     60220   114.90841      158.5          158.5          158.5         -1.004247       4.0323749     -3.3474461     -3.6976698      114.90841    
     60240   106.90093      158.5          158.5          158.5          3.7353292      5.5771645      4.2629383      1.3658849      106.90093    
     60260   109.61753      158.5          158.5          158.5          0.26214676    -3.3350791      2.4941616      1.6273577      109.61753    
     60280   124.38166      158.5          158.5          158.5         -0.6538463     -0.82931669    -0.31668091    -0.81554131     124.38166    
     60300   105.2657       158.5          158.5          158.5          1.5260696      0.94753496     4.3281944     -0.6975207      105.2657     
     60320   110.92665      158.5          158.5          158.5         -0.33181546    -2.1118362     -2.0729411      3.1893309      110.92665    
     60340   115.34253      158.5          158.5          158.5         -0.25519578     2.5679316     -3.1592568     -0.17426212     115.34253    
     60360   107.53566      158.5          158.5          158.5          0.29223974     2.9493528      0.93638822    -3.0090218      107.53566    
     60380   118.83714      158.5          158.5          158.5         -3.887878      -6.591008      -2.891125      -2.1815008      118.83714    
     60400   114.82715      158.5          158.5          158.5          0.52940074     1.6089222     -0.0071466423  -0.013573351    114.82715    
     60420   110.88397      158.5          158.5          158.5          0.5028053      1.05422        0.38706404     0.06713192     110.88397    
     60440   107.88149      158.5          158.5          158.5         -0.3357475     -4.9833251      1.7294585      2.2466241      107.88149    
     60460   119.51973      158.5          158.5          158.5          2.8419261      2.4593745      2.8063637      3.26004        119.51973    
     60480   114.87281      158.5          158.5          158.5         -2.1425715      0.69652355    -4.9175007     -2.2067372      114.87281    
     60500   122.04554      158.5          158.5          158.5         -1.1219856      0.00094935625  2.4924438     -5.8593499      122.04554    
     60520   114.04067      158.5          158.5          158.5         -0.24496101    -1.6740002      2.6741541     -1.7350369      114.04067    
     60540   117.10708      158.5          158.5          158.5         -3.6626995     -5.0191347     -3.0425606     -2.9264032      117.10708    
     60560   120.29447      158.5          158.5          158.5          1.5765888      1.390565       0.94824052     2.3909609      120.29447    
     60580   115.37463      158.5          158.5          158.5         -0.581268      -1.0710372      1.2556536     -1.9284204      115.37463    
     60600   104.79552      158.5          158.5          158.5         -0.076668116   -0.34182173    -0.46351848     0.57533586     104.79552    
     60620   117.47939      158.5          158.5          158.5          2.3543849      1.549108       0.66273772     4.8513089      117.47939    
     60640   115.27672      158.5          158.5          158.5         -1.6625765     -3.1701875      2.7284718     -4.5460138      115.27672    
     60660   124.88235      158.5          158.5          158.5          1.1313679      1.0748063      4.0509773     -1.7316799      124.88235    
     60680   113.90608      158.5          158.5          158.5          0.76152625     3.1995418     -1.8372154      0.92225233     113.90608    
     60700   120.77427      158.5          158.5          158.5          0.16536554     0.38137592     0.58297701    -0.46825629     120.77427    
     60720   113.45429      158.5          158.5          158.5          2.0528862      0.24265862     3.9564991      1.959501       113.45429    
     60740   114.96279      158.5          158.5          158.5         -0.81120185     0.6308746     -2.1660741     -0.89840602     114.96279    
     60760   103.08915      158.5          158.5          158.5          1.4688856      0.69738215     1.8030574      1.9062172      103.08915    
     60780   124.52374      158.5          158.5          158.5          0.20791972    -0.99785357     1.6681796     -0.046566853    124.52374    
     60800   108.75819      158.5          158.5          158.5          0.41874454     3.5691902     -2.8428917      0.52993506     108.75819    
     60820   100.29592      158.5          158.5          158.5         -0.13101326     0.84217661    -3.129817       1.8946006      100.29592    
     60840   104.24514      158.5          158.5          158.5         -3.0642733     -3.3692983     -2.6640164     -3.1595051      104.24514    
     60860   95.607705      158.5          158.5          158.5          0.49517991     0.37457676    -0.83983838     1.9508014      95.607705    
     60880   98.582082      158.5          158.5          158.5          0.53902113    -0.26982446    -0.15598012     2.042868       98.582082    
     60900   103.8483       158.5          158.5          158.5          0.80561233     1.2822241      3.8030222     -2.6684093      103.8483     
     60920   95.291691      158.5          158.5          158.5          3.386838       3.251334       4.4391035      2.4700765      95.291691    
     60940   80.734165      158.5          158.5          158.5         -0.48796637    -0.64578469     0.0043364283  -0.82245086     80.734165    
     60960   100.84532      158.5          158.5          158.5          1.8466313      3.4239643      1.3085526      0.80737699     100.84532    
     60980   103.04852      158.5          158.5          158.5         -1.0013741      0.70219518    -2.8197386     -0.88657906     103.04852    
     61000   108.16291      158.5          158.5          158.5         -1.1217756     -2.6832814      1.2919751     -1.9740205      108.16291    
     61020   100.38844      158.5          158.5          158.5          2.4195449     -0.63609321     6.1305328      1.7641951      100.38844    
     61040   100.10615      158.5          158.5          158.5         -3.5125473     -5.8450101     -1.1338184     -3.5588133      100.10615    
     61060   119.18705      158.5          158.5          158.5         -0.27964976    -0.31418382     0.24453801    -0.76930346     119.18705    
     61080   111.99714      158.5          158.5          158.5          0.45134612     4.6177115     -1.7398481     -1.5238251      111.99714    
     61100   106.97366      158.5          158.5          158.5         -0.73324538    -3.3410429     -0.66925656     1.8105633      106.97366    
     61120   114.94547      158.5          158.5          158.5          2.250137      -1.2277322      3.7018027      4.2763406      114.94547    
     61140   105.16134      158.5          158.5          158.5         -0.33290867     4.750584      -4.5929368     -1.1563731      105.16134    
     61160   113.01952      158.5          158.5          158.5          0.86670768     1.161983       0.46287712     0.97526295     113.01952    
     61180   130.55794      158.5          158.5          158.5          2.423356      -2.4872281      5.1369759      4.6203201      130.55794    
     61200   133.22686      158.5          158.5          158.5         -0.74949132     1.0871588     -2.9422891     -0.39334373     133.22686    
     61220   101.53128      158.5          158.5          158.5         -1.764685       1.7339167     -6.0584107     -0.96956078     101.53128    
     61240   108.02267      158.5          158.5          158.5          2.3944625     -0.3455777      2.8203208      4.7086443      108.02267    
     61260   114.48474      158.5          158.5          158.5         -2.0655784     -5.6240096      0.31614347    -0.88886918     114.48474    
     61280   116.59082      158.5          158.5          158.5         -2.0890528     -3.690005      -4.5023106      1.9251572      116.59082    
     61300   128.45192      158.5          158.5          158.5          1.1279855      2.0761805     -0.40343293     1.7112089      128.45192    
     61320   110.94163      158.5          158.5          158.5         -3.287357      -5.9245408      1.2173811     -5.1549112      110.94163    
     61340   110.74619      158.5          158.5          158.5          2.2494162     -2.0828428      3.5995665      5.2315249      110.74619    
     61360   116.02786      158.5          158.5          158.5          2.5928258      3.172081       2.0029997      2.6033967      116.02786    
     61380   101.1605       158.5          158.5          158.5         -0.54408878    -0.014340557    2.8443176     -4.4622434      101.1605     
     61400   123.2109       158.5          158.5          158.5          3.97666        1.3758242      6.8881113      3.6660444      123.2109     
     61420   118.96095      158.5          158.5          158.5         -1.5959304     -1.4470834     -4.1080343      0.76732643     118.96095    
     61440   105.39322      158.5          158.5          158.5          2.0755365      2.8819255      3.4407016     -0.096017726    105.39322    
     61460   100.73774      158.5          158.5          158.5          2.4188224      0.93132265     6.260934       0.064210581    100.73774    
     61480   122.84442      158.5          158.5          158.5         -2.8354688     -2.8399669     -1.5612942     -4.1051453      122.84442    
     61500   102.1416       158.5          158.5          158.5          2.8947374      3.1342775      2.068743       3.4811917      102.1416     
     61520   122.20377      158.5          158.5          158.5         -1.7321361     -3.6395294     -2.8819955      1.3251167      122.20377    
     61540   101.03329      158.5          158.5          158.5         -0.35367222     2.586857      -3.6088471     -0.039026568    101.03329    
     61560   97.706642      158.5          158.5          158.5          0.30768195     1.5742867     -0.36749956    -0.28374131     97.706642    
     61580   110.90822      158.5          158.5          158.5         -2.039792      -5.2142645      0.20600742    -1.1111189      110.90822    
     61600   111.18038      158.5          158.5          158.5          0.11925591    -0.60977877    -1.0063161      1.9738626      111.18038    
     61620   104.6743       158.5          158.5          158.5         -0.88769289     2.2093849      0.11827787    -4.9907415      104.6743     
     61640   123.38253      158.5          158.5          158.5          0.47887741    -0.56566011     1.066175       0.93611736     123.38253    
     61660   110.51087      158.5          158.5          158.5         -0.2126992      1.3705613     -4.666843       2.6581841      110.51087    
     61680   111.41458      158.5          158.5          158.5          1.5487242      3.7163397      0.91262665     0.017206342    111.41458    
     61700   127.61087      158.5          158.5          158.5          1.2808106     -1.2781799      8.0041809     -2.8835692      127.61087    
     61720   126.66704      158.5          158.5          158.5         -1.4504736     -5.2738167      3.3308715     -2.4084756      126.66704    
     61740   112.20816      158.5          158.5          158.5          2.9730498      4.2714396     -0.23706551     4.8847752      112.20816    
     61760   131.10675      158.5          158.5          158.5         -4.1863069      2.0581925     -9.2105791     -5.4065342      131.10675    
     61780   133.711        158.5          158.5          158.5          1.7740183      2.5677047      3.8747018     -1.1203516      133.711      
     61800   123.89433      158.5          158.5          158.5          4.1393946      2.2532348      5.6115506      4.5533983      123.89433    
     61820   135.65004      158.5          158.5          158.5         -2.9366023     -1.2671536     -5.5835239     -1.9591294      135.65004    
     61840   135.78033      158.5          158.5          158.5          4.7268146      7.0369015      3.6320198      3.5115227      135.78033    
     61860   139.94217      158.5          158.5          158.5         -1.4167298     -0.43881962    -0.29290807    -3.5184616      139.94217    
     61880   121.16283      158.5          158.5          158.5         -3.5840052      0.53505458    -2.4731436     -8.8139266      121.16283    
     61900   132.77858      158.5          158.5          158.5          1.3544775      2.3142608     -1.1838886      2.9330601      132.77858    
     61920   132.84983      158.5          158.5          158.5         -4.8793012     -5.8235746     -6.3835825     -2.4307465      132.84983    
     61940   149.15884      158.5          158.5          158.5         -1.3068489      0.79420534     1.9317177     -6.6464699      149.15884    
     61960   124.35783      158.5          158.5          158.5          2.0555352      2.6725174      1.9592024      1.5348858      124.35783    
     61980   136.8934       158.5          158.5          158.5         -0.49390922     3.6734326     -6.7383815      1.5832212      136.8934     
     62000   137.66549      158.5          158.5          158.5          1.288576       5.9648626     -0.60298815    -1.4961465      137.66549    
     62020   131.02748      158.5          158.5          158.5          1.5190712      0.71135871     4.8133861     -0.96753102     131.02748    
     62040   140.40653      158.5          158.5          158.5         -0.13740653     0.25531909    -2.5975162      1.9299775      140.40653    
     62060   137.96621      158.5          158.5          158.5         -2.5924152      0.9815741     -6.1460811     -2.6127388      137.96621    
     62080   143.63958      158.5          158.5          158.5          2.5710904      1.196609       6.4618022      0.05486016     143.63958    
     62100   134.0828       158.5          158.5          158.5         -2.7161921     -5.9248939      0.86997576    -3.0936581      134.0828     
     62120   138.58705      158.5          158.5          158.5          0.0026762954   2.7357698     -3.0934889      0.36574796     138.58705    
     62140   142.49207      158.5          158.5          158.5          5.1967003      6.2665968      3.0798877      6.2436165      142.49207    
     62160   149.94383      158.5          158.5          158.5         -5.1589004     -7.9932477     -3.3949318     -4.0885217      149.94383    
     62180   136.17744      158.5          158.5          158.5          3.039657       3.727557       3.1547013      2.2367125      136.17744    
     62200   145.56882      158.5          158.5          158.5         -2.5261232     -6.4676927     -2.7059497      1.5952729      145.56882    
     62220   152.9022       158.5          158.5          158.5         -6.7925276     -11.196175     -5.1048384     -4.076569       152.9022     
     62240   131.78375      158.5          158.5          158.5          3.5018965      4.6588378      3.5630157      2.2838361      131.78375    
     62260   154.17046      158.5          158.5          158.5         -4.862807      -6.8104602     -3.655024      -4.122937       154.17046    
     62280   134.46971      158.5          158.5          158.5          1.3483877     -1.2884658     -2.4502289      7.7838577      134.46971    
     62300   143.10081      158.5          158.5          158.5          4.6103465      8.2253119     -1.5032366      7.1089642      143.10081    
     62320   143.10382      158.5          158.5          158.5         -4.4522262     -3.8783723     -3.2588342     -6.2194721      143.10382    
     62340   144.55685      158.5          158.5          158.5          4.8530759      2.3429723      6.5542401      5.6620155      144.55685    
     62360   115.31679      158.5          158.5          158.5          0.4258712      0.13160749     0.68890068     0.45710542     115.31679    
     62380   136.16332      158.5          158.5          158.5         -3.1275667     -2.8406119     -5.0913128     -1.4507755      136.16332    
     62400   127.16376      158.5          158.5          158.5          2.7988803     -0.1346466      1.1421371      7.3891506      127.16376    
     62420   113.78294      158.5          158.5          158.5         -3.1962787     -3.8222098     -2.8889991     -2.8776271      113.78294    
     62440   124.46423      158.5          158.5          158.5         -0.18947058     0.59111945     1.1036375     -2.2631686      124.46423    
     62460   123.02369      158.5          158.5          158.5          1.842499       1.612155       0.88784887     3.0274932      123.02369    
     62480   125.19911      158.5          158.5          158.5         -1.0876063     -1.4907136     -1.1762736     -0.59583166     125.19911    
     62500   118.42564      158.5          158.5          158.5          1.527316       2.4345188      5.2872064     -3.1397772      118.42564    
     62520   120.00363      158.5          158.5          158.5          1.8846766      1.3326456      1.2941324      3.0272519      120.00363    
     62540   123.54147      158.5          158.5          158.5         -1.4588732     -2.8206573     -2.5631783      1.007216       123.54147    
     62560   120.92882      158.5          158.5          158.5         -0.19410808     3.6645743     -1.4608865     -2.786012       120.92882    
     62580   128.72892      158.5          158.5          158.5          0.20906964     2.6620823     -1.3294174     -0.70545599     128.72892    
     62600   132.64477      158.5          158.5          158.5         -1.8382163     -5.1566948     -1.5069986      1.1490444      132.64477    
     62620   142.24943      158.5          158.5          158.5         -1.7762267     -1.9562804     -3.4823988      0.10999911     142.24943    
     62640   131.74647      158.5          158.5          158.5         -1.0019991     -0.47493497    -2.8498747      0.31881229     131.74647    
     62660   136.3797       158.5          158.5          158.5         -1.2956722     -1.2751431     -0.9693631     -1.6425103      136.3797     
     62680   146.11003      158.5          158.5          158.5         -1.6621678     -1.6725123     -0.77981767    -2.5341734      146.11003    
     62700   140.43304      158.5          158.5          158.5         -0.71650291     0.82305768    -1.4985036     -1.4740627      140.43304    
     62720   152.1796       158.5          158.5          158.5          1.506092       1.5543993      0.78376677     2.1801101      152.1796     
     62740   137.48098      158.5          158.5          158.5          2.3442323      1.33938        2.97036        2.722957       137.48098    
     62760   134.61666      158.5          158.5          158.5          3.1043009      6.0683171      2.0852248      1.1593609      134.61666    
     62780   145.82736      158.5          158.5          158.5          2.5147246      3.0492848      3.5131164      0.98177256     145.82736    
     62800   128.55691      158.5          158.5          158.5          1.7710126      1.9074368      2.2924166      1.1131843      128.55691    
     62820   155.92314      158.5          158.5          158.5         -3.6596493     -2.8223235     -4.6152388     -3.5413857      155.92314    
     62840   146.17873      158.5          158.5          158.5         -2.4140319     -2.7379617     -0.68172164    -3.8224122      146.17873    
     62860   128.01846      158.5          158.5          158.5          0.32928952     0.043085829    2.4904921     -1.5457094      128.01846    
     62880   140.25698      158.5          158.5          158.5         -4.3700838     -3.7440257     -3.6430773     -5.7231484      140.25698    
     62900   134.66988      158.5          158.5          158.5          0.84624362     1.1086656     -0.86979826     2.2998636      134.66988    
     62920   129.32938      158.5          158.5          158.5         -1.4210619     -4.1983158     -3.3472383      3.2823684      129.32938    
     62940   127.90478      158.5          158.5          158.5         -2.3994578     -1.3102422     -2.7992268     -3.0889043      127.90478    
     62960   124.44931      158.5          158.5          158.5          3.6535678      5.3005484      2.4451134      3.2150414      124.44931    
     62980   122.20421      158.5          158.5          158.5         -3.4224945     -7.1949995     -3.5392072      0.46672337     122.20421    
     63000   122.99306      158.5          158.5          158.5         -0.67174287    -3.1452367      1.0386618      0.091346281    122.99306    
     63020   113.2232       158.5          158.5          158.5          1.7388086      3.5701132      3.2388322     -1.5925196      113.2232     
     63040   122.22704      158.5          158.5          158.5         -2.0352383      2.9407067     -2.5293156     -6.517106       122.22704    
     63060   126.38603      158.5          158.5          158.5          2.0642242      5.8370546     -0.76796769     1.1235857      126.38603    
     63080   127.43972      158.5          158.5          158.5          1.307165      -1.6644337      2.0164099      3.5695188      127.43972    
     63100   118.5616       158.5          158.5          158.5          2.3663531     -0.33262653     4.7198226      2.7118633      118.5616     
     63120   112.31324      158.5          158.5          158.5          2.7195944      7.3195744      2.7568613     -1.9176524      112.31324    
     63140   122.95303      158.5          158.5          158.5          1.037542       4.3835416     -1.3559908      0.085075083    122.95303    
     63160   119.68458      158.5          158.5          158.5          0.056944336   -5.6612993      1.5405358      4.2915965      119.68458    
     63180   108.45722      158.5          158.5          158.5         -0.66013113    -0.86593662     2.0335462     -3.1480029      108.45722    
     63200   103.15038      158.5          158.5          158.5          1.2267571      4.8831798     -0.65982585    -0.54308272     103.15038    
     63220   109.99398      158.5          158.5          158.5          1.5399505     -0.84993162     0.98818125     4.4816018      109.99398    
     63240   112.40606      158.5          158.5          158.5          2.4444729     -0.61481757     4.7494141      3.1988221      112.40606    
     63260   115.82387      158.5          158.5          158.5          0.7421366      0.56723846     3.5611733     -1.902002       115.82387    
     63280   112.18059      158.5          158.5          158.5          0.72690225     3.3761079      1.5274726     -2.7228738      112.18059    
     63300   111.80589      158.5          158.5          158.5         -1.2394812     -0.057950038   -2.4126254     -1.2478683      111.80589    
     63320   112.48075      158.5          158.5          158.5         -0.095002276   -1.4543968     -1.6676568      2.8370469      112.48075    
     63340   123.09698      158.5          158.5          158.5         -1.9957451     -2.3998053     -1.8994109     -1.6880192      123.09698    
     63360   113.04539      158.5          158.5          158.5         -1.0055565      0.53742524    -1.7273091     -1.8267856      113.04539    
     63380   137.20307      158.5          158.5          158.5         -0.91101455    -1.0889851     -2.9809046      1.336846       137.20307    
     63400   132.24778      158.5          158.5          158.5         -3.3717562     -5.7456091     -2.7652357     -1.6044238      132.24778    
     63420   131.07422      158.5          158.5          158.5          2.6042294      6.7430026      2.0780886     -1.008403       131.07422    
     63440   124.4633       158.5          158.5          158.5          0.48704353     5.3403563     -3.1652172     -0.71400851     124.4633     
     63460   125.49588      158.5          158.5          158.5         -0.63536741    -2.3525445     -2.9786863      3.4251285      125.49588    
     63480   130.83905      158.5          158.5          158.5          0.87771282     0.5198765      1.6360465      0.47721547     130.83905    
     63500   132.07861      158.5          158.5          158.5         -2.3777758     -0.87293234    -2.7232188     -3.5371763      132.07861    
     63520   128.87719      158.5          158.5          158.5          0.46588552    -0.84469731     3.3083258     -1.0659719      128.87719    
     63540   119.78537      158.5          158.5          158.5         -2.3773861      0.15638341    -2.7199076     -4.5686342      119.78537    
     63560   135.24381      158.5          158.5          158.5          0.61681447     0.64798981    -2.0668641      3.2693178      135.24381    
     63580   135.42619      158.5          158.5          158.5         -0.065930331   -2.2071881      2.3111192     -0.30172212     135.42619    
     63600   126.92442      158.5          158.5          158.5         -2.5328588     -3.6275827      0.10211061    -4.0731042      126.92442    
     63620   113.71945      158.5          158.5          158.5          1.8039163      2.1353684      1.7934727      1.4829078      113.71945    
     63640   120.34337      158.5          158.5          158.5         -1.3717081     -1.142568      -1.4874213     -1.4851349      120.34337    
     63660   119.06367      158.5          158.5          158.5          1.5387193      1.3166289     -0.21519607     3.514725       119.06367    
     63680   122.4801       158.5          158.5          158.5          1.7650011      5.5512313      2.3811741     -2.637402       122.4801     
     63700   105.38285      158.5          158.5          158.5         -1.2621206      2.3329501     -1.9176651     -4.2016469      105.38285    
     63720   115.92281      158.5          158.5          158.5          2.8827897      1.9253761     -0.055452802    6.7784457      115.92281    
     63740   107.62152      158.5          158.5          158.5         -1.8138236     -4.5236266     -0.85592963    -0.06191461     107.62152    
     63760   111.22868      158.5          158.5          158.5         -0.41842717     0.42484257     1.2113498     -2.8914739      111.22868    
     63780   113.26982      158.5          158.5          158.5          3.1251879      6.3121653      1.3645004      1.6988981      113.26982    
     63800   103.3487       158.5          158.5          158.5         -4.158597      -2.4724934     -6.1952321     -3.8080655      103.3487     
     63820   112.90789      158.5          158.5          158.5          1.8715044     -3.0562407      3.6460355      5.0247185      112.90789    
     63840   112.86578      158.5          158.5          158.5          0.092436444   -1.7305153      2.08832       -0.080495396    112.86578    
     63860   108.8952       158.5          158.5          158.5         -3.9765741     -1.8502531     -3.548136      -6.5313331      108.8952     
     63880   126.17576      158.5          158.5          158.5          1.4581567     -2.9541547      5.4608608      1.8677641      126.17576    
     63900   106.32716      158.5          158.5          158.5         -3.1262982     -5.181745      -1.9240459     -2.2731037      106.32716    
     63920   120.31413      158.5          158.5          158.5         -0.95832283     0.066602863   -0.80233787    -2.1392335      120.31413    
     63940   108.88228      158.5          158.5          158.5          1.8087154      0.54901475     2.3839112      2.4932203      108.88228    
     63960   133.54648      158.5          158.5          158.5         -3.9861927     -4.8016932     -8.4007233      1.2438385      133.54648    
     63980   122.63221      158.5          158.5          158.5          1.1936492      2.0850517     -2.4763018      3.9721977      122.63221    
     64000   119.61034      158.5          158.5          158.5          1.5351961     -2.2135212      4.2843182      2.5347913      119.61034    
     64020   130.76913      158.5          158.5          158.5         -2.5850387     -6.6133293     -0.27450205    -0.8672848      130.76913    
     64040   129.85303      158.5          158.5          158.5          2.7140497      3.8966327      2.7089236      1.5365929      129.85303    
     64060   132.32874      158.5          158.5          158.5         -0.77769273     2.349522      -0.39059398    -4.2920062      132.32874    
     64080   131.35633      158.5          158.5          158.5          0.7827566     -1.7388995      0.20535616     3.8818131      131.35633    
     64100   133.4064       158.5          158.5          158.5         -1.124674      -4.2647299     -3.110208       4.0009159      133.4064     
     64120   133.24044      158.5          158.5          158.5         -3.3780315     -0.95216553    -7.3480325     -1.8338965      133.24044    
     64140   133.55864      158.5          158.5          158.5          1.8455548      1.4535351      2.2050313      1.878098       133.55864    
     64160   125.25267      158.5          158.5          158.5         -1.2906071     -3.3964003      4.7781689     -5.2535899      125.25267    
     64180   115.12037      158.5          158.5          158.5          2.8105645      2.6683421      5.0436809      0.71967051     115.12037    
     64200   129.4657       158.5          158.5          158.5          3.0442775      2.1419211      0.25960658     6.7313048      129.4657     
     64220   127.15928      158.5          158.5          158.5         -2.6701675     -5.1648958     -0.6834873     -2.1621193      127.15928    
     64240   127.71948      158.5          158.5          158.5          3.4032508      4.1824257      5.6449466      0.38238007     127.71948    
     64260   145.97518      158.5          158.5          158.5         -0.61093018     0.55796923    -3.6628897      1.2721299      145.97518    
     64280   129.47636      158.5          158.5          158.5         -0.80575168    -0.6839805     -5.2986559      3.5653814      129.47636    
     64300   132.65203      158.5          158.5          158.5          1.0721645     -0.92968833     1.8490508      2.297131       132.65203    
     64320   127.65148      158.5          158.5          158.5         -2.9176622     -2.8724962      0.1730493     -6.0535398      127.65148    
     64340   136.16828      158.5          158.5          158.5          0.49038644    -0.0079140002   3.0700694     -1.5909961      136.16828    
     64360   112.60189      158.5          158.5          158.5          0.06188862    -1.9414012     -0.71150226     2.8385693      112.60189    
     64380   132.17708      158.5          158.5          158.5          0.2248539      1.0350885      0.25521723    -0.61574408     132.17708    
     64400   116.22843      158.5          158.5          158.5          1.4702188      2.1125608      2.5300392     -0.23194351     116.22843    
     64420   121.28211      158.5          158.5          158.5          2.3162794      1.2224454      3.0400649      2.6863279      121.28211    
     64440   116.07181      158.5          158.5          158.5          1.6127798      1.6153848      3.0266477      0.1963069      116.07181    
     64460   109.87251      158.5          158.5          158.5         -0.016396753    0.46385001     0.61049462    -1.1235349      109.87251    
     64480   108.74518      158.5          158.5          158.5          0.35412581     1.9649629     -0.92249628     0.019910796    108.74518    
     64500   126.45103      158.5          158.5          158.5         -2.3929637     -1.1975104     -2.7315751     -3.2498056      126.45103    
     64520   104.52322      158.5          158.5          158.5         -0.7097072     -0.00032849128 -3.0931857      0.96439253     104.52322    
     64540   130.12935      158.5          158.5          158.5          0.92943505     0.48538907     0.31613947     1.9867766      130.12935    
     64560   112.8077       158.5          158.5          158.5         -1.0137451      1.1808846     -3.4847622     -0.73735779     112.8077     
     64580   120.62607      158.5          158.5          158.5          1.1957527      3.640686       2.1472637     -2.2006917      120.62607    
     64600   124.51947      158.5          158.5          158.5          0.21688489     0.98557818     0.66737891    -1.0023024      124.51947    
     64620   127.23493      158.5          158.5          158.5         -3.0278335     -1.7250108     -6.3332626     -1.0252273      127.23493    
     64640   143.81024      158.5          158.5          158.5          5.024603       6.8319996      5.5938798      2.6479295      143.81024    
     64660   123.79072      158.5          158.5          158.5          0.69929806     0.57368123     4.0607867     -2.5365737      123.79072    
     64680   117.08849      158.5          158.5          158.5         -0.8622413     -2.7344579     -1.0921812      1.2399152      117.08849    
     64700   119.42026      158.5          158.5          158.5          5.4116179      6.1121777      5.1429482      4.9797277      119.42026    
     64720   132.03845      158.5          158.5          158.5         -4.6567963      0.33790607    -5.7705094     -8.5377855      132.03845    
     64740   123.97852      158.5          158.5          158.5          0.078707154   -2.1250859      2.3236494      0.03755801     123.97852    
     64760   140.19912      158.5          158.5          158.5          0.88449636    -1.6739992      1.9827565      2.3447318      140.19912    
     64780   128.79779      158.5          158.5          158.5         -7.7764972     -5.2144354     -8.6618263     -9.4532301      128.79779    
     64800   133.13763      158.5          158.5          158.5          3.0337975      3.0213293      2.2261413      3.8539219      133.13763    
     64820   138.18733      158.5          158.5          158.5         -5.5463421     -10.564884     -2.4569538     -3.6171885      138.18733    
     64840   122.02534      158.5          158.5          158.5         -0.25249825    -0.2096634      0.8634529     -1.4112842      122.02534    
     64860   120.98672      158.5          158.5          158.5          3.2644932      3.722764       5.0870782      0.98363742     120.98672    
     64880   119.98898      158.5          158.5          158.5         -2.4234414     -5.7083078      1.6738936     -3.2359102      119.98898    
     64900   129.9348       158.5          158.5          158.5          3.0450382      4.1011721      3.4752896      1.5586528      129.9348     
     64920   128.54977      158.5          158.5          158.5          1.8153665      2.0984191      5.3518298     -2.0041494      128.54977    
     64940   137.88049      158.5          158.5          158.5         -0.58921419     1.1877825     -0.19678937    -2.7586357      137.88049    
     64960   124.00874      158.5          158.5          158.5          2.2419167      5.8298095     -2.575077       3.4710177      124.00874    
     64980   120.85269      158.5          158.5          158.5          3.3464824      6.4562061      2.0013323      1.5819089      120.85269    
     65000   143.30166      158.5          158.5          158.5         -1.6382677     -0.089350969    2.7857673     -7.6112194      143.30166    
     65020   130.03549      158.5          158.5          158.5          3.3474885      4.5708144      4.3822292      1.089422       130.03549    
     65040   131.02991      158.5          158.5          158.5         -0.48851523     0.23194044    -1.9990761      0.30158997     131.02991    
     65060   134.81291      158.5          158.5          158.5         -3.0923572     -2.7111877     -4.7519355     -1.8139485      134.81291    
     65080   148.53298      158.5          158.5          158.5          3.0952316      3.6268942      2.0736659      3.5851348      148.53298    
     65100   131.89457      158.5          158.5          158.5         -4.6887314     -4.0543582     -5.6898531     -4.3219828      131.89457    
     65120   141.6502       158.5          158.5          158.5         -2.3357205     -2.9861984     -3.5072559     -0.51370708     141.6502     
     65140   139.97706      158.5          158.5          158.5         -0.044147343    1.3118182     -1.6556194      0.21135923     139.97706    
     65160   150.03859      158.5          158.5          158.5         -1.0078977     -0.31996044     0.19196625    -2.895699       150.03859    
     65180   140.67349      158.5          158.5          158.5          2.8816273     -0.47539989     3.8924936      5.2277882      140.67349    
     65200   152.67144      158.5          158.5          158.5          1.7516201     -2.6680934      3.5267866      4.3961671      152.67144    
     65220   154.19015      158.5          158.5          158.5          2.8992127      1.1162327      4.9290655      2.6523398      154.19015    
     65240   132.7297       158.5          158.5          158.5          1.3723684      3.2329074      0.70454649     0.17965138     132.7297     
     65260   141.47758      158.5          158.5          158.5          0.64761487     2.1540106      0.81637736    -1.0275434      141.47758    
     65280   130.97437      158.5          158.5          158.5         -3.9661441     -6.3921148     -6.1422154      0.63589791     130.97437    
     65300   143.48025      158.5          158.5          158.5          0.2614344      3.1991491     -4.1265286      1.7116827      143.48025    
     65320   134.57762      158.5          158.5          158.5         -1.4081604     -0.43522361    -0.13429029    -3.6549673      134.57762    
     65340   131.4105       158.5          158.5          158.5         -1.9015092     -6.4104053      1.0850816     -0.37920401     131.4105     
     65360   140.70929      158.5          158.5          158.5          3.9702639      2.8673001      4.7157409      4.3277509      140.70929    
     65380   133.97984      158.5          158.5          158.5         -2.0193744      3.2836498     -4.9095976     -4.4321754      133.97984    
     65400   145.27789      158.5          158.5          158.5          1.8366202      6.0581884     -0.053464247   -0.49486362     145.27789    
     65420   145.5103       158.5          158.5          158.5          2.0165211      3.1735014      1.6774684      1.1985934      145.5103     
     65440   137.29054      158.5          158.5          158.5          3.1192537     -1.3769609      3.9807804      6.7539417      137.29054    
     65460   139.01815      158.5          158.5          158.5          0.1071222      1.3074778     -1.1737599      0.1876487      139.01815    
     65480   129.63121      158.5          158.5          158.5         -0.99335917     4.5531046     -2.5937764     -4.9394056      129.63121    
     65500   128.18638      158.5          158.5          158.5          0.45252925    -2.6578997      2.7440382      1.2714493      128.18638    
     65520   130.90142      158.5          158.5          158.5         -2.9664878     -5.3656503     -3.5748976      0.041084613    130.90142    
     65540   141.87918      158.5          158.5          158.5          1.4281542      4.2866715     -5.3418887      5.3396798      141.87918    
     65560   146.64058      158.5          158.5          158.5          0.15065206    -1.507503       1.7518012      0.20765804     146.64058    
     65580   124.30541      158.5          158.5          158.5          2.8777582      0.13449625     6.7503774      1.7484011      124.30541    
     65600   130.99602      158.5          158.5          158.5          0.29387159    -1.8067443     -2.9622617      5.6506208      130.99602    
     65620   143.11249      158.5          158.5          158.5          2.903182       3.5130339      2.7835233      2.4129887      143.11249    
     65640   160.96666      158.5          158.5          158.5          0.35499813    -2.2488641      4.5284936     -1.2146351      160.96666    
     65660   163.69926      158.5          158.5          158.5         -3.5528354     -7.4461093     -4.678177       1.4657801      163.69926    
     65680   150.61057      158.5          158.5          158.5          3.0703986     -2.4112691      6.1264549      5.4960101      150.61057    
     65700   155.97051      158.5          158.5          158.5         -1.8507124     -0.39820429     1.1003327     -6.2542656      155.97051    
     65720   156.97621      158.5          158.5          158.5         -1.2689698      0.31782431    -2.3610811     -1.7636525      156.97621    
     65740   178.62728      158.5          158.5          158.5          0.92661736    -1.5187279      3.7642009      0.53437906     178.62728    
     65760   171.97444      158.5          158.5          158.5         -3.4247193     -5.0831944     -0.75754282    -4.4334206      171.97444    
     65780   144.89579      158.5          158.5          158.5          1.2622083     -1.2178916      2.3315583      2.6729583      144.89579    
     65800   150.64079      158.5          158.5          158.5         -1.9231831     -2.5290045     -2.7466743     -0.49387058     150.64079    
     65820   139.41319      158.5          158.5          158.5         -1.5271173     -0.94482856     0.43025121    -4.0667745      139.41319    
     65840   138.98704      158.5          158.5          158.5          0.46803578    -0.64439091     0.78182012     1.2666781      138.98704    
     65860   140.87992      158.5          158.5          158.5         -1.3185088      1.0554664     -2.9832616     -2.0277313      140.87992    
     65880   129.19416      158.5          158.5          158.5          3.3604221      8.4489697      2.477924      -0.84562735     129.19416    
     65900   137.18776      158.5          158.5          158.5          0.12701207    -6.3291765      0.78018127     5.9300315      137.18776    
     65920   146.01699      158.5          158.5          158.5          0.50666428    -5.2847098      4.7807056      2.023997       146.01699    
     65940   127.1712       158.5          158.5          158.5          0.65420109     4.0249483      1.8600657     -3.9224107      127.1712     
     65960   147.55271      158.5          158.5          158.5         -3.1342024     -1.2299552     -7.4238128     -0.74883918     147.55271    
     65980   127.42514      158.5          158.5          158.5          1.2085607     -1.5250625      0.52737128     4.6233734      127.42514    
     66000   139.9801       158.5          158.5          158.5         -0.50194934    -5.4977457      1.4107046      2.5811931      139.9801     
     66020   145.24303      158.5          158.5          158.5          1.2962014      2.6478907      0.48066131     0.76005211     145.24303    
     66040   134.62227      158.5          158.5          158.5          1.3609939      3.8168133      2.1319353     -1.865767       134.62227    
     66060   138.63439      158.5          158.5          158.5         -3.5898696     -6.4521492     -2.6167032     -1.7007563      138.63439    
     66080   138.23652      158.5          158.5          158.5         -0.074117187    1.0896801     -2.5015612      1.1895296      138.23652    
     66100   122.53233      158.5          158.5          158.5         -0.28391119     2.7473335     -2.4212833     -1.1777838      122.53233    
     66120   140.13394      158.5          158.5          158.5          0.76102095     2.2907707      2.6213612     -2.629069       140.13394    
     66140   148.92382      158.5          158.5          158.5          0.83126962    -2.2805445      3.4766405      1.2977128      148.92382    
     66160   160.82919      158.5          158.5          158.5         -1.0287471      0.067930082   -4.1589429      1.0047717      160.82919    
     66180   150.03012      158.5          158.5          158.5         -0.8473095      3.3699772     -2.3231927     -3.588713       150.03012    
     66200   174.3599       158.5          158.5          158.5         -0.33332222     1.7410133      1.3711217     -4.1121016      174.3599     
     66220   157.06491      158.5          158.5          158.5         -2.5517366     -1.2087333     -2.6859467     -3.7605298      157.06491    
     66240   160.79205      158.5          158.5          158.5         -3.0721162     -4.7209691     -7.0067152      2.5113359      160.79205    
     66260   145.30476      158.5          158.5          158.5          1.2590652     -0.063456856    0.80732595     3.0333264      145.30476    
     66280   148.3406       158.5          158.5          158.5         -0.59199467     2.0132709      0.44352399    -4.2327789      148.3406     
     66300   147.87431      158.5          158.5          158.5         -1.1905256     -2.1750295     -3.0785995      1.6820523      147.87431    
     66320   159.89946      158.5          158.5          158.5          1.1752179     -1.8486632     -1.1757513      6.5500683      159.89946    
     66340   157.68221      158.5          158.5          158.5         -1.1105875     -2.7764301      1.4784668     -2.0337991      157.68221    
     66360   141.60031      158.5          158.5          158.5          1.8118702      4.2385005      3.1513764     -1.9542662      141.60031    
     66380   134.08044      158.5          158.5          158.5          1.3172831      1.1521409      2.728811       0.070897333    134.08044    
     66400   155.97614      158.5          158.5          158.5          0.78597497    -0.19871536     0.1809509      2.3756894      155.97614    
     66420   133.48502      158.5          158.5          158.5          3.8074288      3.7587654      0.34972407     7.3137968      133.48502    
     66440   133.29704      158.5          158.5          158.5         -0.27581424     1.3545566     -0.90680727    -1.275192       133.29704    
     66460   135.63801      158.5          158.5          158.5         -0.60442751     2.1687827      2.3924165     -6.3744817      135.63801    
     66480   149.08567      158.5          158.5          158.5         -0.75661519    -1.2635514     -2.4421467      1.4358525      149.08567    
     66500   142.3685       158.5          158.5          158.5         -5.3109668     -9.3691119     -6.9084926      0.34470405     142.3685     
     66520   142.41029      158.5          158.5          158.5          0.35159673     1.0416337     -0.50459971     0.51775614     142.41029    
     66540   107.39652      158.5          158.5          158.5          0.37620523     1.5223844      0.60855534    -1.0023241      107.39652    
     66560   137.84575      158.5          158.5          158.5         -0.70165627    -0.92008921     0.45170057    -1.6365801      137.84575    
     66580   137.69407      158.5          158.5          158.5          4.005712       9.9009208     -1.725554       3.8417691      137.69407    
     66600   146.04175      158.5          158.5          158.5         -0.9106708      4.4411349     -4.6265315     -2.5466158      146.04175    
     66620   124.19319      158.5          158.5          158.5          1.9317081      2.7077929      5.3280528     -2.2407215      124.19319    
     66640   130.52294      158.5          158.5          158.5          0.85009612     0.51571253     0.56511027     1.4694656      130.52294    
     66660   126.86742      158.5          158.5          158.5         -2.9529636     -4.7814595     -7.2300601      3.1526289      126.86742    
     66680   129.72751      158.5          158.5          158.5          1.8344048      1.5203102      2.832778       1.1501262      129.72751    
     66700   141.14315      158.5          158.5          158.5         -4.0069867     -4.4301409     -0.54387764    -7.0469416      141.14315    
     66720   142.21521      158.5          158.5          158.5          0.27639297    -0.32057717    -2.1652822      3.3150383      142.21521    
     66740   140.13254      158.5          158.5          158.5          0.65747273     3.0654182     -0.78787996    -0.30512011     140.13254    
     66760   144.68016      158.5          158.5          158.5         -0.29848238     2.1555802      1.07419       -4.1252173      144.68016    
     66780   146.67588      158.5          158.5          158.5          3.6940402      2.2248986      3.428059       5.429163       146.67588    
     66800   146.2311       158.5          158.5          158.5         -2.468023      -5.8782068     -0.17867402    -1.3471881      146.2311     
     66820   137.69075      158.5          158.5          158.5          1.2725688      2.7448439     -0.95090348     2.0237661      137.69075    
     66840   163.51932      158.5          158.5          158.5         -0.24374632    -0.48939654     0.27786956    -0.51971199     163.51932    
     66860   142.67102      158.5          158.5          158.5         -0.24868107    -4.3891078      2.9065968      0.73646785     142.67102    
     66880   134.81103      158.5          158.5          158.5          3.0838442      4.303764      -1.6527149      6.6004834      134.81103    
     66900   138.34389      158.5          158.5          158.5         -2.9744459     -1.6399006     -3.6881413     -3.5952957      138.34389    
     66920   144.6627       158.5          158.5          158.5          0.61456107    -5.2288999      7.5974743     -0.52489122     144.6627     
     66940   127.17627      158.5          158.5          158.5         -2.4547107     -8.6724892      0.97775209     0.33060513     127.17627    
     66960   132.5321       158.5          158.5          158.5         -2.2929742     -3.6155255     -3.4105712      0.14717409     132.5321     
     66980   147.64732      158.5          158.5          158.5          1.9142806     -2.015859       4.633507       3.1251938      147.64732    
     67000   141.58048      158.5          158.5          158.5         -2.3567403     -4.9448861      1.8148179     -3.9401526      141.58048    
     67020   152.92724      158.5          158.5          158.5          3.6870814      6.7734009      3.0673664      1.2204771      152.92724    
     67040   134.7471       158.5          158.5          158.5          0.21815723     1.9237987     -1.8433004      0.57397338     134.7471     
     67060   138.82133      158.5          158.5          158.5         -1.2490094     -5.0455031      2.1490617     -0.85058688     138.82133    
     67080   147.93523      158.5          158.5          158.5          0.5166635     -0.61293513     2.0795583      0.083367278    147.93523    
     67100   133.54161      158.5          158.5          158.5         -2.0398855      1.225045      -3.9213158     -3.4233856      133.54161    
     67120   154.18643      158.5          158.5          158.5          1.6378981      1.3792695     -0.12071389     3.6551386      154.18643    
     67140   146.07557      158.5          158.5          158.5         -1.9530635     -4.6069145     -2.7404225      1.4881464      146.07557    
     67160   138.87356      158.5          158.5          158.5          3.089714       5.0587647      5.0217072     -0.81132978     138.87356    
     67180   140.75132      158.5          158.5          158.5          3.5118083      5.2243923      2.4678655      2.8431671      140.75132    
     67200   149.26667      158.5          158.5          158.5         -1.1438241     -2.9939545     -4.8761467      4.4386289      149.26667    
     67220   140.77704      158.5          158.5          158.5          3.906373       3.2324482      5.6889485      2.7977224      140.77704    
     67240   144.83336      158.5          158.5          158.5         -4.0157897     -1.1109483     -1.7430144     -9.1934064      144.83336    
     67260   144.90419      158.5          158.5          158.5          3.0886367      4.9764507      1.4988302      2.7906292      144.90419    
     67280   140.81058      158.5          158.5          158.5          0.81572734    -0.16617943    -0.63172624     3.2450877      140.81058    
     67300   135.95762      158.5          158.5          158.5         -1.515022      -1.9919731     -1.9372466     -0.61584641     135.95762    
     67320   153.09503      158.5          158.5          158.5          3.4799512      0.66616094     7.2374183      2.5362743      153.09503    
     67340   167.13603      158.5          158.5          158.5         -5.3345446     -9.4869396     -3.1480775     -3.3686169      167.13603    
     67360   141.27193      158.5          158.5          158.5          2.5374489      3.9189313     -3.6401736      7.3335889      141.27193    
     67380   155.23041      158.5          158.5          158.5          0.066408174    1.7591242     -1.4346004     -0.12529928     155.23041    
     67400   149.04073      158.5          158.5          158.5         -3.0829828     -5.5302122     -0.41416554    -3.3045706      149.04073    
     67420   156.01584      158.5          158.5          158.5          0.70931987    -1.3271233      1.6760856      1.7789973      156.01584    
     67440   152.50001      158.5          158.5          158.5         -1.8331703     -0.57980478    -2.8579822     -2.061724       152.50001    
     67460   142.44002      158.5          158.5          158.5          0.51414405    -0.55740854     2.8605382     -0.76069752     142.44002    
     67480   144.57712      158.5          158.5          158.5         -1.9594807     -3.526385       0.35694996    -2.7090069      144.57712    
     67500   133.88385      158.5          158.5          158.5          0.50470092     0.060103952    0.29551313     1.1584857      133.88385    
     67520   159.90035      158.5          158.5          158.5          0.51297355    -0.74876127    -1.7916091      4.079291       159.90035    
     67540   126.09974      158.5          158.5          158.5         -0.71767328     0.0091005784   0.52770702    -2.6898274      126.09974    
     67560   140.43712      158.5          158.5          158.5          0.68554592     3.5664728      1.9476131     -3.4574481      140.43712    
     67580   137.65388      158.5          158.5          158.5         -2.1519105     -2.3548555      0.077449051   -4.1783251      137.65388    
     67600   143.86111      158.5          158.5          158.5         -0.55977113    -1.8196491      0.64101086    -0.50067511     143.86111    
     67620   144.45303      158.5          158.5          158.5         -0.10125979     2.5082564     -1.3925633     -1.4194724      144.45303    
     67640   129.91403      158.5          158.5          158.5         -2.2133543     -0.97256257    -2.7107239     -2.9567765      129.91403    
     67660   126.98768      158.5          158.5          158.5          1.80226        2.030011       2.6104003      0.76636868     126.98768    
     67680   122.49662      158.5          158.5          158.5          0.35604933     3.975789       1.5591021     -4.4667431      122.49662    
     67700   131.21443      158.5          158.5          158.5          1.7027574      3.1798882     -0.84153611     2.76992        131.21443    
     67720   141.46441      158.5          158.5          158.5          4.1127587      4.8595935      2.378861       5.0998216      141.46441    
     67740   147.95862      158.5          158.5          158.5         -1.6055134     -0.694203      -1.49604       -2.6262971      147.95862    
     67760   128.8795       158.5          158.5          158.5          0.99687897    -1.4093525      1.2364304      3.1635591      128.8795     
     67780   147.55368      158.5          158.5          158.5         -0.3884411     -1.5433221     -0.4652953      0.84329413     147.55368    
     67800   132.16369      158.5          158.5          158.5         -1.6911205     -0.71575719    -3.1678502     -1.1897542      132.16369    
     67820   158.50509      158.5          158.5          158.5          3.8110076      4.4089509      5.2927822      1.7312897      158.50509    
     67840   160.02488      158.5          158.5          158.5         -0.71459763     1.3148794     -5.0754737      1.6168014      160.02488    
     67860   159.36834      158.5          158.5          158.5         -0.54423006     2.2721981     -2.8111309     -1.0937574      159.36834    
     67880   159.11887      158.5          158.5          158.5          2.4641679      3.4511117      5.3791079     -1.437716       159.11887    
     67900   161.26365      158.5          158.5          158.5          0.72335502    -3.3183478      3.7426775      1.7457354      161.26365    
     67920   149.97603      158.5          158.5          158.5          0.13763194    -0.8373477     -0.44742116     1.6976647      149.97603    
     67940   156.03322      158.5          158.5          158.5          1.2002494      2.7814991     -1.281171       2.10042        156.03322    
     67960   157.1002       158.5          158.5          158.5          2.124769      -0.68121038     3.3293279      3.7261894      157.1002     
     67980   167.13642      158.5          158.5          158.5         -3.7245494     -8.1159658      0.68570229    -3.7433846      167.13642    
     68000   156.46244      158.5          158.5          158.5         -1.1937833      1.1300251     -2.9651252     -1.7462497      156.46244    
     68020   156.22925      158.5          158.5          158.5         -0.89648013     1.3030576     -1.5511513     -2.4413466      156.22925    
     68040   151.73471      158.5          158.5          158.5         -5.986745      -11.596397     -3.6088332     -2.7550054      151.73471    
     68060   148.32879      158.5          158.5          158.5          2.4341619     -4.1877977      6.1386931      5.3515903      148.32879    
     68080   149.39843      158.5          158.5          158.5         -2.2697101      1.8534409     -2.7667396     -5.8958315      149.39843    
     68100   144.66812      158.5          158.5          158.5         -3.867959      -0.25234909    -5.8827491     -5.4687789      144.66812    
     68120   157.95015      158.5          158.5          158.5          3.5929721     -0.17902586     2.4750074      8.4829349      157.95015    
     68140   131.60622      158.5          158.5          158.5         -4.1319127     -4.0957025     -3.8790818     -4.4209537      131.60622    
     68160   137.59459      158.5          158.5          158.5          3.9350628      5.9728686      4.0764632      1.7558565      137.59459    
     68180   147.17599      158.5          158.5          158.5          5.6865221      5.2617018      5.0287463      6.7691183      147.17599    
     68200   137.50223      158.5          158.5          158.5         -2.7738676     -5.2952905     -2.0609809     -0.96533153     137.50223    
     68220   139.2282       158.5          158.5          158.5          1.7240144      1.4896676      0.90730852     2.7750672      139.2282     
     68240   151.4828       158.5          158.5          158.5         -2.5052087      0.86076978    -4.5468535     -3.8295424      151.4828     
     68260   165.25863      158.5          158.5          158.5         -3.5210917     -2.1708487     -2.5763197     -5.8161065      165.25863    
     68280   142.93127      158.5          158.5          158.5          2.6905576      1.7942502      2.7623175      3.5151052      142.93127    
     68300   151.19746      158.5          158.5          158.5         -0.047753171   -3.326544       0.29560886     2.8876756      151.19746    
     68320   140.05518      158.5          158.5          158.5          2.701747       0.82695974     5.5248459      1.7534354      140.05518    
     68340   152.56         158.5          158.5          158.5          2.2820747      6.0841708     -0.30409458     1.0661481      152.56       
     68360   149.60667      158.5          158.5          158.5         -0.75382075    -1.2584338     -3.2385057      2.2354773      149.60667    
     68380   152.81708      158.5          158.5          158.5         -0.75140517    -4.2464459      1.765119       0.22711137     152.81708    
     68400   149.60525      158.5          158.5          158.5         -2.287424       0.070647047    0.55146154    -7.4843805      149.60525    
     68420   148.66583      158.5          158.5          158.5          1.1944459      5.0836157     -0.21689556    -1.2833825      148.66583    
     68440   154.77539      158.5          158.5          158.5         -2.0841274     -5.5751158     -3.4488866      2.7716201      154.77539    
     68460   151.83103      158.5          158.5          158.5         -0.66676546    -5.1784055      4.5337876     -1.3556784      151.83103    
     68480   152.8393       158.5          158.5          158.5          1.4899386      3.5119684      5.189726      -4.2318787      152.8393     
     68500   158.34376      158.5          158.5          158.5         -0.41473665     0.10239099    -2.6258347      1.2792337      158.34376    
     68520   147.33185      158.5          158.5          158.5          2.0470661      1.5856014     -0.95220428     5.5078011      147.33185    
     68540   143.69975      158.5          158.5          158.5          2.8063587      0.72252184     5.9315474      1.7650068      143.69975    
     68560   148.39173      158.5          158.5          158.5          0.87624495     1.2234039      2.3935097     -0.98817877     148.39173    
     68580   141.62496      158.5          158.5          158.5         -1.2380063      0.50427939    -2.3801657     -1.8381327      141.62496    
     68600   145.10457      158.5          158.5          158.5         -5.0101137     -3.0098981     -6.5178597     -5.5025833      145.10457    
     68620   128.56649      158.5          158.5          158.5         -2.5583854     -3.5871428     -0.095844113   -3.9921692      128.56649    
     68640   145.01291      158.5          158.5          158.5          0.44040414    -2.8526271      3.9509565      0.22288303     145.01291    
     68660   118.34265      158.5          158.5          158.5          3.166759       0.93804942     2.6780493      5.8841783      118.34265    
     68680   113.39688      158.5          158.5          158.5          0.6722053      4.0056702     -5.1875803      3.198526       113.39688    
     68700   119.649        158.5          158.5          158.5          0.25550777     0.062187643   -0.5863375      1.2906732      119.649      
     68720   130.58342      158.5          158.5          158.5         -2.6690581     -8.4569215      3.0304718     -2.5807245      130.58342    
     68740   118.6076       158.5          158.5          158.5         -6.0727921     -4.579309      -5.4320216     -8.2070457      118.6076     
     68760   131.00495      158.5          158.5          158.5          1.0007285      4.6016596     -3.2435824      1.6441082      131.00495    
     68780   116.98567      158.5          158.5          158.5          0.090194796   -3.7805249      0.75274012     3.2983692      116.98567    
     68800   129.84315      158.5          158.5          158.5          2.4656526     -0.57620387     5.4545047      2.5186571      129.84315    
     68820   127.57008      158.5          158.5          158.5          4.8251036      8.9831741      5.0314905      0.46064634     127.57008    
     68840   136.88845      158.5          158.5          158.5          0.9029063      6.5753981     -1.7330412     -2.133638       136.88845    
     68860   121.74548      158.5          158.5          158.5         -0.65865269    -2.2011359     -1.3298468      1.5550246      121.74548    
     68880   127.86144      158.5          158.5          158.5          1.057443      -4.5287192      8.0970821     -0.39603395     127.86144    
     68900   139.64225      158.5          158.5          158.5         -1.9850566     -0.36246923    -0.25304843    -5.3396521      139.64225    
     68920   131.11445      158.5          158.5          158.5         -0.74458525     1.8527427     -5.2427615      1.1562631      131.11445    
     68940   132.33493      158.5          158.5          158.5          0.34082359     0.85873124     0.96060147    -0.79686193     132.33493    
     68960   137.04604      158.5          158.5          158.5         -0.32413753     0.32789194     1.0865661     -2.3868707      137.04604    
     68980   149.27921      158.5          158.5          158.5          1.7899002      0.31298894     4.1289884      0.92772336     149.27921    
     69000   139.7084       158.5          158.5          158.5          0.23716422     1.8949603      1.5277827     -2.7112504      139.7084     
     69020   139.40675      158.5          158.5          158.5         -0.1376014     -1.0568671     -0.40999821     1.0540611      139.40675    
     69040   155.04985      158.5          158.5          158.5         -5.1576905     -9.819569      -1.2419231     -4.4115793      155.04985    
     69060   150.59782      158.5          158.5          158.5         -1.8460849     -2.7653953      0.90725551    -3.6801149      150.59782    
     69080   137.01644      158.5          158.5          158.5          0.99458549     2.4984814     -4.8758409      5.361116       137.01644    
     69100   151.65303      158.5          158.5          158.5         -1.4600302     -0.13393543    -3.3639187     -0.88223662     151.65303    
     69120   157.48389      158.5          158.5          158.5          3.4115883      3.5559874      9.0768582     -2.3980807      157.48389    
     69140   140.05241      158.5          158.5          158.5         -1.2365463     -1.1762511      0.020698374   -2.5540861      140.05241    
     69160   139.5223       158.5          158.5          158.5         -0.37643087    -0.27311314    -4.6692877      3.8131082      139.5223     
     69180   157.84965      158.5          158.5          158.5          2.8400977      2.6129         2.5618095      3.3455837      157.84965    
     69200   149.77694      158.5          158.5          158.5         -3.8570042     -6.0592803     -0.50184896    -5.0098833      149.77694    
     69220   135.07776      158.5          158.5          158.5         -0.38123269     2.1498105     -1.9590276     -1.3344811      135.07776    
     69240   155.06426      158.5          158.5          158.5          3.43417        8.6663064     -2.2044296      3.840633       155.06426    
     69260   144.45842      158.5          158.5          158.5         -1.9203089     -1.9160693     -5.82839        1.9835327      144.45842    
     69280   150.27444      158.5          158.5          158.5          5.3835471      2.7781636      7.5237851      5.8486926      150.27444    
     69300   147.00697      158.5          158.5          158.5          1.8241465      2.6455879      3.0956498     -0.26879812     147.00697    
     69320   140.98104      158.5          158.5          158.5          0.069001939    1.1016871     -2.2543269      1.3596455      140.98104    
     69340   150.67024      158.5          158.5          158.5          4.3338368      2.9241902      3.4374856      6.6398345      150.67024    
     69360   155.7438       158.5          158.5          158.5         -5.1276266     -7.7867704      0.34032137    -7.9364307      155.7438     
     69380   144.68844      158.5          158.5          158.5         -0.87239568     1.031019      -0.54564978    -3.1025562      144.68844    
     69400   138.829        158.5          158.5          158.5          0.81276682     2.7907717     -0.13423897    -0.2182323      138.829      
     69420   156.51802      158.5          158.5          158.5         -2.7560504     -4.159611       0.061327583   -4.1698677      156.51802    
     69440   128.23329      158.5          158.5          158.5          0.13439268    -2.4537079      3.7660932     -0.90920729     128.23329    
     69460   147.66247      158.5          158.5          158.5         -0.3324266     -0.55215225     1.0591623     -1.5042899      147.66247    
     69480   155.75517      158.5          158.5          158.5         -0.87752279     0.63430659    -4.1968977      0.93002269     155.75517    
     69500   130.45099      158.5          158.5          158.5         -0.35777046    -5.0281593      2.5965963      1.3582516      130.45099    
     69520   150.83617      158.5          158.5          158.5         -0.1100536     -3.4139003      5.3494513     -2.2657118      150.83617    
     69540   148.51134      158.5          158.5          158.5         -1.2566142      1.7788682     -0.98144035    -4.5672704      148.51134    
     69560   135.3624       158.5          158.5          158.5          0.69427804     2.1784556     -2.6858875      2.590266       135.3624     
     69580   139.06428      158.5          158.5          158.5          1.2057813     -1.6116702      1.4718892      3.757125       139.06428    
     69600   159.94245      158.5          158.5          158.5         -2.193017      -5.1303316     -0.44078224    -1.0079372      159.94245    
     69620   142.92329      158.5          158.5          158.5          1.519435       3.9928821      1.0110037     -0.44558068     142.92329    
     69640   138.4147       158.5          158.5          158.5         -0.79896002     2.8920219     -2.7232865     -2.5656154      138.4147     
     69660   159.06148      158.5          158.5          158.5         -2.5602938     -5.2998545     -3.8916428      1.5106159      159.06148    
     69680   144.25196      158.5          158.5          158.5          1.3980851     -3.089645       1.7929384      5.4909619      144.25196    
     69700   129.18944      158.5          158.5          158.5          1.4737625      2.5479716      3.4804985     -1.6071825      129.18944    
     69720   173.47784      158.5          158.5          158.5         -0.45941286     3.4869145     -0.073455505   -4.7916975      173.47784    
     69740   156.45182      158.5          158.5          158.5          2.311484       6.7974133     -1.2758892      1.412928       156.45182    
     69760   149.29541      158.5          158.5          158.5         -1.7568304     -4.3270222      2.7091575     -3.6526265      149.29541    
     69780   140.4868       158.5          158.5          158.5         -1.126177      -2.8929634      2.2142702     -2.6998378      140.4868     
     69800   149.05064      158.5          158.5          158.5          5.4473519      7.230626       2.0126033      7.0988263      149.05064    
     69820   151.68773      158.5          158.5          158.5         -1.4739907     -2.2644077     -3.5908536      1.4332892      151.68773    
     69840   149.0431       158.5          158.5          158.5          1.775564       0.32114684     3.624355       1.3811903      149.0431     
     69860   149.34782      158.5          158.5          158.5          2.3438741      2.2969352      6.4410184     -1.7063312      149.34782    
     69880   154.51502      158.5          158.5          158.5         -8.7304558     -6.4242337     -8.5259538     -11.24118       154.51502    
     69900   128.37931      158.5          158.5          158.5          1.2351396      1.814158       0.2171851      1.6740758      128.37931    
     69920   150.57994      158.5          158.5          158.5          0.6573076      0.27480431     0.04850764     1.6486108      150.57994    
     69940   148.44875      158.5          158.5          158.5         -5.4047258     -4.441355      -6.7303884     -5.042434       148.44875    
     69960   151.25623      158.5          158.5          158.5          4.0446337      4.7657544      3.7697692      3.5983777      151.25623    
     69980   159.15542      158.5          158.5          158.5         -3.5898395     -6.4451404     -3.6702449     -0.65413311     159.15542    
     70000   148.29718      158.5          158.5          158.5         -2.1708032     -8.0165448     -1.6193198      3.1234552      148.29718    
     70020   168.05151      158.5          158.5          158.5          7.027047       7.2884153      8.803885       4.9888407      168.05151    
     70040   156.14486      158.5          158.5          158.5          0.40335545     7.5482185     -1.9911937     -4.3469585      156.14486    
     70060   157.56903      158.5          158.5          158.5         -1.1766571     -0.27513042    -4.8895351      1.6346941      157.56903    
     70080   184.45781      158.5          158.5          158.5          1.6215373     -3.1764369      3.187511       4.8535377      184.45781    
     70100   142.71849      158.5          158.5          158.5         -0.21427262     0.11483416     1.0917806     -1.8494326      142.71849    
     70120   159.04248      158.5          158.5          158.5         -2.1473234     -0.49708661    -5.1555449     -0.78933872     159.04248    
     70140   135.54352      158.5          158.5          158.5          1.1992184     -0.77902249     1.0476078      3.32907        135.54352    
     70160   145.25724      158.5          158.5          158.5         -3.1242597     -4.7189695     -2.7651087     -1.888701       145.25724    
     70180   132.41263      158.5          158.5          158.5         -2.9467989     -4.0875231     -3.3366196     -1.416254       132.41263    
     70200   141.65142      158.5          158.5          158.5          3.0590727      8.2666184      1.0905592     -0.1799596      141.65142    
     70220   117.09378      158.5          158.5          158.5         -1.5598913      0.47610669    -2.5350546     -2.6207261      117.09378    
     70240   152.11729      158.5          158.5          158.5         -0.80016056    -5.4494914      1.0411619      2.0078478      152.11729    
     70260   130.44273      158.5          158.5          158.5          2.0641343      2.7281239      2.9829112      0.4813678      130.44273    
     70280   155.08344      158.5          158.5          158.5         -2.3021648      3.3819844     -7.2554985     -3.0329803      155.08344    
     70300   149.65638      158.5          158.5          158.5         -2.002653      -0.90353064    -4.2016153     -0.90281316     149.65638    
     70320   125.03575      158.5          158.5          158.5          0.98567551    -2.9850293      3.0756565      2.8663993      125.03575    
     70340   144.60248      158.5          158.5          158.5         -0.7419748     -1.4925508     -0.29091618    -0.44245739     144.60248    
     70360   137.74409      158.5          158.5          158.5         -1.4463923      3.4030848     -4.3232248     -3.4190369      137.74409    
     70380   131.40971      158.5          158.5          158.5          3.2814663      1.9102113      2.4745555      5.4596321      131.40971    
     70400   132.15849      158.5          158.5          158.5         -1.4165974     -6.9482302      0.82875635     1.8696816      132.15849    
     70420   135.9134       158.5          158.5          158.5          0.37149805    -1.4005369      2.6867457     -0.17171467     135.9134     
     70440   148.39172      158.5          158.5          158.5          3.1859402      7.9696756      2.2275137     -0.6393686      148.39172    
     70460   143.27086      158.5          158.5          158.5         -2.527072      -3.2300918     -2.5580387     -1.7930857      143.27086    
     70480   147.54114      158.5          158.5          158.5         -0.7635967     -4.494788       1.6822487      0.52174923     147.54114    
     70500   141.31752      158.5          158.5          158.5         -1.745767      -0.76481669     2.9914896     -7.4639738      141.31752    
     70520   134.84521      158.5          158.5          158.5         -4.0270012     -2.4854545     -3.9390862     -5.6564629      134.84521    
     70540   131.47474      158.5          158.5          158.5          0.66598713     0.91813851    -1.6460852      2.7259081      131.47474    
     70560   120.03437      158.5          158.5          158.5          3.5130224      1.3908336      6.9467254      2.2015083      120.03437    
     70580   137.18762      158.5          158.5          158.5          1.2080715     -1.1371121      6.8165599     -2.0552333      137.18762    
     70600   135.27294      158.5          158.5          158.5          1.6783321      2.056513       1.5686011      1.4098821      135.27294    
     70620   132.51555      158.5          158.5          158.5          0.11485941     2.1026744     -1.4343889     -0.32370723     132.51555    
     70640   134.13478      158.5          158.5          158.5          0.3272138      0.32072501     4.2903294     -3.629413       134.13478    
     70660   126.81799      158.5          158.5          158.5         -0.2579117      0.20675735     0.74794002    -1.7284325      126.81799    
     70680   127.15765      158.5          158.5          158.5         -0.21989468     2.5541976     -5.5375245      2.3236429      127.15765    
     70700   122.13058      158.5          158.5          158.5         -1.0689802     -0.15660337    -1.816365      -1.2339724      122.13058    
     70720   127.14932      158.5          158.5          158.5         -3.0248771     -1.644663      -4.8931985     -2.5367699      127.14932    
     70740   121.75273      158.5          158.5          158.5          0.69322809     0.87005995     0.11833529     1.091289       121.75273    
     70760   121.16923      158.5          158.5          158.5         -1.4542437     -2.2331276      0.4247387     -2.5543421      121.16923    
     70780   108.45605      158.5          158.5          158.5          0.42531011     4.3143672     -2.0657907     -0.97264617     108.45605    
     70800   110.12449      158.5          158.5          158.5          3.275719       5.1954463      0.83597164     3.7957391      110.12449    
     70820   111.78256      158.5          158.5          158.5          0.29729832    -4.023294       3.121443       1.7937459      111.78256    
     70840   124.8784       158.5          158.5          158.5          2.1430757     -0.34240606     2.3993963      4.3722369      124.8784     
     70860   121.89684      158.5          158.5          158.5          0.87507041     0.4312512      1.5188425      0.67511756     121.89684    
     70880   129.87877      158.5          158.5          158.5         -2.2046614     -2.35492       -1.1122987     -3.1467654      129.87877    
     70900   124.48302      158.5          158.5          158.5          1.2744635      1.0078929      2.0268732      0.78862436     124.48302    
     70920   123.89854      158.5          158.5          158.5         -0.60606873    -5.3955579      5.2982992     -1.7209475      123.89854    
     70940   141.90034      158.5          158.5          158.5         -2.9591901     -3.8961632     -0.4561536     -4.5252536      141.90034    
     70960   134.34276      158.5          158.5          158.5          1.7012616      0.82619398    -1.0644927      5.3420834      134.34276    
     70980   126.1216       158.5          158.5          158.5          0.49273733    -5.1716752      1.9843886      4.6654986      126.1216     
     71000   146.16978      158.5          158.5          158.5         -0.33230251    -1.7099164      1.0104633     -0.29745445     146.16978    
     71020   142.656        158.5          158.5          158.5          0.43865028     0.85232357     1.3758504     -0.91222317     142.656      
     71040   125.05456      158.5          158.5          158.5         -2.3700124     -4.6895085     -2.0061047     -0.414424       125.05456    
     71060   147.43501      158.5          158.5          158.5         -5.2999402     -5.8471468     -5.6184318     -4.434242       147.43501    
     71080   130.22526      158.5          158.5          158.5         -0.43048197     0.34586599     1.0514255     -2.6887374      130.22526    
     71100   141.72568      158.5          158.5          158.5         -0.21255836     2.1853287      0.80730205    -3.6303058      141.72568    
     71120   132.24046      158.5          158.5          158.5         -2.3333143     -0.7824543     -3.7407252     -2.4767634      132.24046    
     71140   125.64301      158.5          158.5          158.5          4.8472011      1.2677591      5.1684045      8.1054397      125.64301    
     71160   123.18497      158.5          158.5          158.5          2.6095871      2.1618317      2.8248218      2.8421079      123.18497    
     71180   126.65369      158.5          158.5          158.5          0.59682105     4.8659443     -1.2802552     -1.795226       126.65369    
     71200   145.38833      158.5          158.5          158.5          4.8489556      8.5982584      2.5369956      3.4116128      145.38833    
     71220   132.17361      158.5          158.5          158.5         -3.3388893     -2.9893313     -3.53868       -3.4886565      132.17361    
     71240   123.9218       158.5          158.5          158.5          0.43950709    -0.3927743      3.2197196     -1.5084241      123.9218     
     71260   132.8035       158.5          158.5          158.5          2.3403695      3.1892708      3.6403411      0.19149661     132.8035     
     71280   122.45514      158.5          158.5          158.5         -2.3255005     -1.5530857     -5.2992752     -0.12414067     122.45514    
     71300   124.86158      158.5          158.5          158.5          2.2541184      2.8322738     -0.11466216     4.0447435      124.86158    
     71320   127.76035      158.5          158.5          158.5          0.62136647     2.252612      -0.40020011     0.011687517    127.76035    
     71340   135.99411      158.5          158.5          158.5         -4.0801434     -2.158893      -5.9768184     -4.1047188      135.99411    
     71360   125.44951      158.5          158.5          158.5          0.76312242     0.46711522    -0.9972181      2.8194701      125.44951    
     71380   134.14644      158.5          158.5          158.5          1.5059122      2.2348043      0.072436184    2.2104962      134.14644    
     71400   138.59178      158.5          158.5          158.5         -2.5328563     -0.48840762    -2.7388637     -4.3712976      138.59178    
     71420   116.77537      158.5          158.5          158.5          2.4182615      3.7483745      2.9499088      0.55650127     116.77537    
     71440   129.64735      158.5          158.5          158.5         -0.54993422    -2.0587765     -3.6101839      4.0191577      129.64735    
     71460   135.64873      158.5          158.5          158.5         -3.7907843     -2.1651945     -6.9745791     -2.2325793      135.64873    
     71480   140.00408      158.5          158.5          158.5          0.014377296    0.49950304     1.9567635     -2.4131347      140.00408    
     71500   126.47025      158.5          158.5          158.5         -4.4915752     -4.3179813     -2.8212873     -6.335457       126.47025    
     71520   124.74837      158.5          158.5          158.5         -1.4535298      0.92685804    -4.7939405     -0.49350709     124.74837    
     71540   138.84846      158.5          158.5          158.5          1.1565386      2.4141303     -0.87432311     1.9298084      138.84846    
     71560   142.18655      158.5          158.5          158.5         -0.68604629     0.79293899     0.79846459    -3.6495424      142.18655    
     71580   133.22457      158.5          158.5          158.5          2.4919015      3.0001015      5.2458029     -0.77019985     133.22457    
     71600   137.72517      158.5          158.5          158.5          1.2507779     -0.29317667    -1.3833421      5.4288524      137.72517    
     71620   142.67041      158.5          158.5          158.5          1.9640539      2.3058938     -4.4101811      7.9964491      142.67041    
     71640   138.3333       158.5          158.5          158.5          1.801129       2.0353814      2.4564843      0.91152123     138.3333     
     71660   133.36862      158.5          158.5          158.5          1.671957       1.4791567      3.3732225      0.16349175     133.36862    
     71680   138.95242      158.5          158.5          158.5          1.4996449      2.8938385     -3.7232419      5.328338       138.95242    
     71700   129.62226      158.5          158.5          158.5         -1.9792935     -1.7281172     -5.2015976      0.99183445     129.62226    
     71720   123.49393      158.5          158.5          158.5          3.0971666      5.087805       5.4236769     -1.219982       123.49393    
     71740   109.87596      158.5          158.5          158.5          1.1270029      1.8296965      2.5796403     -1.0283282      109.87596    
     71760   127.77738      158.5          158.5          158.5         -0.60458292    -2.7215243     -4.2707205      5.178496       127.77738    
     71780   116.80836      158.5          158.5          158.5          2.9248233      5.4311138     -1.1148539      4.4582099      116.80836    
     71800   118.83633      158.5          158.5          158.5         -2.9592405     -2.6929941     -0.090406763   -6.0943207      118.83633    
     71820   111.87144      158.5          158.5          158.5         -0.25535164    -2.5449582      2.7211629     -0.94225971     111.87144    
     71840   112.88818      158.5          158.5          158.5          2.098084       1.7758873      1.0456355      3.4727292      112.88818    
     71860   127.90945      158.5          158.5          158.5         -4.0951913     -5.6698321     -6.7177792      0.10203726     127.90945    
     71880   118.18088      158.5          158.5          158.5          0.1828562      1.4550784      0.69079775    -1.5973076      118.18088    
     71900   109.79486      158.5          158.5          158.5         -0.6460351     -0.14445999    -0.18188129    -1.611764       109.79486    
     71920   127.46708      158.5          158.5          158.5         -2.5310038     -3.3894871     -2.9030473     -1.3004771      127.46708    
     71940   127.73078      158.5          158.5          158.5          1.3585378      2.5521786      3.8860995     -2.3626647      127.73078    
     71960   112.91471      158.5          158.5          158.5         -0.080737436    0.17750988     0.63100493    -1.0507271      112.91471    
     71980   117.73227      158.5          158.5          158.5         -0.11253745    -2.6955222      1.2722995      1.0856103      117.73227    
     72000   104.76117      158.5          158.5          158.5          0.75475293     3.9297062      1.9736146     -3.639062       104.76117    
     72020   121.56222      158.5          158.5          158.5         -1.3374745      1.4374259      0.87978185    -6.3296312      121.56222    
     72040   111.82542      158.5          158.5          158.5         -1.9348303     -1.7801369     -2.9628231     -1.0615308      111.82542    
     72060   122.28134      158.5          158.5          158.5         -0.19716902    -2.4376273      1.6149569      0.23116333     122.28134    
     72080   134.03272      158.5          158.5          158.5         -1.0480562     -1.318959      -0.24815333    -1.5770564      134.03272    
     72100   116.9758       158.5          158.5          158.5          2.0922865      6.4102735     -0.95269389     0.81927984     116.9758     
     72120   123.116        158.5          158.5          158.5          5.6688539      5.8489212      6.3921934      4.765447       123.116      
     72140   143.49749      158.5          158.5          158.5          1.8178646     -0.63323278     6.703683      -0.61685641     143.49749    
     72160   116.88674      158.5          158.5          158.5          1.638576       3.1815932      2.3492141     -0.61507916     116.88674    
     72180   147.49665      158.5          158.5          158.5         -0.70369502     5.0510458     -5.4162484     -1.7458825      147.49665    
     72200   130.56828      158.5          158.5          158.5         -4.477837      -3.8402526     -5.9803732     -3.6128852      130.56828    
     72220   134.46425      158.5          158.5          158.5          1.9078663      0.4770762      3.7324363      1.5140865      134.46425    
     72240   142.19883      158.5          158.5          158.5          0.79409451     0.26287503     2.4878201     -0.3684116      142.19883    
     72260   132.77248      158.5          158.5          158.5          1.1596898     -0.28499347     3.5724382      0.19162456     132.77248    
     72280   139.72326      158.5          158.5          158.5          3.1463019     -0.58752733     7.2408913      2.7855417      139.72326    
     72300   128.50774      158.5          158.5          158.5          0.78478048    -2.5660359      4.674613       0.24576429     128.50774    
     72320   133.27393      158.5          158.5          158.5         -1.6596425     -2.7552767     -3.0798042      0.85615348     133.27393    
     72340   125.03241      158.5          158.5          158.5         -2.8286813     -2.8708594     -6.7591968      1.1440123      125.03241    
     72360   124.11151      158.5          158.5          158.5         -1.633263      -2.7523516     -1.3209602     -0.82647722     124.11151    
     72380   128.3317       158.5          158.5          158.5         -1.1604892     -0.65424635     0.17602148    -3.0032428      128.3317     
     72400   105.2331       158.5          158.5          158.5         -1.8055593     -4.0916289     -1.1157031     -0.20934569     105.2331     
     72420   100.19414      158.5          158.5          158.5          2.5380991     -0.42699892     4.478361       3.5629353      100.19414    
     72440   97.816046      158.5          158.5          158.5          1.229923       4.9906951     -2.2522548      0.95132868     97.816046    
     72460   116.45873      158.5          158.5          158.5         -1.3288915      0.88952843    -4.5739878     -0.30221511     116.45873    
     72480   110.19728      158.5          158.5          158.5          0.44374316    -3.3196183      5.9235822     -1.2727344      110.19728    
     72500   107.32431      158.5          158.5          158.5         -2.5097584     -2.8008534     -1.3111382     -3.4172835      107.32431    
     72520   104.14563      158.5          158.5          158.5         -0.25111106     3.6802167     -4.0560208     -0.37752915     104.14563    
     72540   114.21162      158.5          158.5          158.5         -0.095758915    3.3609767     -4.2152576      0.56700412     114.21162    
     72560   99.961878      158.5          158.5          158.5         -2.0902341     -0.86925262    -4.2187697     -1.1826799      99.961878    
     72580   111.81385      158.5          158.5          158.5          0.7751272      1.8090148     -0.778956       1.2953228      111.81385    
     72600   108.86501      158.5          158.5          158.5          0.18086878     3.6246083     -1.5163238     -1.5656782      108.86501    
     72620   125.50868      158.5          158.5          158.5          0.11332353    -1.2987071      0.92464161     0.71403603     125.50868    
     72640   99.786306      158.5          158.5          158.5          3.7184629     -0.99023544     7.0079564      5.1376678      99.786306    
     72660   124.15983      158.5          158.5          158.5          1.7696319      1.4114052      3.3772376      0.52025303     124.15983    
     72680   126.57359      158.5          158.5          158.5         -0.44722419     2.9138699      1.6332294     -5.8887719      126.57359    
     72700   116.82383      158.5          158.5          158.5          0.83657838     3.7095378     -0.44414385    -0.75565887     116.82383    
     72720   128.30535      158.5          158.5          158.5         -0.23468727    -0.298196      -0.73214114     0.32627533     128.30535    
     72740   120.50952      158.5          158.5          158.5         -2.3784172     -2.3659383     -1.1339635     -3.6353497      120.50952    
     72760   132.52068      158.5          158.5          158.5         -1.4082465     -2.0494832     -1.1814437     -0.99381281     132.52068    
     72780   132.56634      158.5          158.5          158.5         -0.30777779    -3.0035843      1.23347        0.84678098     132.56634    
     72800   131.97941      158.5          158.5          158.5         -0.7356112     -5.4515005      0.73391789     2.510749       131.97941    
     72820   139.44222      158.5          158.5          158.5          2.5944911      3.5058945      1.042511       3.235068       139.44222    
     72840   130.78096      158.5          158.5          158.5          3.4416414      8.6198309     -0.45956378     2.1646572      130.78096    
     72860   128.84132      158.5          158.5          158.5         -0.45288137    -1.844084      -0.83937823     1.3248181      128.84132    
     72880   140.15173      158.5          158.5          158.5          1.495624      -3.5472059      5.2575825      2.7764953      140.15173    
     72900   118.082        158.5          158.5          158.5         -3.0082498     -1.0884138     -1.4660573     -6.4702783      118.082      
     72920   145.50167      158.5          158.5          158.5         -5.3386547     -5.5576886     -6.184823      -4.2734525      145.50167    
     72940   118.88278      158.5          158.5          158.5          1.8476666     -1.5081522      3.2293693      3.8217827      118.88278    
     72960   134.97309      158.5          158.5          158.5         -1.1365294     -1.88591       -0.49953558    -1.0241426      134.97309    
     72980   117.77576      158.5          158.5          158.5          1.824019       6.2168529     -1.8777097      1.1329137      117.77576    
     73000   129.54431      158.5          158.5          158.5          4.0673154      7.6753859      3.3876802      1.1388802      129.54431    
     73020   121.88654      158.5          158.5          158.5         -2.1729198      1.2391822     -3.8595073     -3.8984343      121.88654    
     73040   111.06623      158.5          158.5          158.5          1.8188934      3.702905      -0.065385591    1.8191609      111.06623    
     73060   114.36768      158.5          158.5          158.5          0.98739915     0.68414874    -0.35349327     2.631542       114.36768    
     73080   118.55674      158.5          158.5          158.5         -3.7089518     -3.9913309     -2.5068781     -4.6286464      118.55674    
     73100   115.01276      158.5          158.5          158.5          1.4632828      0.69031048     0.0028519273   3.6966859      115.01276    
     73120   123.47813      158.5          158.5          158.5         -1.3627885     -0.55469723    -2.8810173     -0.65265084     123.47813    
     73140   111.7994       158.5          158.5          158.5          0.26120898    -0.23781073    -0.44088037     1.462318       111.7994     
     73160   127.91673      158.5          158.5          158.5          2.0425867      0.58652384     2.6054699      2.9357664      127.91673    
     73180   117.36203      158.5          158.5          158.5         -2.7003667     -1.4831202     -1.9314228     -4.686557       117.36203    
     73200   130.38761      158.5          158.5          158.5          0.066746874   -0.46436124    -0.23115407     0.89575594     130.38761    
     73220   121.54204      158.5          158.5          158.5         -0.28371033    -1.7671592     -0.71395134     1.6299796      121.54204    
     73240   126.40632      158.5          158.5          158.5         -2.5135664     -3.4661535     -1.6008        -2.4737457      126.40632    
     73260   121.6546       158.5          158.5          158.5          0.47389086    -1.4720983      1.7834258      1.1103451      121.6546     
     73280   131.26146      158.5          158.5          158.5          1.3103877      2.1284266      1.5993988      0.20333771     131.26146    
     73300   128.06288      158.5          158.5          158.5          0.51599187     2.7464496     -1.7917927      0.59331879     128.06288    
     73320   120.02027      158.5          158.5          158.5          4.0748345      4.2294868      2.2200209      5.7749959      120.02027    
     73340   122.80693      158.5          158.5          158.5          0.49716635     0.081929683   -0.52471523     1.9342846      122.80693    
     73360   144.94024      158.5          158.5          158.5         -1.3525795     -1.3883104     -0.97280826    -1.6966198      144.94024    
     73380   121.70916      158.5          158.5          158.5         -0.60389438     1.4320186      0.23574557    -3.4794473      121.70916    
     73400   126.00348      158.5          158.5          158.5         -3.7408241     -1.2938666     -5.4879443     -4.4406614      126.00348    
     73420   121.52957      158.5          158.5          158.5          0.59963933     0.27287664     1.4427856      0.083255738    121.52957    
     73440   127.53491      158.5          158.5          158.5         -0.398083      -4.9834585      4.9834713     -1.1942618      127.53491    
     73460   120.27753      158.5          158.5          158.5         -0.893979      -1.0033982     -3.0825909      1.4040521      120.27753    
     73480   121.47726      158.5          158.5          158.5          1.5943932      4.4852634     -5.6226691      5.9205852      121.47726    
     73500   128.97742      158.5          158.5          158.5         -2.9016062     -1.2033291     -3.3736014     -4.127888       128.97742    
     73520   132.53881      158.5          158.5          158.5          1.6732306      1.2504236      5.8954295     -2.1261614      132.53881    
     73540   110.83621      158.5          158.5          158.5          1.1521668      0.94427255    -0.29606573     2.8082935      110.83621    
     73560   118.81927      158.5          158.5          158.5          0.3278098      0.63901267    -1.8364232      2.18084        118.81927    
     73580   109.23805      158.5          158.5          158.5          3.9145399      4.8316335      6.0547666      0.85721959     109.23805    
     73600   117.64905      158.5          158.5          158.5         -2.1322439     -1.9702518     -0.39685773    -4.0296221      117.64905    
     73620   113.10378      158.5          158.5          158.5          1.3228188     -1.2961097     -0.87680635     6.1413724      113.10378    
     73640   124.11794      158.5          158.5          158.5          0.49390133     1.8484031     -0.61050538     0.24380629     124.11794    
     73660   111.45664      158.5          158.5          158.5         -1.3550439     -0.85730736     0.79371884    -4.0015432      111.45664    
     73680   113.82365      158.5          158.5          158.5          0.37487973    -3.171128       3.7406165      0.5551507      113.82365    
     73700   112.37761      158.5          158.5          158.5         -1.9468515     -1.6726054     -4.3394556      0.17150638     112.37761    
     73720   111.66894      158.5          158.5          158.5         -0.95312673     0.58098029    -3.7755145      0.33515404     111.66894    
     73740   127.08519      158.5          158.5          158.5         -0.79776649    -0.56549911     1.2857856     -3.113586       127.08519    
     73760   113.50688      158.5          158.5          158.5         -1.2082038     -0.93857508     1.0117012     -3.6977375      113.50688    
     73780   147.75482      158.5          158.5          158.5         -1.100311      -1.630855      -3.1716375      1.5015593      147.75482    
     73800   138.53194      158.5          158.5          158.5          1.333171       3.305131      -1.7572427      2.4516246      138.53194    
     73820   151.35053      158.5          158.5          158.5         -1.3168992      4.4428709     -2.5045828     -5.8889857      151.35053    
     73840   141.08211      158.5          158.5          158.5         -0.20385387     3.1806991     -1.8528871     -1.9393736      141.08211    
     73860   146.56229      158.5          158.5          158.5          0.47666859    -0.28791621    -1.0902534      2.8081754      146.56229    
     73880   132.12808      158.5          158.5          158.5         -1.8740219      0.43753761    -2.8597643     -3.1998391      132.12808    
     73900   129.61185      158.5          158.5          158.5          1.4421073      3.7438947      3.7898262     -3.2073989      129.61185    
     73920   148.62424      158.5          158.5          158.5          1.3609364      1.5166746      3.1204204     -0.5542858      148.62424    
     73940   141.50832      158.5          158.5          158.5          1.2134452      2.052121      -4.8074833      6.3956979      141.50832    
     73960   152.9207       158.5          158.5          158.5          4.3472027      4.9589565      2.0551147      6.0275368      152.9207     
     73980   123.38723      158.5          158.5          158.5         -1.2644743     -0.99980211     0.9268509     -3.7204718      123.38723    
     74000   145.1799       158.5          158.5          158.5          2.2788449      3.0393256      0.95387455     2.8433344      145.1799     
     74020   131.46498      158.5          158.5          158.5         -1.8858202     -2.3370818     -2.9043197     -0.41605913     131.46498    
     74040   131.19206      158.5          158.5          158.5         -4.1051575     -5.8676242     -3.3760362     -3.071812       131.19206    
     74060   105.26204      158.5          158.5          158.5          2.2983626     -2.2989641      2.549268       6.6447841      105.26204    
     74080   120.57011      158.5          158.5          158.5         -0.68703327    -0.6706171     -0.60573951    -0.7847432      120.57011    
     74100   115.29868      158.5          158.5          158.5         -0.42449387    -0.2004381      0.26219383    -1.3352373      115.29868    
     74120   117.11738      158.5          158.5          158.5          0.71828259    -2.6498126      1.0573409      3.7473195      117.11738    
     74140   98.140784      158.5          158.5          158.5         -4.2736274     -3.4816232     -3.7481222     -5.5911367      98.140784    
     74160   103.50207      158.5          158.5          158.5          0.33794649     3.2439257      0.063885235   -2.2939715      103.50207    
     74180   93.535483      158.5          158.5          158.5         -1.4112081     -2.071924      -3.430065       1.2683647      93.535483    
     74200   111.51842      158.5          158.5          158.5         -2.2061114     -3.9658314     -3.8631365      1.2106338      111.51842    
     74220   127.19498      158.5          158.5          158.5          1.9310606      0.80485388     5.5969918     -0.6086638      127.19498    
     74240   98.170865      158.5          158.5          158.5          2.2813236      3.3284362      3.3085144      0.20702004     98.170865    
     74260   104.66899      158.5          158.5          158.5          0.89268674     0.113176       0.92710973     1.6377745      104.66899    
     74280   110.06274      158.5          158.5          158.5          1.6564905      0.37878132     3.723564       0.86712607     110.06274    
     74300   109.49694      158.5          158.5          158.5          0.78899911     3.7249919     -0.54096111    -0.81703349     109.49694    
     74320   92.01246       158.5          158.5          158.5         -0.72460184     0.71086884    -0.96818262    -1.9164917      92.01246     
     74340   114.29608      158.5          158.5          158.5         -1.2354751     -3.6321432      0.82728389    -0.90156607     114.29608    
     74360   93.14959       158.5          158.5          158.5         -0.36680017    -3.5532863     -0.79888176     3.2517675      93.14959     
     74380   119.32447      158.5          158.5          158.5         -0.69246941    -2.3480324     -0.80332757     1.0739517      119.32447    
     74400   111.51971      158.5          158.5          158.5         -1.1827284     -1.2424276      0.29190917    -2.5976667      111.51971    
     74420   107.82277      158.5          158.5          158.5          1.4671419      2.2657045      3.1441383     -1.0084173      107.82277    
     74440   108.63666      158.5          158.5          158.5          4.8628101      3.2158932      3.3839375      7.9885996      108.63666    
     74460   114.89891      158.5          158.5          158.5          2.4545463      2.8949618      1.9158622      2.5528149      114.89891    
     74480   112.40707      158.5          158.5          158.5          0.798739       2.6885402      2.5462591     -2.8385823      112.40707    
     74500   118.82182      158.5          158.5          158.5         -0.36354248    -4.0990048      0.4034517      2.6049257      118.82182    
     74520   118.86266      158.5          158.5          158.5         -4.1556906     -10.600449     -3.0689155      1.2022924      118.86266    
     74540   115.2389       158.5          158.5          158.5          0.40258014    -4.9733768      2.570215       3.6109023      115.2389     
     74560   109.65661      158.5          158.5          158.5          1.324618       1.5523298     -0.034601288    2.4561256      109.65661    
     74580   126.62228      158.5          158.5          158.5          1.5232815      1.9307254      0.86573606     1.7733831      126.62228    
     74600   123.41432      158.5          158.5          158.5          6.7021508      8.544994       5.2163079      6.3451506      123.41432    
     74620   137.88395      158.5          158.5          158.5         -0.8145242      1.6630241      0.051747955   -4.1583446      137.88395    
     74640   129.08454      158.5          158.5          158.5          0.58768534     2.5143975      1.5200818     -2.2714233      129.08454    
     74660   136.39063      158.5          158.5          158.5          0.44636279     2.9016992      0.61086994    -2.1734808      136.39063    
     74680   136.60924      158.5          158.5          158.5         -6.8664813     -8.5787091     -5.302276      -6.7184587      136.60924    
     74700   147.30582      158.5          158.5          158.5          0.41404751    -2.4465109      3.6677358      0.020917683    147.30582    
     74720   137.65673      158.5          158.5          158.5         -3.0725964     -3.4168876     -3.7092717     -2.0916299      137.65673    
     74740   130.50085      158.5          158.5          158.5          1.133257       0.045419155   -2.0785856      5.4329373      130.50085    
     74760   140.30701      158.5          158.5          158.5          2.8548139      5.2558038      1.6121724      1.6964656      140.30701    
     74780   149.53635      158.5          158.5          158.5         -2.6935198      1.1427996     -2.2337842     -6.9895749      149.53635    
     74800   129.92712      158.5          158.5          158.5          4.9351768      7.0468907      3.5165457      4.242094       129.92712    
     74820   121.92929      158.5          158.5          158.5         -1.4898107     -2.8735223     -1.6966165      0.10070692     121.92929    
     74840   126.81074      158.5          158.5          158.5         -2.0367803     -4.4029175     -3.9512545      2.2438313      126.81074    
     74860   130.04562      158.5          158.5          158.5          2.7714024     -0.80906776     5.3838984      3.7393766      130.04562    
     74880   150.68731      158.5          158.5          158.5         -5.2235402     -9.3150657     -0.24183519    -6.1137198      150.68731    
     74900   114.50921      158.5          158.5          158.5         -3.605845      -4.9759698     -4.324016      -1.5175494      114.50921    
     74920   130.43647      158.5          158.5          158.5         -3.0587436     -5.1238782     -4.3772736      0.32492094     130.43647    
     74940   120.70171      158.5          158.5          158.5         -3.9302424     -8.7813644     -1.2159889     -1.7933737      120.70171    
     74960   124.34642      158.5          158.5          158.5          2.1889599      0.16922546     4.0131415      2.3845128      124.34642    
     74980   121.78212      158.5          158.5          158.5          0.3029504     -0.76949197     0.39799072     1.2803525      121.78212    
     75000   119.38481      158.5          158.5          158.5          2.215345       2.8188849     -0.14862745     3.9757775      119.38481    
     75020   113.3137       158.5          158.5          158.5          1.0690997      0.50749061     2.928671      -0.22886241     113.3137     
     75040   113.3979       158.5          158.5          158.5         -1.4202062     -2.2032921      2.5506064     -4.607933       113.3979     
     75060   109.9745       158.5          158.5          158.5         -0.6407662     -1.6160442      1.0896279     -1.3958823      109.9745     
     75080   111.88601      158.5          158.5          158.5         -1.1946196     -2.9768771      0.57788057    -1.1848622      111.88601    
     75100   109.73903      158.5          158.5          158.5          0.55673373     3.7760294      0.54111071    -2.6469389      109.73903    
     75120   117.02585      158.5          158.5          158.5          0.94891218     4.8496575      1.005374      -3.008295       117.02585    
     75140   112.74945      158.5          158.5          158.5          2.1238244      4.7189773      0.82044888     0.83204699     112.74945    
     75160   128.29071      158.5          158.5          158.5          1.9236664      7.0875538      0.60033838    -1.916893       128.29071    
     75180   121.67856      158.5          158.5          158.5          2.6177575      3.6680138      1.8506149      2.334644       121.67856    
     75200   120.67755      158.5          158.5          158.5         -0.2925628      0.64980373    -0.98549651    -0.54199562     120.67755    
     75220   105.66556      158.5          158.5          158.5          1.1891657      2.1887717      1.4334554     -0.054729895    105.66556    
     75240   126.36067      158.5          158.5          158.5          0.43069795     1.0840618      0.062535861    0.1454962      126.36067    
     75260   118.41512      158.5          158.5          158.5         -1.851558      -0.010297366   -1.8988839     -3.6454928      118.41512    
     75280   128.62735      158.5          158.5          158.5         -0.76855624     0.54810029     1.5153296     -4.3690986      128.62735    
     75300   116.40869      158.5          158.5          158.5         -0.69488155    -0.56417758    -2.0389838      0.51851675     116.40869    
     75320   126.67848      158.5          158.5          158.5          0.90939798     2.9085043     -4.014529       3.8342187      126.67848    
     75340   127.3739       158.5          158.5          158.5          1.2784133      3.3917753     -1.1068214      1.5502861      127.3739     
     75360   150.22581      158.5          158.5          158.5          1.1968443      3.0132908      4.2541171     -3.6768752      150.22581    
     75380   143.5256       158.5          158.5          158.5          1.6954408      3.7447213      3.1922383     -1.8506373      143.5256     
     75400   138.62359      158.5          158.5          158.5         -0.77402265    -1.4111302     -2.9877689      2.0768311      138.62359    
     75420   143.90466      158.5          158.5          158.5          0.54934222     1.0241185     -2.8224256      3.4463337      143.90466    
     75440   150.65367      158.5          158.5          158.5         -0.68258276    -1.23288        3.0523537     -3.867222       150.65367    
     75460   150.59831      158.5          158.5          158.5          2.2642481      3.1778436      4.2669653     -0.65206472     150.59831    
     75480   147.26912      158.5          158.5          158.5          1.1721906      1.6722125     -2.3009573      4.1453168      147.26912    
     75500   140.99314      158.5          158.5          158.5         -1.5523221     -4.4864876      3.0996902     -3.2701687      140.99314    
     75520   139.90115      158.5          158.5          158.5         -0.14825101    -1.9895323      5.380267      -3.8354878      139.90115    
     75540   156.70132      158.5          158.5          158.5         -1.2665389     -3.0226554     -0.86372426     0.086762842    156.70132    
     75560   148.38397      158.5          158.5          158.5          0.066907884   -1.2656709     -0.046212311    1.5126069      148.38397    
     75580   151.36579      158.5          158.5          158.5          0.68613144     1.9400843     -0.43266847     0.55097855     151.36579    
     75600   137.14512      158.5          158.5          158.5          1.0650498     -1.2053778      2.6430057      1.7575214      137.14512    
     75620   140.5512       158.5          158.5          158.5          1.6371169      0.4435367      0.68671296     3.7811009      140.5512     
     75640   149.1286       158.5          158.5          158.5         -1.0504231      1.21891       -6.0529142      1.682735       149.1286     
     75660   139.4173       158.5          158.5          158.5         -4.762017      -2.7851451     -5.6465381     -5.8543677      139.4173     
     75680   136.38097      158.5          158.5          158.5          1.0127456     -1.2036125      3.6727979      0.56905145     136.38097    
     75700   133.61789      158.5          158.5          158.5         -3.8297587     -4.841486      -4.9779326     -1.6698574      133.61789    
     75720   130.12802      158.5          158.5          158.5         -1.4961657      2.3369341     -3.180095      -3.6453362      130.12802    
     75740   124.49989      158.5          158.5          158.5          1.6537849      1.2226637      1.5497219      2.188969       124.49989    
     75760   127.95053      158.5          158.5          158.5         -5.1311853     -8.7275202     -3.1205918     -3.545444       127.95053    
     75780   128.57024      158.5          158.5          158.5          3.5269256      3.2510777      3.5612275      3.7684717      128.57024    
     75800   124.10977      158.5          158.5          158.5          0.64073491     3.6144004     -3.4466502      1.7544545      124.10977    
     75820   125.25656      158.5          158.5          158.5         -5.6218337     -6.7395586     -5.8533327     -4.2726098      125.25656    
     75840   123.91036      158.5          158.5          158.5          2.7333143     -1.3102754      5.8046199      3.7055984      123.91036    
     75860   117.40591      158.5          158.5          158.5          0.93358051     0.2096157      1.8647364      0.72638942     117.40591    
     75880   124.81481      158.5          158.5          158.5         -1.7169467     -0.70737273    -2.409005      -2.0344623      124.81481    
     75900   142.40911      158.5          158.5          158.5          2.4584453      2.6835179      4.1339404      0.55787753     142.40911    
     75920   140.69055      158.5          158.5          158.5          0.51546984    -1.0403966      2.5104086      0.076397486    140.69055    
     75940   133.88454      158.5          158.5          158.5          1.3551185      0.6708301      0.44991243     2.9446129      133.88454    
     75960   132.37089      158.5          158.5          158.5          3.0097782      3.8219948      3.9659883      1.2413515      132.37089    
     75980   126.30059      158.5          158.5          158.5          0.24611624    -0.77851119     4.0976795     -2.5808196      126.30059    
     76000   150.07621      158.5          158.5          158.5          0.77942315     0.0047273694   0.33508373     1.9984584      150.07621    
     76020   130.9223       158.5          158.5          158.5          0.76978337    -1.430282       0.059647032    3.6799851      130.9223     
     76040   136.80967      158.5          158.5          158.5         -4.9907461     -4.1515708     -4.2716056     -6.5490619      136.80967    
     76060   156.17329      158.5          158.5          158.5         -4.1393504     -3.0952217     -3.7213632     -5.6014664      156.17329    
     76080   149.05836      158.5          158.5          158.5         -6.9493419e-05 -2.5043231      1.6457141      0.85840056     149.05836    
     76100   140.0682       158.5          158.5          158.5         -4.3231575     -5.5867142     -3.2073412     -4.175417       140.0682     
     76120   122.13873      158.5          158.5          158.5          2.6827957      6.331355       4.510802      -2.7937699      122.13873    
     76140   132.92197      158.5          158.5          158.5          1.9824153      4.018575       2.2312268     -0.30255585     132.92197    
     76160   123.8496       158.5          158.5          158.5          0.18425639    -2.1684023     -3.6295065      6.350678       123.8496     
     76180   131.75121      158.5          158.5          158.5          1.5648278     -0.15829891    -0.15376172     5.0065441      131.75121    
     76200   121.19231      158.5          158.5          158.5         -2.0833146     -1.3532143     -3.1618354     -1.7348941      121.19231    
     76220   119.49107      158.5          158.5          158.5          0.41690155     1.8201319     -0.26213992    -0.30728732     119.49107    
     76240   137.37714      158.5          158.5          158.5         -1.1571102     -2.7914345      0.76290595    -1.4428019      137.37714    
     76260   130.50482      158.5          158.5          158.5         -1.3726634     -3.5734862      2.5702256     -3.1147297      130.50482    
     76280   117.87634      158.5          158.5          158.5         -0.1536838      0.18076172     2.4285082     -3.0703213      117.87634    
     76300   135.98647      158.5          158.5          158.5          0.40121983     3.4490442     -1.9537943     -0.29159041     135.98647    
     76320   123.80004      158.5          158.5          158.5          1.7015036      1.2967199      1.6997673      2.1080235      123.80004    
     76340   116.40243      158.5          158.5          158.5          0.34403007    -0.47782461     0.33862204     1.1712928      116.40243    
     76360   123.23234      158.5          158.5          158.5          3.4881879      5.3802792      2.8346916      2.2495927      123.23234    
     76380   131.76041      158.5          158.5          158.5          2.7655036      3.5381733      2.6359401      2.1223974      131.76041    
     76400   133.47891      158.5          158.5          158.5          0.73235108    -0.85039449     0.079692031    2.9677557      133.47891    
     76420   126.20875      158.5          158.5          158.5         -1.6959479     -0.66759832    -1.1973178     -3.2229277      126.20875    
     76440   133.00026      158.5          158.5          158.5         -1.2661586      0.026517283    2.2591916     -6.0841847      133.00026    
     76460   123.25658      158.5          158.5          158.5         -2.5707605     -2.7963496     -1.9540282     -2.9619038      123.25658    
     76480   120.2128       158.5          158.5          158.5          0.025974162   -2.5749482      1.162516       1.4903546      120.2128     
     76500   123.72923      158.5          158.5          158.5          3.3720427      3.6721853      6.1973774      0.24656548     123.72923    
     76520   133.42413      158.5          158.5          158.5         -0.55822572     2.7068086     -2.1890817     -2.1924041      133.42413    
     76540   127.2102       158.5          158.5          158.5         -0.96407457    -2.6886483     -1.1732428      0.9696673      127.2102     
     76560   125.79279      158.5          158.5          158.5         -1.6661326     -4.0151274     -1.4918323      0.50856198     125.79279    
     76580   134.18053      158.5          158.5          158.5         -2.4980399     -0.67306615    -5.2663885     -1.554665       134.18053    
     76600   138.36043      158.5          158.5          158.5         -2.4967336     -0.89401008    -5.0431084     -1.5530824      138.36043    
     76620   149.43731      158.5          158.5          158.5          1.6765376     -0.66659125     1.2028706      4.4933333      149.43731    
     76640   133.02817      158.5          158.5          158.5          1.6228558     -0.90260018     2.5031386      3.268029       133.02817    
     76660   136.08597      158.5          158.5          158.5         -1.3710052     -1.1188677      0.025966099   -3.0201139      136.08597    
     76680   140.01625      158.5          158.5          158.5          2.5863984      5.4130624      1.0712882      1.2748445      140.01625    
     76700   127.95657      158.5          158.5          158.5         -4.0834358     -5.5680513     -5.3621154     -1.3201407      127.95657    
     76720   142.40714      158.5          158.5          158.5          0.21839395    -2.8811712     -1.1154754      4.6518285      142.40714    
     76740   123.13497      158.5          158.5          158.5          1.2255445      0.61572776    -0.75362229     3.8145281      123.13497    
     76760   129.66433      158.5          158.5          158.5         -1.5948297      0.56233903    -1.8109273     -3.5359007      129.66433    
     76780   124.66421      158.5          158.5          158.5          6.283862       5.0009884      5.0223603      8.8282372      124.66421    
     76800   121.87174      158.5          158.5          158.5         -1.8469521     -3.8430194     -1.0022986     -0.69553847     121.87174    
     76820   123.49721      158.5          158.5          158.5          2.9303317      4.4829687      5.3379437     -1.0299174      123.49721    
     76840   116.80579      158.5          158.5          158.5          0.91787277     0.37329425     3.3076726     -0.92734855     116.80579    
     76860   121.46171      158.5          158.5          158.5         -2.2040161     -4.2796683     -2.1778568     -0.15452308     121.46171    
     76880   119.09368      158.5          158.5          158.5          4.3954967      1.9057376      5.7891183      5.4916343      119.09368    
     76900   110.73899      158.5          158.5          158.5         -1.9478518     -0.7891774     -0.60615654    -4.4482216      110.73899    
     76920   117.88077      158.5          158.5          158.5          2.3853037      5.0678681      2.1707698     -0.082726855    117.88077    
     76940   121.3673       158.5          158.5          158.5         -1.7755699     -1.1430646     -5.0725844      0.88893924     121.3673     
     76960   121.95466      158.5          158.5          158.5          0.09717914    -0.34220618    -0.479822       1.1135656      121.95466    
     76980   106.82396      158.5          158.5          158.5          3.1511907      4.7222941      6.6441384     -1.9128604      106.82396    
     77000   122.62889      158.5          158.5          158.5         -6.4690567     -5.7758063     -7.0826724     -6.5486915      122.62889    
     77020   138.11191      158.5          158.5          158.5         -0.00523993    -3.7984925      1.4507737      2.331999       138.11191    
     77040   129.11805      158.5          158.5          158.5         -3.2318885     -3.7288576     -3.0871498     -2.8796583      129.11805    
     77060   129.35271      158.5          158.5          158.5         -2.3618975      1.5535412     -4.6663997     -3.972834       129.35271    
     77080   140.39001      158.5          158.5          158.5          5.7299818      4.8042747      8.263595       4.1220757      140.39001    
     77100   127.01442      158.5          158.5          158.5         -1.5394763     -2.1420287     -2.9930521      0.51665176     127.01442    
     77120   157.48818      158.5          158.5          158.5          1.088659       3.4637809      0.75618132    -0.95398508     157.48818    
     77140   144.75752      158.5          158.5          158.5          2.1481752      5.6627095      3.6220337     -2.8402175      144.75752    
     77160   138.08877      158.5          158.5          158.5         -1.342529      -3.5705997     -1.0353782      0.57839101     138.08877    
     77180   124.7067       158.5          158.5          158.5          1.4357742     -2.7568421      2.3168263      4.7473384      124.7067     
     77200   152.91898      158.5          158.5          158.5         -1.158465      -0.37975629     0.32539846    -3.4210372      152.91898    
     77220   138.33043      158.5          158.5          158.5         -0.57790447     3.453929      -1.5070667     -3.6805757      138.33043    
     77240   136.66604      158.5          158.5          158.5          2.8936711      1.5551349      0.75716144     6.368717       136.66604    
     77260   145.86422      158.5          158.5          158.5         -0.1128319     -1.9583867      1.4054032      0.21448771     145.86422    
     77280   134.39026      158.5          158.5          158.5          3.6575105      4.0141949      5.2567617      1.7015749      134.39026    
     77300   145.31794      158.5          158.5          158.5          3.8335253      1.438364       6.9427003      3.1195117      145.31794    
     77320   139.41082      158.5          158.5          158.5          1.0741483     -2.195953       4.2608807      1.1575172      139.41082    
     77340   126.19196      158.5          158.5          158.5          4.1800265      6.5388541      3.5314596      2.4697659      126.19196    
     77360   122.76821      158.5          158.5          158.5         -0.0034428127   2.6159914     -2.5145267     -0.11179314     122.76821    
     77380   129.24919      158.5          158.5          158.5         -1.8066144     -2.9640851     -2.0442274     -0.41153059     129.24919    
     77400   124.67243      158.5          158.5          158.5         -2.4532214     -5.6476227      0.51916495    -2.2312063      124.67243    
     77420   115.37241      158.5          158.5          158.5         -4.9154738     -9.1553872     -4.6795238     -0.91151025     115.37241    
     77440   118.45477      158.5          158.5          158.5          1.6180969      3.6046087     -0.63050676     1.8801887      118.45477    
     77460   125.24184      158.5          158.5          158.5         -2.3383662     -0.24834241    -0.059206042   -6.7075501      125.24184    
     77480   123.56497      158.5          158.5          158.5          1.1790701      1.5832348      0.86098917     1.0929864      123.56497    
     77500   128.38197      158.5          158.5          158.5          1.671805      -1.1635263     -0.55579922     6.7347404      128.38197    
     77520   111.95407      158.5          158.5          158.5         -2.0351631     -1.3829369     -1.7814201     -2.9411322      111.95407    
     77540   106.85922      158.5          158.5          158.5         -0.8985961      2.985372      -1.2978719     -4.3832884      106.85922    
     77560   109.56391      158.5          158.5          158.5         -3.0797031     -6.7014984     -1.6174875     -0.92012348     109.56391    
     77580   116.36647      158.5          158.5          158.5          0.99890637     0.48059817     1.6228025      0.89331846     116.36647    
     77600   119.35497      158.5          158.5          158.5         -0.31527649     4.4349211     -1.3291042     -4.0516464      119.35497    
     77620   122.61801      158.5          158.5          158.5          0.65781717     0.36569931     0.42763097     1.1801212      122.61801    
     77640   112.83562      158.5          158.5          158.5          3.6799148      1.3126047      3.1782845      6.5488553      112.83562    
     77660   119.72777      158.5          158.5          158.5         -2.854288      -1.6757141     -2.0978093     -4.7893407      119.72777    
     77680   125.21285      158.5          158.5          158.5          3.5201763      6.2107963      2.5968588      1.7528737      125.21285    
     77700   123.92324      158.5          158.5          158.5         -1.4955951     -3.4832727     -2.3132576      1.3097448      123.92324    
     77720   119.50518      158.5          158.5          158.5         -0.12294854    -5.4859443      1.7394483      3.3776503      119.50518    
     77740   125.35326      158.5          158.5          158.5          3.1764998      2.0568657      4.5952212      2.8774127      125.35326    
     77760   117.19671      158.5          158.5          158.5         -5.9849946     -2.5095154     -8.4695719     -6.9758965      117.19671    
     77780   109.30036      158.5          158.5          158.5          4.017169       2.9286517      4.2658909      4.8569645      109.30036    
     77800   114.58228      158.5          158.5          158.5         -2.0517239     -6.1436121     -2.5825279      2.5709684      114.58228    
     77820   124.82436      158.5          158.5          158.5         -2.5625458     -0.13060684    -6.8238824     -0.73314816     124.82436    
     77840   125.62377      158.5          158.5          158.5          6.0266389      10.381472      5.4144428      2.2840016      125.62377    
     77860   129.81722      158.5          158.5          158.5         -1.3559131     -3.1105987     -1.560174       0.60303348     129.81722    
     77880   128.04442      158.5          158.5          158.5         -0.013657015   -3.7213983     -2.1880635      5.8684908      128.04442    
     77900   109.97805      158.5          158.5          158.5          0.78432846    -1.2244292      3.2442283      0.3331863      109.97805    
     77920   124.50633      158.5          158.5          158.5         -5.2755591     -3.433499      -6.8785344     -5.5146438      124.50633    
     77940   136.17571      158.5          158.5          158.5         -1.9455104      0.53295481    -7.4052278      1.0357417      136.17571    
     77960   116.68889      158.5          158.5          158.5         -1.5122028     -1.6655654     -1.5758378     -1.2952054      116.68889    
     77980   135.20481      158.5          158.5          158.5         -0.37863326     1.7144946      0.72329793    -3.5736923      135.20481    
     78000   120.7974       158.5          158.5          158.5          1.6718854      4.107364      -1.7844407      2.6927327      120.7974     
     78020   133.05458      158.5          158.5          158.5          0.46044643    -4.1153853      1.6859225      3.8108022      133.05458    
     78040   140.29638      158.5          158.5          158.5          0.82720034     1.0240998      2.8296366     -1.3721353      140.29638    
     78060   120.26343      158.5          158.5          158.5          2.4554798      4.7253858      1.528433       1.1126205      120.26343    
     78080   135.89341      158.5          158.5          158.5         -0.30147285    -2.2058651      0.14585705     1.1555895      135.89341    
     78100   125.64379      158.5          158.5          158.5          0.74315184    -2.000457       3.271549       0.9583635      125.64379    
     78120   136.3149       158.5          158.5          158.5          1.1065494      1.2393447      1.0166311      1.0636723      136.3149     
     78140   125.87559      158.5          158.5          158.5         -1.0537157     -0.045435041    0.2659717     -3.3816838      125.87559    
     78160   122.42604      158.5          158.5          158.5          1.174589      -0.052584008    4.8885121     -1.3121612      122.42604    
     78180   145.78228      158.5          158.5          158.5         -0.49826498    -0.46986976     0.21208535    -1.2370105      145.78228    
     78200   133.82192      158.5          158.5          158.5         -0.2421711     -0.0010980219  -0.60394916    -0.1214661      133.82192    
     78220   142.74392      158.5          158.5          158.5          2.6419861      1.8798386      4.8119633      1.2341564      142.74392    
     78240   153.25413      158.5          158.5          158.5         -2.9561913     -4.5976172      0.058796432   -4.3297532      153.25413    
     78260   139.61762      158.5          158.5          158.5          1.7664398      2.0575848      0.77475382     2.4669808      139.61762    
     78280   154.31136      158.5          158.5          158.5         -2.9302949     -3.566584      -5.9816972      0.75739663     154.31136    
     78300   153.20874      158.5          158.5          158.5         -0.35763785    -1.4797003      0.25433461     0.15245215     153.20874    
     78320   165.08864      158.5          158.5          158.5          4.0601602      4.4308516      8.9061412     -1.1565124      165.08864    
     78340   148.69103      158.5          158.5          158.5         -3.156112      -4.087927      -4.149236      -1.2311729      148.69103    
     78360   150.2291       158.5          158.5          158.5          3.5847136      6.9676734      1.0532502      2.7332172      150.2291     
     78380   140.75243      158.5          158.5          158.5          1.2560058      3.0943519      4.2924122     -3.6187466      140.75243    
     78400   136.88232      158.5          158.5          158.5         -2.5216376     -3.4912818     -0.92148246    -3.1521487      136.88232    
     78420   142.31256      158.5          158.5          158.5          1.8794712      1.7943551     -1.4247523      5.2688108      142.31256    
     78440   148.28291      158.5          158.5          158.5         -5.2330405     -4.4694624     -7.2214789     -4.0081802      148.28291    
     78460   137.3717       158.5          158.5          158.5         -0.33571382    -2.3279171      2.5781296     -1.257354       137.3717     
     78480   130.74174      158.5          158.5          158.5          0.35024227    -0.41811742     0.72387006     0.74497417     130.74174    
     78500   155.90784      158.5          158.5          158.5         -4.4647859     -4.1621456     -7.1006344     -2.1315776      155.90784    
     78520   139.00006      158.5          158.5          158.5          4.5749079      2.8267297      9.1754435      1.7225506      139.00006    
     78540   138.41146      158.5          158.5          158.5         -1.7025108     -0.59089507     1.8482201     -6.3648575      138.41146    
     78560   139.99659      158.5          158.5          158.5          0.56387681     1.2382268     -1.1406635      1.5940672      139.99659    
     78580   141.70873      158.5          158.5          158.5          0.76660143    -1.7227655     -1.1380614      5.1606312      141.70873    
     78600   133.2639       158.5          158.5          158.5         -4.9020682     -4.2334798     -4.1655634     -6.3071614      133.2639     
     78620   137.28524      158.5          158.5          158.5          0.98015284     2.5697023      2.7252256     -2.3544694      137.28524    
     78640   130.43547      158.5          158.5          158.5          0.21616992    -2.83484        0.1766188      3.306731       130.43547    
     78660   148.20602      158.5          158.5          158.5          1.5027364     -3.1174717      1.8376954      5.7879854      148.20602    
     78680   122.024        158.5          158.5          158.5          3.3080951      1.6000094      5.1236775      3.2005986      122.024      
     78700   131.79234      158.5          158.5          158.5         -0.76286377     3.2337906     -0.98900084    -4.5333811      131.79234    
     78720   132.6588       158.5          158.5          158.5         -0.82224445     0.41472993    -4.1105692      1.2291059      132.6588     
     78740   128.02643      158.5          158.5          158.5          1.0977987     -1.5346049     -1.1627113      5.9907123      128.02643    
     78760   124.32875      158.5          158.5          158.5          1.3806489      0.85253646     3.6545465     -0.3651362      124.32875    
     78780   141.20612      158.5          158.5          158.5         -1.3069441     -1.1461565     -1.1940824     -1.5805933      141.20612    
     78800   124.52546      158.5          158.5          158.5          2.8466534     -0.57751151     2.4703588      6.647113       124.52546    
     78820   118.37043      158.5          158.5          158.5          1.4590255     -0.75725542     2.0670676      3.0672644      118.37043    
     78840   124.37712      158.5          158.5          158.5         -1.2517399      0.56205244    -2.1045327     -2.2127394      124.37712    
     78860   123.21079      158.5          158.5          158.5          1.6370214      3.9214531      0.66608621     0.32352472     123.21079    
     78880   115.65263      158.5          158.5          158.5         -2.9311032     -6.3558348     -2.5125861      0.075111312    115.65263    
     78900   107.72924      158.5          158.5          158.5          0.15768173    -0.26261128     0.36105856     0.3745979      107.72924    
     78920   105.86139      158.5          158.5          158.5          2.2283943      4.8255732      3.4601165     -1.6005067      105.86139    
     78940   119.34962      158.5          158.5          158.5         -0.81359885     0.91297377    -0.83652877    -2.5172416      119.34962    
     78960   116.83883      158.5          158.5          158.5          1.9139968      1.5342582     -0.27537395     4.4831062      116.83883    
     78980   115.80023      158.5          158.5          158.5          0.53952707    -0.51937477     0.88652067     1.2514353      115.80023    
     79000   110.30891      158.5          158.5          158.5         -2.2548431     -3.6513158     -0.59771139    -2.515502       110.30891    
     79020   112.2964       158.5          158.5          158.5          0.43551361     1.4733463     -1.7850332      1.6182278      112.2964     
     79040   115.41227      158.5          158.5          158.5         -0.18910948     0.45993769    -2.8095717      1.7823056      115.41227    
     79060   115.6155       158.5          158.5          158.5         -4.8396551     -5.5718267     -6.1170644     -2.8300742      115.6155     
     79080   125.49463      158.5          158.5          158.5          0.86092411     0.38224101     1.9848235      0.21570782     125.49463    
     79100   109.60299      158.5          158.5          158.5         -0.3540628     -0.51953371    -1.4684512      0.92579654     109.60299    
     79120   121.87919      158.5          158.5          158.5          0.3484872      1.9069209     -0.15697552    -0.70448374     121.87919    
     79140   115.8907       158.5          158.5          158.5          4.5424684      4.5158172      4.0466505      5.0649374      115.8907     
     79160   118.03449      158.5          158.5          158.5          1.3159702      1.8957389      2.9826107     -0.93043903     118.03449    
     79180   119.28547      158.5          158.5          158.5          0.85131291     1.4624673      1.5353415     -0.44387002     119.28547    
     79200   138.77252      158.5          158.5          158.5         -0.87692898    -2.3662704     -1.5426599      1.2781434      138.77252    
     79220   139.36365      158.5          158.5          158.5         -1.3806587     -1.6494758     -1.00669       -1.4858102      139.36365    
     79240   124.54737      158.5          158.5          158.5          1.987902       6.2876737      1.5717566     -1.8957244      124.54737    
     79260   135.2306       158.5          158.5          158.5         -0.29854278    -3.4590444      1.6358478      0.92756824     135.2306     
     79280   136.67         158.5          158.5          158.5         -0.17839815    -2.5291713      0.8599411      1.1340358      136.67       
     79300   145.00443      158.5          158.5          158.5          1.8574704      6.2249012     -1.1193855      0.46689541     145.00443    
     79320   126.10835      158.5          158.5          158.5          0.94360024     2.6594708     -3.0948472      3.266177       126.10835    
     79340   136.04188      158.5          158.5          158.5         -0.49615393    -1.2909723      1.3929569     -1.5904465      136.04188    
     79360   112.60749      158.5          158.5          158.5          2.2489914      2.3688159      4.5250711     -0.14691293     112.60749    
     79380   137.72734      158.5          158.5          158.5         -1.9198018      1.0653696     -5.3726922     -1.4520827      137.72734    
     79400   129.5879       158.5          158.5          158.5         -2.7233046     -0.36265105    -6.7537752     -1.0534876      129.5879     
     79420   135.20662      158.5          158.5          158.5         -2.9683936     -7.7878591     -3.5202299      2.4029081      135.20662    
     79440   114.84799      158.5          158.5          158.5         -5.2247647     -8.2196682     -3.9067722     -3.5478538      114.84799    
     79460   128.01151      158.5          158.5          158.5          3.4116057      5.7109314      2.0020399      2.5218458      128.01151    
     79480   123.72698      158.5          158.5          158.5         -3.6593453     -1.3871203     -5.0103985     -4.5805171      123.72698    
     79500   111.81353      158.5          158.5          158.5          3.6645586      3.4119205      5.3688397      2.2129156      111.81353    
     79520   124.60919      158.5          158.5          158.5          2.2589052      1.4027844      4.1516707      1.2222606      124.60919    
     79540   118.06063      158.5          158.5          158.5         -3.041057       2.5766646     -4.2821606     -7.417675       118.06063    
     79560   108.85577      158.5          158.5          158.5          5.6032565      7.2811701      2.9121236      6.6164757      108.85577    
     79580   104.89985      158.5          158.5          158.5         -3.2676415     -6.7564756     -1.1048832     -1.9415657      104.89985    
     79600   121.78931      158.5          158.5          158.5          0.16665472    -3.0501185      6.0527727     -2.5026901      121.78931    
     79620   111.24002      158.5          158.5          158.5         -0.47671859     3.2516994     -2.0291472     -2.652708       111.24002    
     79640   117.05805      158.5          158.5          158.5         -3.2819457      3.3482677     -9.2519113     -3.9421934      117.05805    
     79660   112.85878      158.5          158.5          158.5          2.1608901      2.948695       0.55072848     2.9832467      112.85878    
     79680   96.173367      158.5          158.5          158.5          2.4364725     -0.27228777     4.917707       2.6639982      96.173367    
     79700   103.40656      158.5          158.5          158.5          3.7213072      5.4086239      6.8089214     -1.0536238      103.40656    
     79720   94.997355      158.5          158.5          158.5          1.0486401      1.4336222     -0.047038461    1.7593366      94.997355    
     79740   108.05355      158.5          158.5          158.5          0.82025633    -1.4851009      1.1110524      2.8348175      108.05355    
     79760   99.473957      158.5          158.5          158.5         -2.8306626     -0.49924002    -2.7305373     -5.2622104      99.473957    
     79780   101.39898      158.5          158.5          158.5         -2.5812714     -1.4844204     -3.2372723     -3.0221216      101.39898    
     79800   114.65307      158.5          158.5          158.5          0.9621506      1.7586895     -1.5592215      2.6869838      114.65307    
     79820   118.33105      158.5          158.5          158.5         -0.55487661     0.89665113     0.9610033     -3.5222843      118.33105    
     79840   125.03645      158.5          158.5          158.5          2.3712912     -2.8592426      8.7167236      1.2563925      125.03645    
     79860   116.16618      158.5          158.5          158.5          1.1409371      2.8436453     -0.78391212     1.3630782      116.16618    
     79880   135.08864      158.5          158.5          158.5          0.094533731    0.72782362    -2.5098784      2.065656       135.08864    
     79900   118.28204      158.5          158.5          158.5         -1.5166554     -8.5992542      2.3135539      1.7357339      118.28204    
     79920   124.56634      158.5          158.5          158.5         -4.7995598     -6.8382817     -0.74065711    -6.8197407      124.56634    
     79940   140.99053      158.5          158.5          158.5          0.91900409     1.2196463     -0.047514966    1.584881       140.99053    
     79960   140.87344      158.5          158.5          158.5         -3.5160504     -4.4006722     -7.720048       1.5725689      140.87344    
     79980   131.27653      158.5          158.5          158.5         -2.644955      -2.9821201     -5.1378158      0.18507097     131.27653    
     80000   132.47344      158.5          158.5          158.5          4.9705459      2.6189478      8.7839478      3.5087422      132.47344    
     80020   135.54986      158.5          158.5          158.5         -1.8743458     -2.832889       0.35161935    -3.1417679      135.54986    
     80040   116.36141      158.5          158.5          158.5          1.9697729      3.7905343     -1.3920093      3.5107937      116.36141    
     80060   129.78879      158.5          158.5          158.5          3.5318826      2.8407027      2.8567947      4.8981503      129.78879    
     80080   127.55636      158.5          158.5          158.5         -4.6230483     -5.9819049     -2.7386917     -5.1485484      127.55636    
     80100   137.34111      158.5          158.5          158.5          1.71575        3.6944         1.7894129     -0.33656291     137.34111    
     80120   137.2318       158.5          158.5          158.5         -2.2123151     -1.2179549     -3.3439406     -2.0750498      137.2318     
     80140   130.01556      158.5          158.5          158.5         -3.018919      -1.9613339     -5.6661187     -1.4293044      130.01556    
     80160   121.00668      158.5          158.5          158.5          4.3563645      5.802569       2.0053178      5.2612069      121.00668    
     80180   132.00504      158.5          158.5          158.5         -0.93705693    -3.2283575      2.5771728     -2.1599862      132.00504    
     80200   120.34098      158.5          158.5          158.5          2.8773241      0.88201072     7.4118971      0.33806452     120.34098    
     80220   118.94916      158.5          158.5          158.5          3.8104762      4.2477953      3.7987836      3.3848496      118.94916    
     80240   110.03691      158.5          158.5          158.5         -1.5106471     -3.3168256     -0.41886188    -0.79625365     110.03691    
     80260   140.99201      158.5          158.5          158.5          2.3472595     -0.26959604     6.0339576      1.277417       140.99201    
     80280   111.86359      158.5          158.5          158.5         -2.4473567      1.0873387     -5.2334104     -3.1959984      111.86359    
     80300   104.50092      158.5          158.5          158.5          1.4914308      3.1326927     -0.42266482     1.7642645      104.50092    
     80320   108.12655      158.5          158.5          158.5          0.65615699    -4.0774556      3.114853       2.9310735      108.12655    
     80340   117.19978      158.5          158.5          158.5         -1.4113431     -3.4473509     -1.0389248      0.25224639     117.19978    
     80360   116.89294      158.5          158.5          158.5          0.096942689    0.58979782    -0.88168208     0.58271233     116.89294    
     80380   109.81052      158.5          158.5          158.5         -3.9214935     -4.1789778     -5.5815823     -2.0039204      109.81052    
     80400   101.2437       158.5          158.5          158.5          1.2356604     -0.044447018   -0.74514255     4.4965708      101.2437     
     80420   108.07555      158.5          158.5          158.5         -1.8349299     -1.2140883     -4.8998157      0.60911423     108.07555    
     80440   107.07482      158.5          158.5          158.5         -0.38695407     1.958973      -2.4762926     -0.64354262     107.07482    
     80460   99.152994      158.5          158.5          158.5          3.7340124      4.5362533      4.216436       2.4493479      99.152994    
     80480   97.699426      158.5          158.5          158.5         -1.081356       2.7695304     -4.4139234     -1.599675       97.699426    
     80500   112.32627      158.5          158.5          158.5         -1.0655993      0.10330576    -5.5228535      2.2227499      112.32627    
     80520   99.523884      158.5          158.5          158.5          1.6260483     -0.9230107      4.9275834      0.8735721      99.523884    
     80540   118.0569       158.5          158.5          158.5         -1.1919245      0.66879783    -0.77684561    -3.4677258      118.0569     
     80560   107.13181      158.5          158.5          158.5         -0.48641746    -1.1561858     -3.5813615      3.2782949      107.13181    
     80580   110.69603      158.5          158.5          158.5          2.3695291      3.0594092     -0.88750204     4.9366802      110.69603    
     80600   113.74186      158.5          158.5          158.5         -2.3911847     -0.44849359    -1.3446117     -5.3804487      113.74186    
     80620   134.34573      158.5          158.5          158.5         -0.95538279    -3.1142638      1.0569214     -0.80880595     134.34573    
     80640   128.42016      158.5          158.5          158.5          1.7933016      1.2867617      0.79962583     3.2935172      128.42016    
     80660   121.28477      158.5          158.5          158.5         -2.7806083     -3.1079636     -3.8543811     -1.3794804      121.28477    
     80680   147.28935      158.5          158.5          158.5          0.48887678    -1.1225635      3.8143339     -1.22514        147.28935    
     80700   139.38837      158.5          158.5          158.5         -2.4320191     -0.71434387    -1.2213879     -5.3603255      139.38837    
     80720   121.76747      158.5          158.5          158.5         -4.8890152     -6.7127771     -5.3808436     -2.573425       121.76747    
     80740   146.67998      158.5          158.5          158.5          0.91175557    -2.4164242      1.1891566      3.9625343      146.67998    
     80760   147.00474      158.5          158.5          158.5         -0.56095621     2.732069      -1.4761164     -2.9388213      147.00474    
     80780   128.43103      158.5          158.5          158.5          2.7681081      2.2847177      5.1865489      0.83305754     128.43103    
     80800   134.5575       158.5          158.5          158.5          4.676068       1.7108744      5.5683406      6.7489891      134.5575     
     80820   151.1601       158.5          158.5          158.5          1.0109941      5.3165497     -3.6666831      1.3831157      151.1601     
     80840   124.09368      158.5          158.5          158.5          1.6216139      4.884542       1.769069      -1.7887693      124.09368    
     80860   130.38908      158.5          158.5          158.5         -1.0125254     -1.5849535      0.20558394    -1.6582066      130.38908    
     80880   133.73131      158.5          158.5          158.5         -2.9666318     -7.8375829     -1.8938555      0.83154308     133.73131    
     80900   148.42564      158.5          158.5          158.5         -1.7454013     -3.1756118     -0.95868973    -1.1019024      148.42564    
     80920   131.38962      158.5          158.5          158.5         -1.4131272     -0.30592634    -1.502971      -2.4304842      131.38962    
     80940   140.62426      158.5          158.5          158.5          2.1919101      2.3402572     -0.74434353     4.9798167      140.62426    
     80960   127.26322      158.5          158.5          158.5          1.9260678      4.2095008      0.71382795     0.85487468     127.26322    
     80980   145.1948       158.5          158.5          158.5          0.5164575      3.5849801      1.603275      -3.6388826      145.1948     
     81000   125.59241      158.5          158.5          158.5          2.090891       3.699406       0.50832687     2.0649402      125.59241    
     81020   117.08353      158.5          158.5          158.5          1.8231026      0.02604499     0.57907752     4.8641854      117.08353    
     81040   118.45901      158.5          158.5          158.5         -1.1133121     -4.8862336      2.8818008     -1.3355034      118.45901    
     81060   124.4185       158.5          158.5          158.5         -1.3620213      1.1153474     -0.38823395    -4.8131774      124.4185     
     81080   124.81978      158.5          158.5          158.5         -2.7124456      0.31168617    -8.0394462     -0.40957671     124.81978    
     81100   110.97015      158.5          158.5          158.5         -3.088778      -5.4294752     -3.8599151      0.023056239    110.97015    
     81120   114.93748      158.5          158.5          158.5          0.43388618    -0.45449267     1.1239972      0.63215401     114.93748    
     81140   120.16899      158.5          158.5          158.5         -3.1561932     -1.4584149     -3.8038035     -4.2063612      120.16899    
     81160   112.92349      158.5          158.5          158.5         -0.00043689926 -0.61135767     0.90146944    -0.29142247     112.92349    
     81180   115.60733      158.5          158.5          158.5          0.51517156    -2.6875534      2.4140265      1.8190416      115.60733    
     81200   115.72003      158.5          158.5          158.5         -1.5740238     -0.51696461    -2.438803      -1.7663038      115.72003    
     81220   122.98249      158.5          158.5          158.5          4.2754432      6.4309867      4.5785411      1.816802       122.98249    
     81240   127.42923      158.5          158.5          158.5         -0.32421382     0.048954133    0.49290393    -1.5144995      127.42923    
     81260   125.18024      158.5          158.5          158.5          0.32394351     0.3335785     -0.15923337     0.7974854      125.18024    
     81280   114.06865      158.5          158.5          158.5          3.0253946      1.5369191      4.3406942      3.1985705      114.06865    
     81300   128.64483      158.5          158.5          158.5         -3.7488527     -1.6667742     -5.6988501     -3.8809339      128.64483    
     81320   117.93269      158.5          158.5          158.5          0.53916414     2.6454471     -3.878579       2.8506243      117.93269    
     81340   132.65082      158.5          158.5          158.5          0.50197782    -1.9128602     -0.54776242     3.966556       132.65082    
     81360   135.36686      158.5          158.5          158.5         -2.6770083     -7.0093929     -1.6022167      0.5805846      135.36686    
     81380   141.22198      158.5          158.5          158.5          1.2981455      0.4527546      0.30247368     3.1392081      141.22198    
     81400   136.64507      158.5          158.5          158.5         -0.60689127     2.6124433     -3.8748209     -0.55829613     136.64507    
     81420   125.85228      158.5          158.5          158.5          1.7884315     -0.55451362     2.7802125      3.1395955      125.85228    
     81440   125.46887      158.5          158.5          158.5          2.3204593     -1.5896059      5.3199486      3.2310353      125.46887    
     81460   133.16358      158.5          158.5          158.5         -1.2862405      3.10913       -4.2099985     -2.757853       133.16358    
     81480   128.02058      158.5          158.5          158.5          1.0196541      5.2994581     -1.5891659     -0.65132987     128.02058    
     81500   136.20705      158.5          158.5          158.5         -3.5912618     -4.2677536     -4.979438      -1.5265937      136.20705    
     81520   122.3466       158.5          158.5          158.5         -2.0470393     -1.0611209     -4.4842972     -0.5956996      122.3466     
     81540   110.60078      158.5          158.5          158.5          1.6797188      1.5548356      3.2890223      0.19529865     110.60078    
     81560   113.3915       158.5          158.5          158.5         -3.6870833     -1.6083048     -6.0017306     -3.4512143      113.3915     
     81580   128.54389      158.5          158.5          158.5          3.7435179      6.9955803     -0.86610131     5.1010747      128.54389    
     81600   134.08196      158.5          158.5          158.5          1.7738894     -1.5607198      4.0217217      2.8606663      134.08196    
     81620   110.41938      158.5          158.5          158.5          0.24465673     2.4664284      1.4329573     -3.1654155      110.41938    
     81640   119.58184      158.5          158.5          158.5          4.889392       10.610913      3.5035329      0.55372972     119.58184    
     81660   125.95482      158.5          158.5          158.5         -2.1967171     -0.5627797     -5.1559383     -0.87143343     125.95482    
     81680   114.04229      158.5          158.5          158.5          2.2194295      3.5074958     -0.89519396     4.0459866      114.04229    
     81700   127.60657      158.5          158.5          158.5         -2.078195      -3.888242      -0.74354797    -1.6027951      127.60657    
     81720   110.01588      158.5          158.5          158.5         -2.141773       0.027613879   -3.4928351     -2.9600977      110.01588    
     81740   116.81081      158.5          158.5          158.5          1.7845785      1.0959472      2.4928333      1.764955       116.81081    
     81760   123.20831      158.5          158.5          158.5         -2.8232408     -6.16909       -1.7439713     -0.55666117     123.20831    
     81780   122.51829      158.5          158.5          158.5          1.6400418      1.0616308      1.1068112      2.7516835      122.51829    
     81800   114.32126      158.5          158.5          158.5         -2.3157914     -1.9105186     -1.3035031     -3.7333524      114.32126    
     81820   124.90597      158.5          158.5          158.5          2.2605853      0.87860043     2.7529863      3.1501691      124.90597    
     81840   126.16719      158.5          158.5          158.5          2.1011041      3.4620814      0.74047838     2.1007525      126.16719    
     81860   134.58991      158.5          158.5          158.5         -1.1128424     -2.4465742     -0.87869577    -0.01325713     134.58991    
     81880   145.84998      158.5          158.5          158.5          6.5200298      2.9697988      8.841745       7.7485457      145.84998    
     81900   138.99902      158.5          158.5          158.5         -3.7329092     -3.0843985     -1.9515533     -6.1627757      138.99902    
     81920   143.89995      158.5          158.5          158.5         -0.73126824    -0.8001156     -2.057878       0.66418883     143.89995    
     81940   152.77424      158.5          158.5          158.5          1.3095464     -1.3731982      1.63756        3.6642776      152.77424    
     81960   152.133        158.5          158.5          158.5         -4.452991      -4.7721527     -1.9720692     -6.6147512      152.133      
     81980   134.81522      158.5          158.5          158.5          3.5671736      6.9106045      3.045302       0.74561421     134.81522    
     82000   139.45701      158.5          158.5          158.5         -2.2041247     -4.0268385     -2.7462002      0.16066464     139.45701    
     82020   169.14088      158.5          158.5          158.5          0.16379943    -4.6150441      4.0928671      1.0135753      169.14088    
     82040   122.39465      158.5          158.5          158.5          5.0694678      5.0222542      7.6071504      2.5789987      122.39465    
     82060   149.8936       158.5          158.5          158.5         -2.399455       0.30404348    -3.3407976     -4.1616108      149.8936     
     82080   138.19511      158.5          158.5          158.5         -1.6551816      0.41108633    -3.8572177     -1.5194133      138.19511    
     82100   143.04335      158.5          158.5          158.5         -1.5844282     -2.4876018     -2.7847336      0.51905075     143.04335    
     82120   118.65596      158.5          158.5          158.5         -3.8850371     -3.2143135     -5.5909687     -2.8498291      118.65596    
     82140   124.1455       158.5          158.5          158.5         -2.2300877      1.1880052     -5.3569088     -2.5213596      124.1455     
     82160   124.88259      158.5          158.5          158.5         -0.57944461     0.46954976    -4.1222775      1.9143939      124.88259    
     82180   123.35657      158.5          158.5          158.5         -1.0920154     -0.97118044    -2.1476484     -0.15721733     123.35657    
     82200   136.11432      158.5          158.5          158.5          1.2535436      0.50118764     3.5381018     -0.2786587      136.11432    
     82220   127.79685      158.5          158.5          158.5          3.3146431      5.1231454      1.98848        2.8323038      127.79685    
     82240   127.39141      158.5          158.5          158.5         -0.097033901    0.13629578    -0.90230716     0.47490968     127.39141    
     82260   129.87663      158.5          158.5          158.5         -0.31954523    -3.3665862      0.98089792     1.4270526      129.87663    
     82280   114.72488      158.5          158.5          158.5         -0.21670713     1.4162583      0.74377589    -2.8101556      114.72488    
     82300   124.49382      158.5          158.5          158.5         -2.2987558      0.41417465    -2.6752844     -4.6351578      124.49382    
     82320   109.79324      158.5          158.5          158.5          2.4048972      3.8586721     -2.3830404      5.7390598      109.79324    
     82340   142.87621      158.5          158.5          158.5          3.1717035     -0.86514261     6.2435603      4.1366926      142.87621    
     82360   123.18877      158.5          158.5          158.5          2.5768824     -0.48486349     9.3627426     -1.1472321      123.18877    
     82380   135.49179      158.5          158.5          158.5          2.348936       3.3455543      2.8364882      0.86476549     135.49179    
     82400   120.10006      158.5          158.5          158.5         -1.4215515      1.519484      -6.5006241      0.71648552     120.10006    
     82420   137.1302       158.5          158.5          158.5         -0.29358321    -1.4228679     -0.38075305     0.92287128     137.1302     
     82440   130.23232      158.5          158.5          158.5         -0.57442463    -1.7088706      1.7078794     -1.7222827      130.23232    
     82460   122.29319      158.5          158.5          158.5         -2.1678961     -2.3147616     -1.4567954     -2.7321313      122.29319    
     82480   126.55373      158.5          158.5          158.5          0.25582537    -2.3965875     -0.44888139     3.612945       126.55373    
     82500   144.52431      158.5          158.5          158.5          1.2584809      0.77307795     1.1425258      1.859839       144.52431    
     82520   130.60415      158.5          158.5          158.5          0.17266973     1.521239       2.4436846     -3.4469144      130.60415    
     82540   144.28686      158.5          158.5          158.5          0.30257942    -2.7207093      2.0779167      1.5505309      144.28686    
     82560   152.33861      158.5          158.5          158.5         -1.6764451     -3.3653252     -4.3060122      2.642002       152.33861    
     82580   149.67979      158.5          158.5          158.5         -1.5571326     -0.21607985    -0.5634302     -3.8918877      149.67979    
     82600   135.07357      158.5          158.5          158.5         -1.5671121     -3.6398362      4.7407536     -5.8022537      135.07357    
     82620   146.40403      158.5          158.5          158.5         -2.2899313     -4.876175      -1.0765077     -0.91711108     146.40403    
     82640   153.40635      158.5          158.5          158.5         -0.72472373     1.9354468     -3.7413179     -0.36830014     153.40635    
     82660   141.0808       158.5          158.5          158.5         -2.1130681     -2.2259676     -2.2001003     -1.9131363      141.0808     
     82680   138.37129      158.5          158.5          158.5          1.4156593     -1.099254       2.8695535      2.4766784      138.37129    
     82700   131.35959      158.5          158.5          158.5          2.2152986      2.123419       2.2931432      2.2293336      131.35959    
     82720   151.54636      158.5          158.5          158.5         -0.61458761    -1.5111338     -0.89947797     0.56684892     151.54636    
     82740   148.19757      158.5          158.5          158.5          4.1892736      1.6286831      8.8514487      2.0876891      148.19757    
     82760   132.14271      158.5          158.5          158.5          0.71648512    -0.77366837     3.2558727     -0.33274895     132.14271    
     82780   121.81087      158.5          158.5          158.5         -2.7176537      0.99180797    -6.6521638     -2.4926053      121.81087    
     82800   122.35139      158.5          158.5          158.5         -0.89835907     3.3249218     -5.6217124     -0.39828665     122.35139    
     82820   140.36634      158.5          158.5          158.5         -3.593681      -5.195208      -3.7058627     -1.8799723      140.36634    
     82840   110.18302      158.5          158.5          158.5         -1.9973133     -2.1861791     -0.89674418    -2.9090166      110.18302    
     82860   116.05444      158.5          158.5          158.5          3.0363628      2.9811533      1.2804438      4.8474913      116.05444    
     82880   114.94637      158.5          158.5          158.5          1.2240155      1.5747494     -0.68581692     2.7831141      114.94637    
     82900   119.15896      158.5          158.5          158.5          2.9425014      6.2738806      1.7190362      0.83458759     119.15896    
     82920   122.08424      158.5          158.5          158.5          3.6570596      2.4140486      6.0221449      2.5349853      122.08424    
     82940   125.85044      158.5          158.5          158.5         -0.85740897    -0.67132418     1.1380826     -3.0389854      125.85044    
     82960   116.47584      158.5          158.5          158.5          1.0743877      4.0709038     -1.4363698      0.58862925     116.47584    
     82980   132.51585      158.5          158.5          158.5          0.067599355   -0.094984282   -2.1371812      2.4349635      132.51585    
     83000   121.56511      158.5          158.5          158.5         -3.3866336     -5.6782706     -1.4590689     -3.0225613      121.56511    
     83020   131.37874      158.5          158.5          158.5          2.7299404      4.5198659      2.9488859      0.72106936     131.37874    
     83040   139.89107      158.5          158.5          158.5         -2.3584301      1.1040812     -3.2163382     -4.9630332      139.89107    
     83060   135.02555      158.5          158.5          158.5         -1.2368469     -0.55882879    -3.9814447      0.82973267     135.02555    
     83080   135.00208      158.5          158.5          158.5          3.2463918      1.675459       2.0481289      6.0155875      135.00208    
     83100   134.73759      158.5          158.5          158.5         -3.9324161     -2.2074567     -2.4231382     -7.1666535      134.73759    
     83120   131.72321      158.5          158.5          158.5          0.5124451     -0.15085832     1.5756879      0.11250571     131.72321    
     83140   135.28178      158.5          158.5          158.5         -0.25978044    -3.3581843     -2.8133469      5.3921899      135.28178    
     83160   140.12939      158.5          158.5          158.5         -4.0997408      0.6105869     -9.0414188     -3.8683905      140.12939    
     83180   129.92722      158.5          158.5          158.5          1.0866467      2.5030288      1.4169096     -0.65999825     129.92722    
     83200   122.81913      158.5          158.5          158.5         -2.2231549     -3.3147204     -2.6961708     -0.65857349     122.81913    
     83220   129.67086      158.5          158.5          158.5          3.2689871      4.8085243      0.98189936     4.0165377      129.67086    
     83240   141.46738      158.5          158.5          158.5          2.6158503     -1.0776793      4.8498436      4.0753867      141.46738    
     83260   129.73743      158.5          158.5          158.5         -2.06943       -1.3231398      0.090096093   -4.9752463      129.73743    
     83280   118.84486      158.5          158.5          158.5          1.4284709      3.8767858     -0.9139355      1.3225625      118.84486    
     83300   119.81141      158.5          158.5          158.5         -3.7514201     -2.9247551     -7.4093636     -0.92014163     119.81141    
     83320   113.96491      158.5          158.5          158.5         -0.79881059    -0.85423246     1.8286058     -3.3708051      113.96491    
     83340   122.23495      158.5          158.5          158.5          2.9183404      1.5480496      4.6149259      2.5920458      122.23495    
     83360   116.37752      158.5          158.5          158.5          1.3524484      0.35567511     1.7628841      1.9387861      116.37752    
     83380   121.32679      158.5          158.5          158.5          2.9735335      2.4424526      6.4338271      0.044320822    121.32679    
     83400   126.89837      158.5          158.5          158.5          0.44684452     1.5415344      2.0644011     -2.2654019      126.89837    
     83420   135.14299      158.5          158.5          158.5          0.047930536    2.0634868     -2.1014159      0.18172064     135.14299    
     83440   113.60336      158.5          158.5          158.5          1.6483781     -0.9483255      2.3591894      3.5342704      113.60336    
     83460   115.13897      158.5          158.5          158.5          0.13573825    -0.34993718     1.8836166     -1.1264647      115.13897    
     83480   111.80551      158.5          158.5          158.5          1.4207875      2.7340973      5.7189298     -4.1906645      111.80551    
     83500   114.94334      158.5          158.5          158.5          0.14057175    -0.40549637     2.3979126     -1.570701       114.94334    
     83520   105.44813      158.5          158.5          158.5          0.18089241    -0.33816864    -0.63520183     1.5160477      105.44813    
     83540   114.73318      158.5          158.5          158.5         -1.5030808     -0.34536884    -2.4232768     -1.7405966      114.73318    
     83560   119.74427      158.5          158.5          158.5         -0.84615121    -2.4818345      1.0178191     -1.0744382      119.74427    
     83580   136.23387      158.5          158.5          158.5         -1.7975841     -2.775506      -2.4181746     -0.19907167     136.23387    
     83600   125.40971      158.5          158.5          158.5         -1.0637261      2.4004748     -5.1175545     -0.47409881     125.40971    
     83620   115.54883      158.5          158.5          158.5          0.72108188     3.4458844     -0.76176583    -0.52087289     115.54883    
     83640   120.13734      158.5          158.5          158.5         -1.6344832     -3.205769      -1.0980117     -0.59966901     120.13734    
     83660   115.20685      158.5          158.5          158.5          0.56999795     0.24888625     1.1489877      0.3121199      115.20685    
     83680   135.4867       158.5          158.5          158.5         -1.2207136      0.079331502   -4.1632413      0.42176909     135.4867     
     83700   132.41799      158.5          158.5          158.5         -0.99885709    -1.3240493     -4.6193518      2.9468299      132.41799    
     83720   146.86424      158.5          158.5          158.5          2.9703452      0.41761749     4.1838868      4.3095313      146.86424    
     83740   124.3824       158.5          158.5          158.5         -3.3068589     -3.1199214     -2.1676637     -4.6329917      124.3824     
     83760   147.97439      158.5          158.5          158.5         -0.49169991     0.21577036    -0.80554202    -0.88532808     147.97439    
     83780   160.76529      158.5          158.5          158.5          2.2834652      3.8373886      2.1292737      0.88373328     160.76529    
     83800   136.95348      158.5          158.5          158.5         -2.3116837      0.56181865    -1.8396084     -5.6572613      136.95348    
     83820   127.75718      158.5          158.5          158.5          2.9843349      4.5462265      2.5456392      1.8611389      127.75718    
     83840   153.95747      158.5          158.5          158.5          0.26058287    -0.97274239     1.0683867      0.68610427     153.95747    
     83860   136.89466      158.5          158.5          158.5         -0.88617714    -1.6477691     -3.3612056      2.3504433      136.89466    
     83880   127.72021      158.5          158.5          158.5          1.6184113      1.3649878      1.0439546      2.4462913      127.72021    
     83900   138.77922      158.5          158.5          158.5         -1.4996567     -0.94103462     0.13797376    -3.6959091      138.77922    
     83920   131.47398      158.5          158.5          158.5         -2.6260652     -3.7810691     -2.6663856     -1.4307407      131.47398    
     83940   126.75695      158.5          158.5          158.5          1.5769885      4.0908134     -2.4206909      3.0608429      126.75695    
     83960   126.81645      158.5          158.5          158.5         -0.77337618     2.9716284     -2.6636686     -2.6280884      126.81645    
     83980   133.18259      158.5          158.5          158.5          0.3299176     -3.2085237      4.075053       0.1232235      133.18259    
     84000   117.68281      158.5          158.5          158.5          2.5447662     -0.12891088     4.4774716      3.2857379      117.68281    
     84020   144.79051      158.5          158.5          158.5         -2.5790803      0.17323819    -6.5185652     -1.3919139      144.79051    
     84040   104.50899      158.5          158.5          158.5         -0.40688962     2.2672348     -3.8680236      0.38011991     104.50899    
     84060   135.4215       158.5          158.5          158.5          1.0118026      1.144747       2.6278448     -0.73718408     135.4215     
     84080   128.37029      158.5          158.5          158.5         -3.8238633     -5.4714677     -1.8961106     -4.1040115      128.37029    
     84100   142.40631      158.5          158.5          158.5         -0.36364545     0.15357797    -3.9373873      2.692873       142.40631    
     84120   126.36814      158.5          158.5          158.5         -4.0444293     -5.35801       -6.8384888      0.06321085     126.36814    
     84140   124.68316      158.5          158.5          158.5         -2.3419861     -2.2969796     -3.7277023     -1.0012763      124.68316    
     84160   114.27884      158.5          158.5          158.5          2.0699298      1.2839251      2.765309       2.1605552      114.27884    
     84180   129.66483      158.5          158.5          158.5         -3.144218       0.20500076    -5.3413329     -4.296322       129.66483    
     84200   129.03682      158.5          158.5          158.5          3.3359178      6.4856308      2.7087938      0.81332884     129.03682    
     84220   134.34021      158.5          158.5          158.5          2.2413147      0.16439103     4.1528663      2.4066867      134.34021    
     84240   139.49081      158.5          158.5          158.5         -0.17596228     0.41347305    -3.4632914      2.5219315      139.49081    
     84260   128.23198      158.5          158.5          158.5          5.434138       8.5657044      3.9947088      3.742001       128.23198    
     84280   143.9884       158.5          158.5          158.5         -3.8509961     -6.3742694     -1.7404961     -3.4382227      143.9884     
     84300   149.77898      158.5          158.5          158.5          1.2557416      0.054152195    1.9103678      1.8027049      149.77898    
     84320   130.94218      158.5          158.5          158.5          1.9048791      2.9694519      1.9597603      0.78542503     130.94218    
     84340   127.18915      158.5          158.5          158.5         -1.2927467      1.1780179     -4.6906354     -0.36562256     127.18915    
     84360   137.69104      158.5          158.5          158.5          3.2915328     -0.089531991    3.508624       6.4555063      137.69104    
     84380   137.66356      158.5          158.5          158.5         -2.4732667     -4.5172886     -2.896285      -0.0062265249   137.66356    
     84400   137.52058      158.5          158.5          158.5          1.6646321      6.1387251     -0.85715196    -0.28767675     137.52058    
     84420   126.42646      158.5          158.5          158.5          2.4711193      1.3974238      2.8052603      3.2106738      126.42646    
     84440   140.48384      158.5          158.5          158.5         -3.3705533     -6.1811731      1.5685209     -5.4990078      140.48384    
     84460   167.22952      158.5          158.5          158.5          1.4903407      5.2977605      4.0716222     -4.8983605      167.22952    
     84480   127.91224      158.5          158.5          158.5          0.3787303     -0.16006842    -1.2716471      2.5679064      127.91224    
     84500   130.91601      158.5          158.5          158.5         -3.1517491     -6.2532806     -1.3389528     -1.863014       130.91601    
     84520   134.4744       158.5          158.5          158.5          1.7168017      1.2890766      3.156964       0.70436465     134.4744     
     84540   124.52462      158.5          158.5          158.5          1.1480707      1.1462018     -0.31194642     2.6099568      124.52462    
     84560   134.89042      158.5          158.5          158.5         -3.9970114     -2.1872368     -6.3679345     -3.4358629      134.89042    
     84580   123.40162      158.5          158.5          158.5          1.1511097      0.89230773     2.829891      -0.26886965     123.40162    
     84600   132.31253      158.5          158.5          158.5         -1.1160438     -2.8947722      1.5027637     -1.956123       132.31253    
     84620   137.43662      158.5          158.5          158.5         -3.2811066     -3.229141      -5.0496568     -1.5645221      137.43662    
     84640   121.74641      158.5          158.5          158.5          3.6872125      4.4410305      3.1903664      3.4302408      121.74641    
     84660   139.45432      158.5          158.5          158.5         -2.2432821     -2.5967789      0.11284712    -4.2459145      139.45432    
     84680   123.99273      158.5          158.5          158.5          0.87675638     1.6148855      0.44990845     0.5654752      123.99273    
     84700   127.19106      158.5          158.5          158.5          3.9470013      1.3839815      3.5032032      6.953819       127.19106    
     84720   140.76218      158.5          158.5          158.5         -4.3007896     -6.2815137     -3.8477427     -2.7731124      140.76218    
     84740   128.52801      158.5          158.5          158.5          2.5077286      3.5340256      2.7608195      1.2283406      128.52801    
     84760   117.08541      158.5          158.5          158.5          1.2568297      2.0927721      2.3198382     -0.64212135     117.08541    
     84780   138.01839      158.5          158.5          158.5          1.6634851      1.4884313      2.6583775      0.84364663     138.01839    
     84800   135.46614      158.5          158.5          158.5          5.3383169      5.6514468      6.6035125      3.7599913      135.46614    
     84820   119.19249      158.5          158.5          158.5         -0.65774511     0.95948492     1.4140405     -4.3467608      119.19249    
     84840   122.12196      158.5          158.5          158.5          1.2400316     -0.26793384     3.6927126      0.29531605     122.12196    
     84860   136.00675      158.5          158.5          158.5         -1.9359467     -3.9254643      0.31363833    -2.1960142      136.00675    
     84880   122.72194      158.5          158.5          158.5         -2.5091935     -3.0706723     -0.30591733    -4.1509908      122.72194    
     84900   137.97429      158.5          158.5          158.5          0.41413636     0.055282427    2.6515098     -1.4643831      137.97429    
     84920   129.15902      158.5          158.5          158.5         -0.76516469    -2.1943021     -0.209767       0.10857505     129.15902    
     84940   125.85861      158.5          158.5          158.5          1.9176495     -0.072487152    1.5761273      4.2493084      125.85861    
     84960   117.02613      158.5          158.5          158.5         -2.828569      -0.64010089    -4.6454357     -3.2001704      117.02613    
     84980   128.1766       158.5          158.5          158.5          1.5760207      2.7926987      3.3560578     -1.4206943      128.1766     
     85000   122.02568      158.5          158.5          158.5         -0.65789795    -4.1874892     -0.58105801     2.7948533      122.02568    
     85020   117.89122      158.5          158.5          158.5         -4.4017894     -7.1067522     -4.4369422     -1.6616737      117.89122    
     85040   113.02395      158.5          158.5          158.5          1.8405539      3.222328       3.3373968     -1.038063       113.02395    
     85060   105.77833      158.5          158.5          158.5         -5.829582      -4.3374537     -6.7389293     -6.4123629      105.77833    
     85080   107.16295      158.5          158.5          158.5          0.35380736    -0.6299925     -0.33551562     2.0269302      107.16295    
     85100   107.54164      158.5          158.5          158.5         -0.65480881    -4.4867468      0.31248423     2.2098361      107.54164    
     85120   114.33811      158.5          158.5          158.5         -2.2373977     -0.56363781    -1.9501575     -4.1983979      114.33811    
     85140   115.25558      158.5          158.5          158.5          5.0719409      8.4740966      7.4095892     -0.6678632      115.25558    
     85160   126.75097      158.5          158.5          158.5          0.40599856    -0.19203191     1.9320568     -0.52202925     126.75097    
     85180   116.41468      158.5          158.5          158.5          2.1586501     -0.9128556      0.24185792     7.146948       116.41468    
     85200   102.90425      158.5          158.5          158.5         -0.64846057    -1.2464691     -0.58052016    -0.11839241     102.90425    
     85220   121.91408      158.5          158.5          158.5         -0.076161428    1.6570889      1.3623884     -3.2479616      121.91408    
     85240   101.87954      158.5          158.5          158.5          0.45911406    -1.4799183     -0.031249224    2.8885097      101.87954    
     85260   119.46514      158.5          158.5          158.5         -2.4218602     -3.4398852     -4.5552796      0.7295841      119.46514    
     85280   109.14083      158.5          158.5          158.5          2.1995505      3.1420893      2.3906609      1.0659014      109.14083    
     85300   105.96332      158.5          158.5          158.5         -3.3653613     -2.2933765     -0.95247577    -6.8502316      105.96332    
     85320   119.30366      158.5          158.5          158.5         -0.36525919    -3.2642039      0.58884565     1.5795807      119.30366    
     85340   113.53994      158.5          158.5          158.5          2.2014585      2.7894209      0.0056334547   3.8093213      113.53994    
     85360   114.48256      158.5          158.5          158.5         -1.4751481      1.4660551     -2.6655865     -3.2259129      114.48256    
     85380   107.98765      158.5          158.5          158.5          3.5970612      4.9218994      4.6393431      1.2299412      107.98765    
     85400   122.73887      158.5          158.5          158.5         -3.3721807     -6.8646661     -2.5796983     -0.67217783     122.73887    
     85420   113.39302      158.5          158.5          158.5         -3.2865046     -4.880883      -2.9317853     -2.0468455      113.39302    
     85440   110.72086      158.5          158.5          158.5          2.8908491      5.3590839      0.42221843     2.8912451      110.72086    
     85460   96.043889      158.5          158.5          158.5         -0.72624569    -1.3118802     -1.5065441      0.63968724     96.043889    
     85480   115.12305      158.5          158.5          158.5          0.16543981     0.17742554     0.31487149     0.0040223972   115.12305    
     85500   98.002812      158.5          158.5          158.5          0.47540001     0.82235804    -1.4137235      2.0175655      98.002812    
     85520   113.7097       158.5          158.5          158.5          0.010885903    0.57278723     0.99807845    -1.538208       113.7097     
     85540   104.57326      158.5          158.5          158.5          0.64183843     0.087235603    0.69654613     1.1417336      104.57326    
     85560   124.08822      158.5          158.5          158.5          1.8967337      1.060276      -0.68795486     5.3178801      124.08822    
     85580   122.77369      158.5          158.5          158.5          1.5787413      1.1144718      2.2009923      1.4207597      122.77369    
     85600   114.57617      158.5          158.5          158.5          3.3491971      2.9152162      5.2072733      1.9251018      114.57617    
     85620   105.55073      158.5          158.5          158.5          1.6504992     -1.9121103      3.8640633      2.9995445      105.55073    
     85640   113.71128      158.5          158.5          158.5         -0.39423219    -1.1441029     -0.5011954      0.46260179     113.71128    
     85660   114.00011      158.5          158.5          158.5          2.3343093      3.939991       0.4062258      2.6567112      114.00011    
     85680   115.31988      158.5          158.5          158.5         -0.24935519     0.26292461     2.913967      -3.9249572      115.31988    
     85700   131.78447      158.5          158.5          158.5          0.58438129     2.5198891     -0.061955802   -0.70478945     131.78447    
     85720   125.88049      158.5          158.5          158.5         -0.25914895     2.7712042     -3.9107735      0.36212247     125.88049    
     85740   140.78404      158.5          158.5          158.5         -1.0794567     -1.4661026      1.8962237     -3.6684912      140.78404    
     85760   121.68383      158.5          158.5          158.5          3.427526       1.5580959      5.4076008      3.3168814      121.68383    
     85780   123.7669       158.5          158.5          158.5          1.0924064      1.2707464     -1.4974181      3.5038908      123.7669     
     85800   120.53737      158.5          158.5          158.5         -0.38947429     0.9783533     -2.2484012      0.10162501     120.53737    
     85820   112.06458      158.5          158.5          158.5          0.20950653     2.0436668      0.76383526    -2.1789824      112.06458    
     85840   134.86259      158.5          158.5          158.5         -3.2582697     -8.1864638      0.23181137    -1.8201565      134.86259    
     85860   120.50796      158.5          158.5          158.5         -2.8382773     -4.4705825     -3.2245068     -0.81974265     120.50796    
     85880   115.3268       158.5          158.5          158.5          0.29969629     4.1363179     -4.2114444      0.97421537     115.3268     
     85900   126.43632      158.5          158.5          158.5         -3.521132      -3.182829      -3.9570679     -3.4234992      126.43632    
     85920   117.13993      158.5          158.5          158.5          1.0756937     -1.1303403      2.719094       1.6383275      117.13993    
     85940   128.15466      158.5          158.5          158.5          2.2058106      4.5898331     -1.7548805      3.7824792      128.15466    
     85960   129.62595      158.5          158.5          158.5         -1.9618319     -1.062756      -4.9142259      0.091486143    129.62595    
     85980   120.98307      158.5          158.5          158.5          1.0292333     -1.2787854      1.6884101      2.6780754      120.98307    
     86000   118.69828      158.5          158.5          158.5         -0.92889917    -1.9421396     -0.64380171    -0.20075619     118.69828    
     86020   120.48662      158.5          158.5          158.5         -2.3543695      0.65169811    -1.7440925     -5.9707141      120.48662    
     86040   131.06717      158.5          158.5          158.5         -4.0369138     -4.737414      -6.7090113     -0.66431617     131.06717    
     86060   115.40249      158.5          158.5          158.5         -4.5398899     -6.3853923     -7.7736071      0.53932977     115.40249    
     86080   109.98046      158.5          158.5          158.5         -2.1738682     -3.6488518      0.43797043    -3.3107232      109.98046    
     86100   119.40167      158.5          158.5          158.5         -0.55096879     0.10311969     2.6406673     -4.3966933      119.40167    
     86120   119.83931      158.5          158.5          158.5          1.3252812      0.41055608     1.6220372      1.9432503      119.83931    
     86140   126.83265      158.5          158.5          158.5         -2.4454039     -1.8628111     -0.55421334    -4.9191871      126.83265    
     86160   122.92779      158.5          158.5          158.5          1.2865138      2.9742784      3.0503697     -2.1651065      122.92779    
     86180   128.64822      158.5          158.5          158.5          1.6481909      2.1514038      3.5652426     -0.77207382     128.64822    
     86200   130.90502      158.5          158.5          158.5         -0.29290134    -2.1834436      1.965128      -0.66038846     130.90502    
     86220   125.96332      158.5          158.5          158.5          5.7957906      3.781509       5.3888093      8.2170535      125.96332    
     86240   129.98067      158.5          158.5          158.5          0.67386249     1.2776669      0.90456989    -0.16064934     129.98067    
     86260   123.57349      158.5          158.5          158.5          0.34391972     2.2658722      1.9623218     -3.1964348      123.57349    
     86280   136.88456      158.5          158.5          158.5          1.6780736      2.640635       0.85897643     1.5346093      136.88456    
     86300   152.82558      158.5          158.5          158.5         -3.8495868     -8.2413809      0.23651504    -3.5438944      152.82558    
     86320   123.53673      158.5          158.5          158.5          3.3816765      0.68789329     5.6551101      3.8020262      123.53673    
     86340   128.75907      158.5          158.5          158.5          3.7423827      4.4535793      0.00094014008  6.7726288      128.75907    
     86360   146.62255      158.5          158.5          158.5          1.5469816      2.7470394      0.34877837     1.545127       146.62255    
     86380   135.22886      158.5          158.5          158.5          1.8176006      1.217764       4.0126407      0.22239719     135.22886    
     86400   154.6188       158.5          158.5          158.5         -2.5746668     -1.9540214     -2.3589883     -3.4109907      154.6188     
     86420   120.51146      158.5          158.5          158.5          0.59495837     4.9110784      0.50706919    -3.6332725      120.51146    
     86440   133.90238      158.5          158.5          158.5          0.42218041     2.1760807      0.28968335    -1.1992228      133.90238    
     86460   133.98742      158.5          158.5          158.5         -0.14227207    -5.6326985      0.31574481     4.8901375      133.98742    
     86480   121.10947      158.5          158.5          158.5          2.5131694     -1.9250533      3.6514128      5.8131489      121.10947    
     86500   122.24696      158.5          158.5          158.5         -2.3718649      1.964511      -1.7233846     -7.3567211      122.24696    
     86520   127.93919      158.5          158.5          158.5          0.85209119     3.5236895      1.4607996     -2.4282156      127.93919    
     86540   118.95534      158.5          158.5          158.5         -0.53222612    -4.4690636     -0.054275108    2.9266604      118.95534    
     86560   121.53671      158.5          158.5          158.5         -1.5376994      0.015417508   -3.6397231     -0.98879271     121.53671    
     86580   129.20588      158.5          158.5          158.5          1.9568287      6.2732976     -1.3507674      0.94795593     129.20588    
     86600   127.74975      158.5          158.5          158.5         -0.74280798    -1.2782484      0.95167962    -1.9018551      127.74975    
     86620   121.65688      158.5          158.5          158.5          2.190469       2.9926675      3.7472349     -0.16849529     121.65688    
     86640   114.99632      158.5          158.5          158.5          2.0607122      3.6330108     -1.4533281      4.002454       114.99632    
     86660   126.26734      158.5          158.5          158.5         -0.90538418     0.7841167     -4.1135038      0.61323459     126.26734    
     86680   126.66892      158.5          158.5          158.5          2.0505905      0.088666294    4.275904       1.7872012      126.66892    
     86700   112.96791      158.5          158.5          158.5         -3.8101409     -8.4865981     -0.48506855    -2.4587561      112.96791    
     86720   129.58885      158.5          158.5          158.5         -1.6380848      0.77953015    -3.6182334     -2.0755511      129.58885    
     86740   123.86934      158.5          158.5          158.5          0.67313065     3.3857281     -2.5207948      1.1544587      123.86934    
     86760   122.67321      158.5          158.5          158.5         -3.2558756     -3.8832376     -1.7716346     -4.1127546      122.67321    
     86780   129.6917       158.5          158.5          158.5          1.8860107      0.99562213     5.2201689     -0.5577589      129.6917     
     86800   145.68285      158.5          158.5          158.5          0.62493631    -0.35998798     0.14183574     2.0929612      145.68285    
     86820   132.88559      158.5          158.5          158.5         -0.75623134    -0.3090854     -1.463177      -0.49643156     132.88559    
     86840   143.81577      158.5          158.5          158.5          1.9691539      1.9358982      6.5155185     -2.543955       143.81577    
     86860   151.25117      158.5          158.5          158.5         -1.7831659     -4.1463647      2.1425237     -3.3456568      151.25117    
     86880   146.76398      158.5          158.5          158.5          1.1667963      1.6492749      0.016669545    1.8344444      146.76398    
     86900   157.55379      158.5          158.5          158.5          1.3403536     -0.19764749     2.8439299      1.3747783      157.55379    
     86920   167.42842      158.5          158.5          158.5          0.095615364   -2.3128993      4.4900176     -1.8902722      167.42842    
     86940   149.08857      158.5          158.5          158.5          0.35983038     4.3452526      1.2838093     -4.5495708      149.08857    
     86960   148.33351      158.5          158.5          158.5         -0.7113862      0.92123624    -5.8359312      2.7805363      148.33351    
     86980   156.26893      158.5          158.5          158.5          0.0074760738  -4.5235394     -1.208178       5.7541455      156.26893    
     87000   151.49373      158.5          158.5          158.5         -1.0733914      0.16369831    -0.046011952   -3.3378606      151.49373    
     87020   165.13025      158.5          158.5          158.5          1.3935244      6.9264786      0.63411037    -3.3800158      165.13025    
     87040   145.24754      158.5          158.5          158.5         -1.0662672     -0.44101773    -4.1724221      1.4146383      145.24754    
     87060   162.71138      158.5          158.5          158.5          0.20392003    -2.779112      -1.9745863      5.3654584      162.71138    
     87080   151.2291       158.5          158.5          158.5          2.4629794      6.6252869      3.4130501     -2.649399       151.2291     
     87100   141.95822      158.5          158.5          158.5         -0.12471307     3.133399      -0.30756418    -3.199974       141.95822    
     87120   137.05067      158.5          158.5          158.5          0.20342356    -1.3561495     -0.67339085     2.6398111      137.05067    
     87140   137.33284      158.5          158.5          158.5         -1.3563534     -2.1282641     -1.5124762     -0.42831988     137.33284    
     87160   143.02992      158.5          158.5          158.5         -2.5969603     -1.76951       -3.5334524     -2.4879186      143.02992    
     87180   136.41408      158.5          158.5          158.5         -1.5904792     -0.57756646    -1.7049986     -2.4888725      136.41408    
     87200   129.13326      158.5          158.5          158.5         -1.483765      -1.9222427      0.79287757    -3.3219298      129.13326    
     87220   130.21514      158.5          158.5          158.5          1.2226688      1.8011318      0.16024884     1.7066259      130.21514    
     87240   138.40238      158.5          158.5          158.5          0.86900788     2.3366535      0.93724062    -0.6668705      138.40238    
     87260   143.93501      158.5          158.5          158.5          0.12195251    -0.0007073408   6.3103354     -5.9437706      143.93501    
     87280   124.65433      158.5          158.5          158.5          0.33184265    -0.97053409     4.6809224     -2.7148604      124.65433    
     87300   143.60679      158.5          158.5          158.5          0.23234593    -0.90299868     0.52392025     1.0761162      143.60679    
     87320   128.67077      158.5          158.5          158.5         -1.1705421     -1.8044956     -0.085619979   -1.6215108      128.67077    
     87340   142.43692      158.5          158.5          158.5         -0.60563801    -0.10206151     0.70257349    -2.417426       142.43692    
     87360   144.66583      158.5          158.5          158.5         -2.7498303     -3.9857016      1.1905415     -5.4543309      144.66583    
     87380   120.93918      158.5          158.5          158.5         -1.4658654     -0.98253987    -1.879782      -1.5352743      120.93918    
     87400   123.05758      158.5          158.5          158.5         -0.8339568     -0.75659401    -3.6233373      1.878061       123.05758    
     87420   130.31413      158.5          158.5          158.5         -0.87972918    -1.605823      -0.93349816    -0.099866379    130.31413    
     87440   126.43274      158.5          158.5          158.5         -0.40579815    -0.30968079     2.0418091     -2.9495228      126.43274    
     87460   140.97868      158.5          158.5          158.5         -1.0108065     -0.71263813    -4.3811907      2.0614094      140.97868    
     87480   134.09008      158.5          158.5          158.5         -0.048924824    3.5320907     -5.4141863      1.7353211      134.09008    
     87500   142.4729       158.5          158.5          158.5         -1.174971       0.39540212    -4.159772       0.23945687     142.4729     
     87520   138.19349      158.5          158.5          158.5          1.9790259      3.3008549     -4.6345654      7.2707883      138.19349    
     87540   134.89092      158.5          158.5          158.5          0.4502652      1.4849654     -2.0498664      1.9156966      134.89092    
     87560   139.0168       158.5          158.5          158.5         -0.70098278    -0.87315325    -0.87990375    -0.34989134     139.0168     
     87580   141.06252      158.5          158.5          158.5          2.5186564      0.87908815     0.48155129     6.1953296      141.06252    
     87600   134.00289      158.5          158.5          158.5         -1.875547      -2.0093274     -1.8779083     -1.7394054      134.00289    
     87620   133.78084      158.5          158.5          158.5          1.4229989      3.805105      -1.4073064      1.8711981      133.78084    
     87640   135.32518      158.5          158.5          158.5          1.6521731      1.9110142     -1.2810596      4.3265648      135.32518    
     87660   146.69036      158.5          158.5          158.5         -2.6080324     -6.3145204     -1.0019688     -0.50760788     146.69036    
     87680   128.64516      158.5          158.5          158.5          0.89252456     3.3972648     -1.4340116      0.71432046     128.64516    
     87700   137.46393      158.5          158.5          158.5          1.2978088      2.8991993     -0.27951464     1.2737417      137.46393    
     87720   132.68985      158.5          158.5          158.5         -0.90721647    -6.2912274      2.2073448      1.3622331      132.68985    
     87740   147.65986      158.5          158.5          158.5          0.54995499    -3.5787785      2.0800666      3.1485769      147.65986    
     87760   136.44438      158.5          158.5          158.5         -0.50224974    -2.610497      -0.56667644     1.6704243      136.44438    
     87780   143.6403       158.5          158.5          158.5          0.75984906     1.0132791      0.11804684     1.1482213      143.6403     
     87800   146.36347      158.5          158.5          158.5          0.50790466     0.34899411    -0.4841502      1.6588701      146.36347    
     87820   144.57951      158.5          158.5          158.5         -0.51402163    -4.4122839      0.43633333     2.4338856      144.57951    
     87840   142.22288      158.5          158.5          158.5          4.0640066      5.1965227      3.5367868      3.4587102      142.22288    
     87860   142.53576      158.5          158.5          158.5          1.1626692      1.2728938      0.23397807     1.9811356      142.53576    
     87880   121.17988      158.5          158.5          158.5         -1.4026101     -4.8322973     -0.53982448     1.1642916      121.17988    
     87900   132.46818      158.5          158.5          158.5         -2.1988287     -3.8827164     -1.6371007     -1.0766689      132.46818    
     87920   122.88704      158.5          158.5          158.5         -2.2397962      0.77610187    -3.8096273     -3.6858633      122.88704    
     87940   117.05223      158.5          158.5          158.5          4.5845063      6.0630719      6.4229694      1.2674777      117.05223    
     87960   125.03037      158.5          158.5          158.5          0.26959576    -3.1516099      4.1774392     -0.21704193     125.03037    
     87980   126.35053      158.5          158.5          158.5          1.0826755      0.12861103     2.476455       0.64296044     126.35053    
     88000   130.86538      158.5          158.5          158.5          4.3193718      5.5125614      5.490291       1.955263       130.86538    
     88020   116.48781      158.5          158.5          158.5         -2.2112516     -4.6113407      0.28491838    -2.3073325      116.48781    
     88040   126.21406      158.5          158.5          158.5         -0.19719532    -2.415537      -0.1091487      1.9330997      126.21406    
     88060   125.74477      158.5          158.5          158.5          1.52811        3.7579157      0.78315049     0.043263937    125.74477    
     88080   128.99836      158.5          158.5          158.5         -3.6546939     -2.9905165     -3.4017626     -4.5718026      128.99836    
     88100   128.25154      158.5          158.5          158.5          1.7850354      1.5501354      3.1821817      0.62278918     128.25154    
     88120   119.63745      158.5          158.5          158.5         -0.23718267     1.5404773     -0.14109183    -2.1109335      119.63745    
     88140   121.0325       158.5          158.5          158.5         -2.3761999     -0.41946317    -4.8780535     -1.8310829      121.0325     
     88160   124.48517      158.5          158.5          158.5          3.5627458      3.4279863      4.5651413      2.6951099      124.48517    
     88180   123.36305      158.5          158.5          158.5         -0.26207122    -1.8651286      0.80000034     0.27891464     123.36305    
     88200   131.21902      158.5          158.5          158.5          0.90772602    -0.74217655     0.036450964    3.4289036      131.21902    
     88220   140.27305      158.5          158.5          158.5         -0.48256039    -1.8026971     -1.96424        2.319256       140.27305    
     88240   122.16541      158.5          158.5          158.5         -0.95263079    -3.4957446     -0.43065939     1.0685116      122.16541    
     88260   125.68864      158.5          158.5          158.5          3.7968757      4.6054897      3.4168378      3.3682998      125.68864    
     88280   129.0114       158.5          158.5          158.5         -0.28932807     1.5852229     -4.6547801      2.201573       129.0114     
     88300   138.06973      158.5          158.5          158.5          2.516543       0.18814651     3.0384287      4.3230536      138.06973    
     88320   128.35568      158.5          158.5          158.5         -0.93139443     0.59936931    -0.54313433    -2.8504183      128.35568    
     88340   130.7322       158.5          158.5          158.5         -2.523601       1.0864597     -3.8883666     -4.7688961      130.7322     
     88360   119.09916      158.5          158.5          158.5         -0.038624963   -3.9655734      0.67081046     3.178888       119.09916    
     88380   133.24823      158.5          158.5          158.5         -5.0324165     -6.0607371     -5.3974331     -3.6390792      133.24823    
     88400   129.95903      158.5          158.5          158.5          1.0558321      6.2839053     -1.1089943     -2.0074147      129.95903    
     88420   138.56314      158.5          158.5          158.5         -2.8402726     -2.5157718     -3.7091867     -2.2958594      138.56314    
     88440   124.77892      158.5          158.5          158.5         -0.89732729    -1.1150864     -1.621311       0.04441555     124.77892    
     88460   121.73127      158.5          158.5          158.5          0.99542494     3.7617636     -1.6536184      0.87812967     121.73127    
     88480   138.24879      158.5          158.5          158.5         -4.0406318     -5.1369309     -2.8039824     -4.1809821      138.24879    
     88500   121.69588      158.5          158.5          158.5          2.5881491     -1.861105       5.1218431      4.5037093      121.69588    
     88520   116.03555      158.5          158.5          158.5         -2.4819443     -3.3182871     -4.4044058      0.27686009     116.03555    
     88540   134.05938      158.5          158.5          158.5         -1.8353241      0.082590387   -4.3327945     -1.2557683      134.05938    
     88560   125.78383      158.5          158.5          158.5         -0.13946952    -0.7973654      1.2496798     -0.87072295     125.78383    
     88580   117.46925      158.5          158.5          158.5         -0.42325808     0.56353032    -1.8887085      0.055403915    117.46925    
     88600   127.09749      158.5          158.5          158.5          4.1602934      5.4874664     -0.60190429     7.5953181      127.09749    
     88620   114.17439      158.5          158.5          158.5          0.03803704    -1.000974      -1.9051224      3.0202076      114.17439    
     88640   127.8051       158.5          158.5          158.5          3.0852367      2.5222127      2.4120278      4.3214695      127.8051     
     88660   112.71663      158.5          158.5          158.5          3.2183423      3.0130066      1.7818428      4.8601776      112.71663    
     88680   119.21942      158.5          158.5          158.5         -2.7311382     -3.2168698     -4.6858176     -0.2907271      119.21942    
     88700   114.31991      158.5          158.5          158.5          4.253723       2.574655       4.1657426      6.0207713      114.31991    
     88720   113.33799      158.5          158.5          158.5         -0.16032302    -0.87936302     1.749014      -1.35062        113.33799    
     88740   110.3513       158.5          158.5          158.5         -1.2638951     -0.9677809      0.4645401     -3.2884446      110.3513     
     88760   104.755        158.5          158.5          158.5          2.9250837      3.6275354      2.7618936      2.385822       104.755      
     88780   111.64341      158.5          158.5          158.5         -4.8733579     -3.3868234     -4.3870697     -6.8461807      111.64341    
     88800   114.01135      158.5          158.5          158.5         -0.45378177     2.344972      -1.5234572     -2.1828602      114.01135    
     88820   123.4871       158.5          158.5          158.5          1.842904       2.5224082      1.2830431      1.7232608      123.4871     
     88840   108.23538      158.5          158.5          158.5         -4.6912763     -6.4433473     -2.3824178     -5.2480639      108.23538    
     88860   100.60323      158.5          158.5          158.5          3.1425857      2.902942       4.5035196      2.0212954      100.60323    
     88880   116.39927      158.5          158.5          158.5         -3.8367093     -2.8535302     -5.0730949     -3.5835029      116.39927    
     88900   111.55543      158.5          158.5          158.5         -2.4294616     -1.0592468     -0.98702404    -5.2421139      111.55543    
     88920   127.96584      158.5          158.5          158.5          4.2003205      3.3958924      4.3682686      4.8368005      127.96584    
     88940   118.52665      158.5          158.5          158.5         -3.7468425     -7.2307482     -2.0016311     -2.0081483      118.52665    
     88960   132.62249      158.5          158.5          158.5          4.1028815      4.3095142      4.186867       3.8122633      132.62249    
     88980   141.24901      158.5          158.5          158.5          1.7201854      6.9884486     -2.8882919      1.0603995      141.24901    
     89000   138.92378      158.5          158.5          158.5          0.71121563    -1.8397082      2.1746116      1.7987435      138.92378    
     89020   138.71913      158.5          158.5          158.5          3.0160145     -1.7486384      8.6049075      2.1917744      138.71913    
     89040   137.89498      158.5          158.5          158.5         -4.5361847     -0.53744026    -5.711486      -7.359628       137.89498    
     89060   136.39274      158.5          158.5          158.5          2.9038586      5.4636773      2.433404       0.81449438     136.39274    
     89080   131.36019      158.5          158.5          158.5         -1.490811      -4.9843063      0.13757805     0.3742953      131.36019    
     89100   139.19768      158.5          158.5          158.5         -1.2675871     -5.36354        2.4648295     -0.90405093     139.19768    
     89120   135.95329      158.5          158.5          158.5          1.6132819      4.5307851     -0.34249483     0.65155543     135.95329    
     89140   136.86193      158.5          158.5          158.5         -4.3715605     -3.5394142     -7.838653      -1.7366144      136.86193    
     89160   145.19682      158.5          158.5          158.5          2.9144694     -1.3113155      9.4716335      0.58309007     145.19682    
     89180   124.33524      158.5          158.5          158.5         -2.3096677     -3.7843716      0.72760537    -3.8722367      124.33524    
     89200   127.83009      158.5          158.5          158.5          0.0050299609   3.1938604     -4.0058008      0.82703027     127.83009    
     89220   132.84643      158.5          158.5          158.5          0.8161117      4.0366006     -0.6524501     -0.9358154      132.84643    
     89240   126.89043      158.5          158.5          158.5         -3.3365384     -8.3452031      3.9924999     -5.6569121      126.89043    
     89260   119.12716      158.5          158.5          158.5         -0.46282538    -3.6272361      3.0566173     -0.81785741     119.12716    
     89280   134.7856       158.5          158.5          158.5         -3.5528963     -2.6545156     -7.7846294     -0.21954403     134.7856     
     89300   132.14814      158.5          158.5          158.5         -0.79005185     2.5707188     -2.320827      -2.6200474      132.14814    
     89320   129.12238      158.5          158.5          158.5          0.31941574     0.27831978     3.1951557     -2.5152283      129.12238    
     89340   119.20972      158.5          158.5          158.5          0.54267839    -3.0165335      2.5077487      2.13682        119.20972    
     89360   128.71058      158.5          158.5          158.5          2.5529159      2.4059998      2.4778871      2.7748608      128.71058    
     89380   126.56817      158.5          158.5          158.5          1.8732611      3.3906118      1.952923       0.27624859     126.56817    
     89400   128.83967      158.5          158.5          158.5          2.2090414     -0.087040757    1.8946473      4.8195177      128.83967    
     89420   133.58097      158.5          158.5          158.5          0.81870484    -1.8347385      1.0733629      3.2174901      133.58097    
     89440   133.21525      158.5          158.5          158.5          0.29773914     1.6113835      0.97425913    -1.6924252      133.21525    
     89460   120.62611      158.5          158.5          158.5          0.9404588      5.2510858     -0.59144376    -1.8382656      120.62611    
     89480   126.75573      158.5          158.5          158.5          0.10742954    -1.491757      -2.3037188      4.1177644      126.75573    
     89500   143.45972      158.5          158.5          158.5         -1.0623689     -6.4177997      1.3793892      1.8513038      143.45972    
     89520   117.829        158.5          158.5          158.5          0.053796009    2.1215868      0.42948222    -2.389681       117.829      
     89540   126.69474      158.5          158.5          158.5         -1.1453778      5.1909524     -3.547817      -5.0792689      126.69474    
     89560   135.94028      158.5          158.5          158.5          0.22738883    -0.40117593    -0.67634495     1.7596874      135.94028    
     89580   140.3391       158.5          158.5          158.5          2.059135      -0.30278455     1.269667       5.2105227      140.3391     
     89600   131.98581      158.5          158.5          158.5          1.2242599      5.7352701     -1.5544645     -0.50802602     131.98581    
     89620   138.49468      158.5          158.5          158.5          1.9194872      5.5441758      1.1465375     -0.9322517      138.49468    
     89640   132.07973      158.5          158.5          158.5          0.69146616     1.5450351     -0.56281992     1.0921833      132.07973    
     89660   127.44169      158.5          158.5          158.5         -2.8661735     -3.1862659     -6.1077617      0.69550716     127.44169    
     89680   115.71834      158.5          158.5          158.5         -1.8425545     -2.4468694     -2.2349537     -0.84584038     115.71834    
     89700   131.58355      158.5          158.5          158.5         -3.7793158     -5.6816406     -0.67356547    -4.9827414      131.58355    
     89720   115.31094      158.5          158.5          158.5         -1.6349476     -3.2739268     -1.2516532     -0.37926289     115.31094    
     89740   120.37769      158.5          158.5          158.5          1.8251725     -1.6091447      0.17985786     6.9048045      120.37769    
     89760   122.71325      158.5          158.5          158.5         -0.56010197    -0.73852295    -1.2841974      0.34241448     122.71325    
     89780   116.58623      158.5          158.5          158.5          4.2418553      6.9354003      2.7723733      3.0177923      116.58623    
     89800   113.30238      158.5          158.5          158.5          4.1618746      4.3180693      5.336243       2.8313114      113.30238    
     89820   99.121525      158.5          158.5          158.5          0.22138146    -1.6239933     -1.6996938      3.9878316      99.121525    
     89840   113.9555       158.5          158.5          158.5         -0.65899342     2.3166419     -4.637224       0.3436018      113.9555     
     89860   124.23402      158.5          158.5          158.5         -3.3446348      0.29271704    -4.395669      -5.9309525      124.23402    
     89880   131.47803      158.5          158.5          158.5         -0.26416689     1.6039149     -2.4640084      0.067592802    131.47803    
     89900   112.25179      158.5          158.5          158.5          1.2097617      0.56138048     1.2173218      1.8505828      112.25179    
     89920   117.92673      158.5          158.5          158.5          1.6079205      0.61100749     2.3692084      1.8435456      117.92673    
     89940   107.12061      158.5          158.5          158.5          2.6916512      5.2644639      2.0017214      0.80876838     107.12061    
     89960   123.20689      158.5          158.5          158.5         -2.8837021     -6.2698884     -0.53637709    -1.8448407      123.20689    
     89980   113.38623      158.5          158.5          158.5         -2.3566781     -6.3474356     -1.6874147      0.96481595     113.38623    
     90000   123.25977      158.5          158.5          158.5         -2.6288583      1.3926055     -4.9328376     -4.3463429      123.25977    
     90020   126.0743       158.5          158.5          158.5         -1.6678344      2.4699106     -1.9109746     -5.5624392      126.0743     
     90040   125.03067      158.5          158.5          158.5          1.6774205      0.15373955     2.7894907      2.0890313      125.03067    
     90060   140.10893      158.5          158.5          158.5         -0.56532226    -2.9160791     -1.1884874      2.4085997      140.10893    
     90080   139.27245      158.5          158.5          158.5          0.12864976    -1.7624036     -1.5115023      3.6598551      139.27245    
     90100   140.19861      158.5          158.5          158.5         -0.45844158    -2.6066124      1.246973      -0.015685407    140.19861    
     90120   139.37482      158.5          158.5          158.5         -0.1594941      0.3456472      2.3295756     -3.153705       139.37482    
     90140   148.829        158.5          158.5          158.5          4.769193       4.6800642      5.2959418      4.3315729      148.829      
     90160   141.60732      158.5          158.5          158.5         -2.2772601     -0.26190763    -5.1379459     -1.4319269      141.60732    
     90180   151.25156      158.5          158.5          158.5         -0.72828986     3.8404334     -1.6249644     -4.4003385      151.25156    
     90200   163.41355      158.5          158.5          158.5         -1.1760652      3.7947511      1.3320792     -8.6550258      163.41355    
     90220   149.56165      158.5          158.5          158.5         -0.95123099     0.27757399     0.81296137    -3.9442283      149.56165    
     90240   130.9619       158.5          158.5          158.5          2.1056553      3.6747572      1.8066644      0.83554441     130.9619     
     90260   148.65444      158.5          158.5          158.5         -0.61813301     2.0747456      0.075689262   -4.0048339      148.65444    
     90280   145.67052      158.5          158.5          158.5          4.4727411      4.0034301      3.6712396      5.7435535      145.67052    
     90300   139.70562      158.5          158.5          158.5          2.1237192     -4.079318       5.7526611      4.6978143      139.70562    
     90320   129.90026      158.5          158.5          158.5          0.71225967    -0.54442083     1.2538161      1.4273837      129.90026    
     90340   132.29941      158.5          158.5          158.5         -0.16057073     5.0724989     -3.6097013     -1.9445098      132.29941    
     90360   131.82304      158.5          158.5          158.5         -4.531328      -2.9861213     -3.4374993     -7.1703633      131.82304    
     90380   120.46547      158.5          158.5          158.5          0.40073104    -4.323327       2.7011452      2.8243749      120.46547    
     90400   123.08281      158.5          158.5          158.5         -1.0483179     -0.62359155    -3.1011764      0.57981444     123.08281    
     90420   122.37493      158.5          158.5          158.5         -1.2497316      1.9843576     -1.058517      -4.6750354      122.37493    
     90440   121.11031      158.5          158.5          158.5          1.2474906     -1.1567864      6.0446061     -1.1453477      121.11031    
     90460   112.11669      158.5          158.5          158.5         -1.8633182     -2.0373661     -1.1937001     -2.3588884      112.11669    
     90480   118.87252      158.5          158.5          158.5          2.677425       1.7127236     -0.23836321     6.5579148      118.87252    
     90500   120.21019      158.5          158.5          158.5          0.89204519    -3.8097203      0.88712346     5.5987324      120.21019    
     90520   120.87932      158.5          158.5          158.5         -2.7657143     -1.6327087     -0.085643422   -6.5787907      120.87932    
     90540   123.6954       158.5          158.5          158.5         -1.8409653      1.5483193     -1.251813      -5.8194021      123.6954     
     90560   131.07401      158.5          158.5          158.5         -4.1798627     -6.0452647     -5.6513305     -0.84299287     131.07401    
     90580   129.92837      158.5          158.5          158.5         -2.0876793      0.9111653     -8.0334232      0.85922004     129.92837    
     90600   130.26123      158.5          158.5          158.5          0.61528581     3.2929661     -1.9534119      0.50630322     130.26123    
     90620   125.28537      158.5          158.5          158.5          1.227382      -1.3337434      4.8528496      0.16303967     125.28537    
     90640   132.60095      158.5          158.5          158.5          1.0270848      1.308602       3.0666724     -1.29402        132.60095    
     90660   133.02463      158.5          158.5          158.5          4.0179587      4.6771411      1.841528       5.5352071      133.02463    
     90680   113.44714      158.5          158.5          158.5          3.5195905      3.3231192      3.5296465      3.7060058      113.44714    
     90700   132.10714      158.5          158.5          158.5         -0.96946465     2.5790621     -2.2376933     -3.2497627      132.10714    
     90720   130.55686      158.5          158.5          158.5          2.2116618      2.8664389      1.8394443      1.9291023      130.55686    
     90740   126.34545      158.5          158.5          158.5         -3.3005301     -3.503769      -6.4126041      0.014782906    126.34545    
     90760   132.0055       158.5          158.5          158.5         -1.7728862     -2.406837      -3.1562725      0.24445069     132.0055     
     90780   124.07317      158.5          158.5          158.5          1.637393      -1.3977692      5.1156172      1.1943309      124.07317    
     90800   131.73277      158.5          158.5          158.5         -2.0331645     -2.6899184     -4.4476274      1.0380523      131.73277    
     90820   104.31371      158.5          158.5          158.5          2.3336995      4.2617739     -2.5494217      5.2887464      104.31371    
     90840   115.67827      158.5          158.5          158.5         -0.36853319    -1.4566733      1.1260481     -0.77497441     115.67827    
     90860   126.13688      158.5          158.5          158.5         -3.4201013     -3.1951085     -2.0026371     -5.0625582      126.13688    
     90880   113.09785      158.5          158.5          158.5         -2.4927986     -0.72438347    -2.2720601     -4.4819523      113.09785    
     90900   115.48109      158.5          158.5          158.5         -5.1753428     -5.6557831     -6.5190746     -3.3511708      115.48109    
     90920   118.82515      158.5          158.5          158.5          0.21590143    -0.31204863    -2.1538134      3.1135663      118.82515    
     90940   111.21999      158.5          158.5          158.5         -2.2550053     -4.2751078      1.1545631     -3.6444712      111.21999    
     90960   110.05404      158.5          158.5          158.5         -0.35563593    -0.76564718     3.0701973     -3.3714579      110.05404    
     90980   104.38025      158.5          158.5          158.5          0.55289672     2.3414112     -3.4734748      2.7907537      104.38025    
     91000   116.48972      158.5          158.5          158.5         -1.9575715     -2.3255735     -5.6837081      2.1365671      116.48972    
     91020   119.55119      158.5          158.5          158.5          2.1805349      5.1733229     -0.8364905      2.2047724      119.55119    
     91040   107.85935      158.5          158.5          158.5         -2.5117994      2.3922985     -4.2617532     -5.6659436      107.85935    
     91060   123.94719      158.5          158.5          158.5          0.90169043     0.66225366     0.56893562     1.473882       123.94719    
     91080   111.49858      158.5          158.5          158.5          1.7983412      0.71859112     0.26802004     4.4084124      111.49858    
     91100   125.39435      158.5          158.5          158.5          0.9833149      4.8563889     -2.1455442      0.23909996     125.39435    
     91120   119.20248      158.5          158.5          158.5          6.1674432      7.6289905      7.6261093      3.2472296      119.20248    
     91140   112.11787      158.5          158.5          158.5         -0.68646132    -1.9987207     -2.3205414      2.2598781      112.11787    
     91160   125.48503      158.5          158.5          158.5          2.0249377      2.1881341     -5.063283       8.9499621      125.48503    
     91180   126.40571      158.5          158.5          158.5          2.0851204      3.5793925      2.4412848      0.23468391     126.40571    
     91200   142.60099      158.5          158.5          158.5         -6.55489       -4.528684      -0.74436658    -14.391619      142.60099    
     91220   132.50937      158.5          158.5          158.5          0.95336565     0.11405301    -1.775101       4.5211449      132.50937    
     91240   126.15782      158.5          158.5          158.5         -4.6216932     -4.1142239     -6.9601838     -2.7906717      126.15782    
     91260   131.01407      158.5          158.5          158.5         -0.15767343     1.4732238      3.4594334     -5.4056775      131.01407    
     91280   138.39919      158.5          158.5          158.5          4.1382855      2.6466407      5.6945531      4.0736628      138.39919    
     91300   140.75264      158.5          158.5          158.5         -4.3726716     -2.1344107     -5.4297845     -5.5538195      140.75264    
     91320   143.82874      158.5          158.5          158.5          3.8357976      3.3305462      1.9482787      6.2285678      143.82874    
     91340   138.00315      158.5          158.5          158.5         -3.1811274     -7.839788      -1.011891      -0.69170314     138.00315    
     91360   143.00213      158.5          158.5          158.5         -1.4582025     -3.3989118      3.0014184     -3.9771141      143.00213    
     91380   143.25084      158.5          158.5          158.5          3.6781876      5.0757579      5.6224534      0.33635164     143.25084    
     91400   130.528        158.5          158.5          158.5         -5.0315094     -9.3374095     -2.2442394     -3.5128791      130.528      
     91420   137.57182      158.5          158.5          158.5          5.2989052      2.4016467      4.3327516      9.1623172      137.57182    
     91440   133.98913      158.5          158.5          158.5         -2.6391965     -2.7032097     -0.96043116    -4.2539486      133.98913    
     91460   135.58687      158.5          158.5          158.5         -3.2360544     -6.8879724      1.2879851     -4.108176       135.58687    
     91480   130.39817      158.5          158.5          158.5          5.3688479      2.1229479      6.6606532      7.3229428      130.39817    
     91500   133.63227      158.5          158.5          158.5         -3.1807308     -3.3643493     -5.5865608     -0.5912824      133.63227    
     91520   139.03471      158.5          158.5          158.5          3.7446634      3.5906664      2.2677376      5.3755862      139.03471    
     91540   123.37086      158.5          158.5          158.5          2.8586985      1.9416715      3.8574147      2.7770093      123.37086    
     91560   103.23036      158.5          158.5          158.5         -2.9902251     -4.1018385     -4.9355193      0.066682481    103.23036    
     91580   120.98745      158.5          158.5          158.5          4.376756       2.8105452      3.0773952      7.2423277      120.98745    
     91600   114.95908      158.5          158.5          158.5         -5.1279391     -6.2186715     -0.12208668    -9.043059       114.95908    
     91620   110.72692      158.5          158.5          158.5          0.33197189     0.75930055     2.0796405     -1.8430254      110.72692    
     91640   127.21268      158.5          158.5          158.5          1.4092821      0.23500796    -4.0887306      8.0815689      127.21268    
     91660   123.07776      158.5          158.5          158.5         -0.60804307    -0.46873186    -3.8475976      2.4922003      123.07776    
     91680   129.2234       158.5          158.5          158.5          4.7638785      5.183708       5.0597266      4.0482009      129.2234     
     91700   116.11725      158.5          158.5          158.5          0.018185224    0.34213607     0.18599344    -0.47357384     116.11725    
     91720   127.41495      158.5          158.5          158.5          3.4796363      4.3458391     -2.3625127      8.4555825      127.41495    
     91740   112.75132      158.5          158.5          158.5          0.1350852      0.74347838    -1.4646593      1.1264366      112.75132    
     91760   102.01669      158.5          158.5          158.5         -0.55075318    -1.354902       2.5390773     -2.8364348      102.01669    
     91780   101.86632      158.5          158.5          158.5          0.28089148     0.58187616    -2.2097035      2.4705018      101.86632    
     91800   103.59804      158.5          158.5          158.5         -4.3725815     -1.6776889     -6.5985711     -4.8414845      103.59804    
     91820   112.4491       158.5          158.5          158.5          1.4324172     -1.1666808      2.0953602      3.3685723      112.4491     
     91840   118.30331      158.5          158.5          158.5         -0.072952977   -4.4092244      0.0071442422   4.1832212      118.30331    
     91860   105.38256      158.5          158.5          158.5          2.2000315      1.7744258      3.3804422      1.4452265      105.38256    
     91880   126.59613      158.5          158.5          158.5          2.1272305      3.4688375      3.9403375     -1.0274836      126.59613    
     91900   122.23616      158.5          158.5          158.5         -2.3305979     -3.5864722     -1.1400736     -2.265248       122.23616    
     91920   110.99086      158.5          158.5          158.5         -0.34815402    -4.9701735      0.82691558     3.0987958      110.99086    
     91940   121.15668      158.5          158.5          158.5         -2.1289742     -0.065860288   -1.1007813     -5.220281       121.15668    
     91960   123.76634      158.5          158.5          158.5         -4.1375956     -1.8130777     -4.3335963     -6.2661127      123.76634    
     91980   133.30423      158.5          158.5          158.5         -4.4017153     -4.5848075     -6.2182339     -2.4021046      133.30423    
     92000   103.63837      158.5          158.5          158.5          1.9841043      3.3796692      2.4619569      0.11068688     103.63837    
     92020   102.27918      158.5          158.5          158.5          1.7886317      2.4168787      2.785309       0.16370744     102.27918    
     92040   118.53056      158.5          158.5          158.5          0.87770562    -0.38212562     2.0812234      0.93401904     118.53056    
     92060   125.75832      158.5          158.5          158.5          4.5491966      4.672079       3.1973105      5.7782003      125.75832    
     92080   123.34958      158.5          158.5          158.5         -6.1222552     -6.3616525     -7.2435759     -4.7615372      123.34958    
     92100   118.50912      158.5          158.5          158.5          1.6110564      3.0363043      2.8035065     -1.0066417      118.50912    
     92120   118.58298      158.5          158.5          158.5          0.35820339     2.2506926      4.3535969     -5.5296793      118.58298    
     92140   122.76391      158.5          158.5          158.5         -4.53896       -1.7630975     -3.0853843     -8.7683983      122.76391    
     92160   117.11684      158.5          158.5          158.5          6.7042747      7.9636753      1.8990283      10.25012       117.11684    
     92180   103.51473      158.5          158.5          158.5         -3.6656431     -9.0167802     -2.6576728      0.67752382     103.51473    
     92200   106.15182      158.5          158.5          158.5          1.0147575      1.4322216      5.1380067     -3.5259558      106.15182    
     92220   125.01773      158.5          158.5          158.5          6.2875543      9.6006223      3.7321308      5.5299098      125.01773    
     92240   126.42216      158.5          158.5          158.5         -4.8801272     -10.001448     -4.6821285      0.043194988    126.42216    
     92260   121.01513      158.5          158.5          158.5          4.8955064      3.1447402      6.5290608      5.0127182      121.01513    
     92280   123.48635      158.5          158.5          158.5         -0.6915465      1.197715      -1.9356187     -1.3367359      123.48635    
     92300   134.39942      158.5          158.5          158.5         -2.8536863     -3.8028184     -4.6743035     -0.083937108    134.39942    
     92320   132.02358      158.5          158.5          158.5          4.9107914      2.5887412      3.8435367      8.3000963      132.02358    
     92340   132.10241      158.5          158.5          158.5         -1.7812441     -4.8020999     -2.9533292      2.4116968      132.10241    
     92360   128.25399      158.5          158.5          158.5          3.000641       3.7518949      2.5106819      2.739346       128.25399    
     92380   136.01643      158.5          158.5          158.5          4.1384333      8.0121677      4.2425905      0.16054179     136.01643    
     92400   133.79222      158.5          158.5          158.5         -2.7140395     -6.944408      -0.65283617    -0.54487443     133.79222    
     92420   142.26079      158.5          158.5          158.5          1.0323955     -0.82646303     5.4245023     -1.5008527      142.26079    
     92440   143.12432      158.5          158.5          158.5         -0.76221041     3.4926728      2.736678      -8.515982       143.12432    
     92460   124.57335      158.5          158.5          158.5         -4.0942508     -2.4638438     -5.4611616     -4.3577472      124.57335    
     92480   124.30614      158.5          158.5          158.5         -0.2455854     -0.013929823   -2.9702127      2.2473863      124.30614    
     92500   123.54452      158.5          158.5          158.5         -0.11605436     3.2409024      0.50185202    -4.0909175      123.54452    
     92520   115.74112      158.5          158.5          158.5         -0.7314446      2.3792687     -3.1222234     -1.451379       115.74112    
     92540   136.15326      158.5          158.5          158.5          0.35791199    -1.0760025     -1.2125676      3.3623061      136.15326    
     92560   132.19428      158.5          158.5          158.5         -1.5069071     -0.93703788     1.3692285     -4.9529118      132.19428    
     92580   135.89166      158.5          158.5          158.5          0.88448368     3.0387598      0.56513875    -0.95044751     135.89166    
     92600   114.56188      158.5          158.5          158.5         -1.9144268     -2.6535123     -1.6749507     -1.4148174      114.56188    
     92620   114.42409      158.5          158.5          158.5          2.0608915      2.8893816      2.6775101      0.61578269     114.42409    
     92640   107.0728       158.5          158.5          158.5         -6.7015479e-05  1.3076346     -1.5079724      0.2001368      107.0728     
     92660   114.25566      158.5          158.5          158.5         -4.0555318     -3.9381571     -2.2422337     -5.9862047      114.25566    
     92680   101.92543      158.5          158.5          158.5          0.60690781     3.2921501     -0.88239381    -0.58903284     101.92543    
     92700   115.86725      158.5          158.5          158.5         -2.9031239     -1.7558998     -2.6049131     -4.3485589      115.86725    
     92720   98.400279      158.5          158.5          158.5         -0.14775132    -2.3331077      1.1765244      0.71332935     98.400279    
     92740   109.45136      158.5          158.5          158.5          2.1927509      0.52007208     2.5507671      3.5074136      109.45136    
     92760   93.544877      158.5          158.5          158.5          1.6205552      3.0809115      0.89532774     0.88542628     93.544877    
     92780   108.54111      158.5          158.5          158.5          3.1487537      3.5281529      2.7798023      3.1383061      108.54111    
     92800   107.93118      158.5          158.5          158.5          1.0212998     -2.4431698      5.005352       0.50171726     107.93118    
     92820   107.89278      158.5          158.5          158.5          1.3246907     -1.3514909      4.2427243      1.0828387      107.89278    
     92840   108.88754      158.5          158.5          158.5         -0.084450402    2.5223257     -3.6771764      0.90149947     108.88754    
     92860   105.5177       158.5          158.5          158.5         -1.8800506     -1.8752652     -2.5783453     -1.1865412      105.5177     
     92880   103.86825      158.5          158.5          158.5         -0.66285555    -2.702888      -0.13083455     0.84515587     103.86825    
     92900   107.8713       158.5          158.5          158.5          0.080838539    0.6501525     -2.5818635      2.1742266      107.8713     
     92920   83.157336      158.5          158.5          158.5         -0.36145633     1.3573108     -1.8621309     -0.57954888     83.157336    
     92940   118.00711      158.5          158.5          158.5         -1.7146551     -2.8233914      0.95249066    -3.2730646      118.00711    
     92960   114.78193      158.5          158.5          158.5          1.3038108     -0.53270945     1.0429857      3.4011562      114.78193    
     92980   123.20589      158.5          158.5          158.5          0.74757267     2.3990982     -0.16038784     0.0040076862   123.20589    
     93000   112.47955      158.5          158.5          158.5         -1.1818715     -3.0256958     -1.0880125      0.56809384     112.47955    
     93020   114.19668      158.5          158.5          158.5          0.61687377    -1.6592168      2.782811       0.72702712     114.19668    
     93040   125.57153      158.5          158.5          158.5         -2.366858      -0.75308       -1.6745781     -4.672916       125.57153    
     93060   131.8675       158.5          158.5          158.5         -0.61145785     1.7801482     -6.5470044      2.9324827      131.8675     
     93080   124.39322      158.5          158.5          158.5          0.54968251    -0.019826484    1.8783567     -0.20948266     124.39322    
     93100   129.05919      158.5          158.5          158.5         -2.9228003     -2.1957475     -2.6374479     -3.9352054      129.05919    
     93120   115.50731      158.5          158.5          158.5          0.30234458     0.067942156   -1.8116559      2.6507475      115.50731    
     93140   124.8742       158.5          158.5          158.5          2.4807505      3.1620692      3.9748758      0.30530658     124.8742     
     93160   128.13248      158.5          158.5          158.5         -0.70188278     0.078937705    0.73800009    -2.9225861      128.13248    
     93180   110.4055       158.5          158.5          158.5          1.9710346      1.6226585      2.5117225      1.778723       110.4055     
     93200   120.79198      158.5          158.5          158.5          1.240821       0.9618514     -0.44915359     3.2097652      120.79198    
     93220   124.41178      158.5          158.5          158.5         -1.626984      -0.194227      -2.3969941     -2.289731       124.41178    
     93240   119.76415      158.5          158.5          158.5          1.6301397      1.5008613      3.9688229     -0.57926519     119.76415    
     93260   115.2935       158.5          158.5          158.5          0.079607183   -4.3890239     -0.101307       4.7291525      115.2935     
     93280   124.68245      158.5          158.5          158.5         -1.8250209     -0.04569862    -3.2524891     -2.1768749      124.68245    
     93300   128.13033      158.5          158.5          158.5          2.6817463      5.3339296      4.5227306     -1.8114213      128.13033    
     93320   125.68559      158.5          158.5          158.5         -1.8622025     -2.7838817      0.36948935    -3.1722153      125.68559    
     93340   117.4345       158.5          158.5          158.5          0.48945809    -1.7975154     -0.33648101     3.6023707      117.4345     
     93360   121.09793      158.5          158.5          158.5          1.877359       0.12238985     4.3302628      1.1794245      121.09793    
     93380   113.04018      158.5          158.5          158.5         -0.1136453     -1.9470685      2.9582905     -1.3521579      113.04018    
     93400   113.31374      158.5          158.5          158.5         -1.1200773     -1.8652893     -4.0665614      2.5716187      113.31374    
     93420   129.99343      158.5          158.5          158.5         -2.837681      -1.3140726     -4.4838305     -2.7151398      129.99343    
     93440   106.41255      158.5          158.5          158.5         -1.3423267      2.4970729     -2.1719385     -4.3521146      106.41255    
     93460   130.85004      158.5          158.5          158.5         -1.208583       3.6899418     -3.062364      -4.2533268      130.85004    
     93480   127.83017      158.5          158.5          158.5          0.64445932     0.12781685    -0.29810284     2.103664       127.83017    
     93500   129.60951      158.5          158.5          158.5          0.87943826    -2.118718       0.54771447     4.2093183      129.60951    
     93520   126.11233      158.5          158.5          158.5         -0.099563108    0.07933178     2.2609171     -2.6389382      126.11233    
     93540   133.26676      158.5          158.5          158.5          2.0866545      3.4475363      4.4619351     -1.6495078      133.26676    
     93560   136.97504      158.5          158.5          158.5         -1.4006442     -2.0670083     -3.3709965      1.2360723      136.97504    
     93580   124.12196      158.5          158.5          158.5          1.8240243     -0.2873721      2.6800964      3.0793487      124.12196    
     93600   116.49122      158.5          158.5          158.5          3.1141139      5.3084239      4.4532847     -0.41936692     116.49122    
     93620   136.78968      158.5          158.5          158.5         -3.3442539      1.5245072     -8.3894701     -3.1677988      136.78968    
     93640   146.14253      158.5          158.5          158.5          3.247114       3.4036859     -0.30591586     6.643572       146.14253    
     93660   141.83827      158.5          158.5          158.5         -6.8117472     -8.6015941     -6.2918765     -5.541771       141.83827    
     93680   126.23227      158.5          158.5          158.5         -1.2742914     -1.6700308     -3.4803268      1.3274834      126.23227    
     93700   116.1173       158.5          158.5          158.5          2.7603721      5.2386819     -0.76135745     3.8037918      116.1173     
     93720   121.60306      158.5          158.5          158.5         -4.784014      -5.0388616     -4.0775146     -5.2356658      121.60306    
     93740   136.77811      158.5          158.5          158.5          2.6152589     -1.2671755      7.4478596      1.6650925      136.77811    
     93760   104.30135      158.5          158.5          158.5          1.7631553      0.60906684     4.8104932     -0.13009419     104.30135    
     93780   116.21614      158.5          158.5          158.5          1.3392384      2.9535135      1.8716318     -0.80743015     116.21614    
     93800   99.506948      158.5          158.5          158.5          4.2114204      3.8163044      0.2026029      8.6153539      99.506948    
     93820   111.31972      158.5          158.5          158.5          0.030501041   -2.9432233      1.8118404      1.222886       111.31972    
     93840   110.18881      158.5          158.5          158.5         -0.59764452    -0.12060852     2.072167      -3.7444921      110.18881    
     93860   125.56907      158.5          158.5          158.5         -1.0653125     -1.7794737     -2.3771087      0.96064496     125.56907    
     93880   117.42747      158.5          158.5          158.5          1.3967429      0.95074111     0.85604924     2.3834384      117.42747    
     93900   113.75284      158.5          158.5          158.5          1.3843822      1.6912841     -0.72420597     3.1860684      113.75284    
     93920   108.69647      158.5          158.5          158.5          2.4778035      3.191483       1.6119611      2.6299665      108.69647    
     93940   116.63477      158.5          158.5          158.5          0.93806722     0.27668578     5.7752452     -3.2377293      116.63477    
     93960   103.23303      158.5          158.5          158.5         -3.6482571     -4.7102078     -5.8257336     -0.40882982     103.23303    
     93980   118.59053      158.5          158.5          158.5          0.42433363     0.87429177    -2.768792       3.1675011      118.59053    
     94000   117.22937      158.5          158.5          158.5         -1.1167315     -2.1537305     -1.070137      -0.12632703     117.22937    
     94020   116.29293      158.5          158.5          158.5         -0.67310071     1.806309      -3.4897396     -0.33587154     116.29293    
     94040   112.75715      158.5          158.5          158.5          3.6565156      6.0299458      3.7140782      1.2255228      112.75715    
     94060   106.61928      158.5          158.5          158.5         -0.76931953    -2.2728797      0.80102781    -0.8361067      106.61928    
     94080   115.67574      158.5          158.5          158.5         -1.3820726     -3.3285738     -3.2225929      2.4049489      115.67574    
     94100   105.03207      158.5          158.5          158.5         -0.41355297     3.6806976     -2.450536      -2.4708205      105.03207    
     94120   100.7845       158.5          158.5          158.5         -2.563874       0.095045282   -5.209396      -2.5772712      100.7845     
     94140   114.17753      158.5          158.5          158.5         -1.4138574     -6.3503139     -0.25833576     2.3670773      114.17753    
     94160   108.71129      158.5          158.5          158.5          0.32632874    -2.2931822      4.2987448     -1.0265764      108.71129    
     94180   118.94313      158.5          158.5          158.5          0.35838987     2.6299612     -0.40949226    -1.1452994      118.94313    
     94200   117.33982      158.5          158.5          158.5          0.025483519   -0.14871138    -1.2064827      1.4316446      117.33982    
     94220   110.87362      158.5          158.5          158.5          4.332635       0.017968839    6.058584       6.9213522      110.87362    
     94240   132.85765      158.5          158.5          158.5         -0.48003844    -4.1643676      1.4951744      1.2290778      132.85765    
     94260   112.97768      158.5          158.5          158.5         -2.7291103     -0.71557563    -1.8108992     -5.6608561      112.97768    
     94280   97.423623      158.5          158.5          158.5          1.8603624      3.5302715      1.8051454      0.24567035     97.423623    
     94300   105.98816      158.5          158.5          158.5         -3.1046562     -8.2833913     -1.4241215      0.39354406     105.98816    
     94320   101.10191      158.5          158.5          158.5          1.3855185     -0.86465918     1.4215235      3.5996911      101.10191    
     94340   112.51436      158.5          158.5          158.5          3.8538918      5.8347495      2.4849863      3.2419397      112.51436    
     94360   103.77661      158.5          158.5          158.5         -2.7685328     -2.149939      -4.818803      -1.3368566      103.77661    
     94380   123.85151      158.5          158.5          158.5          1.3086074     -0.68476827     1.8507552      2.7598351      123.85151    
     94400   112.96887      158.5          158.5          158.5         -0.55111785    -1.1931666      0.56448973    -1.0246767      112.96887    
     94420   106.52797      158.5          158.5          158.5         -0.71514083     3.5926003     -3.9193299     -1.8186928      106.52797    
     94440   117.4911       158.5          158.5          158.5          0.98166438     3.5251021     -1.4840252      0.90391631     117.4911     
     94460   94.611244      158.5          158.5          158.5         -2.666177      -1.6997984     -3.5986076     -2.700125       94.611244    
     94480   109.84301      158.5          158.5          158.5         -1.0206685     -3.5603867     -2.9937439      3.4921251      109.84301    
     94500   127.2166       158.5          158.5          158.5         -2.5449073     -2.2484318     -4.4024564     -0.9838336      127.2166     
     94520   102.94207      158.5          158.5          158.5         -2.9932413     -1.3230927     -3.15971       -4.4969212      102.94207    
     94540   115.49355      158.5          158.5          158.5          1.0185702      4.161176      -0.36989344    -0.7355721      115.49355    
     94560   129.79412      158.5          158.5          158.5          0.032986026    1.4346179     -1.7671337      0.43147388     129.79412    
     94580   130.11741      158.5          158.5          158.5          0.40343504    -2.1863637      3.353638       0.043030807    130.11741    
     94600   109.63307      158.5          158.5          158.5          2.2074045     -0.38367062     2.9118784      4.0940058      109.63307    
     94620   126.46601      158.5          158.5          158.5         -1.8106614     -0.51747642    -3.5163725     -1.3981352      126.46601    
     94640   130.59935      158.5          158.5          158.5         -2.9911116     -5.375729      -3.334017      -0.26358874     130.59935    
     94660   134.75104      158.5          158.5          158.5          1.045062      -2.1686282      3.3405848      1.9632294      134.75104    
     94680   123.85016      158.5          158.5          158.5          1.1885049      2.2827958      2.0827775     -0.8000586      123.85016    
     94700   127.77637      158.5          158.5          158.5          0.70450679     0.7855001     -0.79401777     2.122038       127.77637    
     94720   133.48273      158.5          158.5          158.5          4.4071124     -0.68196218     6.7156452      7.1876542      133.48273    
     94740   113.82254      158.5          158.5          158.5          1.7777215     -3.7819716      7.0158796      2.0992565      113.82254    
     94760   128.8558       158.5          158.5          158.5          0.88738958     1.6632436      1.168169      -0.16924384     128.8558     
     94780   128.48084      158.5          158.5          158.5          1.7254404      4.1247812     -0.42609122     1.4776314      128.48084    
     94800   112.11543      158.5          158.5          158.5         -2.5978723     -4.9831179      2.3788091     -5.1893081      112.11543    
     94820   125.30168      158.5          158.5          158.5          0.28605534    -2.4227269      7.6067573     -4.3258643      125.30168    
     94840   114.88706      158.5          158.5          158.5          1.5144423      2.9908115      0.44365521     1.10886        114.88706    
     94860   117.19641      158.5          158.5          158.5         -1.9210132      1.484286      -6.4930037     -0.75432185     117.19641    
     94880   127.45877      158.5          158.5          158.5          0.89482174     0.66205089    -0.24313451     2.2655488      127.45877    
     94900   114.80337      158.5          158.5          158.5         -0.7877457     -0.3884278     -1.0251791     -0.94963019     114.80337    
     94920   117.44332      158.5          158.5          158.5         -1.0788895      0.94082628    -0.61575123    -3.5617436      117.44332    
     94940   112.57876      158.5          158.5          158.5         -0.57765023     1.2139068     -2.596216      -0.35064143     112.57876    
     94960   129.37516      158.5          158.5          158.5         -3.0265429     -1.4742747     -1.9186663     -5.6866876      129.37516    
     94980   122.45812      158.5          158.5          158.5         -0.75900036     1.1766724      0.65692724    -4.1106007      122.45812    
     95000   113.5697       158.5          158.5          158.5         -1.5718931     -2.6536251      0.85209767    -2.9141519      113.5697     
     95020   110.73847      158.5          158.5          158.5         -0.13662584     1.9988025     -1.1439289     -1.2647511      110.73847    
     95040   117.12696      158.5          158.5          158.5          1.7335359      2.5097633     -0.62261311     3.3134576      117.12696    
     95060   118.87945      158.5          158.5          158.5         -0.49621785    -0.16662935    -3.3244428      2.0024186      118.87945    
     95080   92.844993      158.5          158.5          158.5          2.2493643      5.260992       0.45973068     1.0273702      92.844993    
     95100   105.80618      158.5          158.5          158.5          0.49203486     0.14847932     0.19040074     1.1372245      105.80618    
     95120   108.77534      158.5          158.5          158.5         -2.6395975     -5.3756052      0.039100267   -2.5822876      108.77534    
     95140   114.26931      158.5          158.5          158.5          2.6047767      1.8031523      5.2133025      0.79787535     114.26931    
     95160   114.60115      158.5          158.5          158.5         -0.19902025    -0.93803722     2.6744715     -2.333495       114.60115    
     95180   110.36773      158.5          158.5          158.5          1.5068184      3.1164178      2.2097667     -0.80572914     110.36773    
     95200   116.92007      158.5          158.5          158.5          3.6255747      6.692071       0.98698726     3.1976659      116.92007    
     95220   110.5015       158.5          158.5          158.5         -3.2832685     -1.2116429     -4.9461134     -3.6920493      110.5015     
     95240   125.86352      158.5          158.5          158.5          0.54158221     2.1262701     -0.23388069    -0.26764276     125.86352    
     95260   118.15358      158.5          158.5          158.5         -1.1672648     -1.9530912      0.73743827    -2.2861415      118.15358    
     95280   123.25936      158.5          158.5          158.5         -2.5039516      0.10598799    -3.4798308     -4.1380121      123.25936    
     95300   145.21524      158.5          158.5          158.5          3.1394343      10.654491     -1.2512932      0.015104583    145.21524    
     95320   116.86197      158.5          158.5          158.5         -0.8376462      1.3930987     -1.5498241     -2.3562131      116.86197    
     95340   123.17505      158.5          158.5          158.5         -1.5229778     -3.5168639      2.6203893     -3.6724588      123.17505    
     95360   126.64972      158.5          158.5          158.5          0.91131426     4.664067      -2.2103115      0.2801873      126.64972    
     95380   138.47255      158.5          158.5          158.5         -0.70442639     0.67918583    -4.7613875      1.9689225      138.47255    
     95400   126.47844      158.5          158.5          158.5          1.3381739     -2.6073957      3.5389852      3.0829322      126.47844    
     95420   122.44321      158.5          158.5          158.5          0.36654234     0.14233159     3.178373      -2.2210776      122.44321    
     95440   129.74577      158.5          158.5          158.5          3.1761789      6.4356494      1.4872062      1.6056809      129.74577    
     95460   127.00722      158.5          158.5          158.5         -0.6135195      1.6166041     -2.9985788     -0.4585838      127.00722    
     95480   122.64874      158.5          158.5          158.5         -0.10294816    -2.5808542     -0.95672477     3.2287345      122.64874    
     95500   122.63294      158.5          158.5          158.5          1.9435726     -2.1690484      2.4848913      5.5148748      122.63294    
     95520   123.40984      158.5          158.5          158.5         -5.0637108     -1.1851089     -5.9819243     -8.0240991      123.40984    
     95540   134.87782      158.5          158.5          158.5          2.1508322      6.0026364      0.61025993    -0.16039957     134.87782    
     95560   130.8059       158.5          158.5          158.5         -0.301747      -2.2077714      2.2132176     -0.91068726     130.8059     
     95580   111.29382      158.5          158.5          158.5         -2.58682       -4.8323868      1.0143919     -3.9424651      111.29382    
     95600   118.94642      158.5          158.5          158.5          2.0980682      5.1890409      0.04639747     1.0587661      118.94642    
     95620   112.56816      158.5          158.5          158.5         -3.0766411     -0.23029549    -4.996459      -4.0031688      112.56816    
     95640   110.69859      158.5          158.5          158.5          1.0610759     -2.391437       2.8373984      2.7372661      110.69859    
     95660   102.71024      158.5          158.5          158.5          1.5286021      0.81428212     2.6215527      1.1499715      102.71024    
     95680   122.85843      158.5          158.5          158.5          0.17806285     1.2452537     -0.68682287    -0.024242325    122.85843    
     95700   106.78653      158.5          158.5          158.5          4.2603026      6.3636324      0.26143395     6.1558414      106.78653    
     95720   109.27617      158.5          158.5          158.5          0.23471772    -0.56483187     1.5149199     -0.24593484     109.27617    
     95740   100.54575      158.5          158.5          158.5          0.17639201    -0.86632374     2.4190983     -1.0235985      100.54575    
     95760   119.05331      158.5          158.5          158.5          0.067792605    3.4675993     -2.2104106     -1.0538109      119.05331    
     95780   99.634543      158.5          158.5          158.5         -0.47299222     2.8109        -3.4157143     -0.81416242     99.634543    
     95800   89.851349      158.5          158.5          158.5          1.1903264     -2.2285671      3.0741786      2.7253678      89.851349    
     95820   108.58403      158.5          158.5          158.5          1.0212779     -0.74897998     1.873862       1.9389519      108.58403    
     95840   135.77532      158.5          158.5          158.5         -0.25892128     2.0447937     -1.8744143     -0.94714328     135.77532    
     95860   117.84103      158.5          158.5          158.5         -0.22259229    -3.4210891      0.40273656     2.3505756      117.84103    
     95880   120.5685       158.5          158.5          158.5         -1.0099472     -1.9744923     -0.24317926    -0.81217001     120.5685     
     95900   138.00545      158.5          158.5          158.5         -2.8281023     -0.39439282    -3.9173956     -4.1725186      138.00545    
     95920   123.28709      158.5          158.5          158.5         -2.6195296     -6.8600023      1.6748904     -2.6734768      123.28709    
     95940   125.01858      158.5          158.5          158.5          1.5164371      0.69690585     0.84440255     3.008003       125.01858    
     95960   132.65226      158.5          158.5          158.5         -0.42014872     0.57864166    -1.9533251      0.11423726     132.65226    
     95980   143.76497      158.5          158.5          158.5         -0.29259341    -0.30116312    -1.8847311      1.3081139      143.76497    
     96000   118.97727      158.5          158.5          158.5          2.8203576      4.8142311     -1.3679517      5.0147934      118.97727    
     96020   130.12179      158.5          158.5          158.5         -4.1868243     -3.7661601     -3.4510977     -5.3432151      130.12179    
     96040   122.06106      158.5          158.5          158.5         -3.0133836     -3.4453537     -3.6873243     -1.907473       122.06106    
     96060   143.56916      158.5          158.5          158.5         -1.6547281     -1.7591009     -1.8137825     -1.3913008      143.56916    
     96080   133.84133      158.5          158.5          158.5         -4.6974792     -5.1640297     -2.8252481     -6.1031599      133.84133    
     96100   116.41954      158.5          158.5          158.5          3.7971648      2.6311347      1.2566049      7.5037548      116.41954    
     96120   123.29036      158.5          158.5          158.5          3.3569549      1.4169108      4.0918691      4.5620848      123.29036    
     96140   124.37574      158.5          158.5          158.5          1.7919951     -2.1498907      6.685043       0.84083303     124.37574    
     96160   114.42485      158.5          158.5          158.5          3.6492178      2.2428475      2.7598761      5.9449297      114.42485    
     96180   118.00345      158.5          158.5          158.5         -2.787933      -3.066731      -4.4663287     -0.83073936     118.00345    
     96200   107.22405      158.5          158.5          158.5         -3.3129037     -6.2920737      1.6141569     -5.2607942      107.22405    
     96220   119.52768      158.5          158.5          158.5         -0.050094368   -2.8084449      0.40280128     2.2553605      119.52768    
     96240   106.32107      158.5          158.5          158.5         -2.4054361     -3.7044336     -3.3884472     -0.12342731     106.32107    
     96260   107.50212      158.5          158.5          158.5         -2.1322484     -1.7396603     -3.2820739     -1.3750111      107.50212    
     96280   112.28417      158.5          158.5          158.5          2.1038079      1.9846688      0.12881722     4.1979377      112.28417    
     96300   92.261704      158.5          158.5          158.5          3.1490022      3.713203       5.0304303      0.7033732      92.261704    
     96320   115.73989      158.5          158.5          158.5          1.0774668      1.6649356      2.6184457     -1.050981       115.73989    
     96340   109.12428      158.5          158.5          158.5          3.0312434      2.0492145      4.794677       2.2498386      109.12428    
     96360   121.81463      158.5          158.5          158.5         -2.009409      -4.2457395      1.8464185     -3.6289061      121.81463    
     96380   112.63881      158.5          158.5          158.5         -0.79240775     0.72932914    -0.66296453    -2.4435879      112.63881    
     96400   126.35368      158.5          158.5          158.5          3.3692595      5.2858711      1.7657121      3.0561952      126.35368    
     96420   112.16518      158.5          158.5          158.5         -3.6541428     -6.0158956     -2.527896      -2.4186368      112.16518    
     96440   137.34972      158.5          158.5          158.5          3.0690241      4.4509708      3.0339248      1.7221768      137.34972    
     96460   118.28285      158.5          158.5          158.5          1.6275926      4.4010317     -2.7878994      3.2696456      118.28285    
     96480   122.01959      158.5          158.5          158.5         -4.9768806     -6.3231767     -5.4927875     -3.1146775      122.01959    
     96500   106.50993      158.5          158.5          158.5          1.6863381      0.14558731     5.4674145     -0.55398764     106.50993    
     96520   117.88426      158.5          158.5          158.5         -5.3099161     -4.6098153     -6.4744644     -4.8454687      117.88426    
     96540   107.38471      158.5          158.5          158.5         -2.1558762     -0.45208881    -1.5217004     -4.4938393      107.38471    
     96560   130.37255      158.5          158.5          158.5         -0.024595844    0.19823639     3.0256677     -3.2976916      130.37255    
     96580   97.480162      158.5          158.5          158.5          0.48775546    -2.1642501      3.944334      -0.3168175      97.480162    
     96600   132.61397      158.5          158.5          158.5          6.3345387      5.3083803      10.291285      3.4039507      132.61397    
     96620   132.23993      158.5          158.5          158.5          1.0647894      3.68428        0.29842083    -0.78833273     132.23993    
     96640   121.94179      158.5          158.5          158.5          2.0475417      1.0821548      1.228832       3.8316384      121.94179    
     96660   120.18047      158.5          158.5          158.5         -0.89506969    -2.4295708      1.7043723     -1.9600106      120.18047    
     96680   129.3451       158.5          158.5          158.5         -3.0582635     -2.2090785     -0.21802632    -6.7476858      129.3451     
     96700   114.8393       158.5          158.5          158.5          3.0354374      2.9150302      2.7707232      3.4205586      114.8393     
     96720   132.57603      158.5          158.5          158.5         -5.6621546     -9.1000251     -5.285722      -2.6007166      132.57603    
     96740   112.61322      158.5          158.5          158.5          3.225189       5.2652609      4.1179416      0.2923643      112.61322    
     96760   132.85491      158.5          158.5          158.5          2.7182836      6.0752778      2.8519784     -0.7724055      132.85491    
     96780   126.04319      158.5          158.5          158.5         -4.7887145     -7.698504      -9.1709472      2.5033076      126.04319    
     96800   107.14982      158.5          158.5          158.5          5.3765092      4.2535385      5.1264293      6.7495598      107.14982    
     96820   122.50847      158.5          158.5          158.5         -3.3436585     -4.0147133      0.23815833    -6.2544205      122.50847    
     96840   132.24207      158.5          158.5          158.5         -3.1760425     -3.8430546     -5.1207941     -0.56427887     132.24207    
     96860   114.71248      158.5          158.5          158.5          3.9275445      3.4241931      2.611223       5.7472174      114.71248    
     96880   132.99022      158.5          158.5          158.5         -3.0732478     -6.3001597     -1.7854722     -1.1341115      132.99022    
     96900   106.22112      158.5          158.5          158.5          4.3644927      5.2680625      4.7196229      3.1057926      106.22112    
     96920   123.5196       158.5          158.5          158.5          5.233716       9.4963779      3.1954921      3.0092779      123.5196     
     96940   109.04412      158.5          158.5          158.5         -2.2437154     -1.7000571     -1.7044166     -3.3266726      109.04412    
     96960   115.82139      158.5          158.5          158.5          2.8228807     -0.19199507     4.3383265      4.3223108      115.82139    
     96980   121.27833      158.5          158.5          158.5         -3.1353954     -2.5840146     -4.1247113     -2.6974602      121.27833    
     97000   125.26278      158.5          158.5          158.5         -4.4099426      1.5472232     -5.5118631     -9.265188       125.26278    
     97020   123.29119      158.5          158.5          158.5          2.0861025      2.4099428      2.2409085      1.6074561      123.29119    
     97040   127.57494      158.5          158.5          158.5         -2.3999992     -4.3177111     -2.2817631     -0.60052352     127.57494    
     97060   107.72784      158.5          158.5          158.5          5.4212187      7.5499523      4.434188       4.279516       107.72784    
     97080   126.11733      158.5          158.5          158.5          2.5653556      3.8490409      2.9929329      0.85409293     126.11733    
     97100   114.291        158.5          158.5          158.5         -2.6399987     -1.7303567     -4.3840161     -1.8056232      114.291      
     97120   132.98566      158.5          158.5          158.5          1.2284168      0.74550348     0.66023587     2.2795109      132.98566    
     97140   116.95632      158.5          158.5          158.5         -3.9515049     -3.9928179     -2.5825186     -5.2791781      116.95632    
     97160   118.35927      158.5          158.5          158.5          0.075056021    2.6902649     -0.76435592    -1.7007409      118.35927    
     97180   124.30745      158.5          158.5          158.5          0.33166916    -1.5263121     -0.98111976     3.5024394      124.30745    
     97200   121.81861      158.5          158.5          158.5          0.34424846    -0.3513611      0.57447644     0.80963004     121.81861    
     97220   125.97538      158.5          158.5          158.5          2.7685619      3.911714       2.3298124      2.0641592      125.97538    
     97240   109.42321      158.5          158.5          158.5         -3.4917445     -2.8773516     -6.4970896     -1.1007923      109.42321    
     97260   102.75924      158.5          158.5          158.5          0.2118852      4.4755938     -2.8298612     -1.0100769      102.75924    
     97280   109.21606      158.5          158.5          158.5         -3.1415398     -1.8163618     -3.1332493     -4.4750084      109.21606    
     97300   123.66141      158.5          158.5          158.5         -4.2377598     -5.7027449     -7.3456301      0.33509563     123.66141    
     97320   115.25676      158.5          158.5          158.5         -0.44516786     1.490246      -3.1158902      0.29014065     115.25676    
     97340   106.29904      158.5          158.5          158.5         -6.430651      -4.5705889     -6.9394316     -7.7819325      106.29904    
     97360   116.46912      158.5          158.5          158.5          4.3241579      3.9636556      3.2551713      5.7536469      116.46912    
     97380   103.17262      158.5          158.5          158.5         -0.24863634     0.54954856    -1.0929656     -0.20249195     103.17262    
     97400   111.25471      158.5          158.5          158.5          1.8701664      5.0281864      3.7346226     -3.1523097      111.25471    
     97420   106.00091      158.5          158.5          158.5          7.1227433      6.0016002      9.123642       6.2429876      106.00091    
     97440   122.75832      158.5          158.5          158.5         -3.8778393     -6.204311      -4.4811755     -0.94803133     122.75832    
     97460   120.71296      158.5          158.5          158.5         -0.97469827     1.0911191     -0.59318596    -3.422028       120.71296    
     97480   118.1717       158.5          158.5          158.5         -0.68235639     1.2169152     -0.53777687    -2.7262074      118.1717     
     97500   102.92339      158.5          158.5          158.5         -1.854362      -3.2180693     -2.6123187      0.26730214     102.92339    
     97520   122.29232      158.5          158.5          158.5          2.8874323      5.0456648      2.4470108      1.1696212      122.29232    
     97540   114.88817      158.5          158.5          158.5          0.16949239    -0.91746304     3.4407067     -2.0147665      114.88817    
     97560   126.67848      158.5          158.5          158.5          3.9883376      4.0432544      8.086302      -0.16454375     126.67848    
     97580   103.38076      158.5          158.5          158.5          2.9067596      4.3741617      1.8371465      2.5089706      103.38076    
     97600   116.73261      158.5          158.5          158.5         -3.230077      -3.2729361     -5.1705941     -1.2467009      116.73261    
     97620   129.00227      158.5          158.5          158.5         -1.146313      -2.9709215     -0.71355112     0.24553346     129.00227    
     97640   114.98179      158.5          158.5          158.5         -1.7325731     -5.4875212     -0.27068809     0.56048995     114.98179    
     97660   124.75976      158.5          158.5          158.5         -3.6632201     -3.2329818     -5.7758809     -1.9807977      124.75976    
     97680   103.98799      158.5          158.5          158.5          3.7913333      2.8165821      3.0282478      5.52917        103.98799    
     97700   122.17929      158.5          158.5          158.5         -1.1219366     -4.6043987     -1.0915643      2.3301532      122.17929    
     97720   113.75269      158.5          158.5          158.5          1.2310408      2.0857586     -0.33960137     1.9469652      113.75269    
     97740   118.15653      158.5          158.5          158.5          2.8875536      6.2468976      2.2546391      0.16112413     118.15653    
     97760   116.6988       158.5          158.5          158.5         -0.074004649   -0.57729744    -0.34224619     0.69752969     116.6988     
     97780   122.88166      158.5          158.5          158.5          0.6682474     -0.9617095     -0.83189286     3.7983446      122.88166    
     97800   114.40935      158.5          158.5          158.5         -1.2570578      1.9828728     -1.5676073     -4.1864391      114.40935    
     97820   116.02187      158.5          158.5          158.5          1.7108273      1.4142081      3.6654862      0.052787671    116.02187    
     97840   108.46484      158.5          158.5          158.5         -1.5905124     -6.2112562      1.7741509     -0.33443204     108.46484    
     97860   128.11285      158.5          158.5          158.5         -2.8553361     -1.7411162     -3.7839225     -3.0409697      128.11285    
     97880   105.51413      158.5          158.5          158.5          3.9633384      2.3333064      4.0096542      5.5470546      105.51413    
     97900   122.97557      158.5          158.5          158.5         -1.9156284     -8.4726911      2.5058214      0.21998452     122.97557    
     97920   124.11356      158.5          158.5          158.5          1.8942576      2.2545103      2.8104583      0.61780423     124.11356    
     97940   129.61738      158.5          158.5          158.5          2.5811466      2.7216052      3.0750657      1.9467688      129.61738    
     97960   137.27859      158.5          158.5          158.5         -5.0245495     -6.6390098     -3.5348243     -4.8998143      137.27859    
     97980   123.70911      158.5          158.5          158.5          3.9892084      5.2084197      5.9589125      0.800293       123.70911    
     98000   128.21432      158.5          158.5          158.5         -2.2272584     -5.2228092     -0.64806405    -0.81090205     128.21432    
     98020   140.23671      158.5          158.5          158.5         -3.5861559     -6.8973651     -2.4504276     -1.4106749      140.23671    
     98040   135.00061      158.5          158.5          158.5          3.8927131      5.5950503      1.3727424      4.7103467      135.00061    
     98060   139.75873      158.5          158.5          158.5         -5.3760403     -2.0988954     -7.3787458     -6.6504798      139.75873    
     98080   136.81371      158.5          158.5          158.5          2.9938404      1.6248512      2.4509648      4.9057051      136.81371    
     98100   133.68877      158.5          158.5          158.5          3.312072       5.457046       2.1824469      2.2967232      133.68877    
     98120   135.66604      158.5          158.5          158.5         -2.9001932      0.70768787    -4.7577212     -4.6505461      135.66604    
     98140   121.81108      158.5          158.5          158.5          4.7242228     -0.078279542    7.061816       7.189132       121.81108    
     98160   136.9253       158.5          158.5          158.5          0.1815178     -2.6943737      1.596093       1.6428342      136.9253     
     98180   133.57225      158.5          158.5          158.5         -1.6404083      0.58189481    -4.4420775     -1.0610421      133.57225    
     98200   133.68821      158.5          158.5          158.5         -0.40199275    -5.0029141      1.4245944      2.3723415      133.68821    
     98220   117.63813      158.5          158.5          158.5         -1.5917926     -2.9630166     -1.5757506     -0.23661065     117.63813    
     98240   119.22543      158.5          158.5          158.5          0.73566186     2.6084522     -2.0642528      1.6627861      119.22543    
     98260   99.751898      158.5          158.5          158.5          1.1324762     -0.77939617     0.73921705     3.4376077      99.751898    
     98280   107.49845      158.5          158.5          158.5          1.0183546     -0.26624485     3.1684978      0.15281079     107.49845    
     98300   130.13446      158.5          158.5          158.5         -0.70356602    -0.32113546     4.3209208     -6.1104833      130.13446    
     98320   120.25219      158.5          158.5          158.5          1.5633411      2.8634483      1.4357796      0.39079545     120.25219    
     98340   109.07209      158.5          158.5          158.5         -0.72693214    -1.9448954      0.53970387    -0.77560492     109.07209    
     98360   107.85444      158.5          158.5          158.5         -1.6102348     -3.2524782      2.8872168     -4.4654431      107.85444    
     98380   124.38937      158.5          158.5          158.5          2.8251099      3.6516893      3.3035546      1.5200859      124.38937    
     98400   130.77469      158.5          158.5          158.5         -4.8695762     -3.7443949     -8.5260695     -2.3382643      130.77469    
     98420   123.00066      158.5          158.5          158.5         -0.31958647     0.8345928     -3.2416347      1.4482825      123.00066    
     98440   118.08525      158.5          158.5          158.5          1.7475113      1.8290888      2.0455094      1.3679357      118.08525    
     98460   123.98523      158.5          158.5          158.5         -5.1596503     -4.7902355     -5.1333005     -5.555415       123.98523    
     98480   113.51204      158.5          158.5          158.5          4.3454734      5.8986375      2.8773539      4.2604288      113.51204    
     98500   109.53958      158.5          158.5          158.5          1.3173707      0.026828614    1.7286546      2.1966289      109.53958    
     98520   112.48535      158.5          158.5          158.5          1.8768113      2.106202       1.8868181      1.6374137      112.48535    
     98540   129.58493      158.5          158.5          158.5          3.6854034      6.1578401      2.0674468      2.8309233      129.58493    
     98560   125.45625      158.5          158.5          158.5         -0.88338216    -0.0055452185  -0.26616866    -2.3784326      125.45625    
     98580   121.29589      158.5          158.5          158.5         -2.4444079     -3.1242971     -4.8305864      0.62165964     121.29589    
     98600   131.47213      158.5          158.5          158.5         -3.4311041     -4.6782453     -5.4360882     -0.17897888     131.47213    
     98620   119.50283      158.5          158.5          158.5         -1.0088195     -0.36787817    -0.75103287    -1.9075475      119.50283    
     98640   131.86292      158.5          158.5          158.5         -3.878573      -3.4582355     -7.3581807     -0.81930281     131.86292    
     98660   130.51088      158.5          158.5          158.5          1.328446       1.1147713     -2.8422951      5.7128619      130.51088    
     98680   132.35228      158.5          158.5          158.5         -0.65986334     3.0656105     -3.1162943     -1.9289062      132.35228    
     98700   138.84313      158.5          158.5          158.5          0.55702412     4.8634613      0.2429574     -3.4353463      138.84313    
     98720   145.87155      158.5          158.5          158.5          2.8658126      1.1371853      4.1831667      3.2770858      145.87155    
     98740   158.97834      158.5          158.5          158.5         -2.6606571     -4.0394492     -1.5734451     -2.3690769      158.97834    
     98760   151.25855      158.5          158.5          158.5          4.2935981      5.0428724      6.8321576      1.0057643      151.25855    
     98780   147.89176      158.5          158.5          158.5          1.5728186      4.4292786      2.1109226     -1.8217454      147.89176    
     98800   145.20539      158.5          158.5          158.5         -0.60783167    -0.60557861    -1.6334757      0.41555926     145.20539    
     98820   148.2761       158.5          158.5          158.5          1.0351606     -1.8674322      3.4285426      1.5443714      148.2761     
     98840   144.22021      158.5          158.5          158.5         -4.3749201     -8.1161509      0.20736574    -5.2159752      144.22021    
     98860   143.33503      158.5          158.5          158.5          0.36247481     0.54725972     0.60089945    -0.060734753    143.33503    
     98880   152.62421      158.5          158.5          158.5         -4.7607461     -4.2717001     -5.762976      -4.2475624      152.62421    
     98900   129.14233      158.5          158.5          158.5          0.21519849    -3.5723728      2.5560883      1.66188        129.14233    
     98920   128.89559      158.5          158.5          158.5         -0.55685186    -0.80182353    -0.70202537    -0.16670668     128.89559    
     98940   132.36858      158.5          158.5          158.5         -2.1995263      3.7025289     -8.1719572     -2.1291507      132.36858    
     98960   132.2026       158.5          158.5          158.5          1.4039885      0.82308602     0.0054304893   3.3834489      132.2026     
     98980   134.06762      158.5          158.5          158.5         -3.638318      -6.5696217     -1.2390472     -3.1062852      134.06762    
     99000   134.99195      158.5          158.5          158.5          2.2489712      3.5128415      2.079616       1.1544562      134.99195    
     99020   122.83526      158.5          158.5          158.5         -0.12931759     4.5207297     -2.2289558     -2.6797267      122.83526    
     99040   134.38117      158.5          158.5          158.5          0.95468022     3.3987834      0.42557723    -0.96031995     134.38117    
     99060   115.41952      158.5          158.5          158.5          2.9539187      3.5555897      3.2566901      2.0494765      115.41952    
     99080   147.81587      158.5          158.5          158.5         -2.9081653     -3.7929092     -4.1672424     -0.76434446     147.81587    
     99100   123.80512      158.5          158.5          158.5          1.8626667      3.5109876     -0.46929131     2.5463039      123.80512    
     99120   123.79701      158.5          158.5          158.5         -1.2248029      1.7859395     -0.51496425    -4.9453838      123.79701    
     99140   139.54029      158.5          158.5          158.5         -0.3679363     -1.3730256      1.3584452     -1.0892284      139.54029    
     99160   132.95215      158.5          158.5          158.5          2.2554316      2.0118008      1.6190882      3.1354058      132.95215    
     99180   141.90858      158.5          158.5          158.5         -2.5871357      0.12165457    -4.5566148     -3.3264469      141.90858    
     99200   131.64848      158.5          158.5          158.5          3.1419622      7.1262694      2.1162635      0.18335371     131.64848    
     99220   133.85005      158.5          158.5          158.5          2.1778639      2.8795134      2.0817054      1.5723729      133.85005    
     99240   132.38036      158.5          158.5          158.5          0.58486217    -0.49369476     2.5107006     -0.26241929     132.38036    
     99260   134.82945      158.5          158.5          158.5          3.50733        7.1663655      3.837011      -0.48138637     134.82945    
     99280   145.42549      158.5          158.5          158.5          1.6779552     -1.6140195      4.4609759      2.1869092      145.42549    
     99300   129.49329      158.5          158.5          158.5         -3.471569      -10.70504       2.8533232     -2.5629903      129.49329    
     99320   137.33894      158.5          158.5          158.5          1.1928561     -3.2866995      4.8319695      2.0332982      137.33894    
     99340   147.29616      158.5          158.5          158.5         -0.14864796     3.714425      -4.1465461     -0.013822768    147.29616    
     99360   129.62489      158.5          158.5          158.5         -0.52341131     2.7646922     -2.0431701     -2.291756       129.62489    
     99380   139.61623      158.5          158.5          158.5          4.2000882      0.44978878     7.4156161      4.7348597      139.61623    
     99400   124.92139      158.5          158.5          158.5         -2.8333138     -7.1474899      0.099152276   -1.4516037      124.92139    
     99420   128.33334      158.5          158.5          158.5         -2.8058076     -0.99538497    -6.2525857     -1.1694521      128.33334    
     99440   132.08165      158.5          158.5          158.5         -0.93351069    -3.7963657      0.8903185      0.10551511     132.08165    
     99460   115.95938      158.5          158.5          158.5         -6.2895644     -12.269799     -1.7514994     -4.8473943      115.95938    
     99480   118.49941      158.5          158.5          158.5          3.090922       2.9290367     -0.082955157    6.4266843      118.49941    
     99500   122.60137      158.5          158.5          158.5         -0.44102184     2.5874699     -4.3078834      0.39734793     122.60137    
     99520   113.48978      158.5          158.5          158.5         -2.9451497     -6.2225995     -0.2845757     -2.328274       113.48978    
     99540   127.81294      158.5          158.5          158.5          0.62146351    -2.5847757      3.0146745      1.4344918      127.81294    
     99560   120.12206      158.5          158.5          158.5         -6.219172      -4.2403364     -6.0684101     -8.3487696      120.12206    
     99580   105.33924      158.5          158.5          158.5         -0.10032239     3.2793518     -1.2867681     -2.2935509      105.33924    
     99600   117.92321      158.5          158.5          158.5          2.586322       3.2366394      1.0584726      3.4638538      117.92321    
     99620   132.83831      158.5          158.5          158.5          0.98786152     0.52077629     1.9294658      0.51334244     132.83831    
     99640   123.97602      158.5          158.5          158.5          5.5658902      7.5943164      4.3620088      4.7413455      123.97602    
     99660   124.38685      158.5          158.5          158.5          1.5654994      2.5326839     -0.32931148     2.4931257      124.38685    
     99680   133.34694      158.5          158.5          158.5          0.50092744     1.2390896      3.3137507     -3.050058       133.34694    
     99700   119.75597      158.5          158.5          158.5          0.41256418    -0.23311476     4.2569415     -2.7861342      119.75597    
     99720   135.34074      158.5          158.5          158.5         -2.7109044     -4.6536974     -1.7252405     -1.7537751      135.34074    
     99740   140.72759      158.5          158.5          158.5          1.4682799      1.9300543     -2.0523774      4.5271627      140.72759    
     99760   125.78662      158.5          158.5          158.5          1.4767155     -0.35203122     3.351884       1.4302939      125.78662    
     99780   127.77778      158.5          158.5          158.5          1.2316782     -3.1559108      7.8335824     -0.98263709     127.77778    
     99800   132.16294      158.5          158.5          158.5          4.1042074      3.710627       4.1173121      4.4846831      132.16294    
     99820   128.17438      158.5          158.5          158.5          0.58667207     2.4428636     -5.0161683      4.3333209      128.17438    
     99840   118.0319       158.5          158.5          158.5         -0.40753654    -0.17083935    -0.49263188    -0.55913839     118.0319     
     99860   139.71653      158.5          158.5          158.5         -1.4409481     -7.9034618      3.7960138     -0.21539644     139.71653    
     99880   136.27729      158.5          158.5          158.5         -2.4514859     -5.9663544     -1.5706221      0.18251884     136.27729    
     99900   143.29752      158.5          158.5          158.5         -1.3305234      1.7850461     -3.1198893     -2.656727       143.29752    
     99920   122.01221      158.5          158.5          158.5         -4.0159715     -11.006618      0.80131185    -1.8426082      122.01221    
     99940   112.7895       158.5          158.5          158.5          1.8028091     -6.9532144      5.9085523      6.4530895      112.7895     
     99960   117.31202      158.5          158.5          158.5         -0.77348797     1.3693127     -4.0646424      0.3748658      117.31202    
     99980   134.34124      158.5          158.5          158.5          0.056132127    2.6345398     -0.91557717    -1.5505662      134.34124    
    100000   118.7627       158.5          158.5          158.5          3.3169958     -0.49438857     5.1836289      5.2617471      118.7627     
    100020   118.65619      158.5          158.5          158.5         -2.8113345     -4.9649942     -4.2912124      0.82220296     118.65619    
    100040   98.15931       158.5          158.5          158.5          2.8292603      2.5820591      3.0169414      2.8887806      98.15931     
    100060   132.67696      158.5          158.5          158.5         -2.7051196     -4.8527064      0.38984055    -3.6524928      132.67696    
    100080   114.40136      158.5          158.5          158.5         -2.0434741     -3.7802477     -1.858678      -0.49149659     114.40136    
    100100   111.01665      158.5          158.5          158.5          1.3151571     -4.2089         4.086056       4.0683152      111.01665    
    100120   102.25066      158.5          158.5          158.5         -4.1012525     -6.4562296     -3.0405676     -2.8069602      102.25066    
    100140   119.70243      158.5          158.5          158.5          4.9664197      9.9364797      1.3784266      3.5843528      119.70243    
    100160   101.84047      158.5          158.5          158.5          2.6640589      4.0410838      3.2173187      0.73377414     101.84047    
    100180   116.02717      158.5          158.5          158.5         -1.0205584     -3.9244778      1.1581034     -0.29530076     116.02717    
    100200   108.81152      158.5          158.5          158.5          2.6694767      1.387288       1.9137932      4.707349       108.81152    
    100220   112.98138      158.5          158.5          158.5         -1.4791551      1.8490405     -3.3790568     -2.9074491      112.98138    
    100240   107.85285      158.5          158.5          158.5          1.7551738      2.5804995      2.9040546     -0.21903272     107.85285    
    100260   121.80177      158.5          158.5          158.5         -0.7663337     -4.6536814      2.5002469     -0.14556658     121.80177    
    100280   110.07132      158.5          158.5          158.5         -0.9873313     -2.4195054     -0.70610884     0.16362038     110.07132    
    100300   112.94285      158.5          158.5          158.5         -1.8358644     -0.61888969    -2.0475211     -2.8411824      112.94285    
    100320   121.86241      158.5          158.5          158.5         -1.4344163      1.2004169     -2.3857173     -3.1179484      121.86241    
    100340   129.35226      158.5          158.5          158.5         -1.5578915     -2.9144149     -0.64869496    -1.1105647      129.35226    
    100360   98.9294        158.5          158.5          158.5         -1.4013976     -2.0255187     -2.044641      -0.13403307     98.9294      
    100380   122.59481      158.5          158.5          158.5          0.12381282    -1.6754719      0.90578824     1.1411221      122.59481    
    100400   115.56225      158.5          158.5          158.5         -1.0968361     -3.9906252      2.5885309     -1.8884141      115.56225    
    100420   130.7217       158.5          158.5          158.5          1.1163127      0.38471838     2.1062239      0.85799565     130.7217     
    100440   123.28089      158.5          158.5          158.5         -0.99293081    -3.0430756     -1.2144729      1.2787561      123.28089    
    100460   134.27537      158.5          158.5          158.5         -3.7234943     -6.29561       -2.837251      -2.0376218      134.27537    
    100480   135.27113      158.5          158.5          158.5          0.92583952    -0.20104486     2.0523469      0.9262165      135.27113    
    100500   142.91045      158.5          158.5          158.5         -2.3187843     -5.741264      -1.9317963      0.71670745     142.91045    
    100520   121.20196      158.5          158.5          158.5          0.43054134     1.750233      -1.5501901      1.0915812      121.20196    
    100540   124.08191      158.5          158.5          158.5          5.0887022      6.3445215      4.0793324      4.8422529      124.08191    
    100560   128.16173      158.5          158.5          158.5         -0.15334975     2.1896036      0.47192275    -3.1215756      128.16173    
    100580   145.95976      158.5          158.5          158.5          0.36597716     0.18627088    -0.1466376      1.0582982      145.95976    
    100600   151.75505      158.5          158.5          158.5          2.3633659     -0.41970616     2.5235928      4.9862111      151.75505    
    100620   148.25609      158.5          158.5          158.5         -1.255855       2.5245439     -3.3577637     -2.9343453      148.25609    
    100640   142.75291      158.5          158.5          158.5          2.0965428      10.387532     -3.2664342     -0.83146937     142.75291    
    100660   145.66838      158.5          158.5          158.5          1.9387177      4.2296045      2.3145946     -0.72804588     145.66838    
    100680   152.80306      158.5          158.5          158.5         -1.8802759     -0.94816898    -1.8347286     -2.8579303      152.80306    
    100700   141.06844      158.5          158.5          158.5          3.867901       1.4314127      2.4344013      7.7378889      141.06844    
    100720   129.23146      158.5          158.5          158.5          1.8241143      0.88704738     1.9094111      2.6758846      129.23146    
    100740   147.37874      158.5          158.5          158.5         -3.1959328      1.0949643     -2.7709049     -7.9118578      147.37874    
    100760   140.79456      158.5          158.5          158.5          2.0033558      2.2995895      0.38229111     3.3281868      140.79456    
    100780   138.83291      158.5          158.5          158.5         -1.2659784      0.48211683    -5.563252       1.2832         138.83291    
    100800   132.45182      158.5          158.5          158.5         -1.4896026      2.2788308     -0.55401844    -6.1936202      132.45182    
    100820   125.56504      158.5          158.5          158.5          1.5896033      1.3405886      4.9374666     -1.5092452      125.56504    
    100840   126.31599      158.5          158.5          158.5         -2.5379158     -3.6096886     -2.215154      -1.7889049      126.31599    
    100860   119.26673      158.5          158.5          158.5         -0.58277739    -4.5706857      0.261757       2.5605966      119.26673    
    100880   111.52529      158.5          158.5          158.5          1.272336      -2.1596362      4.3496374      1.6270067      111.52529    
    100900   121.98869      158.5          158.5          158.5         -3.4586398     -4.7036272     -2.6812906     -2.9910017      121.98869    
    100920   110.65378      158.5          158.5          158.5         -0.9478227     -0.94005629    -2.1120073      0.20859548     110.65378    
    100922   112.59988      158.5          158.5          158.5         -2.5910978     -2.0373677     -2.9560307     -2.779895       112.59988    
Loop time of 6.09135 on 1 procs for 100000 steps with 100 atoms

Performance: 1418.405 ns/day, 0.017 hours/ns, 16416.719 timesteps/s, 1.642 Matom-step/s
86.1% CPU use with 1 MPI tasks x no OpenMP threads

MPI task timing breakdown:
Section |  min time  |  avg time  |  max time  |%varavg| %total
---------------------------------------------------------------
Pair    | 3.3134     | 3.3134     | 3.3134     |   0.0 | 54.39
Bond    | 1.4983     | 1.4983     | 1.4983     |   0.0 | 24.60
Neigh   | 0.62079    | 0.62079    | 0.62079    |   0.0 | 10.19
Comm    | 0.028155   | 0.028155   | 0.028155   |   0.0 |  0.46
Output  | 0.31219    | 0.31219    | 0.31219    |   0.0 |  5.13
Modify  | 0.2649     | 0.2649     | 0.2649     |   0.0 |  4.35
Other   |            | 0.05367    |            |       |  0.88

Nlocal:            100 ave         100 max         100 min
Histogram: 1 0 0 0 0 0 0 0 0 0
Nghost:              0 ave           0 max           0 min
Histogram: 1 0 0 0 0 0 0 0 0 0
Neighs:           2220 ave        2220 max        2220 min
Histogram: 1 0 0 0 0 0 0 0 0 0
FullNghs:            0 ave           0 max           0 min
Histogram: 1 0 0 0 0 0 0 0 0 0

Total # of neighbors = 2220
Ave neighs/atom = 22.2
Ave special neighs/atom = 5.88
Neighbor list builds = 5554
Dangerous builds = 1109
print "All done"
All done
Total wall time: 0:00:41
