LAMMPS (2 Aug 2023 - Update 2)


# ----------------- Init Section -----------------

include "system.in.init"
# -- Styles used in "ForceField" --
# -- (Changing these styles will change the formulas above) --
units           real
atom_style      full
bond_style      harmonic
angle_style     harmonic
dihedral_style  charmm
pair_style      lj/cut 11.0


# ----------------- Atom Definition Section -----------------

read_data "system.data"
Reading data file ...
  orthogonal box = (0 0 0) to (90 90 90)
  1 by 1 by 1 MPI processor grid
  reading atoms ...
  378 atoms
  scanning bonds ...
  2 = max bonds/atom
  scanning angles ...
  3 = max angles/atom
  scanning dihedrals ...
  2 = max dihedrals/atom
  reading bonds ...
  351 bonds
  reading angles ...
  459 angles
  reading dihedrals ...
  270 dihedrals
Finding 1-2 1-3 1-4 neighbors ...
  special bond factors lj:    0        0        0       
  special bond factors coul:  0        0        0       
     3 = max # of 1-2 neighbors
     4 = max # of 1-3 neighbors
     8 = max # of 1-4 neighbors
    11 = max # of special neighbors
  special bonds CPU = 0.001 seconds
  read_data CPU = 0.066 seconds

# ----------------- Settings Section -----------------



include "system.in.settings"
# Pairwise (non-bonded) interactions:
#           atomType1 atomType2   epsilon sigma
pair_coeff   1 1       0.10 2.0
pair_coeff   2  2        0.50 3.6
# (Interactions between different atoms are determined by mixing rules.)
#             bond-type        k     r0
bond_coeff  1   15.0   3.4
bond_coeff  2    15.0   3.7
#             angle-type       k    theta0
angle_coeff 1   30.00  114
angle_coeff 2  30.00  132
dihedral_coeff 1   -0.5 1 -180 0.0
dihedral_coeff 2   -1.5 1 -180 0.0

velocity 	all create 300.0 1231
fix		1 all nve/limit 0.05
fix 2 all brownian 30.0 12908410 gamma_t 3.0 rng gaussian # Compute a correct 300K simulation, check the value for gamma_t
thermo_style	custom step temp
thermo          10000
timestep	1
run		100000
Generated 1 of 1 mixed pair_coeff terms from geometric mixing rule
WARNING: One or more atoms are time integrated more than once (src/src/modify.cpp:289)
Neighbor list info ...
  update: every = 1 steps, delay = 0 steps, check = yes
  max neighbors/atom: 2000, page size: 100000
  master list distance cutoff = 13
  ghost atom cutoff = 13
  binsize = 6.5, bins = 14 14 14
  1 neighbor lists, perpetual/occasional/extra = 1 0 0
  (1) pair lj/cut, perpetual
      attributes: half, newton on
      pair build: half/bin/newton
      stencil: half/bin/3d
      bin: standard
Per MPI rank memory allocation (min/avg/max) = 8.323 | 8.323 | 8.323 Mbytes
   Step          Temp     
         0   300          
     10000   644.08263    
     20000   682.52169    
     30000   686.48406    
     40000   594.59055    
     50000   649.04645    
     60000   644.92117    
     70000   658.04466    
     80000   682.92473    
     90000   662.90691    
    100000   609.3202     
Loop time of 24.0947 on 1 procs for 100000 steps with 378 atoms

Performance: 358.585 ns/day, 0.067 hours/ns, 4150.287 timesteps/s, 1.569 Matom-step/s
57.6% CPU use with 1 MPI tasks x no OpenMP threads

MPI task timing breakdown:
Section |  min time  |  avg time  |  max time  |%varavg| %total
---------------------------------------------------------------
Pair    | 3.0924     | 3.0924     | 3.0924     |   0.0 | 12.83
Bond    | 11.656     | 11.656     | 11.656     |   0.0 | 48.38
Neigh   | 0.027427   | 0.027427   | 0.027427   |   0.0 |  0.11
Comm    | 0.5722     | 0.5722     | 0.5722     |   0.0 |  2.37
Output  | 0.00030939 | 0.00030939 | 0.00030939 |   0.0 |  0.00
Modify  | 8.1035     | 8.1035     | 8.1035     |   0.0 | 33.63
Other   |            | 0.6427     |            |       |  2.67

Nlocal:            378 ave         378 max         378 min
Histogram: 1 0 0 0 0 0 0 0 0 0
Nghost:            472 ave         472 max         472 min
Histogram: 1 0 0 0 0 0 0 0 0 0
Neighs:            826 ave         826 max         826 min
Histogram: 1 0 0 0 0 0 0 0 0 0

Total # of neighbors = 826
Ave neighs/atom = 2.1851852
Ave special neighs/atom = 7.1428571
Neighbor list builds = 67
Dangerous builds = 0
unfix 1
unfix 2

#####################################################
# Define Settings
compute eng all pe/atom
compute eatoms all reduce sum c_eng

#####################################################
# Minimization

dump mydmp all atom 100 dump.lammpstrj

reset_timestep 0
fix 1 all nvt temp 300.0 300.0 100.0
thermo 20
thermo_style custom step pe lx ly lz press pxx pyy pzz c_eatoms
min_style cg
minimize 1e-25 1e-25 500000 1000000
Generated 1 of 1 mixed pair_coeff terms from geometric mixing rule
Per MPI rank memory allocation (min/avg/max) = 9.948 | 9.948 | 9.948 Mbytes
   Step         PotEng           Lx             Ly             Lz           Press           Pxx            Pyy            Pzz          c_eatoms   
         0  -415.26473      90             90             90             32.258303      37.622663      18.877514      40.274731     -415.26473    
        20  -467.93335      90             90             90             42.690224      44.961053      37.405274      45.704345     -467.93335    
        40  -470.45717      90             90             90             42.340119      43.101763      37.941291      45.977303     -470.45717    
        60  -471.1533       90             90             90             42.837277      44.058751      38.396019      46.057061     -471.1533     
        80  -471.57689      90             90             90             43.106272      44.206867      38.907588      46.204362     -471.57689    
       100  -471.69045      90             90             90             42.9318        44.541724      38.082019      46.171656     -471.69045    
       120  -471.71355      90             90             90             42.867033      44.102312      38.318107      46.180679     -471.71355    
       140  -471.71598      90             90             90             42.920627      44.201344      38.373589      46.18695      -471.71598    
       160  -471.71632      90             90             90             42.929475      44.237346      38.363732      46.187347     -471.71632    
       180  -471.7165       90             90             90             42.934494      44.225081      38.38959       46.18881      -471.7165     
       200  -471.71666      90             90             90             42.922069      44.207861      38.371429      46.186915     -471.71666    
       220  -471.71674      90             90             90             42.930221      44.217099      38.385593      46.187971     -471.71674    
       240  -471.71697      90             90             90             42.940973      44.245516      38.387684      46.189718     -471.71697    
       260  -471.72062      90             90             90             42.813285      43.953454      38.305016      46.181386     -471.72062    
       280  -471.74914      90             90             90             42.938689      44.244162      38.386819      46.185086     -471.74914    
       300  -471.75952      90             90             90             42.965929      44.166732      38.530114      46.200942     -471.75952    
       320  -471.76694      90             90             90             42.963825      44.233613      38.4599        46.197962     -471.76694    
       340  -471.81058      90             90             90             42.791551      44.138283      38.081412      46.154958     -471.81058    
       360  -472.25577      90             90             90             42.504877      42.870578      38.500459      46.143592     -472.25577    
       380  -472.57842      90             90             90             42.738606      43.625803      38.423921      46.166095     -472.57842    
       400  -472.68861      90             90             90             42.884771      44.150751      38.332243      46.171318     -472.68861    
       420  -472.75996      90             90             90             43.029666      44.521765      38.38257       46.184663     -472.75996    
       440  -472.77773      90             90             90             43.01449       44.354123      38.491911      46.197435     -472.77773    
       459  -472.78246      90             90             90             42.918564      44.179928      38.38574       46.190022     -472.78246    
Loop time of 0.125019 on 1 procs for 459 steps with 378 atoms

85.9% CPU use with 1 MPI tasks x no OpenMP threads

Minimization stats:
  Stopping criterion = linesearch alpha is zero
  Energy initial, next-to-last, final = 
     -415.264725743611  -472.782459061623  -472.782459061623
  Force two-norm initial, final = 62.217373 0.061810538
  Force max component initial, final = 8.8253018 0.010765583
  Final line search alpha, max atom move = 1.9073486e-06 2.0533719e-08
  Iterations, force evaluations = 459 940

MPI task timing breakdown:
Section |  min time  |  avg time  |  max time  |%varavg| %total
---------------------------------------------------------------
Pair    | 0.024452   | 0.024452   | 0.024452   |   0.0 | 19.56
Bond    | 0.077533   | 0.077533   | 0.077533   |   0.0 | 62.02
Neigh   | 0.0036117  | 0.0036117  | 0.0036117  |   0.0 |  2.89
Comm    | 0.0040102  | 0.0040102  | 0.0040102  |   0.0 |  3.21
Output  | 0.0039762  | 0.0039762  | 0.0039762  |   0.0 |  3.18
Modify  | 0          | 0          | 0          |   0.0 |  0.00
Other   |            | 0.01144    |            |       |  9.15

Nlocal:            378 ave         378 max         378 min
Histogram: 1 0 0 0 0 0 0 0 0 0
Nghost:            474 ave         474 max         474 min
Histogram: 1 0 0 0 0 0 0 0 0 0
Neighs:            886 ave         886 max         886 min
Histogram: 1 0 0 0 0 0 0 0 0 0

Total # of neighbors = 886
Ave neighs/atom = 2.3439153
Ave special neighs/atom = 7.1428571
Neighbor list builds = 8
Dangerous builds = 0

run 100000
Generated 1 of 1 mixed pair_coeff terms from geometric mixing rule
Per MPI rank memory allocation (min/avg/max) = 9.963 | 9.963 | 9.963 Mbytes
   Step         PotEng           Lx             Ly             Lz           Press           Pxx            Pyy            Pzz          c_eatoms   
       459  -472.78246      90             90             90             42.918564      44.179928      38.38574       46.190022     -472.78246    
       460  -472.5336       90             90             90             42.949733      44.159016      38.455031      46.235152     -472.5336     
       480  -395.40303      90             90             90             30.776273      29.585756      20.527361      42.2157       -395.40303    
       500  -344.34202      90             90             90             17.635511      20.588031     -2.9674478      35.28595      -344.34202    
       520  -324.33849      90             90             90             8.2306075      18.063572     -22.897386      29.525636     -324.33849    
       540  -278.64256      90             90             90            -2.6016927      10.674949     -43.096987      24.616959     -278.64256    
       560  -261.07514      90             90             90            -7.5289839      11.490503     -55.225528      21.148073     -261.07514    
       580  -235.73146      90             90             90            -11.636803      7.0622979     -61.016059      19.043351     -235.73146    
       600  -243.92086      90             90             90            -11.406892     -0.0072601849  -53.012965      18.799549     -243.92086    
       620  -270.15942      90             90             90            -8.9680949     -6.0933041     -39.230478      18.419497     -270.15942    
       640  -268.75876      90             90             90            -9.1716653     -16.529657     -28.272114      17.286775     -268.75876    
       660  -270.23216      90             90             90            -7.3531393     -18.944535     -20.336782      17.221899     -270.23216    
       680  -274.98686      90             90             90            -3.1056896     -18.420865     -8.4966229      17.600419     -274.98686    
       700  -288.86801      90             90             90             3.3888434     -18.776311      11.018488      17.924354     -288.86801    
       720  -299.28745      90             90             90             9.3338831     -15.044326      24.667198      18.378777     -299.28745    
       740  -296.51297      90             90             90             12.358545     -11.559687      30.827867      17.807455     -296.51297    
       760  -278.64453      90             90             90             11.948412     -9.611119       30.024324      15.432031     -278.64453    
       780  -252.77909      90             90             90             9.4497909     -13.585903      28.708057      13.227218     -252.77909    
       800  -253.22895      90             90             90             9.9511253     -17.488239      32.896903      14.444712     -253.22895    
       820  -268.99571      90             90             90             12.852501     -13.497026      34.141384      17.913146     -268.99571    
       840  -261.67501      90             90             90             12.901387     -11.127884      30.329307      19.50274      -261.67501    
       860  -261.44257      90             90             90             12.203601     -11.123304      27.147215      20.586892     -261.44257    
       880  -296.7348       90             90             90             12.608722     -11.24489       27.056266      22.014789     -296.7348     
       900  -302.09806      90             90             90             6.4703245     -16.865659      16.497537      19.779096     -302.09806    
       920  -290.0937       90             90             90            -2.3663545     -22.945274      0.31433774     15.531873     -290.0937     
       940  -291.22471      90             90             90            -7.8926815     -22.883589     -12.8603        12.065844     -291.22471    
       960  -273.94083      90             90             90            -12.932515     -19.06735      -28.853688      9.1234933     -273.94083    
       980  -276.68111      90             90             90            -13.289482     -10.702872     -36.845194      7.6796199     -276.68111    
      1000  -274.87027      90             90             90            -12.869769     -0.086466054   -44.04375       5.5209087     -274.87027    
      1020  -250.35259      90             90             90            -14.532081      3.7961942     -50.869561      3.4771241     -250.35259    
      1040  -257.1616       90             90             90            -12.064115      7.1844692     -47.29818       3.9213645     -257.1616     
      1060  -265.36451      90             90             90            -9.7685808      8.4536458     -40.922331      3.162943      -265.36451    
      1080  -265.22138      90             90             90            -9.4000119     -0.20854783    -28.689974      0.69848622    -265.22138    
      1100  -282.77967      90             90             90            -6.9402318     -1.8773638     -17.727106     -1.2162259     -282.77967    
      1120  -289.33683      90             90             90            -4.767562      -0.4783665     -11.43877      -2.3855497     -289.33683    
      1140  -279.14785      90             90             90            -2.9978872     -5.8386546     -0.46369025    -2.6913168     -279.14785    
      1160  -283.99504      90             90             90             1.8655203     -6.1327609      13.95768      -2.2283584     -283.99504    
      1180  -275.73668      90             90             90             5.0092196     -9.1212246      25.421219     -1.2723359     -275.73668    
      1200  -245.73775      90             90             90             5.3155141     -11.57452       27.746497     -0.22543483    -245.73775    
      1220  -244.1459       90             90             90             9.6731707     -5.8328565      33.613067      1.2393022     -244.1459     
      1240  -244.74882      90             90             90             14.796645     -2.3814007      44.301493      2.4698424     -244.74882    
      1260  -242.01342      90             90             90             19.051308      4.4407988      49.256816      3.4563093     -242.01342    
      1280  -242.44213      90             90             90             22.298709      8.6258582      52.845884      5.424384      -242.44213    
      1300  -231.93008      90             90             90             22.25974       5.778591       53.511578      7.48905       -231.93008    
      1320  -243.39279      90             90             90             22.377985      8.8547101      50.395566      7.883679      -243.39279    
      1340  -247.74201      90             90             90             19.051425      8.9599886      42.998146      5.1961396     -247.74201    
      1360  -241.11407      90             90             90             12.22978       4.6085415      30.067103      2.0136942     -241.11407    
      1380  -233.89118      90             90             90             4.2903757     -3.0229499      14.811933      1.0821445     -233.89118    
      1400  -227.3374       90             90             90            -3.228208      -13.202869      2.5307219      0.98752359    -227.3374     
      1420  -245.36937      90             90             90            -7.0497495     -13.488949     -6.855811      -0.8044884     -245.36937    
      1440  -230.89199      90             90             90            -14.494833     -16.938717     -22.3072       -4.2385806     -230.89199    
      1460  -216.96355      90             90             90            -21.417828     -23.976221     -36.219784     -4.0574775     -216.96355    
      1480  -233.92728      90             90             90            -23.023686     -22.207694     -44.143749     -2.7196159     -233.92728    
      1500  -227.97711      90             90             90            -24.543345     -22.796335     -44.857381     -5.9763194     -227.97711    
      1520  -239.12006      90             90             90            -20.784113     -19.799376     -34.304615     -8.2483479     -239.12006    
      1540  -242.2502       90             90             90            -15.796837     -13.020769     -26.679113     -7.6906283     -242.2502     
      1560  -229.79164      90             90             90            -12.189021     -12.304383     -18.532556     -5.730124      -229.79164    
      1580  -245.97253      90             90             90            -5.3652779     -8.8331875     -5.8444721     -1.418174      -245.97253    
      1600  -244.70888      90             90             90            -1.2212865     -7.4405343      2.1653051      1.6113698     -244.70888    
      1620  -231.86512      90             90             90             1.031073      -8.9599182      8.6000278      3.4531094     -231.86512    
      1640  -235.41382      90             90             90             5.2411259     -5.1921862      13.93256       6.9830041     -235.41382    
      1660  -235.05373      90             90             90             8.9875416     -4.5947208      21.984291      9.5730545     -235.05373    
      1680  -232.12673      90             90             90             12.590684     -4.093814       31.546737      10.319128     -232.12673    
      1700  -242.4238       90             90             90             17.876895      3.3790519      37.724672      12.526962     -242.4238     
      1720  -248.07991      90             90             90             21.469578      9.4452927      41.4884        13.475042     -248.07991    
      1740  -236.06264      90             90             90             20.609512      10.677297      40.262165      10.889074     -236.06264    
      1760  -237.62288      90             90             90             18.71089       10.850637      37.305454      7.9765798     -237.62288    
      1780  -240.84556      90             90             90             15.083216      12.130901      31.961745      1.1570033     -240.84556    
      1800  -231.82799      90             90             90             9.4968414      14.691279      23.590887     -9.7916418     -231.82799    
      1820  -228.74799      90             90             90             5.4824588      16.390453      16.676696     -16.619773     -228.74799    
      1840  -223.79139      90             90             90             2.6432705      16.531464      8.0656082     -16.667261     -223.79139    
      1860  -220.49161      90             90             90             1.44224        16.699295     -2.0668093     -10.305766     -220.49161    
      1880  -216.28415      90             90             90             1.3941505      15.315807     -10.015316     -1.1180392     -216.28415    
      1900  -206.54318      90             90             90             1.1117607      12.781814     -14.118613      4.672082      -206.54318    
      1920  -209.14292      90             90             90             1.7869853      14.24725      -16.989188      8.1028934     -209.14292    
      1940  -216.12927      90             90             90             1.9971882      15.083722     -19.414455      10.322297     -216.12927    
      1960  -212.77442      90             90             90             0.33829434     10.183329     -17.918083      8.7496375     -212.77442    
      1980  -208.62986      90             90             90            -0.45178707     6.180283      -14.316142      6.7804979     -208.62986    
      2000  -215.10589      90             90             90             2.305521       6.8676443     -8.4525656      8.5014843     -215.10589    
      2020  -220.63436      90             90             90             6.5815045      11.007174     -2.7786865      11.516026     -220.63436    
      2040  -217.18439      90             90             90             9.5716718      11.937875      0.83289986     15.94424      -217.18439    
      2060  -221.201        90             90             90             12.237928      8.9933041      5.7880603      21.932419     -221.201      
      2080  -228.40882      90             90             90             14.396995      11.034774      7.3845481      24.771664     -228.40882    
      2100  -219.08945      90             90             90             14.207695      14.290766      6.0279611      22.304359     -219.08945    
      2120  -214.0045       90             90             90             14.170871      19.110683      9.4797016      13.922229     -214.0045     
      2140  -223.72805      90             90             90             14.729536      26.108672      13.50073       4.5792072     -223.72805    
      2160  -212.8533       90             90             90             11.535841      23.854079      9.9990864      0.75435727    -212.8533     
      2180  -208.9935       90             90             90             9.3753456      20.902748      6.5939071      0.62938142    -208.9935     
      2200  -220.78309      90             90             90             10.154204      20.73952       8.4647569      1.2583342     -220.78309    
      2220  -214.78013      90             90             90             9.4611208      14.140949      11.579988      2.6624249     -214.78013    
      2240  -222.27758      90             90             90             10.48306       8.1112023      17.941007      5.3969703     -222.27758    
      2260  -222.63991      90             90             90             10.542367      3.2531185      21.612509      6.7614728     -222.63991    
      2280  -215.99741      90             90             90             9.7126998      3.2330279      20.530741      5.3743304     -215.99741    
      2300  -230.16574      90             90             90             11.094902      12.79868       17.791364      2.6946617     -230.16574    
      2320  -217.05826      90             90             90             8.2397081      17.222104      9.1512092     -1.6541889     -217.05826    
      2340  -210.54549      90             90             90             5.1463414      15.755926      2.9772398     -3.294142      -210.54549    
      2360  -220.36353      90             90             90             4.067246       13.265746      1.3532917     -2.4172995     -220.36353    
      2380  -208.97357      90             90             90             1.7169931      10.324382     -0.73037201    -4.4430307     -208.97357    
      2400  -208.2466       90             90             90             2.4088194      14.068606     -0.40592143    -6.4362264     -208.2466     
      2420  -204.36413      90             90             90             3.8103568      19.659325     -1.9982492     -6.2300052     -204.36413    
      2440  -198.13278      90             90             90             4.7701899      23.268159     -6.2710748     -2.686515      -198.13278    
      2460  -197.11103      90             90             90             5.7792886      24.167011     -10.043702      3.214557      -197.11103    
      2480  -191.36481      90             90             90             5.7524014      22.850565     -10.613053      5.0196926     -191.36481    
      2500  -199.91594      90             90             90             7.0969759      24.838571     -4.7940058      1.2463629     -199.91594    
      2520  -204.22963      90             90             90             7.7142738      24.709278      2.4221327     -3.9885892     -204.22963    
      2540  -206.4637       90             90             90             7.9922611      20.827806      9.267645      -6.1186677     -206.4637     
      2560  -216.53328      90             90             90             9.566298       14.678042      19.13935      -5.1184976     -216.53328    
      2580  -220.87015      90             90             90             11.134957      7.2714425      30.48498      -4.3515514     -220.87015    
      2600  -225.07027      90             90             90             12.470931      5.2056224      37.759566     -5.5523941     -225.07027    
      2620  -222.14789      90             90             90             11.280056      2.3236796      37.397752     -5.8812624     -222.14789    
      2640  -218.16057      90             90             90             7.8599921     -5.7716057      31.594591     -2.2430094     -218.16057    
      2660  -219.82587      90             90             90             4.0785685     -11.449766      22.699435      0.98603646    -219.82587    
      2680  -219.97111      90             90             90             0.54830174    -14.468679      13.307682      2.8059026     -219.97111    
      2700  -220.90376      90             90             90            -1.8615464     -17.091818      5.6385132      5.8686656     -220.90376    
      2720  -219.63041      90             90             90            -4.0205853     -19.301774     -0.72422132     7.9642394     -219.63041    
      2740  -218.09055      90             90             90            -6.108746      -21.751282     -6.0540681      9.4791122     -218.09055    
      2760  -211.81809      90             90             90            -7.8387008     -23.111888     -10.728649      10.324434     -211.81809    
      2780  -212.74312      90             90             90            -6.7096093     -18.829241     -13.475304      12.175718     -212.74312    
      2800  -224.99745      90             90             90            -3.2085798     -8.7920957     -15.309414      14.475771     -224.99745    
      2820  -225.24656      90             90             90            -2.0552917     -0.42315665    -15.959225      10.216507     -225.24656    
      2840  -227.79142      90             90             90            -1.5971733      3.8533366     -11.432816      2.7879597     -227.79142    
      2860  -232.57172      90             90             90            -1.7385235      2.3171806     -7.399007      -0.13374401    -232.57172    
      2880  -219.13395      90             90             90            -4.191373      -1.9950441     -11.713812      1.1347368     -219.13395    
      2900  -207.56316      90             90             90            -5.6335477     -0.52532119    -17.253881      0.87855923    -207.56316    
      2920  -203.19265      90             90             90            -5.5319106      0.73697119    -14.143778     -3.1889247     -203.19265    
      2940  -206.20985      90             90             90            -4.4358755     -2.7257969     -7.068983      -3.5128467     -206.20985    
      2960  -223.09945      90             90             90            -1.5702097     -4.3000992     -1.292643       0.88211312    -223.09945    
      2980  -227.64485      90             90             90            -0.067806402   -2.8939021      2.8838898     -0.1934069     -227.64485    
      3000  -219.52681      90             90             90            -0.37300348    -0.14986177     5.4261649     -6.3953135     -219.52681    
      3020  -219.33649      90             90             90            -0.44391751     0.3032066      8.3725528     -10.007512     -219.33649    
      3040  -218.44502      90             90             90            -1.0443803     -3.7907293      10.839116     -10.181528     -218.44502    
      3060  -221.0902       90             90             90            -0.71959608    -10.253586      14.774675     -6.6798775     -221.0902     
      3080  -221.53757      90             90             90             0.3393878     -15.90988       18.886526     -1.9584825     -221.53757    
      3100  -210.68825      90             90             90             0.66241079    -16.858819      19.150655     -0.30460371    -210.68825    
      3120  -211.51632      90             90             90             2.4459384     -13.899709      21.097744      0.13977977    -211.51632    
      3140  -222.01449      90             90             90             5.3177019     -8.9352336      25.101245     -0.21290543    -222.01449    
      3160  -223.54811      90             90             90             7.4096481     -6.1367467      26.485808      1.8798829     -223.54811    
      3180  -216.71491      90             90             90             8.9848174     -8.3562781      24.04793       11.2628       -216.71491    
      3200  -219.85077      90             90             90             11.706105     -6.9878869      21.424262      20.681939     -219.85077    
      3220  -232.97856      90             90             90             14.52755      -0.32168021     21.520374      22.383955     -232.97856    
      3240  -230.67955      90             90             90             14.184654      5.608742       18.39078       18.554442     -230.67955    
      3260  -227.08114      90             90             90             13.278837      9.2904892      12.21455       18.331471     -227.08114    
      3280  -228.73978      90             90             90             13.278626      9.608288       5.5578528      24.669738     -228.73978    
      3300  -230.78505      90             90             90             13.383686      13.397947     -0.73984138     27.492952     -230.78505    
      3320  -234.58824      90             90             90             13.034606      22.955222     -6.2797518      22.428348     -234.58824    
      3340  -221.05121      90             90             90             9.6766153      29.896025     -16.69862       15.832441     -221.05121    
      3360  -213.41563      90             90             90             6.883703       35.084071     -27.06407       12.631109     -213.41563    
      3380  -217.24367      90             90             90             5.9673589      38.920823     -32.887726      11.868979     -217.24367    
      3400  -216.7804       90             90             90             4.6233611      37.593536     -36.704197      12.980743     -216.7804     
      3420  -220.86277      90             90             90             3.3512764      33.32403      -36.79765       13.527449     -220.86277    
      3440  -214.72701      90             90             90             0.61133783     28.969536     -33.019634      5.8841119     -214.72701    
      3460  -216.61184      90             90             90            -0.66998873     26.504643     -23.282875     -5.231734      -216.61184    
      3480  -233.01219      90             90             90             0.60626327     24.182953     -12.957943     -9.406221      -233.01219    
      3500  -238.80041      90             90             90             1.1568872      19.838622     -9.4190474     -6.9489131     -238.80041    
      3520  -240.53925      90             90             90             1.5431162      15.459649     -7.963304      -2.8669961     -240.53925    
      3540  -237.72744      90             90             90             1.973863       11.268661     -2.9604967     -2.3865755     -237.72744    
      3560  -243.39018      90             90             90             4.0761862      8.2461408      7.5115753     -3.5291575     -243.39018    
      3580  -243.04749      90             90             90             5.578325       3.8345961      16.080601     -3.180222      -243.04749    
      3600  -221.665        90             90             90             4.1577403     -3.2911971      19.384079     -3.6196612     -221.665      
      3620  -216.30832      90             90             90             4.3739311     -5.4720564      21.564431     -2.970581      -216.30832    
      3640  -221.6343       90             90             90             6.4014013     -4.9115194      22.927165      1.1885579     -221.6343     
      3660  -222.85614      90             90             90             9.2470086     -8.4269627      27.870248      8.2977409     -222.85614    
      3680  -219.93792      90             90             90             12.800646     -10.632478      34.714937      14.31948      -219.93792    
      3700  -214.5962       90             90             90             16.039064     -7.577149       39.630489      16.063851     -214.5962     
      3720  -224.21459      90             90             90             19.707646     -1.1703401      42.898729      17.39455      -224.21459    
      3740  -230.17851      90             90             90             20.929698      4.2663513      39.542714      18.980028     -230.17851    
      3760  -224.46639      90             90             90             18.607717      3.1562279      34.731845      17.935078     -224.46639    
      3780  -222.15436      90             90             90             14.932123     -1.9494086      32.895554      13.850225     -222.15436    
      3800  -222.53005      90             90             90             10.498072     -5.1013422      27.433046      9.1625113     -222.53005    
      3820  -226.5516       90             90             90             6.2646449     -5.4760549      18.0069        6.2630894     -226.5516     
      3840  -225.86517      90             90             90             2.2179857     -3.0879956      6.6557069      3.0862458     -225.86517    
      3860  -220.83961      90             90             90            -1.2782363     -0.21232868    -2.6899863     -0.93239407    -220.83961    
      3880  -215.40925      90             90             90            -4.5908859     -1.1839586     -9.0941681     -3.494531      -215.40925    
      3900  -210.893        90             90             90            -8.3386789     -2.4527729     -16.319091     -6.2441724     -210.893      
      3920  -217.72668      90             90             90            -10.670886     -0.37524308    -20.751827     -10.885589     -217.72668    
      3940  -223.20296      90             90             90            -12.058421      0.51189737    -21.61864      -15.06852      -223.20296    
      3960  -219.87558      90             90             90            -13.204591     -1.9748158     -20.571119     -17.067837     -219.87558    
      3980  -224.1062       90             90             90            -12.81705      -7.2899544     -14.82065      -16.340544     -224.1062     
      4000  -230.61377      90             90             90            -12.195731     -13.296219     -9.9930517     -13.297923     -230.61377    
      4020  -232.72717      90             90             90            -11.937086     -13.297163     -12.298863     -10.215232     -232.72717    
      4040  -231.85846      90             90             90            -10.854481     -8.3282288     -16.461326     -7.7738868     -231.85846    
      4060  -225.63096      90             90             90            -8.8350302     -5.7882238     -15.636501     -5.0803661     -225.63096    
      4080  -226.62392      90             90             90            -5.1018343     -6.2254863     -9.9382112      0.85819454    -226.62392    
      4100  -234.17472      90             90             90            -0.85831714    -6.5440675     -6.7882217      10.757338     -234.17472    
      4120  -230.59354      90             90             90             1.4520492     -3.746381      -10.266612      18.36914      -230.59354    
      4140  -226.80981      90             90             90             3.4863366      1.3900886     -12.659289      21.72821      -226.80981    
      4160  -225.36685      90             90             90             5.5327189      3.4073797     -9.7457461      22.936523     -225.36685    
      4180  -227.49671      90             90             90             7.1727235      1.8025412     -4.5555376      24.271167     -227.49671    
      4200  -235.60411      90             90             90             8.2265758     -0.88041224    -0.93174705     26.491887     -235.60411    
      4220  -230.47998      90             90             90             6.8808929     -1.3485926     -2.1796867      24.170958     -230.47998    
      4240  -223.33527      90             90             90             5.6936788      1.7467416     -1.8159817      17.150277     -223.33527    
      4260  -221.95007      90             90             90             6.2067638      3.6744952      5.3731059      9.5726903     -221.95007    
      4280  -224.54913      90             90             90             7.417234       4.3682835      13.917983      3.9654359     -224.54913    
      4300  -227.16078      90             90             90             7.8876448      5.4288627      17.761897      0.47217421    -227.16078    
      4320  -218.13694      90             90             90             6.466249       10.188012      15.425093     -6.2143579     -218.13694    
      4340  -219.92732      90             90             90             6.431055       20.441808      12.425247     -13.57389      -219.92732    
      4360  -227.96316      90             90             90             6.915437       25.682944      11.603024     -16.539658     -227.96316    
      4380  -228.76117      90             90             90             5.5107061      24.238953      10.450977     -18.157812     -228.76117    
      4400  -232.67507      90             90             90             3.4858601      21.726645      8.3343207     -19.603386     -232.67507    
      4420  -233.77452      90             90             90             1.314842       19.676596      3.8826079     -19.614678     -233.77452    
      4440  -237.57862      90             90             90             0.4526004      19.794216     -1.0033032     -17.433112     -237.57862    
      4460  -238.01558      90             90             90            -0.28715562     16.408616     -3.7202585     -13.549824     -238.01558    
      4480  -231.28213      90             90             90            -2.2546748      6.1113167     -4.1581287     -8.7172126     -231.28213    
      4500  -228.14509      90             90             90            -3.8665236     -4.8303193     -2.3168278     -4.4524236     -228.14509    
      4520  -231.86904      90             90             90            -3.3763906     -7.3818966     -3.0273334      0.28005825    -231.86904    
      4540  -240.00843      90             90             90            -0.82016484    -2.2392328     -8.1216553      7.9003936     -240.00843    
      4560  -236.10457      90             90             90             0.36617228    -0.56405796    -10.314809      11.977384     -236.10457    
      4580  -230.76176      90             90             90            -0.068709302   -2.7924956     -6.7477156      9.3340832     -230.76176    
      4600  -230.6568       90             90             90            -1.1473834     -5.8494125     -2.8179227      5.2251848     -230.6568     
      4620  -226.53736      90             90             90            -2.2604729     -7.5054553     -2.1209467      2.8449833     -226.53736    
      4640  -229.52901      90             90             90            -0.73211128    -2.7457895     -2.6150015      3.1644572     -229.52901    
      4660  -226.66071      90             90             90             1.8430669      1.2454648      0.22161671     4.0621191     -226.66071    
      4680  -226.0536       90             90             90             5.5066515      2.3099295      8.5127982      5.6972269     -226.0536     
      4700  -233.64651      90             90             90             10.411645      4.6986764      17.076916      9.4593417     -233.64651    
      4720  -229.90989      90             90             90             14.287348      8.9393239      21.195504      12.727215     -229.90989    
      4740  -233.22788      90             90             90             18.795173      18.789099      22.954662      14.641757     -233.22788    
      4760  -230.92667      90             90             90             20.997616      27.398448      20.897364      14.697037     -230.92667    
      4780  -220.71925      90             90             90             19.527894      27.793817      15.400649      15.389215     -220.71925    
      4800  -219.75872      90             90             90             17.086011      23.001446      10.964769      17.291818     -219.75872    
      4820  -212.99434      90             90             90             13.80299       17.913677      7.4539664      16.041326     -212.99434    
      4840  -211.05841      90             90             90             12.075621      19.094919      4.8616377      12.270308     -211.05841    
      4860  -210.17937      90             90             90             10.966353      23.803112      1.6805949      7.4153512     -210.17937    
      4880  -213.94004      90             90             90             9.9456976      25.516535      0.25434933     4.0662082     -213.94004    
      4900  -225.57674      90             90             90             9.3409991      20.847845      3.4571675      3.717985      -225.57674    
      4920  -222.71296      90             90             90             7.1411162      12.424884      3.728749       5.2697161     -222.71296    
      4940  -229.0003       90             90             90             5.990422       8.0851867     -0.00015825021  9.8862374     -229.0003     
      4960  -237.94214      90             90             90             4.0057257      3.9729715     -3.75672        11.800926     -237.94214    
      4980  -232.32181      90             90             90            -1.4252688     -5.9399615     -7.0008948      8.6650499     -232.32181    
      5000  -227.24669      90             90             90            -7.2653864     -20.120218     -6.8763177      5.2003767     -227.24669    
      5020  -220.13282      90             90             90            -11.557756     -32.9316       -4.7362406      2.994574      -220.13282    
      5040  -225.16481      90             90             90            -11.487277     -35.065673     -2.8601717      3.4640145     -225.16481    
      5060  -235.31125      90             90             90            -8.9157784     -27.310941     -3.055549       3.6191546     -235.31125    
      5080  -233.3111       90             90             90            -7.4783693     -20.215889     -4.7731288      2.5539095     -233.3111     
      5100  -235.29611      90             90             90            -5.5587669     -17.604221     -2.400647       3.3285674     -235.29611    
      5120  -237.7076       90             90             90            -2.9647251     -14.541922      0.41790347     5.2298433     -237.7076     
      5140  -235.83526      90             90             90             0.26640636    -7.0034354     -0.13153953     7.934194      -235.83526    
      5160  -239.83249      90             90             90             4.8682126      4.5186732      1.7867268      8.2992379     -239.83249    
      5180  -245.39516      90             90             90             8.9913209      13.711659      7.2522626      6.0100409     -245.39516    
      5200  -245.902        90             90             90             11.30392       15.952221      11.345505      6.6140336     -245.902      
      5220  -242.54295      90             90             90             12.440105      16.905077      11.05668       9.3585573     -242.54295    
      5240  -238.81122      90             90             90             13.034798      18.012991      8.0889824      13.00242      -238.81122    
      5260  -233.63348      90             90             90             12.44851       16.595158      4.9703702      15.780002     -233.63348    
      5280  -225.7993       90             90             90             10.234411      15.227041      2.4296024      13.046591     -225.7993     
      5300  -229.53649      90             90             90             8.5316083      14.970563      3.0534279      7.5708343     -229.53649    
      5320  -238.44772      90             90             90             7.4228362      12.605271      5.1001076      4.5631299     -238.44772    
      5340  -233.18824      90             90             90             5.1379934      7.0862401      1.7682876      6.5594523     -233.18824    
      5360  -227.19746      90             90             90             3.4687225      6.461198      -7.9299913      11.874961     -227.19746    
      5380  -233.04908      90             90             90             3.8425225      12.924601     -15.748465      14.351431     -233.04908    
      5400  -242.1937       90             90             90             4.6786463      17.166119     -15.046802      11.916622     -242.1937     
      5420  -242.2004       90             90             90             3.3329429      12.497203     -12.349784      9.8514097     -242.2004     
      5440  -233.15236      90             90             90            -1.306531      -0.66102327    -12.759498      9.5009284     -233.15236    
      5460  -230.79178      90             90             90            -7.2803334     -11.74332      -13.00051       2.9028299     -230.79178    
      5480  -228.0715       90             90             90            -13.832668     -16.590846     -15.808498     -9.098659      -228.0715     
      5500  -216.62983      90             90             90            -19.519528     -21.482833     -20.854301     -16.221451     -216.62983    
      5520  -217.01239      90             90             90            -20.37141      -22.592312     -20.124881     -18.397037     -217.01239    
      5540  -229.44102      90             90             90            -16.863096     -18.271646     -13.43681      -18.880833     -229.44102    
      5560  -238.19058      90             90             90            -12.596879     -13.667231     -6.589062      -17.534344     -238.19058    
      5580  -236.81422      90             90             90            -9.3422153     -8.9045723     -3.6189654     -15.503108     -236.81422    
      5600  -239.62167      90             90             90            -5.0905386     -1.6861992      0.6576276     -14.243044     -239.62167    
      5620  -248.07892      90             90             90             0.69412495     7.879451       9.1586928     -14.955769     -248.07892    
      5640  -245.15335      90             90             90             5.8734195      15.251362      14.943615     -12.574718     -245.15335    
      5660  -249.21664      90             90             90             11.993799      20.530736      18.848761     -3.398099      -249.21664    
      5680  -257.12546      90             90             90             17.719541      26.991         22.304882      3.8627399     -257.12546    
      5700  -255.62452      90             90             90             20.479972      33.209364      24.624418      3.6061359     -255.62452    
      5720  -253.13502      90             90             90             20.536489      34.8976        26.590788      0.12107777    -253.13502    
      5740  -245.35953      90             90             90             17.374178      30.47572       23.51084      -1.864027      -245.35953    
      5760  -238.83263      90             90             90             12.98543       25.678279      15.568333     -2.2903223     -238.83263    
      5780  -237.73264      90             90             90             9.794521       23.897569      7.6520759     -2.1660821     -237.73264    
      5800  -242.78993      90             90             90             9.0883537      20.71042       4.0630361      2.4916045     -242.78993    
      5820  -254.15607      90             90             90             10.471906      14.606087      6.4932878      10.316343     -254.15607    
      5840  -254.99361      90             90             90             10.302792      8.0782848      8.0141679      14.815924     -254.99361    
      5860  -250.86398      90             90             90             7.9957604      2.6943685      5.169317       16.123596     -250.86398    
      5880  -253.16566      90             90             90             5.0338271     -0.68978794     0.30592967     15.485339     -253.16566    
      5900  -255.23279      90             90             90             1.2842004     -6.7156388     -4.1841415      14.752382     -255.23279    
      5920  -248.81805      90             90             90            -3.4089887     -17.867728     -6.5989918      14.239754     -248.81805    
      5940  -242.6081       90             90             90            -6.9519968     -23.295789     -10.002527      12.442325     -242.6081     
      5960  -246.86943      90             90             90            -7.3447695     -17.932896     -14.358883      10.25747      -246.86943    
      5980  -247.45061      90             90             90            -5.7836781     -9.3910274     -15.840102      7.8800956     -247.45061    
      6000  -241.48346      90             90             90            -2.6610996     -1.8576235     -11.51976       5.3940846     -241.48346    
      6020  -239.66555      90             90             90             1.9751686      3.552488      -1.792571       4.1655889     -239.66555    
      6040  -244.5584       90             90             90             6.4206032      7.2066212      6.7613438      5.2938447     -244.5584     
      6060  -246.25952      90             90             90             8.5189649      10.558108      9.1807861      5.8180006     -246.25952    
      6080  -238.26919      90             90             90             8.0871374      13.99468       6.7294027      3.5373296     -238.26919    
      6100  -236.39473      90             90             90             8.2717184      16.604231      6.3486186      1.862306      -236.39473    
      6120  -238.4919       90             90             90             9.7455922      16.727939      11.411651      1.0971872     -238.4919     
      6140  -240.79282      90             90             90             11.891789      17.397792      15.27131       3.0062651     -240.79282    
      6160  -244.69856      90             90             90             13.596132      19.14181       13.922176      7.7244115     -244.69856    
      6180  -240.17642      90             90             90             12.726491      18.41687       12.236218      7.5263846     -240.17642    
      6200  -236.59209      90             90             90             10.351181      14.287818      14.282315      2.4834092     -236.59209    
      6220  -233.02457      90             90             90             6.8666881      6.9765657      17.065734     -3.4422348     -233.02457    
      6240  -233.92052      90             90             90             3.8214082      0.27035669     18.06298      -6.8691123     -233.92052    
      6260  -244.37956      90             90             90             2.9909134     -3.3783576      19.223908     -6.8728103     -244.37956    
      6280  -241.40077      90             90             90             2.4241478     -4.2150858      19.163038     -7.6755086     -241.40077    
      6300  -233.80367      90             90             90             3.3786156     -2.7970107      18.640173     -5.7073159     -233.80367    
      6320  -241.42511      90             90             90             7.2625298     -1.7810912      21.840924      1.727757      -241.42511    
      6340  -247.75346      90             90             90             9.8552996     -2.7826079      22.535094      9.813412      -247.75346    
      6360  -241.70981      90             90             90             8.2013508     -4.0694805      14.580694      14.092839     -241.70981    
      6380  -239.95911      90             90             90             4.3863727     -4.0183991      5.0623058      12.115211     -239.95911    
      6400  -248.75329      90             90             90             0.1641527     -6.5191085     -0.75775608     7.7693227     -248.75329    
      6420  -257.35226      90             90             90            -4.5097132     -12.491547     -5.8644488      4.8268563     -257.35226    
      6440  -257.57974      90             90             90            -9.0845202     -16.0371       -13.817394      2.6009343     -257.57974    
      6460  -250.28594      90             90             90            -12.117931     -15.314481     -23.212118      2.1728056     -250.28594    
      6480  -244.68854      90             90             90            -12.129514     -11.201049     -27.471076      2.2835834     -244.68854    
      6500  -249.10947      90             90             90            -9.2868913     -5.3164132     -24.061693      1.5174326     -249.10947    
      6520  -253.12979      90             90             90            -6.978025      -2.7933767     -20.055979      1.9152811     -253.12979    
      6540  -249.47278      90             90             90            -7.1065278     -2.437235      -19.958931      1.0765829     -249.47278    
      6560  -246.74189      90             90             90            -8.0745403      1.8505007     -21.864327     -4.2097947     -246.74189    
      6580  -239.35874      90             90             90            -9.3193182      7.3723842     -23.974433     -11.355906     -239.35874    
      6600  -234.6747       90             90             90            -8.4735126      12.513921     -21.968755     -15.965704     -234.6747     
      6620  -242.80488      90             90             90            -3.4595487      17.875659     -13.606668     -14.647637     -242.80488    
      6640  -244.07611      90             90             90             3.0659497      19.87608      -3.6961318     -6.9820994     -244.07611    
      6660  -239.76912      90             90             90             10.15822       22.777112      3.253735       4.4438139     -239.76912    
      6680  -240.02424      90             90             90             17.174883      27.821168      7.1471494      16.556332     -240.02424    
      6700  -241.06513      90             90             90             21.239517      30.699684      9.4788016      23.540066     -241.06513    
      6720  -236.88779      90             90             90             20.299635      29.613942      9.8066496      21.478314     -236.88779    
      6740  -231.70456      90             90             90             15.949345      21.873189      9.9228054      16.05204      -231.70456    
      6760  -236.46789      90             90             90             12.003427      14.285719      11.645352      10.079211     -236.46789    
      6780  -239.11218      90             90             90             8.9598359      9.7988239      12.158187      4.9224966     -239.11218    
      6800  -239.58752      90             90             90             7.0806797      4.4123085      10.921117      5.9086142     -239.58752    
      6820  -241.746        90             90             90             5.6458507     -2.276334       9.5955169      9.6183691     -241.746      
      6840  -238.35164      90             90             90             2.6336809     -12.31397       10.876781      9.3382323     -238.35164    
      6860  -241.93841      90             90             90            -0.80391101    -19.604356      11.504048      5.6885747     -241.93841    
      6880  -240.71575      90             90             90            -5.7173695     -24.452493      6.2136626      1.0867215     -240.71575    
      6900  -235.74984      90             90             90            -10.723999     -29.759708      0.40550738    -2.8177953     -235.74984    
      6920  -241.35913      90             90             90            -12.408618     -29.570826     -2.8022156     -4.8528125     -241.35913    
      6940  -237.74735      90             90             90            -12.166622     -27.457312     -5.235481      -3.8070726     -237.74735    
      6960  -233.97594      90             90             90            -8.7321731     -21.53971      -5.8372832      1.1804742     -233.97594    
      6980  -240.83012      90             90             90            -1.6584758     -11.026337     -3.201706       9.2526153     -240.83012    
      7000  -245.99388      90             90             90             5.252883      -0.88819667     2.0106881      14.636158     -245.99388    
      7020  -247.7461       90             90             90             9.5337208      9.2952727      6.1651366      13.140753     -247.7461     
      7040  -242.72057      90             90             90             10.111939      11.611704      10.071101      8.6530106     -242.72057    
      7060  -243.9071       90             90             90             9.3378029      10.478469      14.271005      3.2639341     -243.9071     
      7080  -248.04569      90             90             90             8.2282598      13.647995      13.433923     -2.3971385     -248.04569    
      7100  -247.40256      90             90             90             7.1263883      16.542903      9.7564479     -4.9201861     -247.40256    
      7120  -249.72123      90             90             90             7.583215       17.771686      9.0560167     -4.0780572     -249.72123    
      7140  -244.53454      90             90             90             8.2421106      16.249967      9.8905309     -1.4141657     -244.53454    
      7160  -240.95145      90             90             90             9.6790498      17.286906      8.826368       2.923875      -240.95145    
      7180  -242.67137      90             90             90             11.630265      20.099376      7.4920433      7.2993742     -242.67137    
      7200  -240.78609      90             90             90             12.214796      19.920919      7.7053784      9.0180892     -240.78609    
      7220  -243.61499      90             90             90             12.046316      18.122647      9.4344827      8.5818183     -243.61499    
      7240  -241.13669      90             90             90             10.143595      9.8030111      12.995603      7.6321721     -241.13669    
      7260  -241.72447      90             90             90             7.977565       1.5747297      14.773851      7.5841147     -241.72447    
      7280  -248.67718      90             90             90             6.5601611     -0.9282416      12.927029      7.681696      -248.67718    
      7300  -243.90254      90             90             90             4.1639928     -2.7407433      9.0292584      6.2034632     -243.90254    
      7320  -242.18906      90             90             90             2.602639      -4.4905198      6.6233988      5.675038      -242.18906    
      7340  -247.67228      90             90             90             2.094759      -8.141769       8.5694848      5.8565611     -247.67228    
      7360  -252.5418       90             90             90             1.4862792     -7.7217706      7.5832973      4.597311      -252.5418     
      7380  -252.34312      90             90             90             0.26034679    -2.0774927      0.87257778     1.9859553     -252.34312    
      7400  -242.94698      90             90             90            -1.8304348      0.82868307    -4.8107233     -1.5092642     -242.94698    
      7420  -242.73022      90             90             90            -2.2127304      0.23259321    -6.7114176     -0.15936692    -242.73022    
      7440  -243.51922      90             90             90            -1.7111865     -3.2581982     -5.0483558      3.1729945     -243.51922    
      7460  -236.07416      90             90             90            -1.7900408     -4.3933937     -2.2163578      1.239629      -236.07416    
      7480  -236.0688       90             90             90            -1.2472243     -1.2523086     -2.0833106     -0.40605377    -236.0688     
      7500  -231.8421       90             90             90            -1.9498817      2.2632294     -7.0556152     -1.0572592     -231.8421     
      7520  -224.72868      90             90             90            -3.2077789      4.5590973     -12.33794      -1.8444941     -224.72868    
      7540  -221.89388      90             90             90            -2.3825692      3.0285606     -11.358466      1.1821975     -221.89388    
      7560  -224.36321      90             90             90             1.0846774      0.62484713    -4.3849919      7.0141771     -224.36321    
      7580  -233.96932      90             90             90             6.1274537      0.87179144     4.2819825      13.228587     -233.96932    
      7600  -235.31004      90             90             90             9.0208634      1.6842751      7.6974185      17.680897     -235.31004    
      7620  -234.06212      90             90             90             9.4815407      0.88072433     7.7401412      19.823756     -234.06212    
      7640  -244.0144       90             90             90             9.561811      -2.550576       9.1435872      22.092422     -244.0144     
      7660  -244.77247      90             90             90             7.5535769     -7.4746973      8.9832798      21.152148     -244.77247    
      7680  -236.3414       90             90             90             4.3284225     -10.198895      9.336225       13.847938     -236.3414     
      7700  -232.41039      90             90             90             2.6471903     -6.4845308      9.4723245      4.9537773     -232.41039    
      7720  -232.99442      90             90             90             3.0398319      0.25041648     7.4812369      1.3878424     -232.99442    
      7740  -233.46371      90             90             90             4.6908552      3.9427784      6.1481739      3.9816134     -233.46371    
      7760  -229.93491      90             90             90             6.1553908      2.995405       5.6135667      9.8572007     -229.93491    
      7780  -237.11659      90             90             90             7.795737       0.53747644     6.603089       16.246645     -237.11659    
      7800  -242.88413      90             90             90             6.7500449      0.4034899      3.1718742      16.674771     -242.88413    
      7820  -233.79895      90             90             90             1.5097633     -1.1764803     -6.1509221      11.856692     -233.79895    
      7840  -231.47908      90             90             90            -3.4621483     -4.8187959     -14.506499      8.9388505     -231.47908    
      7860  -234.2941       90             90             90            -5.3255621     -6.7767227     -18.548495      9.3485313     -234.2941     
      7880  -240.919        90             90             90            -3.7835207     -8.131923      -14.471461      11.252822     -240.919      
      7900  -240.48812      90             90             90            -0.70108609    -5.916136      -9.1763007      12.989178     -240.48812    
      7920  -233.7287       90             90             90             1.534719      -4.6692856     -5.2864507      14.559893     -233.7287     
      7940  -238.78619      90             90             90             3.3951635     -7.3881592      2.4544233      15.119226     -238.78619    
      7960  -235.93562      90             90             90             2.1093927     -12.095187      6.5768706      11.846495     -235.93562    
      7980  -233.18828      90             90             90            -0.56501534    -15.813524      6.8292086      7.2892691     -233.18828    
      8000  -239.46258      90             90             90            -2.6961977     -17.100869      6.5281437      2.4841325     -239.46258    
      8020  -236.3282       90             90             90            -5.6179416     -18.381822      5.4908745     -3.9628773     -236.3282     
      8040  -240.13031      90             90             90            -7.0800424     -18.069639      5.5215451     -8.6920332     -240.13031    
      8060  -242.74894      90             90             90            -6.7982878     -12.924938     -0.78123492    -6.6886907     -242.74894    
      8080  -238.74772      90             90             90            -5.0134069     -5.3971751     -9.1318107     -0.51123493    -238.74772    
      8100  -241.64739      90             90             90            -0.87290102     2.6618136     -7.6362518      2.3557351     -241.64739    
      8120  -244.65094      90             90             90             2.8180392      9.275608      -0.48708709    -0.33440325    -244.65094    
      8140  -248.1801       90             90             90             4.9318697      13.087256      6.6283822     -4.9200295     -248.1801     
      8160  -244.46089      90             90             90             4.5748901      12.119674      11.074349     -9.4693523     -244.46089    
      8180  -238.01885      90             90             90             3.0952867      10.323936      10.620352     -11.658428     -238.01885    
      8200  -244.28218      90             90             90             3.3293545      11.697116      4.970105      -6.6791574     -244.28218    
      8220  -251.08941      90             90             90             4.4310055      12.505194      0.13677136     0.65105098    -251.08941    
      8240  -257.68362      90             90             90             6.0600569      13.886077      1.8524738      2.4416196     -257.68362    
      8260  -262.06865      90             90             90             7.2125175      14.19174       5.2114501      2.2343623     -262.06865    
      8280  -265.94113      90             90             90             7.3673288      13.741902      4.6760637      3.6840205     -265.94113    
      8300  -270.92719      90             90             90             6.9363769      15.372082     -1.0232503      6.4602991     -270.92719    
      8320  -268.24376      90             90             90             5.2055214      12.548262     -5.3574932      8.4257958     -268.24376    
      8340  -267.14372      90             90             90             3.3384252      4.8110705     -3.0937343      8.2979395     -267.14372    
      8360  -268.7821       90             90             90             2.4006101     -3.7529627      1.0671235      9.8876694     -268.7821     
      8380  -264.76789      90             90             90             2.0839928     -9.6324663      4.3040233      11.580421     -264.76789    
      8400  -255.57878      90             90             90             2.5338453     -7.103107       4.1831754      10.521468     -255.57878    
      8420  -251.59337      90             90             90             4.6814698      0.96134362     3.741882       9.3411838     -251.59337    
      8440  -249.35267      90             90             90             7.359781       7.9901408      5.8779313      8.211271      -249.35267    
      8460  -241.59368      90             90             90             8.5810047      11.445607      6.8123686      7.4850388     -241.59368    
      8480  -245.27698      90             90             90             9.7526076      11.527709      10.427999      7.3021154     -245.27698    
      8500  -247.80314      90             90             90             9.3376545      9.646733       10.749488      7.6167426     -247.80314    
      8520  -243.37854      90             90             90             7.5428983      8.0667838      4.751661       9.8102501     -243.37854    
      8540  -244.49346      90             90             90             7.043386       6.3168351      4.2699798      10.543343     -244.49346    
      8560  -236.93342      90             90             90             6.6255382      5.2345225      6.5754282      8.0666639     -236.93342    
      8580  -242.54514      90             90             90             8.5766948      7.6810484      11.675227      6.3738087     -242.54514    
      8600  -250.87835      90             90             90             10.630538      6.834671       17.275558      7.7813858     -250.87835    
      8620  -235.90158      90             90             90             8.5915129      0.41151795     14.442076      10.920945     -235.90158    
      8640  -230.19812      90             90             90             6.1058652     -4.7272238      12.522735      10.522085     -230.19812    
      8660  -226.94426      90             90             90             3.139868      -9.0229096      13.889409      4.5531043     -226.94426    
      8680  -223.08668      90             90             90             0.71716528    -10.880277      13.929043     -0.89727027    -223.08668    
      8700  -232.56916      90             90             90             1.1895818     -8.4332072      14.379108     -2.3771557     -232.56916    
      8720  -236.74261      90             90             90             1.6617446     -6.2910945      13.363883     -2.0875546     -236.74261    
      8740  -238.36516      90             90             90             2.1180027     -3.7812636      10.537357     -0.40208511    -238.36516    
      8760  -240.09167      90             90             90             2.7270303      1.0401193      6.3469133      0.79405835    -240.09167    
      8780  -240.56515      90             90             90             3.3356517      6.9448278      2.9067098      0.15541751    -240.56515    
      8800  -242.49182      90             90             90             4.2107486      11.801062      2.4174898     -1.5863063     -242.49182    
      8820  -236.87766      90             90             90             4.234185       12.312394      4.8584535     -4.4682925     -236.87766    
      8840  -238.67977      90             90             90             5.0509483      9.4692755      11.284898     -5.6013283     -238.67977    
      8860  -243.3195       90             90             90             6.0033644      7.130919       15.470345     -4.5911706     -243.3195     
      8880  -240.55618      90             90             90             5.7104582      6.801987       13.745469     -3.4160816     -240.55618    
      8900  -243.70117      90             90             90             5.3917064      8.169822       8.8127312     -0.80743397    -243.70117    
      8920  -242.86579      90             90             90             3.2819583      6.5974731      1.5838094      1.6645925     -242.86579    
      8940  -239.20129      90             90             90            -0.50929343    -0.27083519    -3.0453831      1.788338      -239.20129    
      8960  -242.0527       90             90             90            -3.9741463     -7.2157123     -4.5511922     -0.15553451    -242.0527     
      8980  -240.47867      90             90             90            -7.0074544     -9.0084339     -8.6146638     -3.3992656     -240.47867    
      9000  -244.61728      90             90             90            -7.0517871     -3.7806716     -15.035563     -2.3391271     -244.61728    
      9020  -253.46614      90             90             90            -4.0793426      1.799834      -18.405518      4.3676566     -253.46614    
      9040  -246.32113      90             90             90            -1.4557079      1.6279506     -15.660714      9.6656396     -246.32113    
      9060  -240.65087      90             90             90             0.90516073     1.2711244     -8.2063985      9.6507562     -240.65087    
      9080  -238.65414      90             90             90             3.2215846      3.0399827      1.5744052      5.0503659     -238.65414    
      9100  -232.49037      90             90             90             5.448307       5.3080189      7.8259396      3.2109626     -232.49037    
      9120  -235.08375      90             90             90             8.4086705      8.3081034      9.185082       7.7328259     -235.08375    
      9140  -237.28584      90             90             90             9.8281196      9.9936307      10.439433      9.0512951     -237.28584    
      9160  -237.48154      90             90             90             9.1177666      10.585904      10.608807      6.1585896     -237.48154    
      9180  -240.82598      90             90             90             7.7603753      7.3367113      10.381589      5.5628258     -240.82598    
      9200  -237.71265      90             90             90             5.5673665      1.5746531      9.5396588      5.5877877     -237.71265    
      9220  -228.64178      90             90             90             3.1102836     -0.50515143     4.9347057      4.9012965     -228.64178    
      9240  -228.2107       90             90             90             2.1983863     -0.22797475     1.4494688      5.3736648     -228.2107     
      9260  -235.9791       90             90             90             2.5379296      2.1944665     -1.2171757      6.6364981     -235.9791     
      9280  -228.47883      90             90             90             1.5498982      6.4239131     -6.7804418      5.0062233     -228.47883    
      9300  -218.40848      90             90             90             1.2194553      12.822618     -11.252301      2.0880493     -218.40848    
      9320  -223.63194      90             90             90             3.3727838      20.530319     -13.557917      3.1459493     -223.63194    
      9340  -228.58962      90             90             90             5.0409127      23.977279     -13.828527      4.9739859     -228.58962    
      9360  -231.9241       90             90             90             4.8747471      22.660671     -12.783679      4.7472489     -231.9241     
      9380  -232.35392      90             90             90             2.4383912      15.756264     -12.442403      4.001313      -232.35392    
      9400  -235.61748      90             90             90            -1.0821313      5.8266487     -14.59998       5.5269375     -235.61748    
      9420  -241.70106      90             90             90            -5.2149905     -3.2233985     -20.819766      8.3981933     -241.70106    
      9440  -240.37179      90             90             90            -10.811966     -14.942647     -23.343265      5.8500145     -240.37179    
      9460  -237.77357      90             90             90            -15.911615     -26.903071     -18.630481     -2.2012942     -237.77357    
      9480  -234.10002      90             90             90            -18.499961     -32.618229     -12.628313     -10.253342     -234.10002    
      9500  -234.48856      90             90             90            -16.786231     -31.001526     -7.3872016     -11.969964     -234.48856    
      9520  -234.41015      90             90             90            -12.032465     -27.266827     -3.5213161     -5.3092532     -234.41015    
      9540  -230.92812      90             90             90            -6.4646039     -23.798383      2.7334025      1.6711684     -230.92812    
      9560  -238.31595      90             90             90            -0.18077598    -17.309237      13.287969      3.4789406     -238.31595    
      9580  -238.62991      90             90             90             3.7540151     -10.373466      20.915219      0.72029272    -238.62991    
      9600  -236.40799      90             90             90             5.7527928     -4.2068975      22.230121     -0.76484534    -236.40799    
      9620  -243.99395      90             90             90             7.2319706     -2.1740145      19.77922       4.0907067     -243.99395    
      9640  -242.30717      90             90             90             6.2452821     -7.3017138      17.128987      8.908573      -242.30717    
      9660  -242.92168      90             90             90             5.496762      -10.31561       18.531471      8.2744251     -242.92168    
      9680  -245.37281      90             90             90             6.0927873     -10.416196      24.711195      3.9833635     -245.37281    
      9700  -240.64103      90             90             90             6.7269891     -7.708805       28.56565      -0.67587783    -240.64103    
      9720  -243.61868      90             90             90             7.9592034      3.1000709      23.730765     -2.9532259     -243.61868    
      9740  -241.64569      90             90             90             7.522048       12.398181      14.658343     -4.4903796     -241.64569    
      9760  -232.74491      90             90             90             5.775197       13.844255      9.3669652     -5.8856288     -232.74491    
      9780  -229.83362      90             90             90             5.909287       13.251488      8.9790124     -4.5026393     -229.83362    
      9800  -237.3069       90             90             90             9.3899654      15.342061      10.09152       2.7363151     -237.3069     
      9820  -248.45494      90             90             90             14.286723      18.936602      8.6454932      15.278075     -248.45494    
      9840  -245.27623      90             90             90             15.159836      18.85367       3.2464598      23.379378     -245.27623    
      9860  -234.58141      90             90             90             13.702161      18.956877     -2.7786552      24.928262     -234.58141    
      9880  -233.60234      90             90             90             12.74516       25.928616     -7.9878988      20.294764     -233.60234    
      9900  -237.27673      90             90             90             11.748742      33.256022     -11.446906      13.437109     -237.27673    
      9920  -240.49079      90             90             90             10.007338      30.444802     -12.915725      12.492939     -240.49079    
      9940  -236.89403      90             90             90             6.9383928      21.216941     -14.892414      14.490651     -236.89403    
      9960  -238.57503      90             90             90             5.0578467      13.995602     -13.150531      14.328469     -238.57503    
      9980  -244.77103      90             90             90             5.2235751      8.5482565     -5.3216067      12.444076     -244.77103    
     10000  -234.68798      90             90             90             5.1930226      4.6712183      1.4978018      9.4100476     -234.68798    
     10020  -226.31739      90             90             90             5.0083918      4.258859       4.9835684      5.782748      -226.31739    
     10040  -227.73729      90             90             90             4.5528065      5.6681037      7.9846164      0.0056993234  -227.73729    
     10060  -231.71987      90             90             90             5.5599034      8.3988689      11.063768     -2.7829268     -231.71987    
     10080  -238.45433      90             90             90             8.536106       12.684705      11.937715      0.9858983     -238.45433    
     10100  -240.10608      90             90             90             11.537389      17.349249      11.75032       5.5125968     -240.10608    
     10120  -243.87072      90             90             90             13.911304      20.512612      11.404574      9.8167266     -243.87072    
     10140  -243.27927      90             90             90             14.095817      20.588487      9.541922       12.157042     -243.27927    
     10160  -236.61469      90             90             90             12.041233      16.014846      8.8467607      11.262093     -236.61469    
     10180  -233.43932      90             90             90             9.1376896      8.6458938      10.442142      8.3250325     -233.43932    
     10200  -227.9076       90             90             90             4.9949503      1.9163982      11.693212      1.3752412     -227.9076     
     10220  -227.70835      90             90             90             1.4623249     -3.1048607      9.8461048     -2.3542695     -227.70835    
     10240  -228.94443      90             90             90            -1.0064091     -4.3726026      3.7693221     -2.4159469     -228.94443    
     10260  -226.00311      90             90             90            -2.561912      -5.5959605      4.4363115     -6.5260868     -226.00311    
     10280  -230.10353      90             90             90            -1.7192799     -10.342837      14.484279     -9.2992824     -230.10353    
     10300  -230.11184      90             90             90            -0.64318066    -14.655544      18.898255     -6.1722536     -230.11184    
     10320  -227.18635      90             90             90            -0.18802582    -18.870245      16.522178      1.7839898     -227.18635    
     10340  -226.00454      90             90             90             0.17808015    -23.549118      14.23851       9.844849      -226.00454    
     10360  -222.5884       90             90             90             0.98983233    -24.879328      13.249027      14.599798     -222.5884     
     10380  -229.63705      90             90             90             4.2023686     -18.84592       13.125516      18.327509     -229.63705    
     10400  -234.87395      90             90             90             7.0552418     -7.5857775      11.719425      17.032078     -234.87395    
     10420  -233.59546      90             90             90             7.883424      -0.080884005    11.196537      12.534619     -233.59546    
     10440  -238.39486      90             90             90             8.9140273      3.1196538      10.727755      12.894673     -238.39486    
     10460  -237.99385      90             90             90             10.34697       5.5986438      9.0670507      16.375215     -237.99385    
     10480  -235.95462      90             90             90             12.144279      6.6622242      11.869582      17.901032     -235.95462    
     10500  -228.94597      90             90             90             13.698744      6.4934365      16.62774       17.975055     -228.94597    
     10520  -225.19089      90             90             90             14.997843      7.892802       16.467512      20.633216     -225.19089    
     10540  -239.26344      90             90             90             16.495827      13.506588      10.964049      25.016843     -239.26344    
     10560  -242.59612      90             90             90             14.633911      15.335175      2.8749936      25.691565     -242.59612    
     10580  -236.76086      90             90             90             10.229166      9.3804794     -0.82415388     22.131173     -236.76086    
     10600  -239.61203      90             90             90             5.9719073      3.8374925      0.77074532     13.307484     -239.61203    
     10620  -249.24524      90             90             90             2.0273168      2.5518658      1.6885755      1.841509      -249.24524    
     10640  -256.88084      90             90             90            -2.2036142      3.4189995     -0.90811641    -9.1217258     -256.88084    
     10660  -246.93948      90             90             90            -7.5840164      1.6685848     -5.9806046     -18.440029     -246.93948    
     10680  -245.86884      90             90             90            -10.090273      0.75261275    -8.2583373     -22.765093     -245.86884    
     10700  -247.88274      90             90             90            -10.868811      3.2763034     -7.6533207     -28.229416     -247.88274    
     10720  -236.96396      90             90             90            -12.405604      4.3108163     -7.6371334     -33.890494     -236.96396    
     10740  -235.86438      90             90             90            -12.138637      5.6472938     -8.6360032     -33.427201     -235.86438    
     10760  -232.08634      90             90             90            -11.393748      5.7658878     -8.9676201     -30.979512     -232.08634    
     10780  -235.57063      90             90             90            -8.7884653      5.9970562     -7.490604      -24.871848     -235.57063    
     10800  -240.23737      90             90             90            -5.1014772      7.2457442     -5.7618981     -16.788278     -240.23737    
     10820  -232.68427      90             90             90            -2.3519405      6.6798769     -3.9558058     -9.7798925     -232.68427    
     10840  -240.58187      90             90             90             2.1279806      12.074427     -4.2938103     -1.3966747     -240.58187    
     10860  -239.91157      90             90             90             4.9908799      15.904478     -5.2710655      4.3392271     -239.91157    
     10880  -235.28461      90             90             90             6.6027489      11.245114     -1.9133995      10.476532     -235.28461    
     10900  -242.35592      90             90             90             8.5632488      5.5167328      1.9117924      18.261221     -242.35592    
     10920  -236.61252      90             90             90             7.9056185     -4.3175243      4.0580279      23.976352     -236.61252    
     10940  -237.19457      90             90             90             7.5413558     -11.169172      4.8264534      28.966786     -237.19457    
     10960  -234.35653      90             90             90             7.2032103     -10.063368      2.9422531      28.730745     -234.35653    
     10980  -228.95564      90             90             90             7.52033       -7.3784062      4.8377268      25.101669     -228.95564    
     11000  -236.59495      90             90             90             9.700761      -3.1141244      9.747019       22.469388     -236.59495    
     11020  -232.55387      90             90             90             9.8216548     -1.8743516      10.140502      21.198814     -232.55387    
     11040  -234.80292      90             90             90             9.8180951     -1.3282447      8.284741       22.497789     -234.80292    
     11060  -240.27087      90             90             90             9.6647388     -0.75749957     7.2217952      22.529921     -240.27087    
     11080  -240.4793       90             90             90             8.303177      -3.9083495      8.9955895      19.822291     -240.4793     
     11100  -247.50703      90             90             90             6.6940718     -4.5609274      10.260051      14.383092     -247.50703    
     11120  -243.83756      90             90             90             2.7139069     -5.1471299      5.7099009      7.5789496     -243.83756    
     11140  -245.91861      90             90             90            -0.51173531    -6.4457356      1.3496092      3.5609205     -245.91861    
     11160  -252.44885      90             90             90            -1.8112333     -5.6769175     -1.0796714      1.322889      -252.44885    
     11180  -244.02154      90             90             90            -3.1785749     -7.5793422     -2.0562013      0.099818653   -244.02154    
     11200  -239.56154      90             90             90            -2.8852135     -10.632079      1.7596403      0.21679854    -239.56154    
     11220  -236.35971      90             90             90            -2.3919739     -15.130421      5.318099       2.6364007     -236.35971    
     11240  -233.8893       90             90             90            -2.36537       -17.942015      5.6643572      5.1815475     -233.8893     
     11260  -240.41547      90             90             90            -1.4263025     -11.624981      2.4345617      4.9115124     -240.41547    
     11280  -236.33487      90             90             90            -0.88493861    -2.6748621     -3.9684101      3.9884563     -236.33487    
     11300  -230.15475      90             90             90             0.86421898     3.3678492     -3.5155371      2.7403448     -230.15475    
     11320  -232.40063      90             90             90             5.7226832      8.2771274      5.1308048      3.7601176     -232.40063    
     11340  -236.09428      90             90             90             12.289102      13.841219      14.578964      8.4471233     -236.09428    
     11360  -242.04514      90             90             90             18.443815      20.777127      20.873268      13.68105      -242.04514    
     11380  -235.6651       90             90             90             20.742458      24.619789      20.619411      16.988176     -235.6651     
     11400  -224.09931      90             90             90             19.468262      23.592793      17.796396      17.015596     -224.09931    
     11420  -221.06462      90             90             90             16.957266      17.604497      15.325737      17.941564     -221.06462    
     11440  -219.54943      90             90             90             13.853961      12.425579      10.370786      18.765518     -219.54943    
     11460  -217.58939      90             90             90             11.036047      13.723645      5.2532925      14.131203     -217.58939    
     11480  -216.0534       90             90             90             8.9087911      15.526651      2.3463029      8.8534197     -216.0534     
     11500  -220.11394      90             90             90             7.5353391      14.926256      2.9934016      4.6863602     -220.11394    
     11520  -222.93448      90             90             90             5.5181236      11.272821      3.4365978      1.844952      -222.93448    
     11540  -220.24798      90             90             90             1.9056588      5.6249342     -1.7839343      1.8759767     -220.24798    
     11560  -220.81209      90             90             90            -2.546537       2.0083895     -8.6646317     -0.98336878    -220.81209    
     11580  -218.5779       90             90             90            -7.8942413     -2.2921112     -13.108605     -8.2820077     -218.5779     
     11600  -221.95388      90             90             90            -12.00596      -7.1298726     -14.976383     -13.911625     -221.95388    
     11620  -225.37226      90             90             90            -14.503511     -12.262352     -17.161216     -14.086964     -225.37226    
     11640  -224.84624      90             90             90            -14.880546     -15.250215     -18.729781     -10.661642     -224.84624    
     11660  -234.53659      90             90             90            -11.593755     -12.916097     -15.053767     -6.8113994     -234.53659    
     11680  -237.93787      90             90             90            -8.1749796     -9.4235461     -9.8911688     -5.210224      -237.93787    
     11700  -240.96983      90             90             90            -5.2602139     -2.6072418     -7.7395306     -5.4338692     -240.96983    
     11720  -243.90081      90             90             90            -3.2563402      2.1613878     -5.9066379     -6.0237706     -243.90081    
     11740  -233.96154      90             90             90            -3.5150873     -0.8643583     -1.6828504     -7.9980531     -233.96154    
     11760  -231.76197      90             90             90            -2.8393942     -2.583192       1.4783699     -7.4133605     -231.76197    
     11780  -232.17991      90             90             90            -1.5967237     -1.8721335      1.5903283     -4.508366      -232.17991    
     11800  -227.36449      90             90             90            -1.188269       0.64230532     0.0054155945  -4.2125278     -227.36449    
     11820  -226.66021      90             90             90            -0.71977792     5.3124987     -5.5532661     -1.9185664     -226.66021    
     11840  -229.34829      90             90             90            -0.17290785     7.4096663     -12.428586      4.5001959     -229.34829    
     11860  -243.55339      90             90             90             1.4948681      9.1821089     -14.925943      10.228438     -243.55339    
     11880  -248.79602      90             90             90             1.9651226      8.454002      -13.888868      11.330234     -248.79602    
     11900  -240.38576      90             90             90             0.8601016      2.5068427     -9.2482798      9.3217419     -240.38576    
     11920  -242.14646      90             90             90             0.98143739    -2.159179      -3.2587173      8.3622084     -242.14646    
     11940  -243.08714      90             90             90             0.68414802    -4.6269569     -0.83040189     7.5098028     -243.08714    
     11960  -244.94595      90             90             90            -0.3258028     -4.4912739     -1.4359532      4.9498187     -244.94595    
     11980  -244.55883      90             90             90            -2.7882825     -3.9920841     -3.8611012     -0.51166208    -244.55883    
     12000  -237.50462      90             90             90            -6.7860765     -9.2622016     -4.3652701     -6.7307577     -237.50462    
     12020  -237.01349      90             90             90            -9.3591977     -14.341306     -2.6327853     -11.103502     -237.01349    
     12040  -228.51251      90             90             90            -11.154197     -15.959549     -2.4086224     -15.094419     -228.51251    
     12060  -228.20153      90             90             90            -10.133453     -16.388246      1.4062692     -15.418383     -228.20153    
     12080  -237.81956      90             90             90            -6.5114828     -13.022708      6.5209591     -13.0327       -237.81956    
     12100  -231.1372       90             90             90            -3.7444924     -6.9919752      5.6634875     -9.9049895     -231.1372     
     12120  -239.00011      90             90             90             1.4623825      1.5548183      4.3516764     -1.5193471     -239.00011    
     12140  -251.75167      90             90             90             7.3882492      9.7322063      3.2451763      9.187365      -251.75167    
     12160  -249.17906      90             90             90             10.98584       15.95103       0.94206464     16.064426     -249.17906    
     12180  -246.82001      90             90             90             13.807409      24.408189     -0.63332922     17.647367     -246.82001    
     12200  -241.67778      90             90             90             15.546409      29.823878     -2.7331762      19.548525     -241.67778    
     12220  -248.37809      90             90             90             18.019736      29.43801       0.68862563     23.932572     -248.37809    
     12240  -247.97505      90             90             90             18.462028      24.081049      7.2031886      24.101847     -247.97505    
     12260  -231.26529      90             90             90             15.207918      16.733051      6.8517448      22.038959     -231.26529    
     12280  -230.20918      90             90             90             12.290207      15.377676      3.6170616      17.875884     -230.20918    
     12300  -225.45442      90             90             90             8.4402826      14.459385     -1.1179934      11.979456     -225.45442    
     12320  -220.12462      90             90             90             5.4785683      9.9482062     -5.6587279      12.146227     -220.12462    
     12340  -226.27735      90             90             90             5.89607        5.4936944     -3.3845536      15.579069     -226.27735    
     12360  -236.86884      90             90             90             8.6413884      3.3197574      3.5725452      19.031863     -236.86884    
     12380  -252.39534      90             90             90             12.398082      6.8183139      10.562229      19.813703     -252.39534    
     12400  -247.16378      90             90             90             12.759603      9.5357388      14.665835      14.077235     -247.16378    
     12420  -235.59856      90             90             90             11.058712      7.5407654      15.856914      9.7784561     -235.59856    
     12440  -237.77992      90             90             90             10.008605      5.6660181      16.977908      7.3818874     -237.77992    
     12460  -238.28594      90             90             90             7.9100958      5.2725254      17.066278      1.3914843     -238.28594    
     12480  -238.15704      90             90             90             5.0217406      6.654317       12.607034     -4.1961289     -238.15704    
     12500  -241.72133      90             90             90             2.313954       7.9370696      6.3168545     -7.3120623     -241.72133    
     12520  -246.96704      90             90             90            -0.046779277    5.4180233      2.1798711     -7.7382323     -246.96704    
     12540  -246.48968      90             90             90            -2.2080208     -1.4883305      0.71772426    -5.8534562     -246.48968    
     12560  -251.52196      90             90             90            -2.0769827     -4.2861011      1.8950278     -3.8398749     -251.52196    
     12580  -253.39354      90             90             90            -0.55683213    -0.75149285     2.7386937     -3.6576972     -253.39354    
     12600  -244.67135      90             90             90             1.2540863      2.8673513      5.408697      -4.5137894     -244.67135    
     12620  -251.18213      90             90             90             5.8958309      7.5125445      11.989146     -1.8141977     -251.18213    
     12640  -255.61145      90             90             90             10.34652       9.7416134      15.881085      5.4168613     -255.61145    
     12660  -255.03721      90             90             90             13.173863      9.6222357      16.94888       12.950472     -255.03721    
     12680  -256.64068      90             90             90             14.39094       12.523292      16.721502      13.928026     -256.64068    
     12700  -244.65677      90             90             90             11.869514      11.197008      16.025434      8.3861008     -244.65677    
     12720  -243.90003      90             90             90             9.5725914      5.3792732      17.838913      5.4995881     -243.90003    
     12740  -243.94248      90             90             90             7.8731453     -2.0478769      19.275774      6.3915383     -243.94248    
     12760  -227.2065       90             90             90             5.8016382     -9.2346121      21.345901      5.2936263     -227.2065     
     12780  -222.11429      90             90             90             6.9611131     -5.8856635      24.987389      1.7816135     -222.11429    
     12800  -225.96974      90             90             90             9.6308626      2.8585372      25.116585      0.91746552    -225.96974    
     12820  -227.7855       90             90             90             10.397396      8.0442106      20.117694      3.0302824     -227.7855     
     12840  -232.39504      90             90             90             9.0331844      8.8598193      12.894169      5.3455649     -232.39504    
     12860  -232.41885      90             90             90             5.4497318      0.75525513     9.0041587      6.5897816     -232.41885    
     12880  -227.77609      90             90             90             1.6207936     -4.1689256      6.414826       2.6164804     -227.77609    
     12900  -232.8418       90             90             90             0.89501487     2.6583148      1.3937251     -1.3669953     -232.8418     
     12920  -234.6665       90             90             90             1.9114495      7.5269138     -2.0570133      0.26444814    -234.6665     
     12940  -230.02087      90             90             90             3.7151947      8.9232961      0.39439816     1.8278897     -230.02087    
     12960  -232.26082      90             90             90             6.7783479      9.4580294      6.9044402      3.9725743     -232.26082    
     12980  -230.39857      90             90             90             8.2326951      7.605512       9.1729643      7.919609      -230.39857    
     13000  -229.38244      90             90             90             7.6356276      9.0553619      5.8679391      7.9835816     -229.38244    
     13020  -225.41898      90             90             90             4.6862181      12.516013     -2.5307499      4.0733911     -225.41898    
     13040  -219.53905      90             90             90             0.80628082     15.000284     -14.620275      2.0388331     -219.53905    
     13060  -228.03657      90             90             90            -0.1668877      13.974571     -19.834635      5.3594017     -228.03657    
     13080  -234.06116      90             90             90             0.71224016     6.8624923     -16.500145      11.774373     -234.06116    
     13100  -235.80992      90             90             90             2.4171193      2.0282011     -11.479901      16.703058     -235.80992    
     13120  -235.33299      90             90             90             3.8217082      3.8272183     -10.108856      17.746763     -235.33299    
     13140  -231.21847      90             90             90             3.8912732      6.902005      -13.713292      18.485107     -231.21847    
     13160  -232.40885      90             90             90             3.5747007      5.7319381     -16.183131      21.175295     -232.40885    
     13180  -221.82836      90             90             90             1.4701048      0.93977524    -17.61786       21.0884       -221.82836    
     13200  -207.61531      90             90             90            -0.57997011     1.0330063     -18.010805      15.237888     -207.61531    
     13220  -210.78287      90             90             90             0.25515256     5.1579329     -13.259081      8.8666062     -210.78287    
     13240  -212.30408      90             90             90             1.1545186      5.3824351     -6.9401472      5.0212679     -212.30408    
     13260  -204.12719      90             90             90             0.58004787     2.1641852      0.3473334     -0.77137497    -204.12719    
     13280  -204.68815      90             90             90             0.43748094     0.40814091     7.6423877     -6.7380857     -204.68815    
     13300  -212.14986      90             90             90            -0.16731068     2.0454486      8.8807037     -11.428084     -212.14986    
     13320  -217.25162      90             90             90            -2.7879245      5.1975901      5.3183741     -18.879738     -217.25162    
     13340  -219.70717      90             90             90            -6.9105259      6.3798785     -1.1501853     -25.961271     -219.70717    
     13360  -208.06988      90             90             90            -12.345172      2.591405      -7.8182391     -31.808682     -208.06988    
     13380  -203.58657      90             90             90            -14.55124      -2.828327      -7.7976717     -33.027722     -203.58657    
     13400  -219.71843      90             90             90            -11.413359     -2.834861      -4.2832171     -27.121999     -219.71843    
     13420  -218.8726       90             90             90            -8.4600105     -0.4647403     -0.90696907    -24.008322     -218.8726     
     13440  -218.32989      90             90             90            -4.5784176      0.1035354      6.4431427     -20.281931     -218.32989    
     13460  -227.26321      90             90             90             0.58434749     0.37506787     13.740829     -12.362855     -227.26321    
     13480  -228.12166      90             90             90             4.137304       1.6697001      17.386425     -6.6442129     -228.12166    
     13500  -240.04124      90             90             90             7.6228449      3.5203108      20.219539     -0.87131493    -240.04124    
     13520  -238.38774      90             90             90             7.7071718      1.9300514      19.487846      1.7036186     -238.38774    
     13540  -227.95199      90             90             90             5.4963924     -0.84832386     16.910047      0.42745428    -227.95199    
     13560  -237.02314      90             90             90             5.3437861     -1.252513       14.727048      2.5568236     -237.02314    
     13580  -242.82503      90             90             90             5.007521      -0.37448916     9.1594196      6.2376326     -242.82503    
     13600  -243.20586      90             90             90             4.1263965      1.0946496      2.918665       8.3658751     -243.20586    
     13620  -238.02388      90             90             90             2.7146115      3.2884931     -3.1825346      8.0378762     -238.02388    
     13640  -239.91385      90             90             90             2.3146559      4.3219367     -5.1405665      7.7625976     -239.91385    
     13660  -247.53074      90             90             90             2.8585271     -1.949017       0.76951564     9.7550828     -247.53074    
     13680  -241.41895      90             90             90             2.2390418     -9.2146091      4.505762       11.425973     -241.41895    
     13700  -236.61749      90             90             90             2.1619028     -8.98562        5.6781443      9.793184      -236.61749    
     13720  -228.5752       90             90             90             1.6311575     -5.1743533      5.2979058      4.76992       -228.5752     
     13740  -228.22336      90             90             90             1.4662465      1.0635414     -1.3604257      4.6956239     -228.22336    
     13760  -239.46979      90             90             90             2.1482776      3.5074172     -7.1079138      10.04533      -239.46979    
     13780  -232.93869      90             90             90             0.83474607     0.77502085    -9.261267       10.990484     -232.93869    
     13800  -236.87354      90             90             90             1.342643       3.5580781     -9.0921187      9.5619697     -236.87354    
     13820  -247.77732      90             90             90             2.9372905      10.356687     -9.7700142      8.2251989     -247.77732    
     13840  -241.79078      90             90             90             2.3968751      14.405282     -14.493037      7.2783798     -241.79078    
     13860  -237.03901      90             90             90             2.107166       12.32963      -15.30772       9.2995882     -237.03901    
     13880  -228.89614      90             90             90             1.6261671      8.4226179     -14.896362      11.352245     -228.89614    
     13900  -224.77941      90             90             90             1.9477864      10.905263     -16.037801      10.975898     -224.77941    
     13920  -228.02406      90             90             90             3.3570439      14.277922     -14.361048      10.154258     -228.02406    
     13940  -226.68708      90             90             90             3.9967602      12.269182     -12.610864      12.331962     -226.68708    
     13960  -223.55893      90             90             90             4.9928602      5.6964043     -7.954958       17.237134     -223.55893    
     13980  -219.65453      90             90             90             7.0628859     -0.14809649    -1.4235722      22.760326     -219.65453    
     14000  -222.31749      90             90             90             10.247174      0.99821172     3.6157036      26.127608     -222.31749    
     14020  -226.51107      90             90             90             13.000591      5.5644305      9.7103369      23.727006     -226.51107    
     14040  -225.39703      90             90             90             14.294767      10.493934      12.616707      19.773661     -225.39703    
     14060  -224.66841      90             90             90             14.778112      14.711878      11.830502      17.791957     -224.66841    
     14080  -217.08851      90             90             90             13.613826      14.525857      12.069232      14.246389     -217.08851    
     14100  -215.15709      90             90             90             12.204319      14.318341      15.156943      7.1376726     -215.15709    
     14120  -220.16704      90             90             90             10.799475      15.198147      21.063874     -3.8635976     -220.16704    
     14140  -216.59536      90             90             90             7.9850002      11.645283      26.669642     -14.359924     -216.59536    
     14160  -218.41213      90             90             90             6.0974279      4.9670038      30.884018     -17.558738     -218.41213    
     14180  -224.43879      90             90             90             5.017422      -2.2000784      31.384876     -14.132532     -224.43879    
     14200  -222.35698      90             90             90             2.304405      -7.486747       26.478643     -12.078681     -222.35698    
     14220  -218.38013      90             90             90            -1.7869898     -9.4801666      20.702223     -16.583025     -218.38013    
     14240  -214.12621      90             90             90            -5.7384993     -11.325998      14.816675     -20.706175     -214.12621    
     14260  -219.11564      90             90             90            -7.6942525     -12.111164      8.8059063     -19.777499     -219.11564    
     14280  -225.49453      90             90             90            -7.8740114     -10.348513      3.7118773     -16.985398     -225.49453    
     14300  -224.23132      90             90             90            -7.2037528     -6.9798349     -2.1963017     -12.435122     -224.23132    
     14320  -229.83971      90             90             90            -5.4052084      1.6292464     -6.4523192     -11.392552     -229.83971    
     14340  -233.17072      90             90             90            -3.4876277      10.647932     -8.0585792     -13.052236     -233.17072    
     14360  -237.54427      90             90             90            -0.26585508     15.937242     -11.549437     -5.1853706     -237.54427    
     14380  -241.38125      90             90             90             4.1384276      20.531234     -15.546643      7.4306916     -241.38125    
     14400  -234.28903      90             90             90             7.0887457      21.377489     -17.371806      17.260553     -234.28903    
     14420  -242.59505      90             90             90             9.7553392      21.762066     -16.655408      24.15936      -242.59505    
     14440  -248.42334      90             90             90             9.6457717      19.127058     -14.783993      24.594251     -248.42334    
     14460  -245.26894      90             90             90             7.221549       9.4889269     -12.550917      24.726637     -245.26894    
     14480  -259.2402       90             90             90             6.6245243      2.4754166     -7.8597259      25.257882     -259.2402     
     14500  -254.84449      90             90             90             3.7532063     -2.9044577     -4.3146871      18.478764     -254.84449    
     14520  -242.91543      90             90             90             0.053807338   -3.790914      -5.9250203      9.8773564     -242.91543    
     14540  -247.18135      90             90             90            -1.0726051      1.7192299     -7.9538866      3.0168415     -247.18135    
     14560  -241.28815      90             90             90            -2.498955       2.1010788     -8.2769229     -1.3210209     -241.28815    
     14580  -237.45418      90             90             90            -2.667862       0.88780662    -8.3205778     -0.57081475    -237.45418    
     14600  -240.40931      90             90             90            -1.4358835      1.5068023     -6.4467626      0.63230993    -240.40931    
     14620  -236.99817      90             90             90            -1.378744       1.4576969     -4.4416007     -1.1523283     -236.99817    
     14640  -236.56335      90             90             90            -1.7237294      3.0077367     -2.4704314     -5.7084934     -236.56335    
     14660  -238.45382      90             90             90            -2.0321324      1.7564701      2.1437141     -9.9965814     -238.45382    
     14680  -232.79397      90             90             90            -2.6660322     -0.48365809     4.2459403     -11.760379     -232.79397    
     14700  -229.38079      90             90             90            -1.9441126      0.18206148     4.968385      -10.982784     -229.38079    
     14720  -232.5743       90             90             90             0.37592599     1.8071895      5.7992841     -6.4786957     -232.5743     
     14740  -221.74999      90             90             90             1.5979538      5.9045736      0.87438778    -1.9850999     -221.74999    
     14760  -217.38755      90             90             90             1.7449685      9.2145069     -5.8725266      1.8929252     -217.38755    
     14780  -219.51392      90             90             90             2.5427384      10.607246     -10.45877       7.47974       -219.51392    
     14800  -212.68806      90             90             90             3.4854579      10.998223     -12.685124      12.143275     -212.68806    
     14820  -218.89021      90             90             90             6.8820597      8.9902657     -6.3613516      18.017265     -218.89021    
     14840  -221.5103       90             90             90             10.284778      8.254195      -1.6634175      24.263556     -221.5103     
     14860  -212.85572      90             90             90             12.027014      8.9691325      0.10744229     27.004467     -212.85572    
     14880  -214.32897      90             90             90             14.141186      9.42187        4.9319229      28.069765     -214.32897    
     14900  -216.99072      90             90             90             15.213611      12.820105      6.446807       26.37392      -216.99072    
     14920  -219.16737      90             90             90             14.893045      14.487607      9.3524867      20.839041     -219.16737    
     14940  -217.48748      90             90             90             12.987134      12.988221      12.546456      13.426723     -217.48748    
     14960  -213.66601      90             90             90             9.8173012      11.439047      9.7103634      8.3024936     -213.66601    
     14980  -217.56104      90             90             90             6.6110972      7.193721       8.2572867      4.3822838     -217.56104    
     15000  -219.57689      90             90             90             2.8914871      2.2431593      7.226001      -0.79469889    -219.57689    
     15020  -221.43305      90             90             90            -0.48045027    -3.0251692      6.8775925     -5.2937741     -221.43305    
     15040  -215.34266      90             90             90            -4.350839      -8.9846314      10.114576     -14.182462     -215.34266    
     15060  -211.02197      90             90             90            -7.4895753     -10.742549      11.17764      -22.903816     -211.02197    
     15080  -218.90502      90             90             90            -8.1237856     -12.686005      10.070724     -21.756075     -218.90502    
     15100  -215.61817      90             90             90            -8.3984987     -16.385864      8.7957156     -17.605347     -215.61817    
     15120  -211.07296      90             90             90            -6.6425395     -15.339748      9.025292      -13.613162     -211.07296    
     15140  -213.4972       90             90             90            -2.2275663     -9.3753248      13.03763      -10.345004     -213.4972     
     15160  -217.89066      90             90             90             2.917202      -0.61271227     15.891798     -6.5274795     -217.89066    
     15180  -229.24219      90             90             90             7.9104353      6.259727       14.624505      2.8470737     -229.24219    
     15200  -229.37043      90             90             90             9.3440271      7.2352262      12.0235        8.773355      -229.37043    
     15220  -222.90059      90             90             90             7.6403442      5.1059546      9.8208262      7.9942519     -222.90059    
     15240  -228.82269      90             90             90             6.7637268      4.2316999      7.9666473      8.0928333     -228.82269    
     15260  -244.2864       90             90             90             7.8789863      7.3193053      6.051893       10.26576      -244.2864     
     15280  -250.71002      90             90             90             9.0061943      10.418124      1.5653663      15.035093     -250.71002    
     15300  -238.3103       90             90             90             8.3368714      9.1087571     -3.3712691      19.273126     -238.3103     
     15320  -234.99477      90             90             90             8.2888674      6.8462147     -1.8608991      19.881287     -234.99477    
     15340  -239.08528      90             90             90             8.1564326      4.0689105      5.2276968      15.172691     -239.08528    
     15360  -241.26732      90             90             90             7.1731968      2.4783273      12.966311      6.0749516     -241.26732    
     15380  -247.02269      90             90             90             6.71611        2.8081573      15.808162      1.5320102     -247.02269    
     15400  -234.96724      90             90             90             4.5657208     -0.58390522     12.305527      1.9755406     -234.96724    
     15420  -232.97891      90             90             90             3.8801061     -3.6640014      12.240108      3.0642119     -232.97891    
     15440  -248.49257      90             90             90             5.0259249     -2.101939       14.193114      2.9865992     -248.49257    
     15460  -244.8553       90             90             90             3.4143885     -0.10108058     11.335845     -0.9915985     -244.8553     
     15480  -246.02305      90             90             90             2.0205637      3.197071       7.6150566     -4.7504367     -246.02305    
     15500  -251.66564      90             90             90             0.56160264     8.3692057      0.63293269    -7.3173305     -251.66564    
     15520  -249.25596      90             90             90            -2.3464864      9.9925033     -6.1434227     -10.88854      -249.25596    
     15540  -249.13253      90             90             90            -4.8496302      6.4887536     -8.6946517     -12.342992     -249.13253    
     15560  -240.98663      90             90             90            -8.2858458      0.24924626    -11.026974     -14.07981      -240.98663    
     15580  -237.72486      90             90             90            -10.483415     -3.5221703     -9.8499321     -18.078142     -237.72486    
     15600  -240.37287      90             90             90            -10.391386     -2.5638678     -10.222174     -18.388115     -240.37287    
     15620  -234.31801      90             90             90            -9.5234344     -2.3571934     -13.479149     -12.733961     -234.31801    
     15640  -230.8517       90             90             90            -6.4913125     -1.0522023     -11.835187     -6.586548      -230.8517     
     15660  -237.78303      90             90             90             0.089525989    9.0909087     -6.1309242     -2.6914065     -237.78303    
     15680  -241.8828       90             90             90             5.82708        17.529491      1.4966521     -1.5449035     -241.8828     
     15700  -226.20589      90             90             90             8.9005522      21.944477      8.2031499     -3.4459705     -226.20589    
     15720  -225.60167      90             90             90             12.80133       29.520974      11.066367     -2.1833518     -225.60167    
     15740  -231.02713      90             90             90             16.396694      35.260168      8.2570822      5.6728308     -231.02713    
     15760  -229.32357      90             90             90             17.321042      36.446784      3.7777961      11.738547     -229.32357    
     15780  -229.89932      90             90             90             16.327475      31.164132      4.0768285      13.741464     -229.89932    
     15800  -224.02518      90             90             90             13.207665      19.069269      3.8577217      16.696004     -224.02518    
     15820  -229.18078      90             90             90             11.684146      13.083547      3.1816191      18.787272     -229.18078    
     15840  -234.19073      90             90             90             11.435245      12.833822      4.7306162      16.741298     -234.19073    
     15860  -229.462        90             90             90             10.481113      13.811326      5.5404934      12.091521     -229.462      
     15880  -231.17518      90             90             90             9.3953791      13.084612      5.6092924      9.4922325     -231.17518    
     15900  -232.098        90             90             90             6.9851642      4.535218       3.1406196      13.279655     -232.098      
     15920  -238.17799      90             90             90             4.0179807     -4.4494229      0.8933152      15.61005      -238.17799    
     15940  -239.48098      90             90             90             0.16100554    -10.171631      0.55426647     10.100381     -239.48098    
     15960  -245.03435      90             90             90            -2.4673333     -9.6171024     -1.4687347      3.6838373     -245.03435    
     15980  -252.26701      90             90             90            -3.4963065     -3.7940021     -4.8399383     -1.8549791     -252.26701    
     16000  -244.4413       90             90             90            -4.7094563     -4.3394444     -6.0335768     -3.7553477     -244.4413     
     16020  -246.62419      90             90             90            -3.7537916     -8.0612843     -4.029966       0.82987558    -246.62419    
     16040  -244.24986      90             90             90            -3.9175612     -13.694715     -3.2765596      5.2185909     -244.24986    
     16060  -240.65873      90             90             90            -5.4605261     -19.271922     -2.4485298      5.3388736     -240.65873    
     16080  -247.73862      90             90             90            -6.3930708     -18.897315      0.74202535    -1.0239227     -247.73862    
     16100  -243.21179      90             90             90            -8.3295361     -22.037739      4.6584953     -7.6093646     -243.21179    
     16120  -247.09778      90             90             90            -7.8897797     -28.05123       8.9321749     -4.5502845     -247.09778    
     16140  -245.28894      90             90             90            -5.8208949     -32.50471       12.047507      2.9945178     -245.28894    
     16160  -241.7586       90             90             90            -1.2496766     -29.321921      17.059124      8.5137679     -241.7586     
     16180  -246.34853      90             90             90             6.2057717     -14.0868        21.504239      11.199876     -246.34853    
     16200  -234.47007      90             90             90             11.545552     -2.0626219      21.885031      14.814247     -234.47007    
     16220  -240.78278      90             90             90             16.508781      7.1337016      21.967267      20.425373     -240.78278    
     16240  -247.04479      90             90             90             18.315266      12.705309      21.474816      20.765674     -247.04479    
     16260  -240.95534      90             90             90             16.330539      9.0852916      22.126834      17.779492     -240.95534    
     16280  -249.49312      90             90             90             14.939867      8.7285297      19.954143      16.136928     -249.49312    
     16300  -242.16438      90             90             90             12.695098      9.8240494      13.520339      14.740905     -242.16438    
     16320  -236.3612       90             90             90             11.124643      9.8699486      7.3868644      16.117115     -236.3612     
     16340  -243.84406      90             90             90             10.771474      9.0442397      2.3403592      20.929823     -243.84406    
     16360  -241.12486      90             90             90             8.9993086      4.232319       2.4653263      20.300281     -241.12486    
     16380  -243.27785      90             90             90             7.8461721      4.9792452      4.1057942      14.453477     -243.27785    
     16400  -252.31049      90             90             90             7.516669       5.2046771      5.3201189      12.025211     -252.31049    
     16420  -253.93963      90             90             90             6.0956782     -1.1264168      7.547371       11.86608      -253.93963    
     16440  -256.28827      90             90             90             4.7188128     -5.1365251      7.8556876      11.437276     -256.28827    
     16460  -257.05742      90             90             90             3.0385481     -6.960816       9.6247008      6.4517594     -257.05742    
     16480  -248.02614      90             90             90             0.79408797    -4.4289595      8.8848938     -2.0736704     -248.02614    
     16500  -251.33314      90             90             90             1.0327407      1.8624533      3.5715336     -2.3357647     -251.33314    
     16520  -250.88057      90             90             90             1.0393392      4.7913187     -3.0541885      1.3808873     -250.88057    
     16540  -241.93208      90             90             90            -0.60271153     5.6437712     -8.4861017      1.0341959     -241.93208    
     16560  -246.16943      90             90             90            -1.4158039      3.3179693     -7.0916774     -0.47370355    -246.16943    
     16580  -243.14603      90             90             90            -3.1949975     -0.38055258    -4.6398609     -4.5645791     -243.14603    
     16600  -240.73476      90             90             90            -4.3069068     -0.26855614    -5.2092559     -7.4429083     -240.73476    
     16620  -237.93603      90             90             90            -4.6747657      0.59365753    -10.130304     -4.4876501     -237.93603    
     16640  -232.09194      90             90             90            -4.6525738      2.733062      -16.207599     -0.48318468    -232.09194    
     16660  -238.17435      90             90             90            -2.7080151      4.2815429     -11.953728     -0.45186001    -238.17435    
     16680  -233.61999      90             90             90            -1.1438627      1.8518947     -2.0473587     -3.2361243     -233.61999    
     16700  -239.19953      90             90             90             3.5365563      2.4814668      8.7508569     -0.62265492    -239.19953    
     16720  -243.49168      90             90             90             9.9800086      7.4303802      16.273148      6.236498      -243.49168    
     16740  -229.11931      90             90             90             14.513129      12.051         18.886957      12.60143      -229.11931    
     16760  -233.75987      90             90             90             20.079143      15.40425       23.622399      21.210779     -233.75987    
     16780  -233.99085      90             90             90             23.260887      17.355155      24.946697      27.480808     -233.99085    
     16800  -226.69004      90             90             90             24.084815      19.586406      24.903574      27.764466     -226.69004    
     16820  -230.91269      90             90             90             25.4855        22.597897      26.652658      27.205944     -230.91269    
     16840  -228.60374      90             90             90             25.537857      24.206813      25.000641      27.406117     -228.60374    
     16860  -227.41918      90             90             90             24.975003      24.514429      25.471325      24.939254     -227.41918    
     16880  -236.37561      90             90             90             23.499847      24.822542      27.68858       17.988418     -236.37561    
     16900  -240.59382      90             90             90             19.513416      22.036751      27.443781      9.0597164     -240.59382    
     16920  -246.84903      90             90             90             14.725849      17.392878      22.948094      3.8365744     -246.84903    
     16940  -253.72494      90             90             90             8.9477057      14.966088      14.057441     -2.1804111     -253.72494    
     16960  -238.18352      90             90             90             0.22640981     9.6869887      7.1515496     -16.159309     -238.18352    
     16980  -237.49437      90             90             90            -4.8190946      5.2570852      3.7591633     -23.473532     -237.49437    
     17000  -251.80696      90             90             90            -5.6751827      2.5715472     -1.6713078     -17.925788     -251.80696    
     17020  -241.05576      90             90             90            -8.239144      -2.2812254     -9.6901177     -12.746089     -241.05576    
     17040  -239.78274      90             90             90            -9.5717634     -2.2831325     -16.001518     -10.43064      -239.78274    
     17060  -238.37709      90             90             90            -12.023144     -1.5639218     -21.669096     -12.836415     -238.37709    
     17080  -230.67074      90             90             90            -15.875852     -2.578208      -25.388327     -19.66102      -230.67074    
     17100  -238.14303      90             90             90            -17.776972     -4.2925547     -25.301145     -23.737215     -238.14303    
     17120  -232.39265      90             90             90            -19.869284     -13.880139     -26.395391     -19.33232      -232.39265    
     17140  -231.94194      90             90             90            -19.235625     -22.820454     -25.522582     -9.3638389     -231.94194    
     17160  -237.00501      90             90             90            -16.353221     -25.22651      -22.012456     -1.820696      -237.00501    
     17180  -235.47517      90             90             90            -13.218691     -22.546336     -18.110495      1.0007579     -235.47517    
     17200  -239.12394      90             90             90            -8.5872582     -15.513436     -11.926858      1.6785192     -239.12394    
     17220  -230.68131      90             90             90            -5.2525088     -11.744252     -8.6217297      4.608455      -230.68131    
     17240  -231.22389      90             90             90            -0.68382266    -7.809038      -5.3412413      11.098811     -231.22389    
     17260  -240.44708      90             90             90             4.8057898     -2.4786183     -2.5783381      19.474326     -240.44708    
     17280  -245.57898      90             90             90             9.3671561      2.1888248     -3.2665767      29.17922      -245.57898    
     17300  -245.40117      90             90             90             11.792768      5.4919175     -0.74904434     30.63543      -245.40117    
     17320  -224.65875      90             90             90             9.5716452      1.8666857      0.85462051     25.993629     -224.65875    
     17340  -221.00592      90             90             90             8.2875198      0.12688657    -2.7947221      27.530395     -221.00592    
     17360  -224.18296      90             90             90             7.2529617     -0.41439633    -7.7567053      29.929987     -224.18296    
     17380  -213.16103      90             90             90             4.1837164     -2.624837      -10.857486      26.033472     -213.16103    
     17400  -223.66659      90             90             90             1.9723671      1.4222676     -9.5532574      14.048091     -223.66659    
     17420  -224.50352      90             90             90            -1.3897959      2.4000117     -7.1195006      0.55010131    -224.50352    
     17440  -226.53763      90             90             90            -3.5946143     -0.16616852    -2.5341591     -8.0835154     -226.53763    
     17460  -246.29906      90             90             90            -2.7036691      1.7014068      2.6778094     -12.490223     -246.29906    
     17480  -243.17957      90             90             90            -3.7444606      1.040722       0.93979493    -13.213899     -243.17957    
     17500  -239.34777      90             90             90            -4.4424989      0.57276238     0.39478038    -14.295039     -239.34777    
     17520  -240.11367      90             90             90            -5.1341125     -0.66734122     4.3323336     -19.06733      -240.11367    
     17540  -236.20949      90             90             90            -7.3644391     -5.13484        4.7417724     -21.70025      -236.20949    
     17560  -244.68023      90             90             90            -8.0790542     -7.8051765      3.8993899     -20.331376     -244.68023    
     17580  -241.59302      90             90             90            -8.8437618     -11.291431      2.0502522     -17.290107     -241.59302    
     17600  -235.99503      90             90             90            -7.7890062     -10.970147      1.2716882     -13.66856      -235.99503    
     17620  -243.28765      90             90             90            -3.7105034     -7.000856       4.3543957     -8.4850499     -243.28765    
     17640  -240.4509       90             90             90            -1.7084714     -7.1041715      3.6648429     -1.6860857     -240.4509     
     17660  -236.78719      90             90             90            -0.087437164   -8.5074151      4.4084208      3.8366828     -236.78719    
     17680  -237.42043      90             90             90             2.0777412     -8.5313279      7.9867738      6.7777776     -237.42043    
     17700  -235.51378      90             90             90             3.2703736     -5.9881816      7.2810697      8.5182328     -235.51378    
     17720  -239.63996      90             90             90             5.506972      -2.9397152      7.0015337      12.459097     -239.63996    
     17740  -238.18517      90             90             90             6.5211402     -0.73686754     4.9067864      15.393502     -238.18517    
     17760  -241.30208      90             90             90             7.7915986      5.1402262      2.2490066      15.985563     -241.30208    
     17780  -245.30869      90             90             90             9.1276358      11.189277      0.45895215     15.734678     -245.30869    
     17800  -226.32494      90             90             90             7.3265768      13.556767     -3.7834674      12.206431     -226.32494    
     17820  -231.36611      90             90             90             7.8574503      15.081586     -0.41529741     8.9060621     -231.36611    
     17840  -241.98085      90             90             90             8.9651621      11.538594      3.2756456      12.081247     -241.98085    
     17860  -228.80748      90             90             90             7.2188946      2.0425655      4.5271718      15.086947     -228.80748    
     17880  -227.62503      90             90             90             7.5084956     -2.9200524      12.250493      13.195046     -227.62503    
     17900  -224.24308      90             90             90             8.5105953     -1.5277844      15.896088      11.163482     -224.24308    
     17920  -227.3763       90             90             90             10.642731      2.7030813      19.562471      9.6626397     -227.3763     
     17940  -241.30322      90             90             90             12.931973      5.950755       22.380254      10.46491      -241.30322    
     17960  -231.36339      90             90             90             10.403219      2.6232327      16.494405      12.09202      -231.36339    
     17980  -235.44739      90             90             90             8.6413538      1.6641054      13.610156      10.6498       -235.44739    
     18000  -244.68972      90             90             90             7.7003671      2.1528435      12.831408      8.1168496     -244.68972    
     18020  -232.24197      90             90             90             4.6551342     -3.4163586      13.679702      3.7020596     -232.24197    
     18040  -232.98147      90             90             90             3.8734547     -4.4028087      15.528107      0.4950652     -232.98147    
     18060  -226.53652      90             90             90             3.2668519     -1.2630613      8.7259519      2.3376651     -226.53652    
     18080  -223.17381      90             90             90             3.9883692      3.4638157      3.9071415      4.5941503     -223.17381    
     18100  -239.1372       90             90             90             6.9472095      10.338685      7.778778       2.7241652     -239.1372     
     18120  -238.68674      90             90             90             6.3402415      9.5239172      9.6787087     -0.18190153    -238.68674    
     18140  -238.31969      90             90             90             3.982426       4.1492052      6.9782254      0.81984745    -238.31969    
     18160  -234.84205      90             90             90             0.42492487    -1.7260042      2.3348606      0.66591822    -234.84205    
     18180  -228.52141      90             90             90            -1.3776273     -2.7625308      1.4774032     -2.8477542     -228.52141    
     18200  -240.89531      90             90             90             1.5724073      4.566021       4.9235561     -4.7723551     -240.89531    
     18220  -234.54652      90             90             90             3.6031206      9.2044688      6.3212481     -4.7163551     -234.54652    
     18240  -235.78389      90             90             90             4.120295       9.1963356      4.732874      -1.5683248     -235.78389    
     18260  -246.49982      90             90             90             5.2001944      9.8868425      3.1644193      2.5493213     -246.49982    
     18280  -237.69678      90             90             90             3.9816525      10.14283      -0.61204731     2.4141744     -237.69678    
     18300  -232.80958      90             90             90             3.1821013      12.734317     -1.2183624     -1.9696508     -232.80958    
     18320  -226.3103       90             90             90             3.030768       16.53861      -0.5148274     -6.9314786     -226.3103     
     18340  -222.532        90             90             90             4.1611606      21.021857      0.4624425     -9.0008181     -222.532      
     18360  -234.97173      90             90             90             7.43361        27.858688      1.5076383     -7.0654966     -234.97173    
     18380  -228.42697      90             90             90             9.4154564      29.038877      3.4496968     -4.2422045     -228.42697    
     18400  -218.38097      90             90             90             11.093655      22.724117      14.029299     -3.4724498     -218.38097    
     18420  -222.1466       90             90             90             13.01774       16.015577      25.33875      -2.3011066     -222.1466     
     18440  -219.69278      90             90             90             11.582281      9.7055467      26.017209     -0.97591206    -219.69278    
     18460  -221.50749      90             90             90             9.3668487      4.4562121      22.377521      1.266813      -221.50749    
     18480  -228.78768      90             90             90             7.7341628      1.2419161      17.908456      4.052116      -228.78768    
     18500  -222.56523      90             90             90             3.218918      -2.1677976      12.752687     -0.92813555    -222.56523    
     18520  -220.13293      90             90             90            -1.6900917     -4.4017236      6.131251      -6.7998024     -220.13293    
     18540  -219.05086      90             90             90            -6.4563877     -9.231093      -3.8735929     -6.2644773     -219.05086    
     18560  -209.11785      90             90             90            -10.589987     -16.827437     -13.699629     -1.2428955     -209.11785    
     18580  -217.70323      90             90             90            -10.007447     -20.455073     -18.975562      9.4082948     -217.70323    
     18600  -221.13482      90             90             90            -9.4543501     -23.372942     -18.462832      13.472724     -221.13482    
     18620  -219.92146      90             90             90            -10.455297     -23.831687     -14.241483      6.70728       -219.92146    
     18640  -227.88594      90             90             90            -10.69433      -20.084348     -9.8369712     -2.1616705     -227.88594    
     18660  -220.81312      90             90             90            -11.555544     -18.25438      -6.883031      -9.5292202     -220.81312    
     18680  -224.38605      90             90             90            -9.3315152     -13.353298     -4.9089612     -9.732286      -224.38605    
     18700  -228.06636      90             90             90            -6.392104      -6.7114032     -3.87511       -8.5897988     -228.06636    
     18720  -221.49584      90             90             90            -5.3506413     -3.5790781     -5.2714407     -7.2014052     -221.49584    
     18740  -226.75683      90             90             90            -3.7155316     -0.18530182    -7.8168669     -3.1444262     -226.75683    
     18760  -221.09497      90             90             90            -2.9802907      5.1116089     -9.8998458     -4.1526353     -221.09497    
     18780  -219.69541      90             90             90            -0.62353587     12.320728     -11.319589     -2.8717468     -219.69541    
     18800  -225.70315      90             90             90             2.3007524      14.53415      -8.943816       1.3119232     -225.70315    
     18820  -222.98783      90             90             90             3.3651372      11.599206     -1.2734299     -0.23036412    -222.98783    
     18840  -230.12         90             90             90             5.4287605      10.585885      6.2242157     -0.5238197     -230.12       
     18860  -228.37645      90             90             90             6.8463342      9.4215653      8.2586314      2.8588058     -228.37645    
     18880  -221.32254      90             90             90             8.6900814      10.10325       8.8600481      7.1069462     -221.32254    
     18900  -221.58802      90             90             90             11.720988      10.400935      11.743833      13.018197     -221.58802    
     18920  -218.45207      90             90             90             13.335597      5.2642357      16.510464      18.232092     -218.45207    
     18940  -226.00625      90             90             90             14.986816      1.4780564      21.644176      21.838216     -226.00625    
     18960  -230.55096      90             90             90             14.928452     -2.092434       23.783816      23.093973     -230.55096    
     18980  -229.12662      90             90             90             11.797663     -5.7757078      23.216027      17.95267      -229.12662    
     19000  -233.2713       90             90             90             6.5758537     -5.5098215      17.935694      7.3016887     -233.2713     
     19020  -233.38945      90             90             90            -0.64572622    -7.3660012      6.3659581     -0.93713562    -233.38945    
     19040  -228.25912      90             90             90            -7.7024415     -12.429535     -4.0854539     -6.5923358     -228.25912    
     19060  -223.97891      90             90             90            -11.68802      -15.313634     -9.1796734     -10.570752     -223.97891    
     19080  -231.17498      90             90             90            -11.237073     -15.570167     -8.3506807     -9.7903725     -231.17498    
     19100  -242.3726       90             90             90            -9.0107776     -14.250716     -4.7551795     -8.0264376     -242.3726     
     19120  -238.48122      90             90             90            -8.5263931     -13.057804     -3.2418942     -9.2794815     -238.48122    
     19140  -230.50127      90             90             90            -7.7645646     -9.2890689     -1.0587611     -12.945864     -230.50127    
     19160  -230.62819      90             90             90            -4.3080563     -3.0701814      2.5140145     -12.368002     -230.62819    
     19180  -233.82931      90             90             90             0.26997331     2.3778045      6.1934526     -7.7613372     -233.82931    
     19200  -227.98286      90             90             90             2.3324052      3.5446072      11.241976     -7.7893673     -227.98286    
     19220  -215.64273      90             90             90             1.6383135      0.5340931      13.301964     -8.9211169     -215.64273    
     19240  -218.07511      90             90             90             2.054798       3.2036497      10.603326     -7.6425817     -218.07511    
     19260  -219.30409      90             90             90             3.3452183      10.603655      6.4777168     -7.0457164     -219.30409    
     19280  -214.91575      90             90             90             5.1737638      17.415775      1.9785796     -3.8730629     -214.91575    
     19300  -216.55845      90             90             90             7.6540964      20.636543      0.065985302    2.2597606     -216.55845    
     19320  -216.25811      90             90             90             9.1947492      15.727604      3.8603333      7.9963099     -216.25811    
     19340  -220.69114      90             90             90             11.064005      13.033954      7.4934731      12.664588     -220.69114    
     19360  -221.08766      90             90             90             12.80353       15.127536      7.6313174      15.651735     -221.08766    
     19380  -219.50354      90             90             90             13.501693      14.069901      8.1805824      18.254595     -219.50354    
     19400  -216.03426      90             90             90             11.343276      11.338326      7.5103657      15.181135     -216.03426    
     19420  -197.88228      90             90             90             6.1990049      5.9833133      5.2517656      7.3619357     -197.88228    
     19440  -200.78762      90             90             90             3.9221496      0.58330883     1.3445598      9.8385802     -200.78762    
     19460  -217.54045      90             90             90             5.5602345     -1.2801422     -2.0656261      20.026472     -217.54045    
     19480  -212.1554       90             90             90             5.859129      -3.0577995     -0.97305957     21.608246     -212.1554     
     19500  -206.60284      90             90             90             4.8835869     -2.7995719      1.6135822      15.83675      -206.60284    
     19520  -211.82783      90             90             90             3.1492696     -2.5535601      3.3726035      8.6287654     -211.82783    
     19540  -217.68774      90             90             90             0.36076088    -1.6606541      1.059427       1.6835098     -217.68774    
     19560  -219.23961      90             90             90            -2.5003261      1.6938715     -5.6197196     -3.5751302     -219.23961    
     19580  -215.26793      90             90             90            -5.1634472      2.3081633     -9.9719915     -7.8265134     -215.26793    
     19600  -218.1307       90             90             90            -6.5827932      1.142532      -11.888868     -9.0020436     -218.1307     
     19620  -223.2985       90             90             90            -7.216904      -1.5883615     -11.223714     -8.8386362     -223.2985     
     19640  -220.21842      90             90             90            -8.0524381     -5.2941515     -9.223411      -9.6397519     -220.21842    
     19660  -215.49931      90             90             90            -7.0379882     -5.9113412     -6.3597389     -8.8428845     -215.49931    
     19680  -217.57332      90             90             90            -2.7476232     -2.6246729     -0.47494815    -5.1432484     -217.57332    
     19700  -216.64883      90             90             90             1.7356306      2.4984443      4.7743722     -2.0659248     -216.64883    
     19720  -214.50708      90             90             90             5.3962999      6.4411983      11.61388      -1.8661786     -214.50708    
     19740  -219.75999      90             90             90             9.1457457      9.8495466      16.278313      1.3093771     -219.75999    
     19760  -223.48354      90             90             90             11.297679      12.234671      11.968728      9.6896389     -223.48354    
     19780  -227.20618      90             90             90             11.026498      12.448194      7.5264111      13.104888     -227.20618    
     19800  -223.33524      90             90             90             9.3086486      9.1358739      7.5424573      11.247615     -223.33524    
     19820  -225.25765      90             90             90             8.7553933      6.0796493      10.386033      9.8004982     -225.25765    
     19840  -236.52947      90             90             90             10.615516      9.4380085      10.393905      12.014635     -236.52947    
     19860  -233.96336      90             90             90             12.204042      13.544318      6.256353       16.811455     -233.96336    
     19880  -235.30206      90             90             90             13.22872       12.959406      6.4595799      20.267173     -235.30206    
     19900  -233.60594      90             90             90             13.393348      6.3386544      8.4847669      25.356622     -233.60594    
     19920  -226.01963      90             90             90             11.622553     -2.3815107      11.005827      26.243342     -226.01963    
     19940  -224.07174      90             90             90             10.506083     -1.9577083      13.154999      20.32096      -224.07174    
     19960  -219.22423      90             90             90             9.7724742      4.6164929      11.642469      13.058461     -219.22423    
     19980  -222.1485       90             90             90             10.066287      7.9932113      10.977831      11.227818     -222.1485     
     20000  -233.23806      90             90             90             10.68215       9.2381072      8.7945475      14.013796     -233.23806    
     20020  -229.55314      90             90             90             8.4558756      8.8571803      4.4295944      12.080852     -229.55314    
     20040  -225.70793      90             90             90             5.0639331      7.6796145     -0.38866826     7.9008531     -225.70793    
     20060  -228.32183      90             90             90             0.30618489     6.9619124     -9.7807169      3.7373592     -228.32183    
     20080  -222.16142      90             90             90            -5.2408185      6.6870924     -17.954918     -4.4546298     -222.16142    
     20100  -222.79218      90             90             90            -8.4520685      5.2111197     -19.601335     -10.96599      -222.79218    
     20120  -229.58449      90             90             90            -8.4814423      4.9205918     -17.544483     -12.820435     -229.58449    
     20140  -230.94678      90             90             90            -7.4446397      6.5318925     -15.663832     -13.20198      -230.94678    
     20160  -229.29872      90             90             90            -6.6747489      6.4142385     -15.387085     -11.0514       -229.29872    
     20180  -224.48673      90             90             90            -7.1628506      3.8049897     -11.984563     -13.308978     -224.48673    
     20200  -222.04843      90             90             90            -7.9551402      0.54468927    -5.9320559     -18.478054     -222.04843    
     20220  -228.24674      90             90             90            -6.9452684     -2.2173652      1.3247891     -19.943229     -228.24674    
     20240  -235.09975      90             90             90            -4.6769028     -3.0981004      10.50648      -21.439088     -235.09975    
     20260  -229.86697      90             90             90            -3.1998519     -1.3553488      12.974638     -21.218845     -229.86697    
     20280  -227.78844      90             90             90            -0.43097928     2.4917373      11.465778     -15.250453     -227.78844    
     20300  -238.11318      90             90             90             5.4418654      5.0643738      18.174794     -6.9135716     -238.11318    
     20320  -232.52274      90             90             90             10.651097      5.774748       26.177697      0.00084721632 -232.52274    
     20340  -223.25925      90             90             90             15.260967      6.5143757      31.317021      7.9515042     -223.25925    
     20360  -219.54465      90             90             90             18.873788      5.4909813      34.915587      16.214797     -219.54465    
     20380  -207.67977      90             90             90             18.462072      3.4076908      32.777022      19.201503     -207.67977    
     20400  -209.6385       90             90             90             16.723698      0.62212621     31.865945      17.683023     -209.6385     
     20420  -212.09657      90             90             90             13.767898     -2.7815439      30.857571      13.227666     -212.09657    
     20440  -208.15766      90             90             90             10.436995     -1.7200633      23.922708      9.1083391     -208.15766    
     20460  -215.6277       90             90             90             9.2002551      2.387545       15.828669      9.3845511     -215.6277     
     20480  -213.94909      90             90             90             7.2076063      3.414539       5.5091818      12.699098     -213.94909    
     20500  -216.0464       90             90             90             5.7439155     -0.21187246     1.5483982      15.895221     -216.0464     
     20520  -219.91739      90             90             90             4.7638388     -4.3296432      5.2054671      13.415693     -219.91739    
     20540  -214.91624      90             90             90             3.2976495     -1.1182605      3.773417       7.2377921     -214.91624    
     20560  -224.23793      90             90             90             3.3230605      7.6320142     -1.82482        4.1619872     -224.23793    
     20580  -224.85077      90             90             90             1.1236363      12.301084     -11.26429       2.3341145     -224.85077    
     20600  -228.35246      90             90             90            -1.6540445      13.21054      -18.748543      0.57586963    -228.35246    
     20620  -233.61718      90             90             90            -4.0117891      9.6452988     -18.765083     -2.9155835     -233.61718    
     20640  -227.61128      90             90             90            -6.5478245      3.3358418     -17.316269     -5.6630462     -227.61128    
     20660  -240.23039      90             90             90            -6.1604462      2.847652      -14.701422     -6.6275684     -240.23039    
     20680  -235.3619       90             90             90            -8.2340236      4.4862076     -16.1111       -13.077178     -235.3619     
     20700  -225.89143      90             90             90            -10.402355      5.0797617     -20.260734     -16.026094     -225.89143    
     20720  -235.24602      90             90             90            -7.8185224      4.2036952     -17.424402     -10.234861     -235.24602    
     20740  -229.19306      90             90             90            -4.3729588      0.82702713    -10.747456     -3.198448      -229.19306    
     20760  -230.52521      90             90             90             0.80485612    -0.10605824    -1.7794962      4.3001228     -230.52521    
     20780  -240.21388      90             90             90             6.390339       0.86573775     7.4674758      10.837803     -240.21388    
     20800  -239.34902      90             90             90             10.074447      4.0502672      12.720365      13.452708     -239.34902    
     20820  -235.93148      90             90             90             12.879117      8.5938378      17.562645      12.480869     -235.93148    
     20840  -228.22744      90             90             90             14.413083      5.4711885      23.378836      14.389226     -228.22744    
     20860  -219.46275      90             90             90             14.455627     -3.1763038      26.963109      19.580077     -219.46275    
     20880  -221.15464      90             90             90             14.092034     -4.4964333      27.062908      19.709628     -221.15464    
     20900  -220.1762       90             90             90             12.075758      0.46304387     20.215012      15.549217     -220.1762     
     20920  -209.97353      90             90             90             8.8656548      0.24644433     12.928533      13.421987     -209.97353    
     20940  -221.06465      90             90             90             9.4997915     -3.3195207      15.847489      15.971406     -221.06465    
     20960  -223.38201      90             90             90             10.189589     -5.3181693      19.738519      16.148419     -223.38201    
     20980  -209.0483       90             90             90             8.6123208     -4.8052271      19.328201      11.313989     -209.0483     
     21000  -217.75028      90             90             90             7.7799335     -0.7584304      14.125339      9.9728916     -217.75028    
     21020  -223.37808      90             90             90             4.7583975      2.5806275      1.8066483      9.8879167     -223.37808    
     21040  -224.17042      90             90             90             2.2274538      5.9600728     -6.1128819      6.8351704     -224.17042    
     21060  -206.43625      90             90             90            -1.2833926      4.3754946     -10.957909      2.7322369     -206.43625    
     21080  -192.99194      90             90             90            -3.6367006     -0.87290479    -12.169248      2.1320508     -192.99194    
     21100  -219.85267      90             90             90            -1.6025172      1.8308059     -11.43661       4.798252      -219.85267    
     21120  -220.15109      90             90             90            -2.578232       4.0546971     -16.446369      4.6569759     -220.15109    
     21140  -218.66169      90             90             90            -3.4484063     -1.5052632     -12.132874      3.2929182     -218.66169    
     21160  -229.97922      90             90             90            -3.8879053     -8.372664      -3.3975857      0.10653395    -229.97922    
     21180  -228.78922      90             90             90            -6.2950834     -10.556324     -5.9990769     -2.3298492     -228.78922    
     21200  -238.03723      90             90             90            -6.5220616     -7.1720389     -11.917801     -0.47634481    -238.03723    
     21220  -224.18278      90             90             90            -8.76263       -3.3987987     -19.34371      -3.5453812     -224.18278    
     21240  -218.17312      90             90             90            -9.035271      -4.8462809     -18.240886     -4.0186465     -218.17312    
     21260  -234.61644      90             90             90            -5.3754549     -7.8283234     -12.605384      4.3073429     -234.61644    
     21280  -227.86527      90             90             90            -3.221702      -6.7270444     -13.721435      10.783373     -227.86527    
     21300  -227.02219      90             90             90             0.68045383    -3.3484662     -9.6792114      15.069039     -227.02219    
     21320  -224.55169      90             90             90             5.0520864      3.1311102     -6.0906384      18.115787     -224.55169    
     21340  -218.73424      90             90             90             8.2285937      8.7902915     -5.5305653      21.426055     -218.73424    
     21360  -227.39123      90             90             90             10.901899      10.647527     -0.98665003     23.044819     -227.39123    
     21380  -233.86482      90             90             90             10.835474      15.986668     -0.061728938    16.581482     -233.86482    
     21400  -230.70461      90             90             90             8.035498       17.356953     -2.7142125      9.4637533     -230.70461    
     21420  -225.12008      90             90             90             5.0963487      12.669446     -4.5491633      7.1687639     -225.12008    
     21440  -232.7206       90             90             90             4.8365526      10.751401     -3.036599       6.7948563     -232.7206     
     21460  -236.73017      90             90             90             4.8157433      6.583086       1.3956279      6.468516      -236.73017    
     21480  -233.23972      90             90             90             3.5705529      2.259639       3.2326794      5.2193404     -233.23972    
     21500  -229.92419      90             90             90             1.8705647     -1.4410084      4.5986521      2.4540504     -229.92419    
     21520  -230.57137      90             90             90             0.92751432    -4.9751383      10.247908     -2.490227      -230.57137    
     21540  -239.13686      90             90             90             1.438619      -3.4977467      15.969022     -8.1554183     -239.13686    
     21560  -227.98802      90             90             90            -0.11210463    -5.189749       17.370929     -12.517494     -227.98802    
     21580  -217.08643      90             90             90            -1.3533525     -9.4735787      17.975398     -12.561877     -217.08643    
     21600  -226.17255      90             90             90            -0.10160432    -10.435178      17.788372     -7.6580076     -226.17255    
     21620  -236.96011      90             90             90             0.86887206    -10.629028      16.429757     -3.1941129     -236.96011    
     21640  -244.68541      90             90             90             0.5884708     -9.1227323      14.194793     -3.306648      -244.68541    
     21660  -237.94103      90             90             90            -2.3027673     -6.4940626      6.0069732     -6.4212126     -237.94103    
     21680  -240.48003      90             90             90            -4.6967141     -3.5405565     -3.0945344     -7.4550515     -240.48003    
     21700  -250.21501      90             90             90            -6.7315482     -2.6170961     -9.4566079     -8.1209405     -250.21501    
     21720  -241.16176      90             90             90            -9.6918442     -4.0245752     -13.849038     -11.20192      -241.16176    
     21740  -242.5749       90             90             90            -9.1519449     -3.188763      -13.617187     -10.649884     -242.5749     
     21760  -245.01278      90             90             90            -6.4917233     -1.8237201     -13.779384     -3.8720654     -245.01278    
     21780  -243.62283      90             90             90            -2.7319898     -0.7315446     -10.571632      3.1072074     -243.62283    
     21800  -249.12718      90             90             90             2.5502407      0.44409231     0.062558665    7.1440711     -249.12718    
     21820  -238.80588      90             90             90             5.805876       0.39281824     8.3250299      8.6997798     -238.80588    
     21840  -232.79434      90             90             90             9.1333082      3.0375305      14.752832      9.6095618     -232.79434    
     21860  -248.11897      90             90             90             14.365915      10.994521      21.379636      10.723588     -248.11897    
     21880  -252.89003      90             90             90             16.968146      17.565034      22.632862      10.706543     -252.89003    
     21900  -246.72061      90             90             90             16.838645      19.656518      19.450869      11.408548     -246.72061    
     21920  -242.56221      90             90             90             16.099361      21.16578       14.638643      12.493661     -242.56221    
     21940  -236.42626      90             90             90             14.294799      19.162536      12.741535      10.980327     -236.42626    
     21960  -238.77287      90             90             90             12.393525      13.276501      16.197805      7.7062702     -238.77287    
     21980  -245.28958      90             90             90             10.068121      6.4188611      17.641199      6.1443044     -245.28958    
     22000  -242.38108      90             90             90             6.8935491     -0.18100121     12.775947      8.0857018     -242.38108    
     22020  -242.91364      90             90             90             5.3693908     -0.66370631     7.4009789      9.3708999     -242.91364    
     22040  -242.43975      90             90             90             4.8403415      0.94970029     6.8898262      6.6814979     -242.43975    
     22060  -235.64809      90             90             90             3.4342636      1.7551784      7.42663        1.1209824     -235.64809    
     22080  -235.75925      90             90             90             1.6869963      5.1134489      5.269898      -5.3223578     -235.75925    
     22100  -242.55388      90             90             90            -0.15441721     7.0351172      1.6354029     -9.1337717     -242.55388    
     22120  -241.50181      90             90             90            -3.2020671      7.5521521     -6.7152954     -10.443058     -241.50181    
     22140  -237.57598      90             90             90            -6.4176695      7.975005      -16.86224      -10.365774     -237.57598    
     22160  -244.60428      90             90             90            -7.1796639      8.4554484     -18.717195     -11.277245     -244.60428    
     22180  -246.25121      90             90             90            -7.2794063      9.5027535     -14.771767     -16.569205     -246.25121    
     22200  -241.85946      90             90             90            -6.7179599      9.6854809     -12.892593     -16.946768     -241.85946    
     22220  -248.21562      90             90             90            -3.4251139      10.849393     -14.331109     -6.7936256     -248.21562    
     22240  -248.66973      90             90             90             0.011069033    12.404801     -15.482689      3.1110955     -248.66973    
     22260  -242.76509      90             90             90             2.8706155      13.758729     -11.383276      6.2363934     -242.76509    
     22280  -239.1176       90             90             90             5.5634751      11.529052     -1.9199935      7.0813671     -239.1176     
     22300  -239.03166      90             90             90             7.8145445      6.0495879      8.8444293      8.5496164     -239.03166    
     22320  -248.87027      90             90             90             10.661685      7.5956742      15.657784      8.7315967     -248.87027    
     22340  -248.26666      90             90             90             12.431797      10.682351      15.51936       11.09368      -248.26666    
     22360  -238.73057      90             90             90             13.085495      9.0455507      15.195187      15.015746     -238.73057    
     22380  -243.94461      90             90             90             14.570742      6.7819367      21.644495      15.285795     -243.94461    
     22400  -249.88583      90             90             90             14.774096      4.9160693      27.511475      11.894745     -249.88583    
     22420  -242.76141      90             90             90             12.194197      6.3368839      25.275066      4.9706404     -242.76141    
     22440  -241.36077      90             90             90             9.702527       6.6118361      19.750222      2.7455232     -241.36077    
     22460  -247.1935       90             90             90             8.0219883      4.7286778      14.287017      5.0502704     -247.1935     
     22480  -246.974        90             90             90             5.3340873      3.4372072      6.3433931      6.2216616     -246.974      
     22500  -242.87083      90             90             90             1.9099077     -3.0788942     -0.2050782      9.0136954     -242.87083    
     22520  -242.7405       90             90             90            -0.80044896    -10.187188     -1.2988438      9.0846852     -242.7405     
     22540  -243.44217      90             90             90            -2.7332468     -12.132398     -2.5725565      6.5052138     -243.44217    
     22560  -242.66963      90             90             90            -3.802336      -10.504812     -6.3254308      5.4232347     -242.66963    
     22580  -249.80738      90             90             90            -2.9748444     -9.3592107     -7.8647358      8.2994133     -249.80738    
     22600  -249.25508      90             90             90            -2.7507881     -13.166253     -8.3201971      13.234086     -249.25508    
     22620  -237.43561      90             90             90            -3.9431111     -10.48091      -12.580057      11.231633     -237.43561    
     22640  -239.24861      90             90             90            -2.9261416     -0.081858828   -16.29967       7.6031043     -239.24861    
     22660  -245.57664      90             90             90             0.85298025     5.1236918     -11.109417      8.5446663     -245.57664    
     22680  -249.43378      90             90             90             5.9281852      6.1189428     -0.7384149      12.404028     -249.43378    
     22700  -246.13855      90             90             90             9.8116996      4.9345345      4.1439172      20.356647     -246.13855    
     22720  -239.39842      90             90             90             11.962282      4.322268       3.8677197      27.696858     -239.39842    
     22740  -254.05776      90             90             90             14.773987      8.3438792      7.3632663      28.614814     -254.05776    
     22760  -255.5552       90             90             90             14.204007      12.231498      13.729344      16.651179     -255.5552     
     22780  -237.67036      90             90             90             10.082992      10.669279      14.503701      5.0759946     -237.67036    
     22800  -243.55137      90             90             90             7.554953       4.9103662      10.740029      7.0144638     -243.55137    
     22820  -253.78333      90             90             90             4.9521048      0.70994079     4.5014754      9.6448983     -253.78333    
     22840  -246.05258      90             90             90             0.85856303     0.87910297    -5.5289933      7.2255795     -246.05258    
     22860  -236.39839      90             90             90            -1.988073       6.4520457     -10.162024     -2.2542406     -236.39839    
     22880  -238.44704      90             90             90            -2.1963383      8.9983608     -4.4560041     -11.131372     -238.44704    
     22900  -247.13965      90             90             90            -1.4070203      5.7591479      1.6299194     -11.610128     -247.13965    
     22920  -247.27441      90             90             90            -2.0001299      3.790037       2.4403452     -12.230772     -247.27441    
     22940  -237.45524      90             90             90            -4.0907904      0.91780229    -2.4643034     -10.72587      -237.45524    
     22960  -232.94656      90             90             90            -5.3556518      2.177515      -6.3995654     -11.844905     -232.94656    
     22980  -241.16527      90             90             90            -4.7770389      5.2243602     -1.9070648     -17.648412     -241.16527    
     23000  -238.85862      90             90             90            -5.9258411     -0.013750868    1.2850004     -19.048773     -238.85862    
     23020  -231.13099      90             90             90            -9.2273871     -6.7477434     -1.2535162     -19.680902     -231.13099    
     23040  -233.4714       90             90             90            -10.453829     -9.2956481     -5.4531033     -16.612735     -233.4714     
     23060  -230.32087      90             90             90            -9.6447954     -6.0583903     -9.3735795     -13.502416     -230.32087    
     23080  -230.38829      90             90             90            -7.0033659     -4.0855863     -5.6004874     -11.324024     -230.38829    
     23100  -232.48984      90             90             90            -4.2708976     -8.8746317     -0.54855687    -3.3895042     -232.48984    
     23120  -231.62407      90             90             90            -2.5581639     -12.072069      1.0985782      3.298999      -231.62407    
     23140  -239.55164      90             90             90             1.0916719     -9.9034738      6.4784351      6.7000543     -239.55164    
     23160  -242.07648      90             90             90             5.4980931     -0.31132721     10.829383      5.976224      -242.07648    
     23180  -237.05149      90             90             90             8.2307595      7.1345928      13.333834      4.2238521     -237.05149    
     23200  -234.78329      90             90             90             8.6575991      4.0639748      15.283336      6.6254869     -234.78329    
     23220  -245.28371      90             90             90             8.7081647      2.0420548      13.89889       10.183549     -245.28371    
     23240  -258.64672      90             90             90             8.6848834      1.4307754      12.041497      12.582378     -258.64672    
     23260  -248.51753      90             90             90             6.2494535     -0.97528442     11.916873      7.8067721     -248.51753    
     23280  -248.75242      90             90             90             5.3235386     -2.4683871      17.987327      0.45167576    -248.75242    
     23300  -258.6971       90             90             90             5.1357653     -3.1643087      22.238702     -3.6670976     -258.6971     
     23320  -256.2536       90             90             90             2.9447351      0.58686467     13.089372     -4.8420314     -256.2536     
     23340  -258.66996      90             90             90             1.6802715      6.3011931      1.3660004     -2.626379      -258.66996    
     23360  -243.51193      90             90             90            -0.93570067     9.6431508     -6.5639762     -5.8862767     -243.51193    
     23380  -234.61883      90             90             90            -3.2588167      10.631262     -12.776641     -7.6310716     -234.61883    
     23400  -243.27604      90             90             90            -4.0994573      7.7246531     -15.379603     -4.6434216     -243.27604    
     23420  -234.12457      90             90             90            -6.4109046      6.0264731     -18.560912     -6.6982749     -234.12457    
     23440  -238.30072      90             90             90            -5.1674849      11.078559     -21.924056     -4.6569582     -238.30072    
     23460  -245.57847      90             90             90            -1.6868156      15.072725     -19.527356     -0.6058161     -245.57847    
     23480  -240.00842      90             90             90             0.87174743     14.096645     -11.613869      0.13246623    -240.00842    
     23500  -244.22845      90             90             90             5.2468166      14.507375     -0.14553183     1.378607      -244.22845    
     23520  -248.4823       90             90             90             9.8854774      13.434374      11.597174      4.6248836     -248.4823     
     23540  -246.95803      90             90             90             13.501694      9.6117013      16.322649      14.570733     -246.95803    
     23560  -246.14847      90             90             90             16.626809      11.102458      18.852468      19.925502     -246.14847    
     23580  -248.24097      90             90             90             17.901567      12.904304      24.430433      16.369964     -248.24097    
     23600  -247.96331      90             90             90             16.335381      10.208007      23.621555      15.176581     -247.96331    
     23620  -245.03143      90             90             90             13.362613      6.8555072      17.737001      15.49533      -245.03143    
     23640  -241.10086      90             90             90             10.287009      4.5555496      11.390394      14.915084     -241.10086    
     23660  -236.13647      90             90             90             6.9309784      3.6032737      5.3290737      11.860588     -236.13647    
     23680  -239.07987      90             90             90             4.1508573      0.5082193      5.7551186      6.189234      -239.07987    
     23700  -244.56439      90             90             90             1.7648185     -4.5475636      8.7959117      1.0461073     -244.56439    
     23720  -243.87836      90             90             90            -0.81099212    -8.0115459      9.0518703     -3.4733008     -243.87836    
     23740  -235.91248      90             90             90            -3.1987562     -8.2938388      5.2185057     -6.5209354     -235.91248    
     23760  -228.03102      90             90             90            -5.40537       -4.7109589     -2.0985397     -9.4066114     -228.03102    
     23780  -231.49568      90             90             90            -7.2050503     -5.2593682     -3.3957459     -12.960037     -231.49568    
     23800  -234.52939      90             90             90            -9.3115267     -13.335851      0.23276245    -14.831491     -234.52939    
     23820  -234.12065      90             90             90            -9.9996296     -19.455291      3.0246741     -13.568272     -234.12065    
     23840  -235.1594       90             90             90            -8.0407275     -17.775749      5.0869014     -11.433335     -235.1594     
     23860  -238.83093      90             90             90            -4.6752895     -6.9696276      5.3668999     -12.423141     -238.83093    
     23880  -249.71         90             90             90            -1.4127275      4.9692649      5.7088019     -14.916249     -249.71       
     23900  -236.93946      90             90             90            -2.3449741      5.3834089      1.600605      -14.018936     -236.93946    
     23920  -224.25308      90             90             90            -3.3368729      2.5626558     -7.6185388     -4.9547358     -224.25308    
     23940  -240.45354      90             90             90            -0.15587332     2.7448603     -9.8840379      6.6715576     -240.45354    
     23960  -236.86294      90             90             90             1.3962613      0.92148152    -6.7516452      10.018947     -236.86294    
     23980  -229.91548      90             90             90             3.4016644      2.2804181     -3.7586737      11.683249     -229.91548    
     24000  -233.03098      90             90             90             7.9588878      8.5869101      1.7142827      13.575471     -233.03098    
     24020  -232.72302      90             90             90             13.464797      19.96011       7.135323       13.298957     -232.72302    
     24040  -243.4135       90             90             90             20.001724      33.149195      8.6973989      18.158578     -243.4135     
     24060  -236.52762      90             90             90             21.695419      37.295931      5.6449566      22.145368     -236.52762    
     24080  -225.83571      90             90             90             18.923723      33.169399      2.4463253      21.155445     -225.83571    
     24100  -240.42408      90             90             90             15.594955      21.933575      3.7790741      21.072215     -240.42408    
     24120  -242.47669      90             90             90             10.322885      6.0982843      6.6177506      18.252621     -242.47669    
     24140  -236.03686      90             90             90             4.8221372     -5.2526101      8.1986065      11.520415     -236.03686    
     24160  -236.19959      90             90             90             0.67833132    -11.675488      8.5310752      5.1794063     -236.19959    
     24180  -233.19457      90             90             90            -3.99067       -18.410373      4.1735307      2.2648327     -233.19457    
     24200  -232.79129      90             90             90            -8.2182099     -25.297949     -0.94588927     1.5892082     -232.79129    
     24220  -234.12287      90             90             90            -11.212421     -28.221752     -3.2396171     -2.175893      -234.12287    
     24240  -229.01275      90             90             90            -14.142284     -30.285215     -5.1270988     -7.0145374     -229.01275    
     24260  -224.41268      90             90             90            -16.562806     -30.010848     -11.623149     -8.0544212     -224.41268    
     24280  -219.03895      90             90             90            -17.792807     -22.956544     -21.79934      -8.6225385     -219.03895    
     24300  -215.94846      90             90             90            -16.520494     -13.302047     -24.142344     -12.117091     -215.94846    
     24320  -222.08917      90             90             90            -12.4304       -1.6982248     -21.150086     -14.44289      -222.08917    
     24340  -222.54855      90             90             90            -7.6987558      9.4089212     -19.99124      -12.513949     -222.54855    
     24360  -218.32157      90             90             90            -4.0791992      16.266186     -19.583138     -8.9206456     -218.32157    
     24380  -217.38638      90             90             90            -1.5619731      18.990494     -20.950282     -2.7261306     -217.38638    
     24400  -222.41405      90             90             90             0.42061643     16.842006     -19.490875      3.9107187     -222.41405    
     24420  -219.47257      90             90             90             1.9699197      16.500174     -13.904088      3.3136735     -219.47257    
     24440  -205.17702      90             90             90             3.4980858      18.715762     -8.5148818      0.2933775     -205.17702    
     24460  -212.00146      90             90             90             5.4452827      16.040231     -0.69366067     0.98927815    -212.00146    
     24480  -216.61353      90             90             90             6.4648521      17.59039       3.4842507     -1.6800849     -216.61353    
     24500  -211.08044      90             90             90             5.3778416      16.823837      4.3298995     -5.0202121     -211.08044    
     24520  -213.41312      90             90             90             4.7310226      11.481769      7.5328221     -4.8215235     -213.41312    
     24540  -216.99208      90             90             90             4.0249736      8.3460211      8.7563682     -5.0274686     -216.99208    
     24560  -229.82866      90             90             90             2.7075021      2.9009614      8.8397783     -3.6182334     -229.82866    
     24580  -234.26109      90             90             90            -1.2789505     -6.196619       5.1348208     -2.7750533     -234.26109    
     24600  -225.89677      90             90             90            -6.6471392     -11.947053     -1.3344549     -6.6599096     -225.89677    
     24620  -233.2407       90             90             90            -8.3444269     -11.851153     -1.8185794     -11.363548     -233.2407     
     24640  -235.05296      90             90             90            -8.911999      -9.233249      -2.8533832     -14.649365     -235.05296    
     24660  -228.64767      90             90             90            -9.3265936     -8.8102559     -5.9281217     -13.241403     -228.64767    
     24680  -233.44863      90             90             90            -7.1011638     -9.7339474     -5.7030758     -5.8664683     -233.44863    
     24700  -235.29851      90             90             90            -3.6265689     -11.009025     -0.95788171     1.0871994     -235.29851    
     24720  -234.44304      90             90             90             0.15014308    -13.549344      8.3044352      5.6953377     -234.44304    
     24740  -230.34646      90             90             90             2.4719777     -12.124228      10.618641      8.9215203     -230.34646    
     24760  -224.7584       90             90             90             2.6896822     -8.6814797      5.1772017      11.573325     -224.7584     
     24780  -219.52734      90             90             90             2.7815834     -8.1222475      1.7973192      14.669678     -219.52734    
     24800  -216.5435       90             90             90             5.2713165     -3.6708031      1.8953244      17.589428     -216.5435     
     24820  -218.59847      90             90             90             9.4638744      3.6589322      4.9193531      19.813338     -218.59847    
     24840  -224.13063      90             90             90             12.729951      12.513371      5.1002356      20.576246     -224.13063    
     24860  -226.50917      90             90             90             13.062399      18.839745     -0.83676835     21.18422      -226.50917    
     24880  -220.76134      90             90             90             11.055482      14.763754     -4.9049404      23.307632     -220.76134    
     24900  -221.95016      90             90             90             11.364927      11.07164      -2.1179926      25.141133     -221.95016    
     24920  -225.44818      90             90             90             13.079081      7.3248309      7.1055423      24.80687      -225.44818    
     24940  -221.64061      90             90             90             14.411776      2.365449       17.744338      23.125543     -221.64061    
     24960  -221.06792      90             90             90             15.127712      3.1426076      22.887376      19.353153     -221.06792    
     24980  -217.9534       90             90             90             15.359285      2.064284       25.478454      18.535118     -217.9534     
     25000  -228.43137      90             90             90             18.125438      0.5551622      34.279425      19.541728     -228.43137    
     25020  -234.18002      90             90             90             19.832088     -2.0307783      42.7326        18.794443     -234.18002    
     25040  -224.23904      90             90             90             16.207482     -9.012025       40.917266      16.717205     -224.23904    
     25060  -225.44187      90             90             90             9.5442472     -14.87555       34.964019      8.5442733     -225.44187    
     25080  -228.516        90             90             90             2.8515696     -20.297561      27.660555      1.1917144     -228.516      
     25100  -234.19207      90             90             90            -0.78517547    -23.533349      19.018648      2.1591753     -234.19207    
     25120  -234.68199      90             90             90            -2.4829792     -22.563297      15.378346     -0.26398691    -234.68199    
     25140  -229.47672      90             90             90            -4.5133035     -22.813257      15.98048      -6.7071333     -229.47672    
     25160  -236.16686      90             90             90            -5.7251133     -24.566256      14.784005     -7.3930894     -236.16686    
     25180  -236.64327      90             90             90            -6.5592233     -22.581915      8.1902378     -5.2859927     -236.64327    
     25200  -236.45261      90             90             90            -4.0313096     -11.018138      1.1119381     -2.1877291     -236.45261    
     25220  -240.8625       90             90             90             2.0963719      2.05736        0.2991302      3.9326256     -240.8625     
     25240  -239.6122       90             90             90             6.4112572      8.1475992      1.264628       9.8215445     -239.6122     
     25260  -240.64356      90             90             90             7.9447442      12.271517     -1.371332       12.934047     -240.64356    
     25280  -239.60141      90             90             90             7.6418603      14.737912     -4.9610866      13.148756     -239.60141    
     25300  -238.31971      90             90             90             6.9568307      14.860224     -6.010545       12.020813     -238.31971    
     25320  -236.52744      90             90             90             6.1019615      13.571803     -3.8422971      8.5763787     -236.52744    
     25340  -220.73789      90             90             90             2.8095989      11.346718     -3.9968672      1.0789457     -220.73789    
     25360  -221.99863      90             90             90             0.87071851     15.194266     -9.4381739     -3.1439365     -221.99863    
     25380  -234.57         90             90             90             0.77944884     20.142284     -16.456756     -1.3471819     -234.57       
     25400  -220.52178      90             90             90            -1.0272155      18.889743     -21.041539     -0.92985108    -220.52178    
     25420  -216.70116      90             90             90            -0.20055785     18.536142     -17.784519     -1.3532964     -216.70116    
     25440  -225.83057      90             90             90             2.2477755      20.466897     -9.3438858     -4.3796846     -225.83057    
     25460  -222.90126      90             90             90             2.8025659      21.214978     -1.5762739     -11.231006     -222.90126    
     25480  -228.64718      90             90             90             5.5956321      20.036322      8.7099654     -11.959391     -228.64718    
     25500  -223.42503      90             90             90             8.9028131      17.971604      16.800352     -8.0635172     -223.42503    
     25520  -217.59164      90             90             90             12.523995      21.757939      19.631366     -3.8173215     -217.59164    
     25540  -230.6125       90             90             90             16.586066      28.62091       22.546785     -1.4094964     -230.6125     
     25560  -229.43334      90             90             90             16.454961      29.742052      22.747422     -3.1245919     -229.43334    
     25580  -235.16903      90             90             90             14.94855       25.704029      20.558613     -1.4169913     -235.16903    
     25600  -235.05973      90             90             90             11.592314      13.394352      17.879326      3.5032626     -235.05973    
     25620  -223.40476      90             90             90             6.4680596     -1.4264955      13.263717      7.5669576     -223.40476    
     25640  -229.2354       90             90             90             3.4858517     -7.0667645      11.21198       6.3123396     -229.2354     
     25660  -232.24476      90             90             90             1.0656817     -6.9574318      9.0098638      1.1446133     -232.24476    
     25680  -236.58489      90             90             90             0.64893758    -4.2060224      4.6857342      1.467101      -236.58489    
     25700  -236.08452      90             90             90             0.97367127    -3.2762367      3.9529286      2.2443219     -236.08452    
     25720  -230.32155      90             90             90             0.30553565    -7.6893829      6.4659811      2.1400088     -230.32155    
     25740  -234.37236      90             90             90            -0.8483619     -10.795695      6.7173212      1.5332884     -234.37236    
     25760  -225.19313      90             90             90            -3.4620536     -8.6558417     -1.3325445     -0.39777476    -225.19313    
     25780  -224.24883      90             90             90            -3.8980472     -3.0024392     -12.686141      3.9944388     -224.24883    
     25800  -232.74496      90             90             90            -2.5284761      0.86493448    -17.077023      8.6266602     -232.74496    
     25820  -226.39401      90             90             90            -3.2604526     -5.3336512     -15.747019      11.299312     -226.39401    
     25840  -234.46871      90             90             90            -3.3057116     -12.756846     -14.617801      17.457512     -234.46871    
     25860  -244.05214      90             90             90            -3.8052694     -14.571394     -15.838784      18.99437      -244.05214    
     25880  -238.16529      90             90             90            -6.6089038     -17.353425     -18.838391      16.365105     -238.16529    
     25900  -237.55126      90             90             90            -9.2393045     -20.375888     -20.173668      12.831642     -237.55126    
     25920  -228.65756      90             90             90            -13.482676     -28.476254     -16.81083       4.8390555     -228.65756    
     25940  -221.94503      90             90             90            -16.003497     -35.876236     -10.426109     -1.7081453     -221.94503    
     25960  -233.26686      90             90             90            -12.936217     -28.928537     -8.1222159     -1.7578987     -233.26686    
     25980  -234.57609      90             90             90            -9.495731      -20.557368     -10.226749      2.2969241     -234.57609    
     26000  -228.31871      90             90             90            -7.3339693     -16.67672      -15.428029      10.102841     -228.31871    
     26020  -228.95692      90             90             90            -5.0933452     -11.159819     -18.686524      14.566307     -228.95692    
     26040  -222.19116      90             90             90            -4.0492633     -6.0238304     -14.423682      8.2997224     -222.19116    
     26060  -223.2785       90             90             90            -1.4902587      1.6615586     -11.638486      5.5061515     -223.2785     
     26080  -236.23878      90             90             90             3.3190063      11.00931      -10.530736      9.4784447     -236.23878    
     26100  -229.58949      90             90             90             5.6126558      16.802555     -6.7879246      6.8233373     -229.58949    
     26120  -224.94007      90             90             90             7.7470905      23.534691     -2.4049349      2.1115156     -224.94007    
     26140  -242.17059      90             90             90             11.891495      35.574847      1.1243954     -1.0247586     -242.17059    
     26160  -243.35617      90             90             90             12.939553      44.850229     -4.4919206     -1.5396496     -243.35617    
     26180  -237.97643      90             90             90             13.20649       47.338152     -12.679066      4.9603851     -237.97643    
     26200  -239.76878      90             90             90             13.40705       43.512096     -15.10519       11.814243     -239.76878    
     26220  -233.02554      90             90             90             11.025955      34.709862     -16.04848       14.416484     -233.02554    
     26240  -239.54705      90             90             90             10.073111      27.221516     -10.596966      13.594782     -239.54705    
     26260  -241.15834      90             90             90             9.5539682      21.449604     -2.0520337      9.2643344     -241.15834    
     26280  -232.54035      90             90             90             7.5521939      15.652583      2.1922839      4.8117145     -232.54035    
     26300  -238.40507      90             90             90             5.2483482      8.49127        4.2003696      3.0534049     -238.40507    
     26320  -235.25234      90             90             90             0.3158411     -6.7896734      5.9375248      1.7996718     -235.25234    
     26340  -227.9609       90             90             90            -7.1398613     -24.740891      9.7263549     -6.4050474     -227.9609     
     26360  -227.36926      90             90             90            -12.779695     -33.655853      13.723386     -18.406618     -227.36926    
     26380  -232.50633      90             90             90            -14.434483     -33.137276      14.813746     -24.97992      -232.50633    
     26400  -226.70105      90             90             90            -15.292526     -31.917577      13.598043     -27.558045     -226.70105    
     26420  -225.55774      90             90             90            -14.017537     -31.523459      15.132712     -25.661863     -225.55774    
     26440  -244.56658      90             90             90            -8.9781174     -27.132184      21.901944     -21.704112     -244.56658    
     26460  -246.07085      90             90             90            -4.842186      -22.116505      27.956428     -20.366481     -246.07085    
     26480  -247.18376      90             90             90            -0.87411973    -17.073988      32.107393     -17.655764     -247.18376    
     26500  -244.85442      90             90             90             0.96085763    -9.5616734      30.360159     -17.915913     -244.85442    
     26520  -229.27612      90             90             90             0.76470395    -2.1965923      22.562517     -18.071813     -229.27612    
     26540  -229.79473      90             90             90             3.9443591      5.0350922      17.154617     -10.356632     -229.79473    
     26560  -228.65173      90             90             90             9.0871048      12.008719      17.166583     -1.9139875     -228.65173    
     26580  -231.06664      90             90             90             14.425103      19.111408      19.235005      4.9288962     -231.06664    
     26600  -234.06829      90             90             90             17.77529       25.065399      15.726669      12.5338       -234.06829    
     26620  -229.97162      90             90             90             18.042522      27.139962      8.3866292      18.600974     -229.97162    
     26640  -227.58721      90             90             90             17.339373      25.247011      7.0696124      19.701497     -227.58721    
     26660  -221.82993      90             90             90             16.773691      20.86523       11.824876      17.630965     -221.82993    
     26680  -232.58627      90             90             90             18.921592      17.852296      18.876997      20.035482     -232.58627    
     26700  -237.88906      90             90             90             19.628466      15.339319      20.003784      23.542296     -237.88906    
     26720  -232.7953       90             90             90             17.193201      13.836613      14.579327      23.163662     -232.7953     
     26740  -235.54758      90             90             90             14.536445      12.069154      11.419186      20.120996     -235.54758    
     26760  -216.37209      90             90             90             9.4133704      4.8086877      8.8975292      14.533894     -216.37209    
     26780  -211.01515      90             90             90             7.5213758     -0.017137899    7.7587089      14.822556     -211.01515    
     26800  -230.54631      90             90             90             10.417857      3.5065244      7.7577118      19.989335     -230.54631    
     26820  -219.05466      90             90             90             10.209585      5.102492       6.7748178      18.751444     -219.05466    
     26840  -211.42214      90             90             90             10.384263      3.1343889      13.385164      14.633236     -211.42214    
     26860  -216.65539      90             90             90             10.173487      2.4963454      19.863507      8.1606088     -216.65539    
     26880  -209.71876      90             90             90             5.9229382      1.9227149      17.434323     -1.5882231     -209.71876    
     26900  -211.4207       90             90             90             0.60744296     0.7735646      9.445969      -8.3972047     -211.4207     
     26920  -214.88988      90             90             90            -5.6017792     -3.4001065     -2.5416614     -10.86357      -214.88988    
     26940  -209.85346      90             90             90            -12.080599     -13.794081     -10.130527     -12.317188     -209.85346    
     26960  -213.66008      90             90             90            -14.96493      -17.160647     -11.302155     -16.43199      -213.66008    
     26980  -226.12598      90             90             90            -14.218569     -6.7211305     -12.258297     -23.67628      -226.12598    
     27000  -226.81469      90             90             90            -13.318149      1.7038759     -13.827902     -27.830421     -226.81469    
     27020  -231.36075      90             90             90            -10.098013      4.4157063     -15.143917     -19.565828     -231.36075    
     27040  -237.84017      90             90             90            -5.1496963      5.9106988     -14.156824     -7.2029636     -237.84017    
     27060  -232.32321      90             90             90            -1.7527597      7.013677      -10.916285     -1.3556706     -232.32321    
     27080  -243.98832      90             90             90             2.3624144      12.723829     -6.9035908      1.2670048     -243.98832    
     27100  -249.48779      90             90             90             4.4823469      18.22794      -5.7500496      0.96915069    -249.48779    
     27120  -233.05554      90             90             90             3.7550326      18.112581     -8.3489049      1.5014212     -233.05554    
     27140  -228.85013      90             90             90             5.0455228      17.352796     -7.8215109      5.6052831     -228.85013    
     27160  -227.31545      90             90             90             6.9751307      14.85013      -4.9089829      10.984245     -227.31545    
     27180  -227.51957      90             90             90             8.2256522      7.9534489     -1.112002       17.83551      -227.51957    
     27200  -237.02562      90             90             90             8.513508       1.9237275      5.3765527      18.240244     -237.02562    
     27220  -236.80751      90             90             90             5.2253246     -1.2439136      7.3279126      9.5919748     -236.80751    
     27240  -229.82384      90             90             90            -0.22152252    -5.0666158      4.3815397      0.020508536   -229.82384    
     27260  -224.79696      90             90             90            -5.153301      -13.646654      1.8563434     -3.6695928     -224.79696    
     27280  -226.04302      90             90             90            -8.1099097     -23.806916      0.81254936    -1.3353621     -226.04302    
     27300  -229.91453      90             90             90            -9.0308547     -27.617786      0.58006007    -0.054837947   -229.91453    
     27320  -227.36821      90             90             90            -8.4417272     -23.996821     -1.7888839      0.46052314    -227.36821    
     27340  -228.12562      90             90             90            -5.2051066     -16.099364     -1.5754331      2.059477      -228.12562    
     27360  -231.84506      90             90             90            -1.7697352     -9.8124179      0.96319447     3.5400178     -231.84506    
     27380  -227.88552      90             90             90            -2.4025143     -4.8455071     -4.0294239      1.6673882     -227.88552    
     27400  -223.96142      90             90             90            -5.1009615      1.4813        -13.177622     -3.6065622     -223.96142    
     27420  -219.25652      90             90             90            -8.009769       3.0821912     -18.177335     -8.9341636     -219.25652    
     27440  -218.52613      90             90             90            -9.306077       3.5346055     -16.29266      -15.160177     -218.52613    
     27460  -231.11508      90             90             90            -7.6297456      7.8845643     -12.964874     -17.808927     -231.11508    
     27480  -224.67757      90             90             90            -7.3916537      10.19117      -15.925971     -16.44016      -224.67757    
     27500  -219.9617       90             90             90            -7.0343755      13.198268     -17.986464     -16.31493      -219.9617     
     27520  -234.40294      90             90             90            -5.2142801      12.922778     -15.506392     -13.059227     -234.40294    
     27540  -224.68436      90             90             90            -6.5405523      8.1046617     -14.980201     -12.746117     -224.68436    
     27560  -219.5756       90             90             90            -7.1964606      8.7126046     -13.725773     -16.576213     -219.5756     
     27580  -227.98032      90             90             90            -5.502602       10.849644     -12.779181     -14.578269     -227.98032    
     27600  -225.06615      90             90             90            -3.8751422      11.952035     -13.60638      -9.9710815     -225.06615    
     27620  -233.2105       90             90             90             1.0307249      14.363626     -9.7939817     -1.4774697     -233.2105     
     27640  -237.99151      90             90             90             7.1380957      16.572017     -3.8112916      8.6535613     -237.99151    
     27660  -230.44296      90             90             90             12.285782      16.638146      4.6086928      15.610506     -230.44296    
     27680  -236.37067      90             90             90             17.875716      16.383827      13.416438      23.826884     -236.37067    
     27700  -236.28543      90             90             90             19.847554      17.91209       14.221296      27.409277     -236.28543    
     27720  -225.063        90             90             90             17.403881      13.160848      14.413504      24.637291     -225.063      
     27740  -233.46968      90             90             90             15.18801       6.5673235      17.83746       21.159247     -233.46968    
     27760  -240.57539      90             90             90             11.074767      1.3304535      16.599309      15.294539     -240.57539    
     27780  -222.78981      90             90             90             3.6495573     -9.8252473      13.804341      6.9695787     -222.78981    
     27800  -220.39078      90             90             90            -0.34830031    -16.351071      13.484646      1.8215242     -220.39078    
     27820  -225.91989      90             90             90            -1.0714112     -17.125094      11.779981      2.1308795     -225.91989    
     27840  -224.93344      90             90             90            -1.1524034     -14.731362      7.0576529      4.2164984     -224.93344    
     27860  -232.46711      90             90             90             0.51712783    -5.8987034      3.7523694      3.6977175     -232.46711    
     27880  -224.99173      90             90             90             1.0620908     -0.20343167     3.8534301     -0.46372588    -224.99173    
     27900  -223.36809      90             90             90             3.3254374      6.146245       2.9690726      0.86099459    -223.36809    
     27920  -234.75489      90             90             90             7.7056805      14.690491     -0.6593755      9.0859261     -234.75489    
     27940  -229.35668      90             90             90             9.7154135      17.69324      -1.4129789      12.865979     -229.35668    
     27960  -224.8782       90             90             90             11.565852      18.459548      3.4529415      12.785065     -224.8782     
     27980  -222.54648      90             90             90             13.570688      17.839804      9.8299737      13.042287     -222.54648    
     28000  -224.913        90             90             90             15.92945       17.089404      14.204893      16.494054     -224.913      
     28020  -226.61358      90             90             90             17.64039       14.723735      15.298515      22.89892      -226.61358    
     28040  -218.69562      90             90             90             17.208084      10.142491      17.400605      24.081156     -218.69562    
     28060  -231.00928      90             90             90             17.723899      11.971687      21.903449      19.29656      -231.00928    
     28080  -238.21499      90             90             90             16.287321      15.661274      22.210537      10.990153     -238.21499    
     28100  -240.95265      90             90             90             13.484086      14.899645      17.490086      8.0625257     -240.95265    
     28120  -251.13084      90             90             90             11.460723      11.101708      7.9745113      15.305949     -251.13084    
     28140  -235.63339      90             90             90             6.9492145      6.4132085     -4.1303095      18.564744     -235.63339    
     28160  -235.91389      90             90             90             5.5703054      7.848094      -7.0695491      15.932371     -235.91389    
     28180  -244.8293       90             90             90             6.6259888      9.9693895      0.16060969     9.7479671     -244.8293     
     28200  -232.38613      90             90             90             5.9083985      5.9091075      9.8541187      1.9619694     -232.38613    
     28220  -242.09757      90             90             90             8.0978329      3.4379415      17.405101      3.4504565     -242.09757    
     28240  -237.09725      90             90             90             7.5000115      2.5431745      17.018355      2.9385052     -237.09725    
     28260  -214.4215       90             90             90             2.8105639     -0.21768402     13.075841     -4.4264655     -214.4215     
     28280  -222.34135      90             90             90             0.61948359    -2.5125691      11.136337     -6.7653175     -222.34135    
     28300  -220.62485      90             90             90            -2.0435794     -5.6205248      8.7222199     -9.2324333     -220.62485    
     28320  -219.02357      90             90             90            -2.3003984     -7.8756678      10.686669     -9.7121962     -219.02357    
     28340  -227.61748      90             90             90             1.3503371     -6.563352       16.470123     -5.8557597     -227.61748    
     28360  -219.68298      90             90             90             4.5257088     -2.007649       18.074385     -2.48961       -219.68298    
     28380  -225.72224      90             90             90             8.9335594      4.6843573      17.303682      4.8126394     -225.72224    
     28400  -229.21834      90             90             90             11.099224      10.529789      13.723282      9.0446025     -229.21834    
     28420  -222.33117      90             90             90             10.241731      13.547196      8.5414681      8.6365288     -222.33117    
     28440  -225.81187      90             90             90             9.5369201      12.290888      6.9349393      9.3849328     -225.81187    
     28460  -218.83014      90             90             90             6.7887747      9.9214167      6.4660825      3.9788249     -218.83014    
     28480  -221.04687      90             90             90             4.7008727      9.1572997      5.4141118     -0.46879352    -221.04687    
     28500  -228.02904      90             90             90             3.4821836      3.2550783      1.82043        5.3710427     -228.02904    
     28520  -221.16092      90             90             90             0.43107469    -5.3039744     -3.6921672      10.289366     -221.16092    
     28540  -224.27867      90             90             90            -2.1968441     -11.231405     -3.095663       7.7365356     -224.27867    
     28560  -227.36333      90             90             90            -5.1952689     -16.923529      1.1905079      0.14721442    -227.36333    
     28580  -230.72681      90             90             90            -8.4448099     -17.352925      1.6229227     -9.604427      -230.72681    
     28600  -230.54536      90             90             90            -12.221373     -18.046429     -3.9687602     -14.648929     -230.54536    
     28620  -220.45095      90             90             90            -15.612736     -22.690355     -9.6749863     -14.472868     -220.45095    
     28640  -229.57777      90             90             90            -13.421578     -18.698609     -6.9474268     -14.618698     -229.57777    
     28660  -236.35578      90             90             90            -9.3783068     -10.984136     -3.3627241     -13.78806      -236.35578    
     28680  -228.64844      90             90             90            -6.7902457     -3.4433509     -5.9445162     -10.98287      -228.64844    
     28700  -225.57513      90             90             90            -3.7369963      8.0908837     -11.02959      -8.2722822     -225.57513    
     28720  -229.07713      90             90             90             0.029083536    16.751806     -12.616738     -4.0478178     -229.07713    
     28740  -234.88467      90             90             90             3.7385949      17.163175     -5.255075      -0.69231591    -234.88467    
     28760  -234.0684       90             90             90             6.5585636      12.188118      5.5216147      1.9659584     -234.0684     
     28780  -233.46795      90             90             90             9.7694217      13.48652       12.535864      3.2858817     -233.46795    
     28800  -232.61769      90             90             90             13.465275      22.16901       16.209372      2.0174428     -232.61769    
     28820  -233.92629      90             90             90             17.287926      28.149128      17.471548      6.2431006     -233.92629    
     28840  -232.11515      90             90             90             19.565213      30.569993      16.104331      12.021314     -232.11515    
     28860  -221.02526      90             90             90             18.540765      29.215007      14.091606      12.315681     -221.02526    
     28880  -224.07252      90             90             90             16.66131       27.14518       12.842613      9.9961379     -224.07252    
     28900  -221.83035      90             90             90             12.195544      22.133515      10.894494      3.5586215     -221.83035    
     28920  -213.79626      90             90             90             6.4700856      11.55327       11.408637     -3.5516504     -213.79626    
     28940  -219.52106      90             90             90             3.5562758      2.1937704      17.448793     -8.9737358     -219.52106    
     28960  -212.72098      90             90             90             0.58194699    -7.1426094      19.524116     -10.635665     -212.72098    
     28980  -219.98657      90             90             90            -0.087161107   -12.544827      16.335451     -4.0521081     -219.98657    
     29000  -232.51195      90             90             90            -3.4138297     -13.429109      6.8202881     -3.6326681     -232.51195    
     29020  -220.32652      90             90             90            -10.752659     -16.557586     -4.522944      -11.177447     -220.32652    
     29040  -218.27673      90             90             90            -14.985193     -21.465172     -4.8422717     -18.648135     -218.27673    
     29060  -207.03375      90             90             90            -17.598352     -29.270601      0.57213549    -24.096589     -207.03375    
     29080  -213.62517      90             90             90            -16.434406     -28.477052      1.4306521     -22.256818     -213.62517    
     29100  -231.27638      90             90             90            -11.626323     -14.468938     -0.077332353   -20.332698     -231.27638    
     29120  -222.8744       90             90             90            -8.1945402      0.54494671    -4.1244667     -21.0041       -222.8744     
     29140  -230.01943      90             90             90            -3.2173686      12.265445     -6.3160491     -15.601502     -230.01943    
     29160  -233.05396      90             90             90            -0.94049089     15.264005     -6.8474843     -11.237993     -233.05396    
     29180  -229.04906      90             90             90            -2.2955016      10.851412     -5.6036779     -12.134238     -229.04906    
     29200  -229.97012      90             90             90            -3.1937334      5.5862266     -7.2231334     -7.9442936     -229.97012    
     29220  -226.96573      90             90             90            -2.1748413      2.9608389     -15.397331      5.9119685     -226.96573    
     29240  -232.12361      90             90             90             2.7999147      7.5665201     -17.199344      18.032568     -232.12361    
     29260  -232.02264      90             90             90             8.7218952      13.775757     -8.3213566      20.711285     -232.02264    
     29280  -237.46922      90             90             90             14.155397      16.644323      3.8564622      21.965407     -237.46922    
     29300  -239.15596      90             90             90             16.026785      15.56515       7.8189158      24.696289     -239.15596    
     29320  -223.2454       90             90             90             12.328512      9.6240584      2.0965585      25.26492      -223.2454     
     29340  -222.96802      90             90             90             7.8217492      4.8629082     -3.4349248      22.037264     -222.96802    
     29360  -227.40147      90             90             90             2.4660714      3.5944811     -10.120857      13.92459      -227.40147    
     29380  -222.20599      90             90             90            -4.2758311      0.1926071     -14.228745      1.2086451     -222.20599    
     29400  -214.53673      90             90             90            -10.163901     -6.8996253     -13.666164     -9.9259132     -214.53673    
     29420  -212.55394      90             90             90            -13.203448     -15.267341     -14.637088     -9.7059135     -212.55394    
     29440  -227.17246      90             90             90            -12.260005     -22.714457     -12.082205     -1.9833532     -227.17246    
     29460  -230.06956      90             90             90            -11.856776     -27.863724     -7.7667446      0.060139912   -230.06956    
     29480  -211.43309      90             90             90            -13.886717     -32.880454     -2.6830655     -6.0966313     -211.43309    
     29500  -211.63069      90             90             90            -13.187399     -32.793207      4.5475119     -11.316502     -211.63069    
     29520  -225.66074      90             90             90            -10.025987     -24.305747      4.6764017     -10.448617     -225.66074    
     29540  -221.39204      90             90             90            -7.9982093     -18.206716      2.0725115     -7.8604235     -221.39204    
     29560  -218.385        90             90             90            -4.8572551     -13.175649      2.8000192     -4.1961358     -218.385      
     29580  -222.76989      90             90             90            -0.58728228    -3.5917391      2.5764952     -0.7466029     -222.76989    
     29600  -224.29657      90             90             90             2.9894227      6.9985707      1.8024753      0.1672222     -224.29657    
     29620  -233.78187      90             90             90             7.6497395      19.88828       2.0986662      0.96227219    -233.78187    
     29640  -236.86132      90             90             90             11.437821      29.022405      4.4464773      0.84457904    -236.86132    
     29660  -239.04934      90             90             90             14.303009      34.752267      7.971355       0.18540405    -239.04934    
     29680  -246.00088      90             90             90             16.460754      41.126589      8.8933268     -0.63765461    -246.00088    
     29700  -242.73783      90             90             90             16.586866      42.14842       9.7487462     -2.1365677     -242.73783    
     29720  -242.48311      90             90             90             17.351427      40.760589      11.934312     -0.64062188    -242.48311    
     29740  -243.94237      90             90             90             19.163738      41.474099      14.371561      1.6455551     -243.94237    
     29760  -241.25127      90             90             90             20.32249       39.873286      19.560625      1.53356       -241.25127    
     29780  -238.21766      90             90             90             19.771165      32.215944      22.445761      4.6517897     -238.21766    
     29800  -236.61305      90             90             90             17.94869       22.653984      18.407271      12.784814     -236.61305    
     29820  -238.22654      90             90             90             15.478716      16.459355      12.625689      17.351104     -238.22654    
     29840  -237.21376      90             90             90             11.586405      12.048783      7.6644437      15.045987     -237.21376    
     29860  -237.50534      90             90             90             6.3403515      5.6480944      3.5480945      9.8248656     -237.50534    
     29880  -229.79031      90             90             90            -0.83092564    -4.9056987     -0.55957139     2.9724932     -229.79031    
     29900  -223.82935      90             90             90            -7.2677484     -15.258528     -5.7731336     -0.77158362    -223.82935    
     29920  -225.36852      90             90             90            -10.804348     -21.151502     -11.862393      0.60085221    -225.36852    
     29940  -219.97908      90             90             90            -12.464661     -21.713191     -22.651946      6.9711551     -219.97908    
     29960  -224.45231      90             90             90            -10.839953     -17.32331      -30.230995      15.034444     -224.45231    
     29980  -231.66438      90             90             90            -7.749489      -13.319678     -24.297629      14.368839     -231.66438    
     30000  -234.13651      90             90             90            -5.3184893     -10.368164     -15.637361      10.050058     -234.13651    
     30020  -227.75812      90             90             90            -5.2937839     -12.509806     -10.62093       7.2493849     -227.75812    
     30040  -218.78521      90             90             90            -6.3995658     -18.781249     -4.7835848      4.366136      -218.78521    
     30060  -232.20395      90             90             90            -4.242932      -18.615339     -2.1001248      7.9866673     -232.20395    
     30080  -233.85856      90             90             90            -2.0263391     -13.863001     -3.8387664      11.62275      -233.85856    
     30100  -228.793        90             90             90             1.7857029     -3.2900425     -4.0548488      12.702        -228.793      
     30120  -235.9147       90             90             90             9.1624558      12.00814       0.82746409     14.651763     -235.9147     
     30140  -238.5324       90             90             90             16.148305      20.191226      13.25243       15.001258     -238.5324     
     30160  -245.32305      90             90             90             21.515087      22.096708      21.776575      20.671977     -245.32305    
     30180  -242.4079       90             90             90             22.253887      20.535414      20.839919      25.386326     -242.4079     
     30200  -239.21606      90             90             90             19.700059      16.337092      22.77466       19.988427     -239.21606    
     30220  -245.94036      90             90             90             16.64227       11.375297      26.658845      11.892667     -245.94036    
     30240  -245.59292      90             90             90             12.786619      4.0648238      28.481382      5.813652      -245.59292    
     30260  -246.18676      90             90             90             10.127884     -2.4239276      24.573165      8.2344142     -246.18676    
     30280  -239.97023      90             90             90             8.1136946     -2.9171064      15.672847      11.585343     -239.97023    
     30300  -236.91838      90             90             90             7.217563       2.1294441      13.665538      5.8577071     -236.91838    
     30320  -249.41011      90             90             90             7.1339378      5.5332362      13.945999      1.9225779     -249.41011    
     30340  -253.8381       90             90             90             3.9549793      0.092630166    11.41816       0.35414759    -253.8381     
     30360  -251.90333      90             90             90            -2.3758613     -10.763479      9.9930409     -6.357146      -251.90333    
     30380  -245.27829      90             90             90            -9.8423372     -17.163272      3.9873229     -16.351063     -245.27829    
     30400  -241.35471      90             90             90            -14.60842      -16.157065     -5.3392315     -22.328964     -241.35471    
     30420  -250.53772      90             90             90            -14.01903      -11.986054     -10.677954     -19.393083     -250.53772    
     30440  -249.66776      90             90             90            -11.625887     -4.6251932     -13.753342     -16.499125     -249.66776    
     30460  -240.3887       90             90             90            -8.0829815      4.4663921     -16.448952     -12.266384     -240.3887     
     30480  -247.50563      90             90             90            -2.5193335      10.896769     -16.654552     -1.8002178     -247.50563    
     30500  -249.94009      90             90             90             1.1308713      15.637087     -15.74442       3.4999465     -249.94009    
     30520  -236.77083      90             90             90             1.8102957      18.944303     -15.822216      2.3088001     -236.77083    
     30540  -230.85412      90             90             90             3.1021083      22.165483     -15.948351      3.0891929     -230.85412    
     30560  -223.93582      90             90             90             4.5291978      22.04999      -14.909109      6.446712      -223.93582    
     30580  -220.29091      90             90             90             6.4981549      17.501704     -9.8883896      11.88115      -220.29091    
     30600  -227.43136      90             90             90             9.6607064      15.456096     -2.1568246      15.682848     -227.43136    
     30620  -229.68431      90             90             90             11.67194       17.031889      2.3351733      15.648759     -229.68431    
     30640  -239.98829      90             90             90             12.826659      22.251732      0.67109351     15.557153     -239.98829    
     30660  -245.05598      90             90             90             10.413082      22.172899     -3.728623       12.794969     -245.05598    
     30680  -233.36009      90             90             90             3.5720668      11.710904     -4.2298628      3.2351591     -233.36009    
     30700  -231.15808      90             90             90            -2.8562019      3.129729      -3.386788      -8.3115468     -231.15808    
     30720  -236.66029      90             90             90            -7.3634884     -1.506416      -5.9923181     -14.591731     -236.66029    
     30740  -233.64067      90             90             90            -10.844947     -6.4099261     -8.6631796     -17.461736     -233.64067    
     30760  -229.09351      90             90             90            -12.600566     -11.089357     -7.5949194     -19.117422     -229.09351    
     30780  -233.13238      90             90             90            -12.362323     -15.061673     -1.7940994     -20.231197     -233.13238    
     30800  -232.46296      90             90             90            -11.824631     -14.738862      2.5086331     -23.243664     -232.46296    
     30820  -229.57452      90             90             90            -11.054646     -10.707221      0.56890376    -23.025619     -229.57452    
     30840  -223.25542      90             90             90            -10.558374     -8.7989892     -3.4499393     -19.426194     -223.25542    
     30860  -218.4527       90             90             90            -9.9719387     -11.640947     -3.7944863     -14.480383     -218.4527     
     30880  -230.39659      90             90             90            -7.4303161     -13.612566      0.29271933    -8.9711014     -230.39659    
     30900  -235.92887      90             90             90            -4.9935263     -7.3794241      3.7982633     -11.399418     -235.92887    
     30920  -232.14405      90             90             90            -3.3603737      0.27195972     4.4772434     -14.830324     -232.14405    
     30940  -230.51499      90             90             90            -1.4831382      4.1942106      0.19257943    -8.8362046     -230.51499    
     30960  -226.77127      90             90             90             1.5411169      6.8553404     -5.3352173      3.1032276     -226.77127    
     30980  -233.15842      90             90             90             5.4928747      8.1490726     -6.2318984      14.56145      -233.15842    
     31000  -231.35634      90             90             90             9.1282286      9.4775175     -3.5265459      21.433714     -231.35634    
     31020  -228.38965      90             90             90             12.034466      11.842637     -0.62009788     24.880857     -228.38965    
     31040  -229.18179      90             90             90             13.466373      14.937828      0.21707175     25.244219     -229.18179    
     31060  -223.73888      90             90             90             11.85139       14.66737      -0.3945931      21.281392     -223.73888    
     31080  -226.3313       90             90             90             9.777441       10.102192      2.6462452      16.583886     -226.3313     
     31100  -233.15191      90             90             90             7.8911233      6.9630584      6.1226471      10.587664     -233.15191    
     31120  -235.09186      90             90             90             5.7135893      3.8431707      6.852908       6.4446891     -235.09186    
     31140  -245.80587      90             90             90             5.1685012      3.6031841      5.401028       6.5012914     -245.80587    
     31160  -257.29305      90             90             90             5.329749       4.7782478      3.0185709      8.1924284     -257.29305    
     31180  -260.11211      90             90             90             5.0138028      2.2652203      3.6450907      9.1310975     -260.11211    
     31200  -263.12081      90             90             90             4.7264878      1.138428       8.45498        4.5860555     -263.12081    
     31220  -252.48795      90             90             90             1.8508326     -1.9968984      11.61991      -4.0705136     -252.48795    
     31240  -239.56579      90             90             90            -2.1997495     -2.3995907      6.2349778     -10.434636     -239.56579    
     31260  -239.37094      90             90             90            -4.3926951      1.3588409     -3.4216892     -11.115237     -239.37094    
     31280  -232.11469      90             90             90            -5.7985651     -0.97916482    -6.5324733     -9.8840571     -232.11469    
     31300  -238.24253      90             90             90            -3.5093819     -0.83620785    -0.78209367    -8.9098443     -238.24253    
     31320  -250.06552      90             90             90             0.77103077    -0.50706128     6.2648123     -3.4446587     -250.06552    
     31340  -245.36678      90             90             90             2.4205436     -3.2330997      8.696011       1.7987193     -245.36678    
     31360  -253.16932      90             90             90             2.7896778     -2.787084       7.6581607      3.4979568     -253.16932    
     31380  -249.54953      90             90             90             1.2148608     -7.3271251      5.7751133      5.1965942     -249.54953    
     31400  -230.17612      90             90             90            -1.0478325     -9.5256828      3.7200326      2.6621526     -230.17612    
     31420  -231.31725      90             90             90            -0.22193973    -2.4583433      0.80740378     0.98512032    -231.31725    
     31440  -236.57636      90             90             90             2.1420324      2.0570144      0.37630025     3.9927827     -236.57636    
     31460  -239.33833      90             90             90             4.3020067      2.1681759      2.5642727      8.1735716     -239.33833    
     31480  -236.36578      90             90             90             5.6943435      0.59052971    -0.81037747     17.302878     -236.36578    
     31500  -227.87321      90             90             90             6.5105004     -0.11277195    -5.199342       24.843615     -227.87321    
     31520  -235.91343      90             90             90             9.237675       2.830587      -0.18265713     25.065095     -235.91343    
     31540  -240.13304      90             90             90             10.798832      3.8219843      6.0460537      22.528459     -240.13304    
     31560  -228.89038      90             90             90             9.2221791      2.3618543      5.8515849      19.453098     -228.89038    
     31580  -231.13549      90             90             90             8.1355782      4.9488519      2.6006975      16.857185     -231.13549    
     31600  -249.84252      90             90             90             8.8193687      7.3350031      2.3380802      16.785023     -249.84252    
     31620  -254.13148      90             90             90             7.3102732      2.7071445      3.777919       15.445756     -254.13148    
     31640  -238.50737      90             90             90             2.4955549     -3.360985       0.015882533    10.831767     -238.50737    
     31660  -232.2901       90             90             90            -1.5448171     -5.689378      -3.3310504      4.3859771     -232.2901     
     31680  -246.19498      90             90             90            -1.9591897     -2.9504045      1.255753      -4.1829175     -246.19498    
     31700  -251.9578       90             90             90            -1.8157438      0.86210554     7.189973      -13.49931      -251.9578     
     31720  -238.2434       90             90             90            -2.9793054      3.054718       8.1258684     -20.118503     -238.2434     
     31740  -241.64049      90             90             90            -1.9235111      6.0052904      6.4104513     -18.186275     -241.64049    
     31760  -252.3139       90             90             90             0.029325028    5.0970138      3.3048285     -8.3138672     -252.3139     
     31780  -255.43532      90             90             90             1.547411       4.8410519      1.4045813     -1.6034004     -255.43532    
     31800  -257.86648      90             90             90             3.5463649      8.9534031      3.4694676     -1.783776      -257.86648    
     31820  -247.65905      90             90             90             4.0267825      11.79287       5.2448809     -4.9574032     -247.65905    
     31840  -252.6771       90             90             90             5.7248707      17.773041      6.1455368     -6.7439654     -252.6771     
     31860  -264.67687      90             90             90             7.1330781      24.198022      3.8604539     -6.6592416     -264.67687    
     31880  -253.69445      90             90             90             4.5139016      26.672762     -4.4186388     -8.7124184     -253.69445    
     31900  -251.79031      90             90             90             2.1777284      24.794157     -10.203714     -8.0572578     -251.79031    
     31920  -242.56509      90             90             90            -1.1966221      14.908372     -13.553496     -4.9447419     -242.56509    
     31940  -234.50481      90             90             90            -4.5213919      6.6393796     -17.144992     -3.0585633     -234.50481    
     31960  -250.62054      90             90             90            -4.7358274      1.2828752     -19.721835      4.2314778     -250.62054    
     31980  -241.75257      90             90             90            -6.9825327     -7.6038979     -20.724826      7.3811255     -241.75257    
     32000  -228.47538      90             90             90            -7.8685784     -9.8644665     -14.555815      0.81454592    -228.47538    
     32020  -245.67187      90             90             90            -3.3715033     -2.5451436     -6.8402884     -0.72907783    -245.67187    
     32040  -254.45215      90             90             90             0.42222034     2.5148676     -3.1894675      1.9412609     -254.45215    
     32060  -255.30519      90             90             90             3.4626946      2.2423787      1.1478377      6.9978676     -255.30519    
     32080  -256.78207      90             90             90             6.946858       0.79687575     3.897889       16.145809     -256.78207    
     32100  -244.7932       90             90             90             7.8690609      1.3705448      4.4146456      17.821992     -244.7932     
     32120  -239.9891       90             90             90             7.4612449      7.49103        5.1710719      9.7216328     -239.9891     
     32140  -238.11406      90             90             90             5.3989958      10.239854      7.7030652     -1.7459313     -238.11406    
     32160  -231.77872      90             90             90             2.8334745      7.3293352      13.061294     -11.890205     -231.77872    
     32180  -240.11552      90             90             90             3.828454       9.1499196      16.795804     -14.460362     -240.11552    
     32200  -242.2487       90             90             90             5.8994742      12.121544      17.454677     -11.877799     -242.2487     
     32220  -242.84845      90             90             90             8.5147054      13.378881      19.278216     -7.1129811     -242.84845    
     32240  -248.62739      90             90             90             11.55928       9.7763583      22.277767      2.6237153     -248.62739    
     32260  -243.46672      90             90             90             12.800468     -0.047933331    25.631701      12.817637     -243.46672    
     32280  -244.6581       90             90             90             14.110564     -4.7608761      28.732055      18.360512     -244.6581     
     32300  -240.89932      90             90             90             13.579223     -6.5921961      28.077372      19.252493     -240.89932    
     32320  -238.25044      90             90             90             10.365513     -7.0659672      23.049666      15.11284      -238.25044    
     32340  -242.84671      90             90             90             5.0838795     -4.0274643      14.27488       5.0042226     -242.84671    
     32360  -235.49739      90             90             90            -1.9622521     -4.955741       3.5504769     -4.4814921     -235.49739    
     32380  -236.96475      90             90             90            -5.6291945     -5.9188433     -3.6021704     -7.3665698     -236.96475    
     32400  -231.92254      90             90             90            -7.0912792     -7.9997329     -5.9651067     -7.3089981     -231.92254    
     32420  -226.05168      90             90             90            -6.884673      -11.187127     -4.1063584     -5.3605338     -226.05168    
     32440  -241.27175      90             90             90            -4.5512008     -7.4206139     -1.4871249     -4.7458635     -241.27175    
     32460  -236.47017      90             90             90            -5.913569      -5.4086838     -4.9885651     -7.3434582     -236.47017    
     32480  -226.17491      90             90             90            -7.8551588     -7.7538145     -10.74246      -5.0692022     -226.17491    
     32500  -227.83997      90             90             90            -6.7089197     -9.4374143     -10.68375      -0.0055949417  -227.83997    
     32520  -232.2017       90             90             90            -4.0474697     -11.78318      -3.1790702      2.8198408     -232.2017     
     32540  -240.42679      90             90             90            -0.91925847    -10.732056      3.0522016      4.9220789     -240.42679    
     32560  -242.89369      90             90             90             1.099573      -7.3086961      2.2796331      8.3277819     -242.89369    
     32580  -237.93232      90             90             90             1.6922735     -7.3014372      0.71586596     11.662392     -237.93232    
     32600  -232.72348      90             90             90             1.5829653     -5.8306847     -1.5902202      12.169801     -232.72348    
     32620  -237.48697      90             90             90             1.70596       -2.1088935     -3.062579       10.289352     -237.48697    
     32640  -233.3227       90             90             90            -0.27542181    -1.9897151     -0.014622104    1.1780717     -233.3227     
     32660  -223.94028      90             90             90            -2.5466741     -0.3958025      2.8287283     -10.072948     -223.94028    
     32680  -233.86662      90             90             90            -0.62506419     6.249529       3.2745009     -11.399222     -233.86662    
     32700  -236.3066       90             90             90             2.3580301      13.487092      3.0734286     -9.48643       -236.3066     
     32720  -243.17956      90             90             90             6.2808725      20.337472      8.0895357     -9.5843904     -243.17956    
     32740  -249.71817      90             90             90             9.1005539      23.501354      16.011651     -12.211343     -249.71817    
     32760  -241.2496       90             90             90             8.8256089      20.320814      19.830018     -13.674006     -241.2496     
     32780  -246.23422      90             90             90             9.0243151      11.50991       21.573016     -6.0099805     -246.23422    
     32800  -243.19591      90             90             90             6.264728       0.24133692     17.302681      1.2501658     -243.19591    
     32820  -235.03249      90             90             90             0.66621914    -5.7776292      8.0248436     -0.24855702    -235.03249    
     32840  -230.67071      90             90             90            -5.0100081     -8.1365909      1.2518676     -8.1453011     -230.67071    
     32860  -223.9284       90             90             90            -11.290837     -14.956671     -1.250613      -17.665225     -223.9284     
     32880  -227.11074      90             90             90            -15.292017     -23.691221     -2.2492816     -19.93555      -227.11074    
     32900  -227.5123       90             90             90            -17.120745     -27.955995     -8.8047212     -14.601518     -227.5123     
     32920  -234.79156      90             90             90            -15.484903     -25.232165     -18.238992     -2.9835518     -234.79156    
     32940  -238.585        90             90             90            -12.32773      -20.581834     -22.034067      5.6327109     -238.585      
     32960  -230.1041       90             90             90            -9.422467      -18.222784     -16.449449      6.4048324     -230.1041     
     32980  -237.32623      90             90             90            -4.4357757     -14.602616     -8.9934945      10.288783     -237.32623    
     33000  -229.09065      90             90             90            -2.1190173     -8.9874471     -11.841962      14.472357     -229.09065    
     33020  -221.93981      90             90             90            -1.2126587     -5.5087136     -13.2076        15.078337     -221.93981    
     33040  -235.01487      90             90             90             0.6581745     -5.1580041     -6.5960087      13.728536     -235.01487    
     33060  -230.3729       90             90             90             1.5905563     -4.6840009     -1.7335243      11.189194     -230.3729     
     33080  -233.50202      90             90             90             4.1238747     -1.613961       3.088724       10.896861     -233.50202    
     33100  -237.55526      90             90             90             5.9198595      5.1627899      4.5551097      8.0416789     -237.55526    
     33120  -231.33473      90             90             90             5.6772595      10.767782      2.164915       4.0990811     -231.33473    
     33140  -243.27766      90             90             90             8.5182219      15.245017      5.3539339      4.9557152     -243.27766    
     33160  -251.27425      90             90             90             11.882394      16.721818      11.548335      7.3770306     -251.27425    
     33180  -248.06943      90             90             90             12.816545      12.109262      17.695207      8.6451655     -248.06943    
     33200  -253.45226      90             90             90             11.663855      7.9696319      20.055025      6.966908      -253.45226    
     33220  -254.08259      90             90             90             8.4906101      5.9208029      13.557684      5.9933436     -254.08259    
     33240  -248.87458      90             90             90             5.714365       4.6323802      5.4820365      7.0286782     -248.87458    
     33260  -248.76262      90             90             90             5.0516105      3.304745       3.1914262      8.6586603     -248.76262    
     33280  -251.64675      90             90             90             4.95615       -1.347329       4.380938       11.834841     -251.64675    
     33300  -248.93014      90             90             90             2.3067041     -5.6499469      4.8260839      7.7439752     -248.93014    
     33320  -242.79748      90             90             90            -2.7606453     -9.5017002      4.1086198     -2.8888554     -242.79748    
     33340  -240.3685       90             90             90            -6.7306643     -12.842982      3.3585952     -10.707606     -240.3685     
     33360  -237.68204      90             90             90            -8.1740567     -11.925374      0.070575838   -12.667372     -237.68204    
     33380  -237.23758      90             90             90            -7.5897374     -9.777652      -5.0872562     -7.9043042     -237.23758    
     33400  -236.15317      90             90             90            -6.8790878     -8.6735485     -7.7456783     -4.2180367     -236.15317    
     33420  -235.70387      90             90             90            -6.2118197     -3.8175817     -6.5538391     -8.2640381     -235.70387    
     33440  -236.71584      90             90             90            -4.4953835      6.4007158     -4.5468377     -15.340029     -236.71584    
     33460  -233.84214      90             90             90            -2.1468321      17.58111      -6.1029222     -17.918684     -233.84214    
     33480  -235.20132      90             90             90             0.48496921     22.764194     -7.0676005     -14.241685     -235.20132    
     33500  -241.49093      90             90             90             2.8165206      20.102182     -2.6777021     -8.9749178     -241.49093    
     33520  -244.92888      90             90             90             4.2694014      14.126557      2.3401453     -3.6584985     -244.92888    
     33540  -239.2936       90             90             90             4.9834771      8.1864234      4.6581373      2.1058705     -239.2936     
     33560  -242.67136      90             90             90             7.1000904      7.3723849      4.3295163      9.5983698     -242.67136    
     33580  -251.16764      90             90             90             8.6698271      9.8268236      0.059581764    16.123076     -251.16764    
     33600  -233.19557      90             90             90             5.7531865      7.7872384     -7.3137106      16.786032     -233.19557    
     33620  -219.40027      90             90             90             3.864601       3.144716      -9.0170112      17.466098     -219.40027    
     33640  -230.05442      90             90             90             6.565664       0.47786213    -1.4690383      20.688168     -230.05442    
     33660  -245.89309      90             90             90             10.540994      2.7177405      7.423971       21.481269     -245.89309    
     33680  -254.53167      90             90             90             12.404537      6.7264777      10.744903      19.742229     -254.53167    
     33700  -249.12647      90             90             90             10.247879      4.9667105      7.2693723      18.507553     -249.12647    
     33720  -249.40293      90             90             90             7.225015       2.5497542      2.2125157      16.912775     -249.40293    
     33740  -257.92729      90             90             90             4.6654927      2.3332562     -0.68295483     12.346177     -257.92729    
     33760  -258.47317      90             90             90             0.55297312     0.22967231    -4.2961125      5.7253596     -258.47317    
     33780  -250.50263      90             90             90            -5.2961408     -3.2635375     -10.263252     -2.3616328     -250.50263    
     33800  -247.80479      90             90             90            -10.118637     -9.0724712     -14.098814     -7.184627      -247.80479    
     33820  -247.80598      90             90             90            -12.448492     -15.670367     -12.527566     -9.1475434     -247.80598    
     33840  -239.01597      90             90             90            -12.515442     -17.3729       -7.6457137     -12.527714     -239.01597    
     33860  -238.97176      90             90             90            -8.954061      -13.546051     -1.0951114     -12.221021     -238.97176    
     33880  -243.03395      90             90             90            -4.5550218     -9.1602715      4.6720842     -9.1768779     -243.03395    
     33900  -242.46115      90             90             90            -0.3270268     -6.1468001      7.2055897     -2.03987       -242.46115    
     33920  -246.84504      90             90             90             5.5290017      0.56693206     11.60002       4.4200533     -246.84504    
     33940  -244.98309      90             90             90             11.255535      11.780306      19.621896      2.3644022     -244.98309    
     33960  -240.66165      90             90             90             15.146992      23.044154      19.879802      2.5170193     -240.66165    
     33980  -235.80617      90             90             90             16.77009       27.997015      18.131696      4.1815586     -235.80617    
     34000  -237.07633      90             90             90             17.219062      22.550822      23.520978      5.5853863     -237.07633    
     34020  -246.80281      90             90             90             17.791019      14.773528      28.20369       10.39584      -246.80281    
     34040  -247.32081      90             90             90             17.19372       10.374536      28.824242      12.382383     -247.32081    
     34060  -243.36799      90             90             90             15.08966       6.2389667      21.775274      17.25474      -243.36799    
     34080  -233.58768      90             90             90             10.222214     -1.1132165      9.6708284      22.109029     -233.58768    
     34100  -223.62243      90             90             90             4.4971461     -11.051223      5.2287759      19.313885     -223.62243    
     34120  -224.85921      90             90             90             2.0624129     -15.804533      6.5370938      15.454678     -224.85921    
     34140  -221.54296      90             90             90             1.0161485     -14.206623      8.6296584      8.6254104     -221.54296    
     34160  -223.97149      90             90             90             0.39511698    -13.11616       12.666038      1.635473      -223.97149    
     34180  -229.77984      90             90             90            -1.4996332     -12.265576      10.442357     -2.6756804     -229.77984    
     34200  -219.21327      90             90             90            -6.5252968     -12.442302     -0.96634044    -6.1672485     -219.21327    
     34220  -213.73835      90             90             90            -10.337604     -17.309402     -9.7106057     -3.9928043     -213.73835    
     34240  -218.25497      90             90             90            -11.791587     -20.986284     -10.243879     -4.1445976     -218.25497    
     34260  -210.42475      90             90             90            -14.571457     -21.143831     -8.3401847     -14.230355     -210.42475    
     34280  -208.79651      90             90             90            -16.850438     -19.953398     -7.7755891     -22.822326     -208.79651    
     34300  -216.65983      90             90             90            -16.935701     -17.496093     -11.113798     -22.197214     -216.65983    
     34320  -214.75183      90             90             90            -15.695907     -15.510126     -15.637008     -15.940589     -214.75183    
     34340  -220.07196      90             90             90            -10.24046      -7.956224      -13.734947     -9.0302106     -220.07196    
     34360  -224.39401      90             90             90            -1.8458108      5.5282943     -7.8597941     -3.2059326     -224.39401    
     34380  -220.72157      90             90             90             6.0715258      18.066658     -3.4105383      3.558458      -220.72157    
     34400  -225.79515      90             90             90             13.713378      30.01951       0.55685467     10.563769     -225.79515    
     34420  -223.60695      90             90             90             18.878904      33.995683      6.9820521      15.658975     -223.60695    
     34440  -218.4493       90             90             90             21.667404      28.870928      17.735744      18.39554      -218.4493     
     34460  -220.17851      90             90             90             22.288397      24.299543      25.405266      17.160383     -220.17851    
     34480  -221.17936      90             90             90             20.085487      18.279395      25.735478      16.241588     -221.17936    
     34500  -223.23689      90             90             90             16.688999      11.001422      19.512137      19.553438     -223.23689    
     34520  -228.51854      90             90             90             13.734613      6.1452389      10.914727      24.143874     -228.51854    
     34540  -237.31768      90             90             90             10.807859     -0.56051609     8.0777983      24.906294     -237.31768    
     34560  -231.58821      90             90             90             4.5564468     -9.8006104      4.0044369      19.465514     -231.58821    
     34580  -231.59731      90             90             90            -2.8020755     -18.841929     -0.29542441     10.731127     -231.59731    
     34600  -239.40999      90             90             90            -9.8426434     -29.487856     -2.4381471      2.3980726     -239.40999    
     34620  -231.28047      90             90             90            -16.979828     -37.08569      -10.626224     -3.2275716     -231.28047    
     34640  -230.85926      90             90             90            -19.200356     -39.046087     -15.424765     -3.1302148     -230.85926    
     34660  -227.75948      90             90             90            -17.115261     -35.194214     -15.413027     -0.73854171    -227.75948    
     34680  -227.76777      90             90             90            -12.321158     -19.782871     -15.5122       -1.6684046     -227.76777    
     34700  -239.51157      90             90             90            -6.0208296     -4.6820807     -11.967797     -1.4126113     -239.51157    
     34720  -238.58166      90             90             90            -3.0300381     -0.74506407    -10.229608      1.8845581     -238.58166    
     34740  -237.00775      90             90             90            -3.0086998     -1.4273986     -8.3593608      0.76066006    -237.00775    
     34760  -237.89535      90             90             90            -4.218336      -0.84065417    -6.3741414     -5.4402126     -237.89535    
     34780  -233.52173      90             90             90            -5.2295788      5.5700207     -9.1952622     -12.063495     -233.52173    
     34800  -230.28498      90             90             90            -3.1852613      11.981081     -10.490171     -11.046694     -230.28498    
     34820  -228.11017      90             90             90             2.2779183      12.12138      -5.1797577     -0.1078669     -228.11017    
     34840  -231.34187      90             90             90             9.7172504      13.957586      7.8814116      7.312754      -231.34187    
     34860  -232.76382      90             90             90             15.819636      19.992391      18.199972      9.2665453     -232.76382    
     34880  -228.2201       90             90             90             18.835873      26.54785       20.084201      9.8755669     -228.2201     
     34900  -228.37909      90             90             90             20.194568      30.872816      22.188015      7.5228721     -228.37909    
     34920  -232.96233      90             90             90             20.49649       29.31933       23.244187      8.9259529     -232.96233    
     34940  -236.67683      90             90             90             19.796788      21.316707      26.015776      12.057881     -236.67683    
     34960  -232.20164      90             90             90             17.774471      10.898882      32.90326       9.5212727     -232.20164    
     34980  -225.81624      90             90             90             15.259575      3.7547621      36.947578      5.0763848     -225.81624    
     35000  -233.21359      90             90             90             13.824027      1.0702059      36.413969      3.9879064     -233.21359    
     35020  -241.65487      90             90             90             11.48806      -1.2364786      27.690624      8.0100362     -241.65487    
     35040  -237.34975      90             90             90             5.6442366     -7.1240726      12.15294       11.903842     -237.34975    
     35060  -227.54171      90             90             90            -3.24413       -17.40957      -1.993285       9.6704646     -227.54171    
     35080  -228.02579      90             90             90            -11.071256     -23.232585     -10.477465      0.49627966    -228.02579    
     35100  -238.0274       90             90             90            -14.720931     -17.330131     -17.285617     -9.5470459     -238.0274     
     35120  -236.956        90             90             90            -16.015342     -10.442375     -25.752933     -11.850717     -236.956      
     35140  -229.8626       90             90             90            -16.566597     -7.9126877     -31.987959     -9.7991438     -229.8626     
     35160  -229.19586      90             90             90            -16.125168     -4.1354694     -34.713722     -9.526313      -229.19586    
     35180  -232.36909      90             90             90            -14.157069      1.3792776     -29.602628     -14.247856     -232.36909    
     35200  -236.31378      90             90             90            -10.245305      9.4096308     -18.532583     -21.612962     -236.31378    
     35220  -230.91877      90             90             90            -5.2547344      16.02129      -9.7905918     -21.994901     -230.91877    
     35240  -223.30997      90             90             90             0.93319842     18.224232     -2.2875987     -13.137038     -223.30997    
     35260  -227.14715      90             90             90             9.0363645      23.144713      3.3866067      0.57777389    -227.14715    
     35280  -231.8651       90             90             90             17.594397      30.890564      10.482693      11.409934     -231.8651     
     35300  -230.22854      90             90             90             24.787477      35.759366      21.075142      17.527923     -230.22854    
     35320  -225.17537      90             90             90             28.823544      34.252879      29.327318      22.890434     -225.17537    
     35340  -228.03352      90             90             90             29.667541      28.938926      33.551332      26.512366     -228.03352    
     35360  -240.82749      90             90             90             28.109798      26.885063      28.789335      28.654996     -240.82749    
     35380  -235.84529      90             90             90             23.177457      27.925075      18.819402      22.787895     -235.84529    
     35400  -221.12802      90             90             90             18.239046      29.524949      13.521687      11.670502     -221.12802    
     35420  -219.22954      90             90             90             16.709401      28.745685      12.569797      8.8127223     -219.22954    
     35440  -228.26926      90             90             90             16.975218      24.129168      15.129196      11.66729      -228.26926    
     35460  -237.25128      90             90             90             15.049853      16.911679      11.610201      16.627678     -237.25128    
     35480  -227.97748      90             90             90             7.5571742      6.594624      -2.055532       18.132431     -227.97748    
     35500  -218.84333      90             90             90            -0.51387392    -2.8367139     -11.23871       12.533802     -218.84333    
     35520  -223.17334      90             90             90            -5.9542793     -9.9303597     -15.080671      7.1481926     -223.17334    
     35540  -219.18876      90             90             90            -11.389364     -16.625303     -17.602032      0.059243544   -219.18876    
     35560  -223.11427      90             90             90            -15.138878     -20.903244     -17.967276     -6.5461137     -223.11427    
     35580  -232.13645      90             90             90            -17.293007     -18.037482     -21.23956      -12.60198      -232.13645    
     35600  -232.8831       90             90             90            -19.677332     -12.751466     -25.463168     -20.817361     -232.8831     
     35620  -235.67618      90             90             90            -21.358187     -13.983552     -28.848284     -21.242726     -235.67618    
     35640  -232.20516      90             90             90            -23.584533     -17.601135     -34.294807     -18.857656     -232.20516    
     35660  -225.96639      90             90             90            -24.952831     -20.590971     -35.097814     -19.169707     -225.96639    
     35680  -225.67284      90             90             90            -23.082445     -22.115311     -29.107864     -18.024159     -225.67284    
     35700  -221.24438      90             90             90            -19.183343     -20.255791     -21.204002     -16.090238     -221.24438    
     35720  -218.53158      90             90             90            -13.471225     -18.934548     -12.341533     -9.1375944     -218.53158    
     35740  -221.16464      90             90             90            -6.483062      -12.823567     -6.9509601      0.32534143    -221.16464    
     35760  -214.48411      90             90             90            -0.17718663    -6.1878406     -2.4152359      8.0715167     -214.48411    
     35780  -212.60308      90             90             90             7.5039239     -5.1394854      10.615802      17.035455     -212.60308    
     35800  -225.39147      90             90             90             16.907737      3.8349016      24.621337      22.266974     -225.39147    
     35820  -222.34999      90             90             90             22.139312      16.125573      28.126713      22.165648     -222.34999    
     35840  -215.25927      90             90             90             24.021418      21.088076      27.662318      23.313859     -215.25927    
     35860  -213.71959      90             90             90             24.718837      21.686205      26.636197      25.83411      -213.71959    
     35880  -206.57468      90             90             90             23.123692      21.591785      23.186971      24.592321     -206.57468    
     35900  -217.69499      90             90             90             21.008682      23.508893      21.348132      18.169022     -217.69499    
     35920  -223.02755      90             90             90             15.314751      16.769177      19.939299      9.2357769     -223.02755    
     35940  -209.47981      90             90             90             5.5784416      2.4464764      14.533939     -0.24509013    -209.47981    
     35960  -212.36548      90             90             90            -1.469827      -3.7330886      5.2613886     -5.9377811     -212.36548    
     35980  -216.76178      90             90             90            -6.1782345     -7.4257491     -3.822879      -7.2860755     -216.76178    
     36000  -217.89016      90             90             90            -9.4041469     -14.88612      -7.7524874     -5.5738329     -217.89016    
     36020  -218.20099      90             90             90            -11.826861     -19.106163     -11.965921     -4.4084998     -218.20099    
     36040  -209.91697      90             90             90            -15.112123     -17.1655       -19.22254      -8.9483304     -209.91697    
     36060  -212.05288      90             90             90            -16.324534     -12.729038     -23.86173      -12.382834     -212.05288    
     36080  -220.3726       90             90             90            -14.530835     -6.5522641     -25.957903     -11.082337     -220.3726     
     36100  -220.82094      90             90             90            -11.489889      3.3549231     -25.972758     -11.851831     -220.82094    
     36120  -220.07226      90             90             90            -7.4120522      14.165649     -21.374328     -15.027477     -220.07226    
     36140  -225.43274      90             90             90            -2.3426881      21.101978     -12.897772     -15.232271     -225.43274    
     36160  -235.48731      90             90             90             2.7308319      18.824764     -0.4689328     -10.163335     -235.48731    
     36180  -236.28457      90             90             90             5.8947032      13.930597      10.191038     -6.4375252     -236.28457    
     36200  -222.82845      90             90             90             7.0519721      14.13513       14.500637     -7.47985       -222.82845    
     36220  -217.45958      90             90             90             9.196953       16.3286        17.449154     -6.1868953     -217.45958    
     36240  -224.76323      90             90             90             12.101495      17.790902      19.300797     -0.7872141     -224.76323    
     36260  -228.50483      90             90             90             12.760533      11.288368      22.217549      4.7756815     -228.50483    
     36280  -228.34749      90             90             90             11.370739      1.4112013      25.644448      7.0565678     -228.34749    
     36300  -215.97289      90             90             90             7.6655504     -2.7590476      21.511845      4.2438532     -215.97289    
     36320  -211.405        90             90             90             4.2701011     -4.4792493      13.802265      3.4872873     -211.405      
     36340  -220.91006      90             90             90             1.8842758     -7.6541136      5.2478967      8.0590443     -220.91006    
     36360  -210.66514      90             90             90            -3.5928685     -19.723967     -4.6583014      13.603663     -210.66514    
     36380  -211.77913      90             90             90            -8.7453841     -33.38016      -11.195983      18.339991     -211.77913    
     36400  -218.11373      90             90             90            -13.350061     -37.673878     -19.515997      17.139693     -218.11373    
     36420  -207.99345      90             90             90            -18.951925     -37.658097     -29.258656      10.060978     -207.99345    
     36440  -216.50804      90             90             90            -20.673781     -31.986452     -34.969152      4.9342619     -216.50804    
     36460  -210.28903      90             90             90            -22.324035     -27.548473     -40.583953      1.1603206     -210.28903    
     36480  -202.77704      90             90             90            -22.24306      -26.936279     -39.963664      0.17076139    -202.77704    
     36500  -210.73694      90             90             90            -18.355329     -23.589521     -31.598491      0.1220258     -210.73694    
     36520  -208.39066      90             90             90            -13.9374       -16.894629     -21.539125     -3.3784469     -208.39066    
     36540  -226.42429      90             90             90            -6.511134      -6.0598169     -11.541822     -1.9317633     -226.42429    
     36560  -236.60027      90             90             90            -0.17565734     2.1348568     -7.7537816      5.0919528     -236.60027    
     36580  -234.02153      90             90             90             4.0599053      8.1439413     -5.8413066      9.8770811     -234.02153    
     36600  -243.50003      90             90             90             8.2898288      13.224971      0.56905464     11.075461     -243.50003    
     36620  -242.82614      90             90             90             9.6161942      14.557467      8.1143186      6.1767967     -242.82614    
     36640  -244.10673      90             90             90             10.141509      12.943026      16.875578      0.60592351    -244.10673    
     36660  -240.6395       90             90             90             10.275843      5.1515702      21.314443      4.3615151     -240.6395     
     36680  -233.35337      90             90             90             10.254507     -0.38223253     20.233305      10.912449     -233.35337    
     36700  -245.80861      90             90             90             12.170283     -0.81119708     21.439235      15.882812     -245.80861    
     36720  -245.72899      90             90             90             11.599837     -3.1853383      20.57856       17.406288     -245.72899    
     36740  -233.47996      90             90             90             8.4988002     -2.2158461      18.039544      9.6727023     -233.47996    
     36760  -237.28488      90             90             90             6.8599167      3.8920791      17.13669      -0.44901866    -237.28488    
     36780  -240.29112      90             90             90             5.3403757      12.34933       14.349763     -10.677966     -240.29112    
     36800  -235.46069      90             90             90             2.9489345      16.978504      11.017352     -19.149053     -235.46069    
     36820  -234.97487      90             90             90             1.0028368      17.639778      5.1808566     -19.812124     -234.97487    
     36840  -223.0964       90             90             90            -1.6442384      16.856688      0.07210194    -21.861505     -223.0964     
     36860  -217.60037      90             90             90            -1.82426        11.292683      3.2538984     -20.019362     -217.60037    
     36880  -227.78125      90             90             90             1.2057271      9.790027       2.4165856     -8.5894312     -227.78125    
     36900  -214.89206      90             90             90             1.7590445      13.539131     -5.3647633     -2.8972338     -214.89206    
     36920  -210.55557      90             90             90             2.6411396      15.298787     -5.8484843     -1.5268844     -210.55557    
     36940  -210.58674      90             90             90             3.2335756      13.946575     -4.0803207     -0.1655271     -210.58674    
     36960  -204.92672      90             90             90             2.9572931      8.7743089     -1.3414038      1.4389742     -204.92672    
     36980  -219.20653      90             90             90             5.5900785      4.0414479      4.8361723      7.8926152     -219.20653    
     37000  -210.67255      90             90             90             6.0212496     -2.5943202      5.7647498      14.893319     -210.67255    
     37020  -203.13209      90             90             90             6.7117064     -11.39564       9.1561476      22.374612     -203.13209    
     37040  -226.64132      90             90             90             11.026058     -13.737641      17.551777      29.264039     -226.64132    
     37060  -237.06386      90             90             90             13.283969     -11.757795      23.907359      27.702344     -237.06386    
     37080  -229.60387      90             90             90             12.161451     -11.794922      25.126603      23.152672     -229.60387    
     37100  -219.16727      90             90             90             8.6617163     -13.029277      14.26798       24.746447     -219.16727    
     37120  -224.72967      90             90             90             6.2929714     -13.877567      3.6939936      29.062488     -224.72967    
     37140  -233.90616      90             90             90             5.4611458     -18.474555      5.9180523      28.93994      -233.90616    
     37160  -222.68172      90             90             90             4.0052866     -24.351202      11.946247      24.420815     -222.68172    
     37180  -221.20127      90             90             90             5.0233389     -21.120545      14.853725      21.336837     -221.20127    
     37200  -233.93112      90             90             90             7.2200689     -10.28919       11.52332       20.426077     -233.93112    
     37220  -236.39796      90             90             90             7.0148745     -3.664572       7.096178       17.613017     -236.39796    
     37240  -238.42007      90             90             90             4.8981399     -3.4095989      7.0040754      11.099943     -238.42007    
     37260  -239.48479      90             90             90             2.1349403     -2.7740062      4.6213547      4.5574722     -239.48479    
     37280  -232.81433      90             90             90            -0.79138346     1.0993403     -1.3716638     -2.1018269     -232.81433    
     37300  -230.2022       90             90             90            -2.9535728      8.4680833     -6.3587825     -10.970019     -230.2022     
     37320  -231.31918      90             90             90            -4.0196328      19.741689     -11.857746     -19.942842     -231.31918    
     37340  -235.94732      90             90             90            -3.69276        31.29759      -16.822215     -25.553655     -235.94732    
     37360  -236.67482      90             90             90            -3.2559761      33.512965     -15.963892     -27.317        -236.67482    
     37380  -223.67916      90             90             90            -4.961139       23.3242       -14.49962      -23.707996     -223.67916    
     37400  -230.21431      90             90             90            -4.1608162      16.394298     -17.282572     -11.594174     -230.21431    
     37420  -247.44186      90             90             90            -2.0973767      18.266562     -24.33902      -0.2196724     -247.44186    
     37440  -228.86969      90             90             90            -3.0027559      19.158602     -31.4331        3.2662302     -228.86969    
     37460  -224.32181      90             90             90            -0.062932485    16.887444     -26.691927      9.6156857     -224.32181    
     37480  -238.93596      90             90             90             5.8988317      14.726652     -13.179497      16.14934      -238.93596    
     37500  -226.81825      90             90             90             6.8238724      11.022837     -5.0736145      14.522395     -226.81825    
     37520  -207.65901      90             90             90             4.3959209      3.4225318     -3.8205217      13.585753     -207.65901    
     37540  -200.00106      90             90             90             2.2120625     -2.6283418     -5.6656106      14.93014      -200.00106    
     37560  -213.62643      90             90             90             2.5634735     -4.5265102     -4.5579736      16.774904     -213.62643    
     37580  -220.21117      90             90             90             2.3754999     -8.2879305     -2.3350535      17.749484     -220.21117    
     37600  -205.63872      90             90             90            -0.40229707    -14.085179     -0.59574541     13.474033     -205.63872    
     37620  -209.13862      90             90             90            -1.0090797     -15.79225       3.8961934      8.8688179     -209.13862    
     37640  -217.49034      90             90             90            -0.1287498     -9.8429714      5.4285533      4.0281687     -217.49034    
     37660  -209.42464      90             90             90            -0.56945353    -2.4810992      4.935648      -4.1629094     -209.42464    
     37680  -199.09982      90             90             90            -1.4287868     -0.080543264    5.1911124     -9.3969295     -199.09982    
     37700  -203.31243      90             90             90            -1.1089397      0.98938415     5.3572533     -9.6734565     -203.31243    
     37720  -213.33788      90             90             90            -0.2854443      3.6201505      4.9629925     -9.4394759     -213.33788    
     37740  -211.72083      90             90             90             0.057508129    10.205727      0.34621308    -10.379416     -211.72083    
     37760  -210.34958      90             90             90             1.7791491      16.932816     -3.1244062     -8.4709623     -210.34958    
     37780  -213.99589      90             90             90             4.5851193      19.397563     -2.0996523     -3.5425531     -213.99589    
     37800  -213.75409      90             90             90             6.1632861      17.028931     -1.0545193      2.5154462     -213.75409    
     37820  -212.71964      90             90             90             6.1526766      10.218278      0.6608725      7.5788791     -212.71964    
     37840  -222.92526      90             90             90             5.7120712      8.9426119      1.7318081      6.4617938     -222.92526    
     37860  -226.24476      90             90             90             3.1773245      9.1286168     -1.2020318      1.6053884     -226.24476    
     37880  -211.69125      90             90             90            -2.1193868      3.0130411     -6.7759685     -2.5952331     -211.69125    
     37900  -219.69133      90             90             90            -4.4849726      2.1476811     -13.754533     -1.8480662     -219.69133    
     37920  -232.48123      90             90             90            -4.5541664      4.0657016     -19.866423      2.1382222     -232.48123    
     37940  -224.73106      90             90             90            -4.7623786      3.017828      -19.160616      1.8556521     -224.73106    
     37960  -221.3145       90             90             90            -3.0540625      3.1703793     -11.610216     -0.72235056    -221.3145     
     37980  -218.75832      90             90             90            -1.5787533      2.7555761     -3.6872043     -3.8046317     -218.75832    
     38000  -222.49711      90             90             90            -1.2715517     -0.23116295     0.7791322     -4.3626243     -222.49711    
     38020  -220.83249      90             90             90            -3.952176      -7.699289      -2.5015815     -1.6556575     -220.83249    
     38040  -210.5647       90             90             90            -8.3393362     -15.554581     -9.0527302     -0.41069758    -210.5647     
     38060  -218.07396      90             90             90            -9.4490258     -18.109293     -11.326495      1.0887099     -218.07396    
     38080  -221.45914      90             90             90            -9.4448485     -16.743248     -9.4743976     -2.1168997     -221.45914    
     38100  -219.82109      90             90             90            -8.7345975     -12.602184     -4.66671       -8.9348988     -219.82109    
     38120  -225.3767       90             90             90            -6.6258106     -5.1305122     -2.4493845     -12.297535     -225.3767     
     38140  -227.493        90             90             90            -4.5549396      4.3621925     -0.1241378     -17.902873     -227.493      
     38160  -229.88096      90             90             90            -2.4999097      9.9192352      5.2286461     -22.64761      -229.88096    
     38180  -229.92004      90             90             90            -1.7623453      12.390091      6.4366647     -24.113791     -229.92004    
     38200  -228.24631      90             90             90            -2.5038747      13.127671      6.9012592     -27.540554     -228.24631    
     38220  -221.17628      90             90             90            -3.8444323      12.298842      5.8213284     -29.653467     -221.17628    
     38240  -208.10955      90             90             90            -3.6838398      15.888815     -0.4239071     -26.516427     -208.10955    
     38260  -208.55943      90             90             90             0.75928572     21.410138     -3.3579728     -15.774308     -208.55943    
     38280  -215.18407      90             90             90             6.866978       25.38683      -0.48302682    -4.3028696     -215.18407    
     38300  -216.43603      90             90             90             11.480063      24.373785      8.0470277      2.0193764     -216.43603    
     38320  -219.4843       90             90             90             14.11453       16.817143      16.790866      8.7355811     -219.4843     
     38340  -223.38921      90             90             90             15.18641       12.861704      18.814725      13.882802     -223.38921    
     38360  -226.04611      90             90             90             15.982585      12.636074      21.001665      14.310017     -226.04611    
     38380  -226.07428      90             90             90             17.604399      12.389259      23.920495      16.503442     -226.07428    
     38400  -227.38389      90             90             90             20.410738      12.01548       26.588057      22.628677     -227.38389    
     38420  -223.55358      90             90             90             22.322294      11.29625       28.774413      26.896217     -223.55358    
     38440  -217.37023      90             90             90             21.874692      15.184539      22.279217      28.160322     -217.37023    
     38460  -212.65909      90             90             90             18.845756      18.108128      10.905801      27.523339     -212.65909    
     38480  -204.41973      90             90             90             14.172864      14.010047      6.0105111      22.498036     -204.41973    
     38500  -203.33527      90             90             90             10.263253      7.5045745      8.026199       15.258987     -203.33527    
     38520  -210.67691      90             90             90             8.1722206      1.8859968      10.696957      11.933708     -210.67691    
     38540  -216.98038      90             90             90             6.8689224      0.23452175     6.0932042      14.279041     -216.98038    
     38560  -221.50551      90             90             90             5.6234463      2.3491521     -2.8278401      17.349027     -221.50551    
     38580  -215.9236       90             90             90             3.3798521      1.117564      -5.4158602      14.437852     -215.9236     
     38600  -209.43451      90             90             90             1.7189935     -1.3689935     -2.5916575      9.1176314     -209.43451    
     38620  -212.91872      90             90             90             2.0904913     -1.27687       -2.9998326      10.548176     -212.91872    
     38640  -214.40235      90             90             90             2.3726465     -2.4518574     -4.4018809      13.971678     -214.40235    
     38660  -215.44305      90             90             90             2.1088971     -3.9735816     -0.26857162     10.568845     -215.44305    
     38680  -215.3855       90             90             90             1.5798173     -6.6602676      6.9388502      4.4608693     -215.3855     
     38700  -211.084        90             90             90             0.5149921     -8.8784392      10.326763      0.096652674   -211.084      
     38720  -213.46407      90             90             90             0.79683807    -4.2640441      7.3903269     -0.73576855    -213.46407    
     38740  -211.20311      90             90             90             1.7336658     -0.63449271     1.6058442      4.2296458     -211.20311    
     38760  -212.76248      90             90             90             3.0246447      0.054427046   -3.5438608      12.563368     -212.76248    
     38780  -223.26057      90             90             90             4.6394796     -0.96681565    -5.0630366      19.948291     -223.26057    
     38800  -230.87017      90             90             90             5.1963354     -5.7802215     -0.65809144     22.027319     -230.87017    
     38820  -237.6661       90             90             90             5.0397885     -7.7525763      1.5636397      21.308302     -237.6661     
     38840  -232.59925      90             90             90             3.1093629     -9.1452884     -3.6825668      22.155944     -232.59925    
     38860  -228.71922      90             90             90             1.8099677     -5.5022574     -7.2180978      18.150258     -228.71922    
     38880  -232.10744      90             90             90             2.5927121      4.7294303     -5.128163       8.176869      -232.10744    
     38900  -225.75161      90             90             90             3.6057254      7.7798222     -0.66396533     3.7013193     -225.75161    
     38920  -227.96582      90             90             90             6.6278418      10.026406      1.8837472      7.9733723     -227.96582    
     38940  -231.67011      90             90             90             8.759439       15.286367      1.0232399      9.9687104     -231.67011    
     38960  -220.45854      90             90             90             5.9938158      17.196084     -3.6241065      4.4094699     -220.45854    
     38980  -219.07771      90             90             90             1.6385916      18.096461     -11.27711      -1.9035761     -219.07771    
     39000  -223.68331      90             90             90            -2.537204       10.7954       -14.076163     -4.3308493     -223.68331    
     39020  -220.20032      90             90             90            -5.9316132      0.082257705   -15.006184     -2.8709133     -220.20032    
     39040  -222.32089      90             90             90            -5.7067141     -2.1507966     -15.603178      0.63383243    -222.32089    
     39060  -230.34052      90             90             90            -2.3553435      0.90091284    -11.466915      3.4999719     -230.34052    
     39080  -238.80686      90             90             90             2.034723       6.5524696     -4.7675902      4.3192898     -238.80686    
     39100  -246.76691      90             90             90             5.5874014      6.0765567      8.2560023      2.4296453     -246.76691    
     39120  -236.08983      90             90             90             5.1284027     -1.3935207      18.764681     -1.9859523     -236.08983    
     39140  -224.11529      90             90             90             2.613042      -4.8199349      17.565771     -4.9067097     -224.11529    
     39160  -227.80146      90             90             90             1.0777533     -6.0610755      12.943156     -3.64882       -227.80146    
     39180  -221.21902      90             90             90            -1.1518683     -7.8289007      9.2236513     -4.8503553     -221.21902    
     39200  -216.07472      90             90             90            -2.0155801     -4.9266267      8.9179454     -10.038059     -216.07472    
     39220  -217.11069      90             90             90            -0.70116646     1.2625555      6.3733044     -9.7393592     -217.11069    
     39240  -215.00863      90             90             90             0.81341868     4.6714909      2.6959259     -4.9271608     -215.00863    
     39260  -217.10426      90             90             90             2.018695       5.0473448      3.0076134     -1.9988733     -217.10426    
     39280  -219.93803      90             90             90             1.5848409      7.6687845     -1.5526537     -1.3616082     -219.93803    
     39300  -218.01237      90             90             90            -1.3465953      8.0211498     -9.8180686     -2.2428673     -218.01237    
     39320  -212.22346      90             90             90            -4.8022688      1.8460995     -14.829216     -1.4236895     -212.22346    
     39340  -219.07816      90             90             90            -5.7318155     -3.135477      -12.850179     -1.2097902     -219.07816    
     39360  -224.6532       90             90             90            -5.1012278     -4.3086288     -8.4941657     -2.5008888     -224.6532     
     39380  -222.54703      90             90             90            -3.4432884     -2.3755948     -7.104034      -0.85023647    -222.54703    
     39400  -227.9243       90             90             90             0.53879988     4.3689639     -2.5796515     -0.1729128     -227.9243     
     39420  -222.99988      90             90             90             2.6264208      10.456326      0.4880825     -3.065146      -222.99988    
     39440  -220.94345      90             90             90             3.1922342      14.09119       1.0659542     -5.5804415     -220.94345    
     39460  -227.1345       90             90             90             2.0504521      15.724569      1.0576852     -10.630898     -227.1345     
     39480  -219.7282       90             90             90            -2.2289912      11.982009     -4.1439672     -14.525016     -219.7282     
     39500  -219.96205      90             90             90            -4.7733726      6.3116147     -6.2072662     -14.424466     -219.96205    
     39520  -226.54135      90             90             90            -4.9831651      1.7414287     -1.6800746     -15.010849     -226.54135    
     39540  -228.19422      90             90             90            -5.0757594     -3.6465066      3.1649562     -14.745728     -228.19422    
     39560  -228.03299      90             90             90            -4.9049004     -4.5733086      2.6378008     -12.779193     -228.03299    
     39580  -228.17243      90             90             90            -4.0331783     -1.8037546     -2.6063954     -7.6893851     -228.17243    
     39600  -226.30698      90             90             90            -3.2449144     -1.2821067     -7.8475256     -0.60511078    -226.30698    
     39620  -230.62096      90             90             90            -2.3539093      3.572201      -12.183751      1.5498221     -230.62096    
     39640  -237.81729      90             90             90            -1.8520901      4.6143047     -11.138177      0.96760218    -237.81729    
     39660  -231.06328      90             90             90            -3.6351788     -1.8946281     -7.9077824     -1.103126      -231.06328    
     39680  -232.36253      90             90             90            -4.5891778     -2.2209615     -7.3066539     -4.2399181     -232.36253    
     39700  -238.04084      90             90             90            -4.7450175     -4.4158445     -6.517051      -3.3021571     -238.04084    
     39720  -229.47089      90             90             90            -6.466396      -9.7231666     -7.8851201     -1.7909014     -229.47089    
     39740  -233.08071      90             90             90            -5.9672396     -10.624867     -8.7368581      1.4600058     -233.08071    
     39760  -238.84465      90             90             90            -4.3252013     -11.743965     -7.927273       6.6956339     -238.84465    
     39780  -236.7617       90             90             90            -3.2760035     -8.8020716     -9.07015        8.044211      -236.7617     
     39800  -238.9105       90             90             90            -1.8746237     -5.7547663     -10.21747       10.348365     -238.9105     
     39820  -237.79211      90             90             90            -1.4946894     -7.2291152     -10.833417      13.578464     -237.79211    
     39840  -235.35928      90             90             90            -1.4807489     -7.5743059     -10.889335      14.021395     -235.35928    
     39860  -234.3611       90             90             90            -0.67259214    -7.1563316     -11.089675      16.22823      -234.3611     
     39880  -236.12162      90             90             90             1.3170708     -5.6136621     -9.2311745      18.796049     -236.12162    
     39900  -235.6125       90             90             90             3.7975967     -4.2528754     -3.0804832      18.726149     -235.6125     
     39920  -233.84171      90             90             90             5.4531351     -1.2804339      0.67526207     16.964577     -233.84171    
     39940  -236.36409      90             90             90             5.1368796      5.0844814     -2.7508629      13.07702      -236.36409    
     39960  -238.13236      90             90             90             2.2585071      6.9079577     -8.5691813      8.436745      -238.13236    
     39980  -235.30792      90             90             90            -2.3153821      2.5443743     -12.086721      2.5962001     -235.30792    
     40000  -227.54804      90             90             90            -7.0105469     -2.3934525     -11.305235     -7.332953      -227.54804    
     40020  -225.51228      90             90             90            -9.4927229     -4.9095584     -4.5399579     -19.028653     -225.51228    
     40040  -236.69728      90             90             90            -8.8938524     -3.517661       2.6479709     -25.811867     -236.69728    
     40060  -242.53435      90             90             90            -7.5216865     -1.7376818      2.6765087     -23.503886     -242.53435    
     40080  -230.70029      90             90             90            -5.8297983     -0.59412774    -1.2187571     -15.67651      -230.70029    
     40100  -228.72843      90             90             90            -0.64719805     4.1669295     -0.80814132    -5.3003824     -228.72843    
     40120  -237.72203      90             90             90             5.7835457      11.128976      3.0813338      3.1403271     -237.72203    
     40140  -231.22973      90             90             90             8.2314848      19.404614      3.0195195      2.2703205     -231.22973    
     40160  -226.92504      90             90             90             8.6786973      24.832957      1.1778227      0.025312117   -226.92504    
     40180  -231.17909      90             90             90             8.2579854      21.698318     -0.3423556      3.4179936     -231.17909    
     40200  -232.63943      90             90             90             6.892921       16.430065     -1.6692919      5.9179903     -232.63943    
     40220  -236.69797      90             90             90             6.5139049      10.728665      4.7338625      4.0791873     -236.69797    
     40240  -234.70982      90             90             90             6.2808255      5.953392       13.885902     -0.99681765    -234.70982    
     40260  -236.95281      90             90             90             6.4134716      6.5193228      13.889809     -1.1687167     -236.95281    
     40280  -244.69099      90             90             90             5.9603899      5.4801276      5.126084       7.2749583     -244.69099    
     40300  -245.54934      90             90             90             3.8600275      5.7226499     -7.5823238      13.439756     -245.54934    
     40320  -247.54822      90             90             90             0.91728331     6.1766504     -14.748105      11.323305     -247.54822    
     40340  -243.01701      90             90             90            -3.3004402     -0.17654681    -14.378738      4.6539638     -243.01701    
     40360  -237.359        90             90             90            -6.3639252     -1.6269088     -15.019414     -2.4454526     -237.359      
     40380  -236.80568      90             90             90            -5.6780785      2.9022411     -16.697926     -3.2385506     -236.80568    
     40400  -241.2603       90             90             90            -1.1869585      7.9698644     -15.355471      3.8247308     -241.2603     
     40420  -248.34934      90             90             90             3.49763        14.023333     -12.75662       9.2261768     -248.34934    
     40440  -239.24358      90             90             90             4.1180708      13.349603     -11.076787      10.081396     -239.24358    
     40460  -234.07093      90             90             90             3.5717058      9.3590168     -6.9924782      8.3485787     -234.07093    
     40480  -246.35548      90             90             90             4.0818911      7.8759697     -0.33384529     4.7035488     -246.35548    
     40500  -238.76328      90             90             90             2.2081722      2.9722009      2.3396846      1.3126312     -238.76328    
     40520  -227.63421      90             90             90             1.8090593      0.81550835     3.9569429      0.65472659    -227.63421    
     40540  -237.93438      90             90             90             6.6016433      4.4426347      11.967053      3.3952418     -237.93438    
     40560  -239.93949      90             90             90             11.683609      6.8793065      20.388103      7.7834177     -239.93949    
     40580  -230.89148      90             90             90             14.509752      11.051085      21.127266      11.350907     -230.89148    
     40600  -219.66613      90             90             90             14.698695      13.125429      19.199937      11.77072      -219.66613    
     40620  -206.23694      90             90             90             12.186864      9.0610781      18.983058      8.5164547     -206.23694    
     40640  -213.13789      90             90             90             11.387646      8.9869437      18.677041      6.4989528     -213.13789    
     40660  -220.09519      90             90             90             11.047754      11.855049      16.202317      5.0858945     -220.09519    
     40680  -210.00038      90             90             90             9.2858072      12.952528      10.335832      4.5690617     -210.00038    
     40700  -218.91972      90             90             90             10.375559      13.809963      6.7522078      10.564505     -218.91972    
     40720  -226.84754      90             90             90             11.338329      7.9851412      11.248352      14.781494     -226.84754    
     40740  -228.12067      90             90             90             10.428952      0.78489992     18.341222      12.160735     -228.12067    
     40760  -233.58679      90             90             90             8.0704038     -1.030732       16.695697      8.5462467     -233.58679    
     40780  -220.54176      90             90             90             1.3561386     -4.7427082      5.9676416      2.8434824     -220.54176    
     40800  -222.62976      90             90             90            -4.6120042     -8.3175884     -1.8557153     -3.6627089     -222.62976    
     40820  -229.35538      90             90             90            -9.254276      -13.895548     -4.8107912     -9.0564891     -229.35538    
     40840  -217.46228      90             90             90            -14.47472      -20.44907      -6.8601471     -16.114942     -217.46228    
     40860  -217.37669      90             90             90            -16.150625     -17.096749     -8.8434081     -22.511717     -217.37669    
     40880  -211.52892      90             90             90            -17.558461     -12.801887     -11.32188      -28.551615     -211.52892    
     40900  -215.22238      90             90             90            -18.468396     -10.575904     -12.521007     -32.308276     -215.22238    
     40920  -226.78496      90             90             90            -18.641013     -10.726826     -14.484255     -30.711957     -226.78496    
     40940  -214.37245      90             90             90            -19.748153     -16.305225     -11.136713     -31.802521     -214.37245    
     40960  -227.88838      90             90             90            -14.733675     -12.606022      0.44175814    -32.036762     -227.88838    
     40980  -244.4185       90             90             90            -6.8239876      0.57885122     5.1883506     -26.239164     -244.4185     
     41000  -239.21069      90             90             90            -0.19116818     10.855153      6.7642641     -18.192922     -239.21069    
     41020  -241.23544      90             90             90             7.3411317      13.302979      13.392098     -4.6716816     -241.23544    
     41040  -218.75888      90             90             90             10.925273      8.0664535      18.548521      6.1608448     -218.75888    
     41060  -210.9188       90             90             90             13.604822      4.5305087      24.781935      11.502023     -210.9188     
     41080  -221.75889      90             90             90             17.33724       5.8896992      28.717007      17.405014     -221.75889    
     41100  -206.80255      90             90             90             17.075086      7.916167       25.325889      17.983201     -206.80255    
     41120  -209.65636      90             90             90             18.031607      7.9736221      23.590666      22.530534     -209.65636    
     41140  -220.68449      90             90             90             19.04424       3.8812815      21.203145      32.048293     -220.68449    
     41160  -214.33147      90             90             90             17.653084      1.4591561      19.428867      32.071229     -214.33147    
     41180  -226.59654      90             90             90             18.15889       5.2099828      22.631508      26.63518      -226.59654    
     41200  -226.33507      90             90             90             15.556567      9.9123592      20.743191      16.014149     -226.33507    
     41220  -219.27181      90             90             90             9.7353468      7.9584188      15.100051      6.1475705     -219.27181    
     41240  -232.84361      90             90             90             4.9291815      3.0468607      7.8505586      3.8901251     -232.84361    
     41260  -224.83708      90             90             90            -1.9286339     -0.84397387    -2.3781387     -2.5637892     -224.83708    
     41280  -217.52284      90             90             90            -6.7645011     -4.1070369     -6.9341318     -9.2523345     -217.52284    
     41300  -225.79825      90             90             90            -7.5122224     -3.3665755     -8.8791795     -10.290912     -225.79825    
     41320  -216.68499      90             90             90            -9.2342823     -6.9851642     -10.862053     -9.8556298     -216.68499    
     41340  -217.47041      90             90             90            -8.6363166     -11.701557     -7.2486214     -6.9587711     -217.47041    
     41360  -222.1673       90             90             90            -6.2936556     -7.4500383     -2.0648308     -9.3660975     -222.1673     
     41380  -213.28534      90             90             90            -5.5251495     -4.1124139      3.0528495     -15.515884     -213.28534    
     41400  -213.14958      90             90             90            -4.6369287     -3.3653267      5.0230132     -15.568473     -213.14958    
     41420  -214.23714      90             90             90            -3.6842826     -5.0424942      4.2785012     -10.288855     -214.23714    
     41440  -228.816        90             90             90            -0.19673524    -9.9919891      9.1355066      0.26627677    -228.816      
     41460  -239.83144      90             90             90             4.164072      -8.3281809      13.24509       7.5753069     -239.83144    
     41480  -231.84226      90             90             90             7.0367109     -1.0595252      13.074844      9.0948144     -231.84226    
     41500  -237.41447      90             90             90             11.220503      7.4332699      12.904183      13.324057     -237.41447    
     41520  -233.5201       90             90             90             12.924075      11.104189      12.279483      15.388553     -233.5201     
     41540  -231.79163      90             90             90             12.251943      7.4566388      14.801589      14.497602     -231.79163    
     41560  -231.58944      90             90             90             10.741196      3.3159857      16.643348      12.264254     -231.58944    
     41580  -216.69555      90             90             90             7.4479415      1.8973032      11.751454      8.6950674     -216.69555    
     41600  -229.41206      90             90             90             8.5133737      5.3051954      7.3204946      12.914431     -229.41206    
     41620  -234.24084      90             90             90             9.7931023      8.4523714      4.5357514      16.391184     -234.24084    
     41640  -223.36727      90             90             90             9.7959645      8.3904838      3.7106476      17.286762     -223.36727    
     41660  -238.82497      90             90             90             12.065944      11.788786      5.6382668      18.770781     -238.82497    
     41680  -237.60706      90             90             90             9.3564226      14.024313      5.3792494      8.6657053     -237.60706    
     41700  -227.22269      90             90             90             2.8655288      15.301318     -2.2034344     -4.5012973     -227.22269    
     41720  -230.16438      90             90             90            -2.665664       15.347271     -14.702434     -8.6418292     -230.16438    
     41740  -228.41075      90             90             90            -8.9175213      5.2325973     -22.722838     -9.2623229     -228.41075    
     41760  -231.52025      90             90             90            -13.533601     -6.4455956     -21.822515     -12.332691     -231.52025    
     41780  -236.40577      90             90             90            -15.695563     -9.5253943     -18.910426     -18.65087      -236.40577    
     41800  -232.0228       90             90             90            -16.69226      -3.9919643     -21.468509     -24.616308     -232.0228     
     41820  -228.93947      90             90             90            -15.442962      2.0746213     -25.355531     -23.047976     -228.93947    
     41840  -234.57858      90             90             90            -12.1906        3.0899611     -25.193824     -14.467938     -234.57858    
     41860  -235.32008      90             90             90            -9.8965896      2.4825344     -18.78173      -13.390573     -235.32008    
     41880  -231.65961      90             90             90            -8.9612191     -0.49780911    -6.9611782     -19.42467      -231.65961    
     41900  -231.5949       90             90             90            -6.8832982     -3.5135036      2.5965855     -19.732976     -231.5949     
     41920  -235.15863      90             90             90            -2.3893643     -4.7308468      9.2336451     -11.670891     -235.15863    
     41940  -236.77858      90             90             90             3.7338411     -6.1674593      14.707684      2.6612989     -236.77858    
     41960  -235.78767      90             90             90             10.586589     -3.4637646      18.037538      17.185994     -235.78767    
     41980  -236.52449      90             90             90             16.035637      2.9073331      22.051351      23.148226     -236.52449    
     42000  -235.0987       90             90             90             18.771451      10.267761      24.966345      21.080245     -235.0987     
     42020  -247.33786      90             90             90             21.484979      15.832665      28.155656      20.466614     -247.33786    
     42040  -249.21204      90             90             90             21.88903       12.03635       28.006333      25.624407     -249.21204    
     42060  -230.21861      90             90             90             18.907322      4.0621931      23.783839      28.875934     -230.21861    
     42080  -241.85508      90             90             90             18.220351      1.1622698      25.270614      28.22817      -241.85508    
     42100  -239.44153      90             90             90             15.143761      2.6660045      21.158643      21.606635     -239.44153    
     42120  -222.70819      90             90             90             11.166003      7.6510607      13.570686      12.276261     -222.70819    
     42140  -231.23693      90             90             90             10.581953      10.474862      8.8708994      12.400097     -231.23693    
     42160  -220.0178       90             90             90             6.7145507      6.9241971     -0.071986736    13.291442     -220.0178     
     42180  -223.48871      90             90             90             3.1605754      2.8862483     -1.6813445      8.2768225     -223.48871    
     42200  -231.60966      90             90             90             0.26150048     0.73794175    -1.3920236      1.4385833     -231.60966    
     42220  -226.33401      90             90             90            -3.2715019      1.258032      -5.3159177     -5.7566201     -226.33401    
     42240  -239.79889      90             90             90            -3.1329671      2.4410205     -6.4791539     -5.3607678     -239.79889    
     42260  -235.5276       90             90             90            -4.2990927      1.1484087     -11.348523     -2.6971641     -235.5276     
     42280  -229.59557      90             90             90            -6.4807118      1.7857237     -13.084663     -8.1431957     -229.59557    
     42300  -234.85978      90             90             90            -8.3764929      3.1467804     -16.08         -12.196259     -234.85978    
     42320  -230.83765      90             90             90            -10.639939      0.052586908   -21.960089     -10.012314     -230.83765    
     42340  -235.7587       90             90             90            -9.5398237     -4.8052886     -17.850068     -5.9641145     -235.7587     
     42360  -238.21303      90             90             90            -7.5085962     -9.0599807     -12.892802     -0.57300602    -238.21303    
     42380  -243.07019      90             90             90            -5.7303803     -10.206555     -7.3763225      0.3917361     -243.07019    
     42400  -245.38425      90             90             90            -4.5812118     -5.5572375     -0.16386237    -8.0225356     -245.38425    
     42420  -234.47076      90             90             90            -4.4146048      2.0372881      2.9496922     -18.230795     -234.47076    
     42440  -238.60413      90             90             90            -1.239894       6.8316927      7.4359566     -17.987331     -238.60413    
     42460  -244.97705      90             90             90             2.3954978      5.0050509      10.518567     -8.3371241     -244.97705    
     42480  -236.33649      90             90             90             3.2127379      2.3127826      13.199441     -5.8740098     -236.33649    
     42500  -240.41667      90             90             90             5.0956442      7.3614112      17.596002     -9.6704809     -240.41667    
     42520  -248.81553      90             90             90             7.7831852      14.843001      16.95584      -8.4492859     -248.81553    
     42540  -245.8493       90             90             90             9.598009       16.821101      15.277606     -3.3046804     -245.8493     
     42560  -257.24007      90             90             90             12.665013      15.629642      17.677296      4.6881014     -257.24007    
     42580  -254.80372      90             90             90             12.237551      12.505253      19.083726      5.1236756     -254.80372    
     42600  -246.80118      90             90             90             9.3996468      8.9223221      19.920177     -0.64355831    -246.80118    
     42620  -265.84429      90             90             90             9.2805646      9.5628494      19.106808     -0.8279632     -265.84429    
     42640  -260.8493       90             90             90             6.9295572      9.9865356      9.5767468      1.2253891     -260.8493     
     42660  -253.42528      90             90             90             4.9568168      8.4248122     -0.53418202     6.9798201     -253.42528    
     42680  -258.78901      90             90             90             3.7135334      6.3573325     -3.7196887      8.5029565     -258.78901    
     42700  -244.44163      90             90             90            -0.5304676      1.1507302     -3.5548847      0.81275165    -244.44163    
     42720  -249.04847      90             90             90            -2.7787303      0.55004605    -1.7818638     -7.1043731     -249.04847    
     42740  -246.70079      90             90             90            -5.723613       1.2836226     -3.8053848     -14.649077     -246.70079    
     42760  -240.26093      90             90             90            -8.8910686     -3.957102      -6.3069877     -16.409116     -240.26093    
     42780  -253.58906      90             90             90            -9.2918219     -6.9536115     -4.8469527     -16.074901     -253.58906    
     42800  -248.72532      90             90             90            -10.885015     -8.4986978     -4.6030342     -19.553312     -248.72532    
     42820  -248.70613      90             90             90            -11.224739     -9.1726414     -5.8174255     -18.684152     -248.70613    
     42840  -241.25246      90             90             90            -12.414391     -10.178805     -11.209769     -15.8546       -241.25246    
     42860  -233.29266      90             90             90            -12.908142     -13.924715     -11.943608     -12.856102     -233.29266    
     42880  -243.2624       90             90             90            -10.26174      -10.233173     -3.4620036     -17.090045     -243.2624     
     42900  -235.05669      90             90             90            -8.6627474      0.63980672     1.7573612     -28.38541      -235.05669    
     42920  -240.08292      90             90             90            -4.6328969      9.381684       5.5332198     -28.813595     -240.08292    
     42940  -241.42749      90             90             90            -0.49392313     11.282323      6.0465797     -18.810673     -241.42749    
     42960  -224.72214      90             90             90             1.5102428      7.7155332     -0.14675547    -3.0380494     -224.72214    
     42980  -233.64291      90             90             90             5.8999142      8.4856215     -2.4366048      11.650726     -233.64291    
     43000  -229.64007      90             90             90             7.8323486      14.098814     -3.3624147      12.760646     -229.64007    
     43020  -215.81162      90             90             90             8.7185569      18.188767     -3.7653923      11.732296     -215.81162    
     43040  -228.15138      90             90             90             12.334585      16.124145      0.98532261     19.894288     -228.15138    
     43060  -222.03457      90             90             90             12.302674      3.135023       6.2965371      27.476463     -222.03457    
     43080  -218.16021      90             90             90             11.774149     -7.6370711      13.086877      29.872642     -218.16021    
     43100  -233.37092      90             90             90             14.644859     -4.6617901      19.668012      28.928354     -233.37092    
     43120  -220.63569      90             90             90             11.74986      -4.567215       19.528797      20.287998     -220.63569    
     43140  -212.74174      90             90             90             8.611893      -4.4250766      17.448909      12.811846     -212.74174    
     43160  -220.75772      90             90             90             6.0175651     -7.4378431      14.016886      11.473653     -220.75772    
     43180  -209.46157      90             90             90             0.55889758    -17.944622      9.3768187      10.244496     -209.46157    
     43200  -221.2049       90             90             90            -2.2170307     -22.752283      11.149655      4.9515359     -221.2049     
     43220  -225.76249      90             90             90            -3.8409932     -22.490983      16.085745     -5.1177411     -225.76249    
     43240  -222.96125      90             90             90            -4.8268941     -21.9764        19.542649     -12.046932     -222.96125    
     43260  -238.45061      90             90             90            -3.1178344     -19.132105      17.964785     -8.1861833     -238.45061    
     43280  -233.67416      90             90             90            -3.1495071     -17.338373      11.842024     -3.9521715     -233.67416    
     43300  -237.28579      90             90             90            -1.5489031     -9.3089283      10.552828     -5.8906091     -237.28579    
     43320  -245.77803      90             90             90             1.3931826      1.0147651      11.629734     -8.4649514     -245.77803    
     43340  -240.94451      90             90             90             2.7343432      4.0732429      10.712596     -6.5828091     -240.94451    
     43360  -244.59443      90             90             90             3.5742282      4.5610514      6.57061       -0.40897672    -244.59443    
     43380  -238.19588      90             90             90             1.9067712      2.0767863     -1.5769378      5.220465      -238.19588    
     43400  -241.82757      90             90             90             0.92338802     0.70870375    -6.3316688      8.3931291     -241.82757    
     43420  -245.30925      90             90             90            -1.5923565      2.9745388     -12.402343      4.6507346     -245.30925    
     43440  -230.21119      90             90             90            -6.6910147      5.4232362     -21.507503     -3.9887773     -230.21119    
     43460  -237.46484      90             90             90            -7.8481672      7.74214       -24.701853     -6.5847881     -237.46484    
     43480  -235.77801      90             90             90            -7.426292       6.3352112     -26.271701     -2.3423864     -235.77801    
     43500  -232.70144      90             90             90            -4.6644181      6.5760268     -24.178597      3.6093161     -232.70144    
     43520  -245.14263      90             90             90             1.7561592      12.951567     -15.061797      7.3787074     -245.14263    
     43540  -236.68108      90             90             90             4.8480843      16.063136     -8.9178979      7.3990145     -236.68108    
     43560  -234.05845      90             90             90             6.0315657      15.732229     -7.5220292      9.8844975     -234.05845    
     43580  -236.86819      90             90             90             6.4695687      14.629727     -9.4887089      14.267688     -236.86819    
     43600  -223.24832      90             90             90             4.7511426      12.588811     -12.34731       14.011927     -223.24832    
     43620  -219.73612      90             90             90             5.1658091      11.188407     -8.1532125      12.462233     -219.73612    
     43640  -224.40476      90             90             90             7.2776771      9.6732465     -1.8344057      13.99419      -224.40476    
     43660  -219.47189      90             90             90             7.2242992      7.3836379     -1.7423849      16.031645     -219.47189    
     43680  -216.85907      90             90             90             5.4959697      3.2935331     -2.2460843      15.44046      -216.85907    
     43700  -222.30549      90             90             90             4.4901673      1.9686025     -0.76624831     12.268148     -222.30549    
     43720  -218.33051      90             90             90             3.3241846      2.075382      -0.56284218     8.460014      -218.33051    
     43740  -223.97532      90             90             90             3.92487        3.1331282     -0.79041612     9.431898      -223.97532    
     43760  -234.12801      90             90             90             3.8597066      7.1972646     -5.0881914      9.4700467     -234.12801    
     43780  -221.03928      90             90             90             0.53586366     7.086961      -8.7568311      3.2774611     -221.03928    
     43800  -227.2469       90             90             90             0.63973876     6.8607584     -6.7435723      1.8020302     -227.2469     
     43820  -230.3067       90             90             90             1.1734246      6.7743146     -5.3936898      2.139649      -230.3067     
     43840  -213.52935      90             90             90            -0.28207127     3.9200082     -4.5683355     -0.19788653    -213.52935    
     43860  -215.9595       90             90             90            -0.50429434     2.1533856     -6.1215817      2.4553131     -215.9595     
     43880  -218.07033      90             90             90            -2.9149745     -4.2631418     -8.7154315      4.2336499     -218.07033    
     43900  -223.0865       90             90             90            -4.2560703     -10.922907     -3.7929684      1.9476649     -223.0865     
     43920  -225.78642      90             90             90            -4.30701       -14.180703      1.2516069      0.0080662556  -225.78642    
     43940  -214.9885       90             90             90            -6.0727582     -16.687281      1.556132      -3.0871259     -214.9885     
     43960  -222.50864      90             90             90            -6.4886431     -14.783755      0.83754085    -5.5197152     -222.50864    
     43980  -234.71628      90             90             90            -5.6937769     -15.236018      3.9325231     -5.777836      -234.71628    
     44000  -241.90844      90             90             90            -3.9800529     -16.189718      9.1797271     -4.9301676     -241.90844    
     44020  -235.45891      90             90             90            -3.0015764     -12.789045      10.927213     -7.1428966     -235.45891    
     44040  -223.01122      90             90             90            -2.8292919     -9.8022532      13.099059     -11.784682     -223.01122    
     44060  -237.31421      90             90             90             0.31358488    -5.3443462      16.858236     -10.573135     -237.31421    
     44080  -238.42237      90             90             90             1.9801051     -4.5589548      17.967499     -7.4682283     -238.42237    
     44100  -225.81592      90             90             90             2.3129108     -5.78993        19.244769     -6.5161068     -225.81592    
     44120  -232.07034      90             90             90             7.1822214      1.4514937      20.963853     -0.86868258    -232.07034    
     44140  -236.92862      90             90             90             12.443624      8.5790557      22.133016      6.6187988     -236.92862    
     44160  -242.42807      90             90             90             16.97425       12.117659      25.67997       13.125123     -242.42807    
     44180  -240.87087      90             90             90             19.651143      16.595503      29.102452      13.255474     -240.87087    
     44200  -228.27245      90             90             90             20.050923      19.094044      30.363365      10.695359     -228.27245    
     44220  -240.04129      90             90             90             21.971778      22.739996      29.89275       13.282589     -240.04129    
     44240  -251.46163      90             90             90             21.329819      27.401829      23.001122      13.586507     -251.46163    
     44260  -237.65732      90             90             90             15.289144      28.016344      12.368168      5.4829192     -237.65732    
     44280  -230.78657      90             90             90             9.0961695      25.770322      4.9857692     -3.4675831     -230.78657    
     44300  -236.39729      90             90             90             4.861685       20.34575      -0.86846792    -4.8922273     -236.39729    
     44320  -232.85193      90             90             90             1.1263174      13.780054     -7.2096077     -3.1914942     -232.85193    
     44340  -224.90518      90             90             90            -2.7469711      8.6187855     -12.309843     -4.5498553     -224.90518    
     44360  -229.57398      90             90             90            -5.1954244      2.5082019     -12.812971     -5.2815046     -229.57398    
     44380  -231.46991      90             90             90            -7.6899283     -5.9046447     -12.112432     -5.0527077     -231.46991    
     44400  -227.41251      90             90             90            -10.189514     -15.656041     -14.933957      0.021456498   -227.41251    
     44420  -234.60514      90             90             90            -10.892228     -22.827984     -17.400443      7.5517423     -234.60514    
     44440  -228.45077      90             90             90            -13.777856     -26.383097     -20.730963      5.7804932     -228.45077    
     44460  -224.17339      90             90             90            -16.17275      -32.324528     -20.175651      3.9819279     -224.17339    
     44480  -231.10033      90             90             90            -15.773392     -35.736886     -13.688037      2.1047457     -231.10033    
     44500  -227.5893       90             90             90            -14.185934     -30.848945     -8.8430724     -2.8657857     -227.5893     
     44520  -233.00858      90             90             90            -10.077606     -27.447676     -4.8386341      2.0534933     -233.00858    
     44540  -224.19932      90             90             90            -6.9473953     -24.553343     -4.3129237      8.0240812     -224.19932    
     44560  -218.5173       90             90             90            -2.98597       -18.096491     -3.082309       12.22089      -218.5173     
     44580  -239.96079      90             90             90             3.9665435     -10.570785      4.6438075      17.826608     -239.96079    
     44600  -242.83156      90             90             90             8.4862759     -2.4660269      10.833399      17.091455     -242.83156    
     44620  -240.42049      90             90             90             12.057994      0.18627037     17.725963      18.26175      -240.42049    
     44640  -235.36704      90             90             90             14.677094      1.5080981      21.593628      20.929554     -235.36704    
     44660  -239.4816       90             90             90             17.681706      8.6970648      18.605261      25.742791     -239.4816     
     44680  -254.18143      90             90             90             20.947432      15.847426      15.980239      31.014631     -254.18143    
     44700  -242.00249      90             90             90             19.521369      21.033757      13.394525      24.135823     -242.00249    
     44720  -245.87708      90             90             90             17.929264      23.411094      14.279208      16.097491     -245.87708    
     44740  -252.02214      90             90             90             14.132211      21.84038       13.981928      6.5743253     -252.02214    
     44760  -242.40497      90             90             90             7.7717523      18.456647      8.0327276     -3.1741175     -242.40497    
     44780  -255.73876      90             90             90             6.285412       16.409691      6.5918781     -4.1453327     -255.73876    
     44800  -252.77846      90             90             90             4.5894572      17.436522      6.0542387     -9.7223897     -252.77846    
     44820  -247.35213      90             90             90             4.1699637      18.823991      4.5177649     -10.831865     -247.35213    
     44840  -258.14427      90             90             90             5.1356358      21.003206      1.0176718     -6.6139707     -258.14427    
     44860  -238.16341      90             90             90             1.0797235      19.169139     -6.9348752     -8.9950937     -238.16341    
     44880  -241.66331      90             90             90            -2.3513407      11.385506     -9.8678552     -8.5716731     -241.66331    
     44900  -247.65629      90             90             90            -6.6808775      5.0348507     -13.551943     -11.52554      -247.65629    
     44920  -230.2604       90             90             90            -13.9912       -0.034692101   -20.777223     -21.161684     -230.2604     
     44940  -238.92369      90             90             90            -18.604251     -3.6061873     -21.301603     -30.904964     -238.92369    
     44960  -232.81208      90             90             90            -23.783993     -8.8240915     -24.670388     -37.8575       -232.81208    
     44980  -227.01413      90             90             90            -25.732947     -16.301454     -27.524422     -33.372966     -227.01413    
     45000  -236.51985      90             90             90            -22.585169     -17.688094     -23.680628     -26.386784     -236.51985    
     45020  -234.93842      90             90             90            -19.448651     -15.475302     -23.100296     -19.770355     -234.93842    
     45040  -237.5679       90             90             90            -15.289092     -10.784043     -20.88885      -14.194384     -237.5679     
     45060  -234.58014      90             90             90            -10.907113     -5.0375105     -13.815905     -13.867923     -234.58014    
     45080  -233.02994      90             90             90            -5.4584444     -3.1084917     -3.0921077     -10.174734     -233.02994    
     45100  -237.90708      90             90             90             0.95340674     0.29263421     8.1879769     -5.6203909     -237.90708    
     45120  -225.82781      90             90             90             5.0952588      6.767184       8.4497456      0.068846701   -225.82781    
     45140  -216.25863      90             90             90             9.5950773      13.620433      9.4800193      5.68478       -216.25863    
     45160  -223.10601      90             90             90             16.570552      17.87079       21.350983      10.489884     -223.10601    
     45180  -235.2858       90             90             90             22.503704      14.472093      31.003033      22.035987     -235.2858     
     45200  -236.91542      90             90             90             24.286351      6.3031603      35.587874      30.968018     -236.91542    
     45220  -230.00679      90             90             90             20.808153     -0.14390401     33.067432      29.50093      -230.00679    
     45240  -229.23487      90             90             90             15.160916      0.12836909     23.561784      21.792594     -229.23487    
     45260  -235.48274      90             90             90             10.554927      3.8933541      15.475915      12.295511     -235.48274    
     45280  -233.63913      90             90             90             6.0915467     -2.5890617      7.9034486      12.960253     -233.63913    
     45300  -224.78977      90             90             90             2.2571734     -19.327975      6.5331694      19.566325     -224.78977    
     45320  -228.97371      90             90             90             0.84726796    -28.554863      8.3582786      22.738388     -228.97371    
     45340  -228.54935      90             90             90            -0.1835379     -25.698855      2.820089       22.328152     -228.54935    
     45360  -224.46104      90             90             90            -3.1600209     -20.881418     -2.0302099      13.431565     -224.46104    
     45380  -227.50176      90             90             90            -5.2597517     -17.762847     -5.1057486      7.0893405     -227.50176    
     45400  -228.04733      90             90             90            -7.648588      -17.121748     -9.1635423      3.3395263     -228.04733    
     45420  -229.28305      90             90             90            -9.43476       -15.904162     -12.612594      0.21247634    -229.28305    
     45440  -234.29409      90             90             90            -9.3197063     -13.68857      -15.926031      1.6554822     -234.29409    
     45460  -235.67889      90             90             90            -7.4575647     -12.323644     -10.350005      0.30095433    -235.67889    
     45480  -230.15661      90             90             90            -4.6575819     -8.0287194     -1.3443973     -4.599629      -230.15661    
     45500  -220.3775       90             90             90            -1.6031691     -0.89913946     2.3128578     -6.2232256     -220.3775     
     45520  -220.08107      90             90             90             1.895952       3.6016038      7.4157578     -5.3295054     -220.08107    
     45540  -227.07872      90             90             90             4.948928       7.3397463      11.496441     -3.9894034     -227.07872    
     45560  -231.15038      90             90             90             7.715439       14.294059      16.055053     -7.202795      -231.15038    
     45580  -221.3627       90             90             90             9.0813077      19.430464      18.17713      -10.36367      -221.3627     
     45600  -219.66007      90             90             90             12.668105      22.867719      14.269386      0.86721058    -219.66007    
     45620  -228.37384      90             90             90             17.066112      24.904269      13.354567      12.9395       -228.37384    
     45640  -220.53178      90             90             90             18.224024      26.771028      17.205569      10.695477     -220.53178    
     45660  -229.8977       90             90             90             20.054441      31.347096      22.569833      6.2463937     -229.8977     
     45680  -232.42374      90             90             90             19.988908      34.084071      23.279253      2.6034013     -232.42374    
     45700  -232.46989      90             90             90             17.57264       33.126003      15.844843      3.7470723     -232.46989    
     45720  -243.55148      90             90             90             13.858609      29.050712      6.3414025      6.1837118     -243.55148    
     45740  -224.4189       90             90             90             4.7532715      19.490116     -3.8034152     -1.4268861     -224.4189     
     45760  -221.72837      90             90             90            -2.0611052      5.6680415     -6.0737125     -5.7776444     -221.72837    
     45780  -228.58008      90             90             90            -5.1303334     -5.449884      -1.7628735     -8.1782429     -228.58008    
     45800  -228.18201      90             90             90            -7.5951611     -9.8611645     -1.9292904     -10.995028     -228.18201    
     45820  -242.00431      90             90             90            -8.1104578     -15.903345     -6.7276071     -1.7004208     -242.00431    
     45840  -225.02856      90             90             90            -11.888782     -23.391672     -17.887119      5.6124448     -225.02856    
     45860  -223.33658      90             90             90            -12.711826     -22.504782     -24.08381       8.4531129     -223.33658    
     45880  -239.56335      90             90             90            -9.8830975     -19.815689     -17.455671      7.6220669     -239.56335    
     45900  -228.71114      90             90             90            -9.7809644     -18.297293     -12.167301      1.1217015     -228.71114    
     45920  -226.0102       90             90             90            -9.5190404     -18.336856     -11.407042      1.186777      -226.0102     
     45940  -218.14579      90             90             90            -9.6581055     -14.45274      -15.905711      1.3841338     -218.14579    
     45960  -214.96568      90             90             90            -7.4574028     -3.5275231     -22.257821      3.4131356     -214.96568    
     45980  -219.88957      90             90             90            -2.4179856      0.92645375    -16.649086      8.4686752     -219.88957    
     46000  -212.78966      90             90             90             0.76209937     1.2302038     -4.7659881      5.8220824     -212.78966    
     46020  -210.22226      90             90             90             3.8338622      2.2504238      3.2625342      5.9886287     -210.22226    
     46040  -214.7242       90             90             90             6.9491712      5.2365312      6.0507888      9.5601937     -214.7242     
     46060  -221.99494      90             90             90             9.1728658      12.390399      3.0254319      12.102767     -221.99494    
     46080  -230.14241      90             90             90             11.566729      17.257644      1.4071382      16.035404     -230.14241    
     46100  -234.30498      90             90             90             12.331887      21.222731      0.87953889     14.89339      -234.30498    
     46120  -223.26063      90             90             90             9.712774       20.104347     -2.1538194      11.187794     -223.26063    
     46140  -220.97359      90             90             90             7.3982632      14.443045     -4.575169       12.326914     -220.97359    
     46160  -225.9258       90             90             90             5.4900536      13.634574     -9.1587126      11.994299     -225.9258     
     46180  -207.82274      90             90             90             0.16754785     11.650193     -13.233872      2.0863221     -207.82274    
     46200  -207.52399      90             90             90            -2.9560974      8.6045466     -11.955004     -5.5178349     -207.52399    
     46220  -213.69601      90             90             90            -4.932125       3.3585194     -10.365762     -7.7891324     -213.69601    
     46240  -210.46244      90             90             90            -8.2329738     -0.98177368    -7.9947377     -15.72241      -210.46244    
     46260  -227.65623      90             90             90            -8.3045454      2.9930766     -8.3470531     -19.55966      -227.65623    
     46280  -230.09194      90             90             90            -9.1915472      4.0228795     -14.780738     -16.816784     -230.09194    
     46300  -234.56028      90             90             90            -9.0513791      0.38581812    -14.929614     -12.610342     -234.56028    
     46320  -243.78161      90             90             90            -7.4652213     -6.0363104     -8.9177155     -7.4416381     -243.78161    
     46340  -232.4756       90             90             90            -7.6767401     -11.404527     -6.5301277     -5.095566      -232.4756     
     46360  -240.78238      90             90             90            -5.2583578     -7.0250561     -9.6047232      0.85470589    -240.78238    
     46380  -238.77446      90             90             90            -4.5102278     -2.942135      -12.066794      1.4782459     -238.77446    
     46400  -234.28122      90             90             90            -5.7831939     -2.8431348     -7.3081563     -7.1982907     -234.28122    
     46420  -246.68426      90             90             90            -5.2036985     -9.3927559     -0.38699579    -5.8313438     -246.68426    
     46440  -243.23941      90             90             90            -5.4646629     -15.274308      1.1067646     -2.226445      -243.23941    
     46460  -244.29494      90             90             90            -3.9636001     -5.7984672      0.26734302    -6.359676      -244.29494    
     46480  -242.98722      90             90             90            -2.1200357      3.7515112      0.86453033    -10.976149     -242.98722    
     46500  -235.16578      90             90             90            -2.3182128      3.5308128      1.6284618     -12.113913     -235.16578    
     46520  -238.62396      90             90             90            -1.5327423      1.0216304      4.1524192     -9.7722766     -238.62396    
     46540  -230.13194      90             90             90            -1.6057233      4.9967428      6.1329501     -15.946863     -230.13194    
     46560  -230.85454      90             90             90             1.0963467      18.709104      2.9692129     -18.389277     -230.85454    
     46580  -247.99062      90             90             90             6.4617554      25.211932      0.54354602    -6.3702116     -247.99062    
     46600  -239.3648       90             90             90             9.5334812      21.651735      4.4170935      2.5316146     -239.3648     
     46620  -231.20687      90             90             90             12.352335      17.825285      12.705886      6.5258349     -231.20687    
     46640  -235.86983      90             90             90             15.298168      17.342927      17.2347        11.316877     -235.86983    
     46660  -234.94823      90             90             90             15.956523      19.12919       10.426274      18.314106     -234.94823    
     46680  -236.47034      90             90             90             14.581464      17.175974      2.2556514      24.312766     -236.47034    
     46700  -234.88329      90             90             90             10.44092       12.342232     -0.70110267     19.681631     -234.88329    
     46720  -229.86833      90             90             90             5.0246384      6.1982855     -3.5289088      12.404538     -229.86833    
     46740  -231.79548      90             90             90             1.7004738      1.8915472     -6.0125198      9.222394      -231.79548    
     46760  -229.16383      90             90             90             0.59136057    -0.17582662    -4.5519261      6.5018344     -229.16383    
     46780  -234.45895      90             90             90             2.3445779     -5.9301014      3.1180775      9.8457577     -234.45895    
     46800  -237.50952      90             90             90             4.324849      -8.5900661      9.0772335      12.48738      -237.50952    
     46820  -226.84673      90             90             90             4.4758482     -4.6198505      9.2207041      8.826691      -226.84673    
     46840  -227.07938      90             90             90             5.2778004     -0.16639866     7.522173       8.477627      -227.07938    
     46860  -225.74089      90             90             90             6.2132349      3.6528255      4.3842624      10.602617     -225.74089    
     46880  -222.72539      90             90             90             7.37894        4.0683312      5.0018899      13.066599     -222.72539    
     46900  -218.83259      90             90             90             7.6954771     -0.22101758     13.551623      9.7558257     -218.83259    
     46920  -217.57266      90             90             90             9.5911006     -5.8138097      25.575208      9.0119034     -217.57266    
     46940  -231.85798      90             90             90             12.80996      -6.3986127      29.209368      15.619123     -231.85798    
     46960  -222.19071      90             90             90             11.330673     -1.6254538      20.645537      14.971937     -222.19071    
     46980  -217.37497      90             90             90             10.067456      2.2135257      17.29362       10.695224     -217.37497    
     47000  -225.46984      90             90             90             9.9571647      0.60847592     15.776203      13.486816     -225.46984    
     47020  -211.30634      90             90             90             7.3614202     -4.0799285      7.7547178      18.409471     -211.30634    
     47040  -222.92796      90             90             90             8.276797       0.67245705    -0.73034492     24.888279     -222.92796    
     47060  -233.55433      90             90             90             10.109308      12.635871     -4.4627747      22.154829     -233.55433    
     47080  -230.20282      90             90             90             11.85691       18.915968      2.2425439      14.412219     -230.20282    
     47100  -234.7225       90             90             90             15.519991      22.979579      10.744476      12.835917     -234.7225     
     47120  -224.61003      90             90             90             17.375149      27.145282      13.081972      11.898193     -224.61003    
     47140  -230.12726      90             90             90             19.244214      28.907354      14.63393       14.191359     -230.12726    
     47160  -238.10392      90             90             90             18.167175      29.725563      9.0333507      15.74261      -238.10392    
     47180  -231.4238       90             90             90             12.482297      27.385136      1.0728092      8.9889446     -231.4238     
     47200  -231.61347      90             90             90             8.3487733      18.136942      4.1112778      2.7980998     -231.61347    
     47220  -230.62899      90             90             90             5.3489456      4.4747256      11.754179     -0.18206785    -230.62899    
     47240  -230.94632      90             90             90             2.686488      -6.195668       14.758142     -0.50301019    -230.94632    
     47260  -232.37228      90             90             90             0.082183733   -8.5651196      8.6635852      0.14808561    -232.37228    
     47280  -235.29453      90             90             90            -1.3986494     -4.4814239     -1.9508553      2.2363309     -235.29453    
     47300  -239.09752      90             90             90            -1.4915827      0.158928      -6.875279       2.241603      -239.09752    
     47320  -239.72205      90             90             90            -1.428          1.0057929     -3.5944103     -1.6953825     -239.72205    
     47340  -240.96146      90             90             90            -2.0164295     -2.6342618      2.7387076     -6.1537342     -240.96146    
     47360  -239.22049      90             90             90            -4.2806153     -7.5755817      5.5524045     -10.818669     -239.22049    
     47380  -232.57248      90             90             90            -5.2974522     -5.8906626      2.0199162     -12.02161      -232.57248    
     47400  -231.63038      90             90             90            -1.677557       0.72195221     0.017379562   -5.7720027     -231.63038    
     47420  -236.91301      90             90             90             4.5469497      5.8869716      4.0608964      3.6929811     -236.91301    
     47440  -226.95541      90             90             90             8.6051528      7.0734884      7.6205909      11.121379     -226.95541    
     47460  -225.98047      90             90             90             10.598974      7.0939449      9.3020798      15.400898     -225.98047    
     47480  -241.02381      90             90             90             13.094277      10.117627      10.143926      19.021278     -241.02381    
     47500  -238.82034      90             90             90             12.702502      13.859704      5.6822346      18.565566     -238.82034    
     47520  -230.2907       90             90             90             11.327257      15.174246      3.5792122      15.228313     -230.2907     
     47540  -218.06534      90             90             90             9.1428988      13.955195      3.5469445      9.9265572     -218.06534    
     47560  -213.10468      90             90             90             7.3263557      13.269608     -0.34139432     9.050853      -213.10468    
     47580  -228.69363      90             90             90             6.9352113      10.709053     -2.9744679      13.071049     -228.69363    
     47600  -213.80156      90             90             90             2.6071619      7.6241802     -4.1699324      4.3672379     -213.80156    
     47620  -203.54921      90             90             90            -1.1190198      6.4273655     -5.1239534     -4.6604715     -203.54921    
     47640  -215.7627       90             90             90            -4.3117211      1.6114494     -9.8304293     -4.7161834     -215.7627     
     47660  -213.01232      90             90             90            -11.485427     -6.0784517     -19.48846      -8.889369      -213.01232    
     47680  -219.7181       90             90             90            -17.382142     -13.20357      -24.974668     -13.968188     -219.7181     
     47700  -213.80726      90             90             90            -21.931563     -15.404549     -29.500947     -20.889193     -213.80726    
     47720  -206.11582      90             90             90            -22.719807     -11.491446     -30.134667     -26.533309     -206.11582    
     47740  -221.5347       90             90             90            -17.946206     -11.29779      -19.420544     -23.120283     -221.5347     
     47760  -229.47894      90             90             90            -13.188983     -11.702606     -9.1104274     -18.753915     -229.47894    
     47780  -227.09873      90             90             90            -9.4207911     -7.5755048     -4.4518546     -16.235014     -227.09873    
     47800  -213.8406       90             90             90            -6.1319531     -3.5654304     -2.8226986     -12.00773      -213.8406     
     47820  -216.26292      90             90             90            -0.54459724     4.5805357     -0.13351011    -6.0808173     -216.26292    
     47840  -233.17642      90             90             90             5.4022735      12.41205       5.5285464     -1.7337761     -233.17642    
     47860  -227.3592       90             90             90             6.7829865      14.232466      7.9253026     -1.8088094     -227.3592     
     47880  -221.98614      90             90             90             7.0360514      15.605069      7.7284443     -2.2253587     -221.98614    
     47900  -222.1274       90             90             90             7.7448735      16.994251      8.9271616     -2.6867926     -222.1274     
     47920  -226.73315      90             90             90             9.1556678      16.234751      16.426831     -5.1945784     -226.73315    
     47940  -232.28948      90             90             90             10.330422      8.454121       25.2947       -2.7575546     -232.28948    
     47960  -218.48459      90             90             90             7.899705      -4.2743071      25.224044      2.749378      -218.48459    
     47980  -215.99919      90             90             90             6.0046827     -9.8043317      24.136431      3.6819493     -215.99919    
     48000  -232.84014      90             90             90             6.1069487     -6.4526756      21.990817      2.7827049     -232.84014    
     48020  -231.06522      90             90             90             3.7185144     -2.1442229      14.420033     -1.1202672     -231.06522    
     48040  -224.88612      90             90             90             1.8897702     -1.9902829      12.240096     -4.5805028     -224.88612    
     48060  -230.19936      90             90             90             1.1347202     -8.1098111      11.651084     -0.1371126     -230.19936    
     48080  -220.72094      90             90             90            -2.6763405     -18.72992       9.2554671      1.4454311     -220.72094    
     48100  -219.95993      90             90             90            -4.5588301     -22.139693      5.9426507      2.5205516     -219.95993    
     48120  -226.68827      90             90             90            -5.1595292     -17.127142     -2.0665789      3.7151333     -226.68827    
     48140  -213.54285      90             90             90            -8.6217992     -10.607043     -10.482583     -4.7757715     -213.54285    
     48160  -213.17018      90             90             90            -10.712085     -2.0160843     -20.621512     -9.4986581     -213.17018    
     48180  -210.3192       90             90             90            -11.671669      2.2259564     -28.80316      -8.4378027     -210.3192     
     48200  -209.1177       90             90             90            -9.9331761      4.3642994     -28.299373     -5.8644544     -209.1177     
     48220  -223.26662      90             90             90            -4.3471622      9.9527525     -26.853436      3.8591966     -223.26662    
     48240  -223.80229      90             90             90             0.52959766     15.789283     -23.776092      9.5756024     -223.80229    
     48260  -229.27964      90             90             90             5.6182013      19.47023      -14.896729      12.281103     -229.27964    
     48280  -228.15535      90             90             90             9.4525278      16.472907     -4.1521123      16.036788     -228.15535    
     48300  -220.45159      90             90             90             11.351123      16.367687      6.8854471      10.800233     -220.45159    
     48320  -215.65194      90             90             90             11.870027      19.973045      13.347504      2.2895326     -215.65194    
     48340  -217.32158      90             90             90             11.783712      18.349965      15.048689      1.9524805     -217.32158    
     48360  -234.98147      90             90             90             12.731001      16.896697      15.473576      5.8227307     -234.98147    
     48380  -225.60335      90             90             90             10.402686      12.340755      16.33049       2.5368114     -225.60335    
     48400  -216.08624      90             90             90             8.7570043      5.4220728      20.681852      0.16708838    -216.08624    
     48420  -231.18413      90             90             90             10.164056      0.51709546     22.965657      7.0094163     -231.18413    
     48440  -229.74045      90             90             90             7.9819739     -4.5279278      19.03502       9.4388294     -229.74045    
     48460  -230.70154      90             90             90             3.4066974     -7.9380383      11.816174      6.3419569     -230.70154    
     48480  -230.24298      90             90             90            -0.61664479    -11.052058      5.2700184      3.9321048     -230.24298    
     48500  -229.42112      90             90             90            -2.3016412     -11.930646      3.7910315      1.2346912     -229.42112    
     48520  -236.0247       90             90             90            -1.3544001     -11.540578      5.9599283      1.5174494     -236.0247     
     48540  -237.9457       90             90             90            -0.64793529    -13.152089      8.534075       2.6742079     -237.9457     
     48560  -237.22604      90             90             90            -0.52879158    -11.315623      7.2448571      2.4843913     -237.22604    
     48580  -232.6203       90             90             90            -0.87493435    -9.5306362      1.2801379      5.6256952     -232.6203     
     48600  -233.66685      90             90             90            -0.27454024    -8.6714632     -3.0092136      10.857056     -233.66685    
     48620  -228.45902      90             90             90            -0.86199087    -7.4941488     -7.7693068      12.677483     -228.45902    
     48640  -228.36615      90             90             90            -2.1678427     -10.23351      -9.5256522      13.255634     -228.36615    
     48660  -241.48877      90             90             90            -1.9871121     -11.981447     -4.891289       10.9114       -241.48877    
     48680  -237.40548      90             90             90            -2.6300689     -10.802999     -0.23611881     3.1489109     -237.40548    
     48700  -240.5367       90             90             90            -1.3339931     -5.1363191      2.1206232     -0.98628358    -240.5367     
     48720  -240.7561       90             90             90            -0.70183479     1.7224456     -2.1153506     -1.7125994     -240.7561     
     48740  -226.15846      90             90             90            -3.3316851      1.702144      -6.050299      -5.6469004     -226.15846    
     48760  -220.90916      90             90             90            -6.2192317     -3.4558997     -4.9202695     -10.281526     -220.90916    
     48780  -213.03333      90             90             90            -8.285701      -7.6159002     -4.6291033     -12.6121       -213.03333    
     48800  -220.03858      90             90             90            -6.2041109     -1.9241644     -5.3185485     -11.36962      -220.03858    
     48820  -226.77667      90             90             90            -3.7391605      6.1204665     -7.5619087     -9.7760392     -226.77667    
     48840  -220.29753      90             90             90            -1.3144272      8.5875152     -3.484217      -9.0465797     -220.29753    
     48860  -222.94618      90             90             90             1.4769522      10.822834      3.0560571     -9.4480343     -222.94618    
     48880  -215.95557      90             90             90             1.1964031      9.0292175      1.9801624     -7.4201707     -215.95557    
     48900  -225.34668      90             90             90             2.203274       7.6498911     -1.7313664      0.69129729    -225.34668    
     48920  -231.0716       90             90             90             2.5233624      7.9779915     -5.1414883      4.7335839     -231.0716     
     48940  -219.18945      90             90             90            -0.374126       4.6929263     -5.6038261     -0.21147819    -219.18945    
     48960  -227.72554      90             90             90             0.46389064     4.6217088     -0.31170055    -2.9183364     -227.72554    
     48980  -222.61293      90             90             90             2.1056707      2.6761892      3.9074821     -0.26665904    -222.61293    
     49000  -217.8649       90             90             90             4.6644663      3.5282411      5.4350111      5.0301466     -217.8649     
     49020  -223.31711      90             90             90             7.5882687      10.785809      2.776448       9.2025495     -223.31711    
     49040  -208.87249      90             90             90             5.9367702      13.368411     -1.7118449      6.1537445     -208.87249    
     49060  -209.99022      90             90             90             4.6926288      8.7529458      2.1715858      3.1533547     -209.99022    
     49080  -222.09376      90             90             90             4.9410651      0.22231744     10.322151      4.2787268     -222.09376    
     49100  -218.44086      90             90             90             4.4364249     -4.1511077      16.339335      1.1210475     -218.44086    
     49120  -227.94707      90             90             90             5.6549767     -3.9229928      20.275393      0.6125298     -227.94707    
     49140  -233.03461      90             90             90             4.9391303     -4.468031       16.94773       2.3376924     -233.03461    
     49160  -226.1483       90             90             90             1.441306      -4.8095906      11.478632     -2.3451235     -226.1483     
     49180  -234.18455      90             90             90            -0.62050372    -6.4363027      10.680568     -6.105777      -234.18455    
     49200  -227.54724      90             90             90            -4.0350454     -9.1865563      6.2629628     -9.1815428     -227.54724    
     49220  -217.33978      90             90             90            -8.0038214     -9.5294414     -2.9333315     -11.548691     -217.33978    
     49240  -225.00121      90             90             90            -9.338885      -7.4654711     -11.834531     -8.7166529     -225.00121    
     49260  -221.78522      90             90             90            -9.7000502     -7.7265451     -14.66265      -6.7109552     -221.78522    
     49280  -216.962        90             90             90            -6.8071222     -7.6176209     -9.9091277     -2.8946179     -216.962      
     49300  -214.54689      90             90             90            -1.0819271     -2.346933      -8.4122404      7.5133922     -214.54689    
     49320  -212.2847       90             90             90             4.4408637      3.9622905     -9.8703503      19.230651     -212.2847     
     49340  -217.72114      90             90             90             6.857805       8.6995758     -9.0677285      20.941568     -217.72114    
     49360  -207.91833      90             90             90             4.4133382      7.7077032     -8.6791791      14.211491     -207.91833    
     49380  -202.74805      90             90             90             2.7754411      1.5311977     -3.8994895      10.694615     -202.74805    
     49400  -209.39367      90             90             90             2.7511268     -4.1117443      2.0894095      10.275715     -209.39367    
     49420  -206.6755       90             90             90             0.54939177    -8.614515       1.3040228      8.9586675     -206.6755     
     49440  -206.8003       90             90             90            -1.4963646     -7.0967766     -1.8827723      4.490455      -206.8003     
     49460  -208.06699      90             90             90            -2.012891      -1.6900469     -3.5379093     -0.81071677    -208.06699    
     49480  -210.51146      90             90             90            -0.0063219847  -0.10108394    -3.0000858      3.0822038     -210.51146    
     49500  -222.79746      90             90             90             4.1771555      2.4590158     -0.72268852     10.795139     -222.79746    
     49520  -220.34486      90             90             90             5.6556664      7.9850026     -2.9454103      11.927407     -220.34486    
     49540  -217.86392      90             90             90             5.9157242      15.734601     -10.082977      12.095548     -217.86392    
     49560  -227.27429      90             90             90             5.9198485      19.753136     -12.797285      10.803695     -227.27429    
     49580  -215.81672      90             90             90             3.6430633      15.905843     -13.115519      8.1388658     -215.81672    
     49600  -213.7007       90             90             90             3.2959696      9.543922      -12.509485      12.853472     -213.7007     
     49620  -226.05944      90             90             90             4.8650437      5.016168      -6.0874758      15.666439     -226.05944    
     49640  -222.52716      90             90             90             4.2537265      5.7903846      0.18097841     6.7898165     -222.52716    
     49660  -228.39367      90             90             90             5.8757116      11.349799      7.836454      -1.5591183     -228.39367    
     49680  -236.48752      90             90             90             8.4810857      15.167137      16.801937     -6.5258173     -236.48752    
     49700  -230.79732      90             90             90             8.6474476      16.370149      18.653388     -9.0811942     -230.79732    
     49720  -230.30256      90             90             90             7.3420746      14.345518      17.037204     -9.3564979     -230.30256    
     49740  -223.54757      90             90             90             3.3797569      12.677793      10.195653     -12.734175     -223.54757    
     49760  -221.64535      90             90             90             0.17388963     11.778637      2.4809789     -13.737948     -221.64535    
     49780  -234.81529      90             90             90             1.0263606      8.7996293      5.1741792     -10.894727     -234.81529    
     49800  -233.86383      90             90             90             2.5680385      5.0645704      9.0048069     -6.3652618     -233.86383    
     49820  -224.9425       90             90             90             1.2900055     -3.9726043      4.0795049      3.7631158     -224.9425     
     49840  -220.44079      90             90             90             1.3188949     -12.211757      0.32706374     15.841378     -220.44079    
     49860  -220.88695      90             90             90             3.143286      -10.771274     -0.43657383     20.637706     -220.88695    
     49880  -220.04204      90             90             90             5.3347521     -4.8238236      3.5389108      17.289169     -220.04204    
     49900  -226.67519      90             90             90             7.9349869      1.4361899      7.4976665      14.871104     -226.67519    
     49920  -230.06559      90             90             90             6.6016942      2.6281644      1.8729073      15.304011     -230.06559    
     49940  -219.93746      90             90             90             1.2658906     -0.90099822    -3.95428        8.6529499     -219.93746    
     49960  -222.13032      90             90             90            -0.93174222    -4.021746      -0.23135507     1.4578744     -222.13032    
     49980  -228.90007      90             90             90            -0.013894301   -3.4920697      6.1001347     -2.6497479     -228.90007    
     50000  -227.51943      90             90             90             0.8902239      3.3123862      9.4062235     -10.047938     -227.51943    
     50020  -220.56956      90             90             90             0.40270533     8.7596063      3.913784      -11.465274     -220.56956    
     50040  -218.05104      90             90             90             0.29820474     9.8915388     -4.8765766     -4.120348      -218.05104    
     50060  -226.90986      90             90             90             2.031167       8.6364153     -5.728466       3.1855517     -226.90986    
     50080  -226.63737      90             90             90             2.3449121      6.4711642     -5.3329768      5.8965488     -226.63737    
     50100  -213.05354      90             90             90            -0.2744751      3.5851373     -5.8594633      1.4509007     -213.05354    
     50120  -206.02566      90             90             90            -3.6241183     -1.9215322     -4.4870199     -4.4638028     -206.02566    
     50140  -220.56309      90             90             90            -3.9739458     -1.8127028     -3.8520984     -6.2570362     -220.56309    
     50160  -232.65583      90             90             90            -2.763837       1.0322536     -3.5917126     -5.732052      -232.65583    
     50180  -224.86115      90             90             90            -2.4693728      1.7110741     -3.1515458     -5.9676467     -224.86115    
     50200  -223.25101      90             90             90            -2.1824647      4.5916353     -0.92198279    -10.217046     -223.25101    
     50220  -224.58363      90             90             90            -3.665789       4.2997917     -0.4654965     -14.831662     -224.58363    
     50240  -227.95444      90             90             90            -5.9234573      3.1273599     -6.7270351     -14.170697     -227.95444    
     50260  -233.52952      90             90             90            -5.5220855      2.1951085     -10.887337     -7.8740278     -233.52952    
     50280  -240.58199      90             90             90            -2.2518518     -0.32885256    -8.4811819      2.0544792     -240.58199    
     50300  -243.51913      90             90             90             1.1404705     -0.28505679    -4.2243544      7.9308228     -243.51913    
     50320  -236.90503      90             90             90             2.0893246     -3.6111529      0.6330875      9.2460392     -236.90503    
     50340  -237.63277      90             90             90             2.2930432     -5.8594549      0.054231776    12.684353     -237.63277    
     50360  -229.68897      90             90             90             1.7183992     -6.2572149     -2.364991       13.777403     -229.68897    
     50380  -225.45161      90             90             90             1.6537936     -8.014231       1.9590905      11.016521     -225.45161    
     50400  -229.08036      90             90             90             2.1383507     -5.0842501      5.9687714      5.5305309     -229.08036    
     50420  -213.54012      90             90             90             0.47634431    -5.6665041      6.180875       0.91466197    -213.54012    
     50440  -220.92935      90             90             90             1.4047285     -4.4508554      2.2706214      6.3944196     -220.92935    
     50460  -234.86364      90             90             90             3.2576091      1.6621203     -3.8607411      11.971448     -234.86364    
     50480  -225.62741      90             90             90             2.2836956     -0.430647      -1.8621653      9.1438992     -225.62741    
     50500  -225.90124      90             90             90             2.074144      -2.219692       1.9272611      6.514863      -225.90124    
     50520  -219.97824      90             90             90             0.71459477     1.0730223     -0.023626422    1.0943884     -219.97824    
     50540  -210.97962      90             90             90            -0.13723988     2.9981122     -0.21193146    -3.1979004     -210.97962    
     50560  -222.22043      90             90             90             3.1237023      5.2978632      1.5853782      2.4878656     -222.22043    
     50580  -218.73723      90             90             90             5.6423607      8.0600378      2.6298475      6.2371968     -218.73723    
     50600  -201.62155      90             90             90             6.9016192      14.915945      4.6526498      1.1362627     -201.62155    
     50620  -210.07211      90             90             90             10.786978      21.955398      11.059564     -0.65402958    -210.07211    
     50640  -217.07972      90             90             90             13.730349      21.616557      17.987521      1.5869679     -217.07972    
     50660  -217.99175      90             90             90             15.723155      21.532657      23.442142      2.1946652     -217.99175    
     50680  -221.99285      90             90             90             17.44107       21.302004      33.001015     -1.9798093     -221.99285    
     50700  -213.53795      90             90             90             15.790335      19.187894      35.660545     -7.4774336     -213.53795    
     50720  -221.34012      90             90             90             14.133795      21.007276      27.223538     -5.8294302     -221.34012    
     50740  -226.60917      90             90             90             10.829303      21.225112      15.606396     -4.3435984     -226.60917    
     50760  -216.64966      90             90             90             5.012065       17.447966      5.2394372     -7.6512086     -216.64966    
     50780  -212.24943      90             90             90            -0.1859577      8.9783897      0.8540436     -10.390306     -212.24943    
     50800  -208.69065      90             90             90            -5.2850601     -3.6460503     -0.76602657    -11.443104     -208.69065    
     50820  -226.80026      90             90             90            -7.9705097     -7.2750552     -1.3608651     -15.275609     -226.80026    
     50840  -231.49012      90             90             90            -10.346505     -4.291365      -2.8199525     -23.928197     -231.49012    
     50860  -221.33664      90             90             90            -12.314681     -7.8342883     -6.9388053     -22.170949     -221.33664    
     50880  -229.02126      90             90             90            -10.619916     -14.675124     -6.9250044     -10.259618     -229.02126    
     50900  -220.74725      90             90             90            -9.2631123     -19.18094      -6.0372281     -2.5711689     -220.74725    
     50920  -220.49413      90             90             90            -7.3059536     -18.249299     -12.280404      8.6118417     -220.49413    
     50940  -224.1963       90             90             90            -4.9066175     -9.6050965     -21.442376      16.32762      -224.1963     
     50960  -213.79346      90             90             90            -4.9448772     -3.9190179     -23.847277      12.931664     -213.79346    
     50980  -223.95582      90             90             90            -2.5240441     -6.5137569     -15.457796      14.399421     -223.95582    
     51000  -231.23833      90             90             90             0.7726852     -9.19913       -7.3872387      18.904424     -231.23833    
     51020  -227.66346      90             90             90             3.9442485     -7.924831      -5.1923902      24.949967     -227.66346    
     51040  -228.09702      90             90             90             7.3696363      0.41042719    -9.3986635      31.097145     -228.09702    
     51060  -221.13147      90             90             90             8.1806827      11.401261     -14.606929      27.747716     -221.13147    
     51080  -214.07146      90             90             90             7.3605857      11.93061      -10.263916      20.415063     -214.07146    
     51100  -221.11272      90             90             90             8.7587466      6.5873063      1.77565        17.913283     -221.11272    
     51120  -235.86112      90             90             90             9.5830268      3.0009621      12.022356      13.725763     -235.86112    
     51140  -224.48141      90             90             90             7.3292816     -1.9552266      12.319627      11.623445     -224.48141    
     51160  -215.11763      90             90             90             5.3869092     -2.9637003      7.4581477      11.66628      -215.11763    
     51180  -223.02584      90             90             90             4.9816135      0.17220124     8.030087       6.7425523     -223.02584    
     51200  -216.53192      90             90             90             2.0638836     -0.16463431     8.8423712     -2.4860861     -216.53192    
     51220  -214.28297      90             90             90            -0.50604862    -0.42229948     7.5299641     -8.6258105     -214.28297    
     51240  -220.55517      90             90             90            -2.8922002     -2.2008888      0.77088193    -7.2465938     -220.55517    
     51260  -219.53647      90             90             90            -6.2872756     -7.1708256     -7.3387249     -4.3522764     -219.53647    
     51280  -225.39415      90             90             90            -7.7704092     -9.3824446     -3.4580454     -10.470738     -225.39415    
     51300  -227.31749      90             90             90            -8.7388252     -7.8648267      2.9914298     -21.343079     -227.31749    
     51320  -223.03624      90             90             90            -9.9245701     -1.7832409      4.0864394     -32.076909     -223.03624    
     51340  -224.97862      90             90             90            -9.8517928      4.9978248      2.5416463     -37.094849     -224.97862    
     51360  -227.53711      90             90             90            -9.1930586      6.5186788     -2.0924234     -32.005431     -227.53711    
     51380  -220.92552      90             90             90            -9.3087583      4.6721812     -2.1722406     -30.426215     -220.92552    
     51400  -221.72357      90             90             90            -9.5401438     -0.48254901     3.5580013     -31.695884     -221.72357    
     51420  -227.25029      90             90             90            -8.4752059     -2.4725351      10.673425     -33.626508     -227.25029    
     51440  -222.83122      90             90             90            -7.9230355      2.3929051      14.28008      -40.442091     -222.83122    
     51460  -221.64818      90             90             90            -6.9284178      7.6314804      6.9207794     -35.337513     -221.64818    
     51480  -220.37485      90             90             90            -4.9785685      8.8989        -0.21548631    -23.619119     -220.37485    
     51500  -215.9025       90             90             90            -2.3879666      3.9541507      4.490947      -15.608998     -215.9025     
     51520  -230.84832      90             90             90             3.4277386      4.1403218      10.419321     -4.2764271     -230.84832    
     51540  -241.15725      90             90             90             9.1533232      13.518531      11.701987      2.2394511     -241.15725    
     51560  -233.26122      90             90             90             12.70688       17.757594      9.7342525      10.628793     -233.26122    
     51580  -234.73992      90             90             90             17.455878      17.286409      7.2431091      27.838116     -234.73992    
     51600  -232.88986      90             90             90             21.191077      19.245712      7.1871819      37.140337     -232.88986    
     51620  -227.96314      90             90             90             19.821964      19.439241      4.8424299      35.184222     -227.96314    
     51640  -219.26587      90             90             90             16.360116      17.216712      0.94666367     30.916972     -219.26587    
     51660  -212.45488      90             90             90             12.777043      14.225377     -2.6999919      26.805743     -212.45488    
     51680  -222.8172       90             90             90             10.906247      14.335284     -8.3982954      26.781753     -222.8172     
     51700  -228.47575      90             90             90             8.3206925      10.733867     -14.320128      28.548338     -228.47575    
     51720  -223.25698      90             90             90             6.2705406      6.3417348     -17.889087      30.358974     -223.25698    
     51740  -224.15553      90             90             90             5.5186724      4.0632487     -16.972235      29.465003     -224.15553    
     51760  -218.57314      90             90             90             3.8896506     -0.022010748   -15.41711       27.108073     -218.57314    
     51780  -213.63047      90             90             90             0.86412649    -3.0620487     -18.94559       24.600018     -213.63047    
     51800  -205.14644      90             90             90            -2.7922423     -9.2737754     -17.550327      18.447376     -205.14644    
     51820  -202.27805      90             90             90            -4.5364953     -15.650515     -10.14148       12.18251      -202.27805    
     51840  -210.08924      90             90             90            -4.0020786     -16.635219     -4.6560618      9.2850456     -210.08924    
     51860  -211.98765      90             90             90            -3.8672266     -16.250053      0.15986246     4.4885107     -211.98765    
     51880  -217.66751      90             90             90            -2.3489954     -13.10443       4.9005119      1.1569319     -217.66751    
     51900  -221.18968      90             90             90             0.99579028    -12.550545      9.4345381      6.1033781     -221.18968    
     51920  -209.08152      90             90             90             3.6169616     -15.926468      14.14304       12.634313     -209.08152    
     51940  -204.47885      90             90             90             6.2608106     -16.472231      18.493353      16.761309     -204.47885    
     51960  -213.39229      90             90             90             7.9180941     -13.128808      18.776695      18.106395     -213.39229    
     51980  -212.61399      90             90             90             5.8821698     -7.1404864      13.328149      11.458847     -212.61399    
     52000  -214.52724      90             90             90             3.9056169     -6.0607787      9.8970397      7.8805896     -214.52724    
     52020  -214.98679      90             90             90             3.099342      -9.5033297      10.21382       8.5875355     -214.98679    
     52040  -210.72882      90             90             90             1.0789885     -11.334534      11.950318      2.6211818     -210.72882    
     52060  -214.28945      90             90             90            -1.1939542     -11.821726      7.5556139      0.68424949    -214.28945    
     52080  -211.159        90             90             90            -3.1572433     -7.3096006     -0.86023027    -1.301899      -211.159      
     52100  -217.37937      90             90             90            -3.5361355      0.38312085    -4.1613088     -6.8302185     -217.37937    
     52120  -224.16097      90             90             90            -4.2643555      5.5737725     -6.3050876     -12.061751     -224.16097    
     52140  -223.66369      90             90             90            -6.9931607      11.068677     -12.112584     -19.935575     -223.66369    
     52160  -229.62869      90             90             90            -9.7985743      11.455018     -17.220428     -23.630313     -229.62869    
     52180  -223.94692      90             90             90            -13.013331      7.6201937     -20.845445     -25.814742     -223.94692    
     52200  -218.55837      90             90             90            -13.368372      10.783221     -19.631094     -31.257243     -218.55837    
     52220  -219.02705      90             90             90            -10.275977      17.761268     -16.181256     -32.407941     -219.02705    
     52240  -211.54568      90             90             90            -7.2689315      21.862194     -13.523897     -30.145091     -211.54568    
     52260  -217.20047      90             90             90            -3.957005       23.523193     -10.160356     -25.233852     -217.20047    
     52280  -217.75551      90             90             90            -3.2456399      18.71221      -10.344703     -18.104426     -217.75551    
     52300  -210.23779      90             90             90            -5.5478456      8.431273      -12.99517      -12.079639     -210.23779    
     52320  -217.77242      90             90             90            -6.0987743     -0.77289177    -12.517796     -5.0056354     -217.77242    
     52340  -214.53618      90             90             90            -6.7191859     -12.913055     -6.5061116     -0.73839061    -214.53618    
     52360  -207.14619      90             90             90            -6.0994313     -22.165389      1.9601011      1.9069936     -207.14619    
     52380  -209.23976      90             90             90            -2.0768744     -19.329048      7.8098201      5.2886048     -209.23976    
     52400  -201.74812      90             90             90             2.1542041     -11.106694      12.405982      5.1633246     -201.74812    
     52420  -204.8088       90             90             90             7.7060667     -0.6175538      16.176787      7.5589668     -204.8088     
     52440  -216.15796      90             90             90             13.203296      3.8669066      20.330043      15.412938     -216.15796    
     52460  -210.05039      90             90             90             14.589983     -1.867634       24.713395      20.924187     -210.05039    
     52480  -209.41759      90             90             90             15.549659     -1.5269151      23.727875      24.448016     -209.41759    
     52500  -214.84033      90             90             90             16.749092      6.8904028      19.381528      23.975346     -214.84033    
     52520  -217.63815      90             90             90             17.158427      16.831327      18.572666      16.071288     -217.63815    
     52540  -221.4747       90             90             90             16.70503       23.335738      18.298577      8.4807758     -221.4747     
     52560  -222.45519      90             90             90             14.105276      22.546429      17.123144      2.646254      -222.45519    
     52580  -232.26082      90             90             90             10.556463      21.763892      14.83084      -4.9253441     -232.26082    
     52600  -237.76408      90             90             90             5.5308658      16.921021      9.042398      -9.3708214     -237.76408    
     52620  -227.98231      90             90             90            -1.8230562      4.4426834      1.8680575     -11.77991      -227.98231    
     52640  -216.41335      90             90             90            -9.3608717     -4.525775      -8.1130714     -15.443769     -216.41335    
     52660  -211.57864      90             90             90            -14.929732     -8.2563658     -20.600291     -15.932541     -211.57864    
     52680  -219.03814      90             90             90            -16.519749     -8.1196351     -27.522398     -13.917215     -219.03814    
     52700  -221.22435      90             90             90            -15.782875     -5.1356463     -27.406964     -14.806016     -221.22435    
     52720  -217.70132      90             90             90            -14.044763     -2.7901892     -23.919221     -15.42488      -217.70132    
     52740  -230.66684      90             90             90            -10.369246     -0.16472923    -20.739609     -10.203401     -230.66684    
     52760  -238.22664      90             90             90            -7.7311775      0.58597363    -19.78153      -3.9979766     -238.22664    
     52780  -230.47296      90             90             90            -6.8147054     -1.1130576     -18.694379     -0.63667942    -230.47296    
     52800  -228.31461      90             90             90            -4.2462261     -0.091538667   -16.550323      3.9031836     -228.31461    
     52820  -226.93656      90             90             90            -0.26946446     2.4419773     -9.4798042      6.2294334     -226.93656    
     52840  -226.98083      90             90             90             4.1947845      3.7404842      0.028521333    8.815348      -226.98083    
     52860  -231.37125      90             90             90             8.0028143      4.4741597      3.5952431      15.93904      -231.37125    
     52880  -224.78771      90             90             90             9.1675758      2.6534432      7.0523179      17.796966     -224.78771    
     52900  -216.31525      90             90             90             8.7886327     -2.920726       12.551297      16.735327     -216.31525    
     52920  -211.74633      90             90             90             8.3607467     -8.9947891      20.283385      13.793644     -211.74633    
     52940  -199.95821      90             90             90             7.6099791     -11.228914      27.720802      6.3380494     -199.95821    
     52960  -201.30754      90             90             90             9.4278746     -6.0791364      25.966752      8.3960085     -201.30754    
     52980  -212.83024      90             90             90             13.093455      2.6328751      21.31228       15.335209     -212.83024    
     53000  -205.58955      90             90             90             14.745228      7.9386666      16.792236      19.504782     -205.58955    
     53020  -210.76787      90             90             90             16.808736      12.638438      15.64898       22.138792     -210.76787    
     53040  -220.71141      90             90             90             17.061788      15.478014      20.571112      15.13624      -220.71141    
     53060  -212.78557      90             90             90             12.361259      10.287603      17.568003      9.2281714     -212.78557    
     53080  -209.71719      90             90             90             7.0053047      1.4931606      7.3134008      12.209353     -209.71719    
     53100  -206.25958      90             90             90             3.6136633     -1.20532       -1.8746647      13.920975     -206.25958    
     53120  -205.64623      90             90             90             4.1762833      5.4367726     -7.3514093      14.443487     -205.64623    
     53140  -210.84198      90             90             90             7.9017214      13.989356     -3.89742        13.613229     -210.84198    
     53160  -212.49734      90             90             90             10.459545      17.224816      2.0783813      12.075438     -212.49734    
     53180  -221.90651      90             90             90             10.834728      15.793665      3.0379787      13.672539     -221.90651    
     53200  -224.14746      90             90             90             7.0965633      12.352237     -4.3531867      13.290639     -224.14746    
     53220  -219.92642      90             90             90             0.44605831     8.0625882     -12.994695      6.2702817     -219.92642    
     53240  -228.88029      90             90             90            -4.8411055      0.26598847    -11.719711     -3.0695942     -228.88029    
     53260  -228.20592      90             90             90            -9.3994205     -8.0047063     -10.703739     -9.4898165     -228.20592    
     53280  -230.51044      90             90             90            -10.20131      -10.975087     -11.139059     -8.4897846     -230.51044    
     53300  -239.90391      90             90             90            -7.0942306     -11.440745     -8.5224227     -1.3195243     -239.90391    
     53320  -240.1648       90             90             90            -3.2140387     -7.5963566     -4.9912881      2.9455288     -240.1648     
     53340  -246.06569      90             90             90             1.6534255     -1.2032375      2.6429386      3.5205753     -246.06569    
     53360  -236.22303      90             90             90             2.6655604     -1.1487113      7.3870796      1.7583128     -236.22303    
     53380  -223.76585      90             90             90             2.09347       -5.0697615      10.358205      0.99196692    -223.76585    
     53400  -234.58637      90             90             90             4.6214533     -6.818419       16.535987      4.1467916     -234.58637    
     53420  -229.25255      90             90             90             5.8772203     -5.789005       19.747457      3.673209      -229.25255    
     53440  -229.80878      90             90             90             6.7793954     -2.2677566      20.15214       2.4538032     -229.80878    
     53460  -236.72963      90             90             90             6.9646911      2.1622834      17.13789       1.5938999     -236.72963    
     53480  -226.93914      90             90             90             4.6025634      2.3425052      13.77433      -2.3091451     -226.93914    
     53500  -228.9122       90             90             90             3.2391418     -1.7866381      12.483862     -0.97979823    -228.9122     
     53520  -229.35789      90             90             90             1.3212429     -2.0597455      6.4696275     -0.44615321    -229.35789    
     53540  -227.58141      90             90             90            -1.5260813     -0.069318933   -1.6912077     -2.8177173     -227.58141    
     53560  -227.9669       90             90             90            -4.0328551     -5.7065902     -4.8311804     -1.5607947     -227.9669     
     53580  -221.64078      90             90             90            -6.0673985     -14.628165     -4.9793127      1.4052825     -221.64078    
     53600  -217.10037      90             90             90            -5.231463      -18.26441      -4.2526026      6.8226238     -217.10037    
     53620  -216.26721      90             90             90            -1.9566941     -16.131028     -1.9693022      12.230248     -216.26721    
     53640  -221.46953      90             90             90             1.2129188     -10.296826     -1.4025033      15.338085     -221.46953    
     53660  -217.8339       90             90             90             1.9828126     -3.9865165     -3.5635725      13.498527     -217.8339     
     53680  -216.30202      90             90             90             1.8188533     -1.1085032     -2.6148031      9.1798662     -216.30202    
     53700  -218.27903      90             90             90             0.63542162     0.90904795    -5.1436367      6.1408536     -218.27903    
     53720  -209.19863      90             90             90            -3.5711741      3.296228      -16.883689      2.8739386     -209.19863    
     53740  -213.0126       90             90             90            -7.3352814      2.6615942     -26.388252      1.7208139     -213.0126     
     53760  -210.08537      90             90             90            -10.50667      -2.4218113     -25.625585     -3.4726136     -210.08537    
     53780  -201.41105      90             90             90            -11.605759     -5.9886276     -16.249238     -12.579411     -201.41105    
     53800  -212.66963      90             90             90            -8.0022308     -4.8584434     -6.3007454     -12.847504     -212.66963    
     53820  -213.69671      90             90             90            -5.9544637     -5.5180886     -2.6792997     -9.6660029     -213.69671    
     53840  -209.14034      90             90             90            -6.5298935     -9.2331649     -3.0582359     -7.2982795     -209.14034    
     53860  -209.29236      90             90             90            -6.8465789     -11.446469     -4.525697      -4.567571      -209.29236    
     53880  -213.24926      90             90             90            -4.6560278     -12.369699      2.8718427     -4.4702272     -213.24926    
     53900  -227.57516      90             90             90             0.58937419    -10.096673      16.340862     -4.476067      -227.57516    
     53920  -230.88646      90             90             90             4.0602064     -2.6872622      18.086949     -3.2190675     -230.88646    
     53940  -223.82551      90             90             90             3.5477731      5.620002       8.3623788     -3.3390614     -223.82551    
     53960  -225.02426      90             90             90             2.8517603      14.987107     -0.22279497    -6.209031      -225.02426    
     53980  -223.36851      90             90             90             1.8275443      18.842681     -1.2673156     -12.092732     -223.36851    
     54000  -214.07611      90             90             90             0.046836316    15.243993      0.88177005    -15.985254     -214.07611    
     54020  -205.65084      90             90             90            -1.0841833      14.716729     -4.1752532     -13.794026     -205.65084    
     54040  -205.40233      90             90             90            -1.1095709      16.725117     -10.540475     -9.5133547     -205.40233    
     54060  -216.16634      90             90             90            -2.4681544      15.345425     -12.701692     -10.048197     -216.16634    
     54080  -214.59258      90             90             90            -5.7720905      7.6878787     -15.207123     -9.7970274     -214.59258    
     54100  -216.60178      90             90             90            -7.9232357     -3.4281748     -15.380344     -4.9611886     -216.60178    
     54120  -227.0114       90             90             90            -6.7706253     -4.2571025     -15.898955     -0.1558183     -227.0114     
     54140  -227.01962      90             90             90            -5.9300298     -6.1892747     -17.252068      5.6512534     -227.01962    
     54160  -224.6969       90             90             90            -3.8690273     -9.0327732     -13.968759      11.39445      -224.6969     
     54180  -220.39895      90             90             90            -1.3028478     -4.2069079     -9.2295143      9.5278788     -220.39895    
     54200  -214.09259      90             90             90             0.33020756    -3.0031367     -0.39663821     4.3903976     -214.09259    
     54220  -218.80524      90             90             90             3.3800511     -1.7088483      5.2585642      6.5904374     -218.80524    
     54240  -217.80963      90             90             90             4.1038009     -0.75730164     1.4699671      11.598737     -217.80963    
     54260  -220.52933      90             90             90             2.9928741      0.84554072    -2.1757014      10.308783     -220.52933    
     54280  -230.11263      90             90             90             2.3560616      5.9428593     -8.9056408      10.030966     -230.11263    
     54300  -218.66769      90             90             90             1.6494071      8.2121163     -14.880068      11.616173     -218.66769    
     54320  -218.71449      90             90             90             5.9780801      17.296814     -12.286534      12.92396      -218.71449    
     54340  -227.31353      90             90             90             12.33558       28.335066     -9.4368471      18.108522     -227.31353    
     54360  -226.98272      90             90             90             14.762915      28.584789     -7.3753195      23.079275     -226.98272    
     54380  -226.29628      90             90             90             14.976215      23.409377     -5.9061087      27.425379     -226.29628    
     54400  -216.86663      90             90             90             12.533026      16.840591     -7.3005987      28.059085     -216.86663    
     54420  -221.22375      90             90             90             9.9494863      15.83635      -8.2673749      22.279484     -221.22375    
     54440  -225.14374      90             90             90             6.0186841      14.026216     -11.4968        15.526636     -225.14374    
     54460  -219.28198      90             90             90            -0.02869524     5.2935602     -10.812184      5.4325383     -219.28198    
     54480  -219.62493      90             90             90            -4.0081864     -1.8078145     -4.5925115     -5.6242332     -219.62493    
     54500  -216.53123      90             90             90            -6.1069094     -7.3921281     -3.8577767     -7.0708233     -216.53123    
     54520  -223.81473      90             90             90            -5.1976044     -10.114769     -3.3966273     -2.0814173     -223.81473    
     54540  -222.07363      90             90             90            -4.6443853     -8.4856943     -3.4786        -1.9688616     -222.07363    
     54560  -217.36779      90             90             90            -5.1755667     -7.4664143     -6.3164081     -1.7438775     -217.36779    
     54580  -225.57048      90             90             90            -4.8121281     -13.602041     -3.4062806      2.5719371     -225.57048    
     54600  -218.27256      90             90             90            -5.8101077     -23.336804      1.0622187      4.8442625     -218.27256    
     54620  -223.15658      90             90             90            -4.7590157     -24.931069      4.9373382      5.7166838     -223.15658    
     54640  -219.85927      90             90             90            -4.2166779     -24.090137      8.4456977      2.9944054     -219.85927    
     54660  -212.34975      90             90             90            -4.0559961     -22.484176      9.2512387      1.0649493     -212.34975    
     54680  -224.91799      90             90             90            -1.4258385     -19.103577      12.342145      2.4839166     -224.91799    
     54700  -226.30108      90             90             90            -0.018062704   -16.619362      16.073609      0.49156505    -226.30108    
     54720  -229.34303      90             90             90             1.3960034     -10.93596       13.370376      1.7535933     -229.34303    
     54740  -224.88392      90             90             90             0.93876535    -9.4226416      7.8953198      4.3436179     -224.88392    
     54760  -220.4137       90             90             90             0.71121141    -5.8619382      3.9176218      4.0779506     -220.4137     
     54780  -233.90706      90             90             90             4.1578079      4.1961902      1.7788264      6.4984071     -233.90706    
     54800  -226.21536      90             90             90             5.9233456      4.179502       5.5924048      7.9981299     -226.21536    
     54820  -224.96811      90             90             90             8.1632179      2.8716317      8.8234576      12.794565     -224.96811    
     54840  -231.35177      90             90             90             10.684374      8.0337805      6.807668       17.211675     -231.35177    
     54860  -220.85355      90             90             90             10.329777      13.37255       5.6520794      11.964703     -220.85355    
     54880  -226.2351       90             90             90             11.224217      18.977253      5.9412749      8.7541226     -226.2351     
     54900  -228.66496      90             90             90             11.313751      21.033492      5.2190472      7.6887127     -228.66496    
     54920  -226.26121      90             90             90             9.6591807      23.019588      3.6069882      2.3509653     -226.26121    
     54940  -229.63601      90             90             90             6.8994388      18.791646      4.7708605     -2.8641897     -229.63601    
     54960  -226.72178      90             90             90             2.8205495      8.8759899      10.479911     -10.894252     -226.72178    
     54980  -232.42003      90             90             90             0.73496705     6.2273178      16.34367      -20.366086     -232.42003    
     55000  -236.02831      90             90             90            -0.70814074     3.0731554      20.940165     -26.137742     -236.02831    
     55020  -232.49031      90             90             90            -3.2685602      0.5955026      20.524709     -30.925892     -232.49031    
     55040  -232.35643      90             90             90            -6.2713906      1.8317863      10.786075     -31.432033     -232.35643    
     55060  -237.03744      90             90             90            -8.8921555     -2.7230377      0.8559502     -24.809379     -237.03744    
     55080  -234.42749      90             90             90            -10.921004     -8.500112      -3.2655894     -20.997312     -234.42749    
     55100  -224.58177      90             90             90            -11.7654       -13.172809     -3.8177869     -18.305604     -224.58177    
     55120  -226.90544      90             90             90            -10.540924     -14.825855     -2.4620688     -14.334847     -226.90544    
     55140  -231.40348      90             90             90            -9.8463637     -10.079568     -5.182738      -14.276785     -231.40348    
     55160  -235.50926      90             90             90            -10.030131     -5.4665269     -10.497706     -14.12616      -235.50926    
     55180  -237.31179      90             90             90            -9.6220899     -2.3858934     -11.568271     -14.912105     -237.31179    
     55200  -235.12415      90             90             90            -8.2202143     -0.95380595    -9.4013564     -14.305481     -235.12415    
     55220  -240.68066      90             90             90            -5.3624972     -4.6335344     -3.5543738     -7.8995833     -240.68066    
     55240  -238.30789      90             90             90            -3.5424346     -7.4926319      2.1193046     -5.2539766     -238.30789    
     55260  -234.05214      90             90             90            -1.2252386     -2.3934507      2.7996825     -4.0819478     -234.05214    
     55280  -236.13828      90             90             90             3.5210082      6.6467775      3.7527431      0.16350399    -236.13828    
     55300  -232.18955      90             90             90             8.4204035      14.759346      7.5206071      2.9812569     -232.18955    
     55320  -238.3191       90             90             90             12.985165      20.815912      12.963188      5.1763955     -238.3191     
     55340  -239.06401      90             90             90             13.616317      19.608675      15.498965      5.7413116     -239.06401    
     55360  -223.53955      90             90             90             10.191012      14.907556      10.896743      4.7687367     -223.53955    
     55380  -220.94487      90             90             90             9.1558602      15.897018      5.0731576      6.4974054     -220.94487    
     55400  -228.70976      90             90             90             9.563264       16.929067      2.5646216      9.1961031     -228.70976    
     55420  -238.28699      90             90             90             9.9633914      13.154317      2.8706761      13.865181     -238.28699    
     55440  -245.19297      90             90             90             9.2229713      5.2327281      2.0622816      20.373904     -245.19297    
     55460  -234.63733      90             90             90             5.520823      -2.3665124      0.86815668     18.060825     -234.63733    
     55480  -236.57648      90             90             90             3.8044526     -4.1399494      4.6961167      10.85719      -236.57648    
     55500  -245.08267      90             90             90             3.8892307     -3.9518732      6.1753398      9.4442254     -245.08267    
     55520  -232.57552      90             90             90             1.9054477     -4.1465573      3.3237519      6.5391484     -232.57552    
     55540  -235.20257      90             90             90             0.5146233     -3.774191       2.090107       3.2279539     -235.20257    
     55560  -239.78684      90             90             90            -0.79231078    -2.0039147     -0.61802797     0.24501033    -239.78684    
     55580  -233.56173      90             90             90            -1.197103       1.9706437     -1.0289981     -4.5329545     -233.56173    
     55600  -233.38623      90             90             90             0.8644991      4.8227548     -0.32132581    -1.9079317     -233.38623    
     55620  -227.75413      90             90             90             2.0936198      7.9231515     -1.3893805     -0.25291149    -227.75413    
     55640  -237.87267      90             90             90             3.2416939      9.7268145      1.6869485     -1.6886814     -237.87267    
     55660  -240.98939      90             90             90             1.5092566      3.9479972      1.9675947     -1.3878221     -240.98939    
     55680  -230.32449      90             90             90            -2.961277      -2.0073909     -3.7744125     -3.1020276     -230.32449    
     55700  -236.78922      90             90             90            -6.1552904     -5.4377533     -9.241933      -3.7861849     -236.78922    
     55720  -232.51294      90             90             90            -9.719187      -12.359088     -8.6430572     -8.1554157     -232.51294    
     55740  -226.37385      90             90             90            -10.346201     -18.841323     -2.0002941     -10.196985     -226.37385    
     55760  -226.50456      90             90             90            -5.9690411     -18.649353      2.4598088     -1.7175788     -226.50456    
     55780  -225.88531      90             90             90             1.5887713     -7.3816429      5.1102532      7.0377036     -225.88531    
     55800  -231.94218      90             90             90             10.219424      5.484524       8.4883998      16.685347     -231.94218    
     55820  -228.96847      90             90             90             15.12351       9.722718       12.705348      22.942465     -228.96847    
     55840  -226.4932       90             90             90             16.620196      14.973739      19.098945      15.787905     -226.4932     
     55860  -226.48621      90             90             90             15.746258      19.660163      17.848401      9.7302095     -226.48621    
     55880  -218.79606      90             90             90             13.105027      16.358093      10.055378      12.901609     -218.79606    
     55900  -210.59804      90             90             90             11.618289      12.666578      4.8431878      17.345101     -210.59804    
     55920  -211.2141       90             90             90             12.108281      12.202714      2.1216939      22.000436     -211.2141     
     55940  -217.36582      90             90             90             13.700732      11.392404      5.1931391      24.516654     -217.36582    
     55960  -216.89844      90             90             90             14.577981      9.8151894      10.35417       23.564584     -216.89844    
     55980  -220.83467      90             90             90             14.277402      11.534514      10.184834      21.112859     -220.83467    
     56000  -223.32414      90             90             90             9.9293488      12.259478      3.3043026      14.224266     -223.32414    
     56020  -230.84105      90             90             90             3.2604449      3.5339401     -2.391472       8.6388665     -230.84105    
     56040  -238.08199      90             90             90            -3.6431485     -7.9468283     -2.5273456     -0.45527173    -238.08199    
     56060  -227.25615      90             90             90            -10.029381     -10.913162     -2.8180918     -16.35689      -227.25615    
     56080  -229.57231      90             90             90            -10.60285      -7.3369159     -5.7807302     -18.690903     -229.57231    
     56100  -232.12598      90             90             90            -8.1616174     -4.8243083     -10.20909      -9.4514537     -232.12598    
     56120  -232.38662      90             90             90            -5.8291121     -7.4761619     -9.7878395     -0.22333492    -232.38662    
     56140  -237.09495      90             90             90            -3.856402      -11.62313      -7.5002028      7.5541264     -237.09495    
     56160  -220.20496      90             90             90            -4.0133055     -11.568366     -7.8684239      7.3968737     -220.20496    
     56180  -221.82425      90             90             90            -1.6898226     -8.3968017     -6.3789776      9.7063114     -221.82425    
     56200  -231.25006      90             90             90             1.3899875     -5.5298808     -6.639523       16.339366     -231.25006    
     56220  -229.25965      90             90             90             1.7534602     -6.469264      -6.7502331      18.479878     -229.25965    
     56240  -234.34009      90             90             90             1.7367553     -11.31443      -3.7033019      20.227998     -234.34009    
     56260  -225.55122      90             90             90             0.034906597   -15.337577     -2.5204443      17.962741     -225.55122    
     56280  -224.59216      90             90             90            -0.18052941    -12.982852      1.1217329      11.319531     -224.59216    
     56300  -228.31545      90             90             90             0.88701807    -4.7014777      4.5961294      2.7664025     -228.31545    
     56320  -222.30475      90             90             90             0.25764671     3.3377702      1.347         -3.91183       -222.30475    
     56340  -224.17404      90             90             90            -0.67799514     6.6233172     -6.5119239     -2.1453787     -224.17404    
     56360  -225.13306      90             90             90            -1.2933397      9.2165856     -10.22909      -2.8675149     -225.13306    
     56380  -228.58042      90             90             90            -1.5808871      15.023711     -9.7267489     -10.039623     -228.58042    
     56400  -216.58481      90             90             90            -4.7631791      17.345957     -16.665237     -14.970257     -216.58481    
     56420  -201.77606      90             90             90            -9.0561257      13.769521     -24.795071     -16.142827     -201.77606    
     56440  -203.23965      90             90             90            -10.514553      7.4303951     -23.626637     -15.347419     -203.23965    
     56460  -204.39318      90             90             90            -10.15705       0.075379633   -15.835121     -14.71141      -204.39318    
     56480  -212.24438      90             90             90            -6.5346614     -0.1259711     -4.0423598     -15.435653     -212.24438    
     56500  -210.20032      90             90             90            -3.1981705      8.6693096      2.1198754     -20.383697     -210.20032    
     56520  -203.37252      90             90             90            -0.52876584     15.876651      4.4048237     -21.867772     -203.37252    
     56540  -214.47493      90             90             90             4.4798851      15.794596      12.056971     -14.411912     -214.47493    
     56560  -219.23726      90             90             90             7.9552428      12.137049      20.409675     -8.6809965     -219.23726    
     56580  -219.49081      90             90             90             9.0919847      10.355354      24.576819     -7.6562196     -219.49081    
     56600  -219.33811      90             90             90             8.9300098      13.032551      23.92073      -10.163252     -219.33811    
     56620  -210.28374      90             90             90             5.8067393      10.561116      17.690365     -10.831263     -210.28374    
     56640  -206.45116      90             90             90             1.7043788      1.0678224      11.579735     -7.5344209     -206.45116    
     56660  -214.1742       90             90             90            -0.16590839    -3.1090653      7.5177864     -4.9064463     -214.1742     
     56680  -214.64519      90             90             90            -1.648481      -5.0934914      0.60375497    -0.45570669    -214.64519    
     56700  -212.24584      90             90             90            -2.6598279     -9.0717317     -3.2605514      4.3527994     -212.24584    
     56720  -222.85952      90             90             90            -1.9633749     -14.590584     -0.1380182      8.8384771     -222.85952    
     56740  -229.16861      90             90             90            -2.1172999     -22.461603      6.1066824      10.003021     -229.16861    
     56760  -223.84697      90             90             90            -4.5018919     -27.436107      9.9257151      4.0047165     -223.84697    
     56780  -212.35468      90             90             90            -7.452478      -30.164038      4.9564163      2.8501872     -212.35468    
     56800  -213.47704      90             90             90            -8.2099979     -28.913205     -1.7262646      6.009476      -213.47704    
     56820  -227.20917      90             90             90            -7.6573706     -25.400804     -6.4237587      8.8524507     -227.20917    
     56840  -224.87573      90             90             90            -8.7128324     -27.926245     -10.709728      12.497475     -224.87573    
     56860  -230.50337      90             90             90            -8.0050547     -27.832664     -4.5864505      8.4039504     -230.50337    
     56880  -236.03189      90             90             90            -6.1530047     -21.193477      4.0335258     -1.2990631     -236.03189    
     56900  -231.64886      90             90             90            -4.7525313     -12.755167      5.2202306     -6.7226577     -231.64886    
     56920  -233.76245      90             90             90            -2.6757124     -11.641702      6.2202641     -2.605699      -233.76245    
     56940  -225.81266      90             90             90            -1.9930195     -18.971957      4.6556066      8.3372914     -225.81266    
     56960  -232.47838      90             90             90            -0.8626823     -17.137508      5.2900206      9.2594403     -232.47838    
     56980  -234.82605      90             90             90            -1.9719482     -11.42369       6.5812556     -1.0734099     -234.82605    
     57000  -216.25987      90             90             90            -2.5721455     -6.5531995      2.8018167     -3.9650537     -216.25987    
     57020  -229.39898      90             90             90             2.7282051      2.1461152      4.1069166      1.9315836     -229.39898    
     57040  -228.33223      90             90             90             6.031118       5.0727808      4.645918       8.3746551     -228.33223    
     57060  -214.01119      90             90             90             6.3753644      8.4965093      1.4573583      9.1722257     -214.01119    
     57080  -220.77841      90             90             90             8.2377909      17.471295      4.6675011      2.5745772     -220.77841    
     57100  -220.29402      90             90             90             8.2681817      26.907661      2.3076263     -4.4107426     -220.29402    
     57120  -221.79551      90             90             90             6.5504185      35.835531     -6.5721578     -9.612118      -221.79551    
     57140  -213.87508      90             90             90             2.9024953      32.215        -12.794538     -10.712976     -213.87508    
     57160  -217.69669      90             90             90             1.2927563      23.268575     -13.357907     -6.032399      -217.69669    
     57180  -235.526        90             90             90             3.4159057      19.585271     -1.9521848     -7.3853695     -235.526      
     57200  -224.42045      90             90             90             4.681453       17.505617      10.648213     -14.109471     -224.42045    
     57220  -228.01603      90             90             90             9.3918957      19.88325       19.500093     -11.207656     -228.01603    
     57240  -244.66476      90             90             90             14.184766      19.312254      26.667144     -3.4250996     -244.66476    
     57260  -235.75564      90             90             90             12.662908      13.493799      25.404996     -0.91007168    -235.75564    
     57280  -230.72519      90             90             90             8.732923       9.3878486      22.181498     -5.3705776     -230.72519    
     57300  -229.17575      90             90             90             4.656173       4.9249589      20.661697     -11.618136     -229.17575    
     57320  -232.59401      90             90             90             3.2035121      2.2068621      17.022318     -9.6186442     -232.59401    
     57340  -243.80448      90             90             90             4.8403362      1.8396331      13.02205      -0.34067465    -243.80448    
     57360  -239.93283      90             90             90             6.4964927      3.7266697      8.1450547      7.6177538     -239.93283    
     57380  -243.196        90             90             90             8.8511157      9.6521911      7.7489523      9.1522038     -243.196      
     57400  -250.38945      90             90             90             9.435939       10.892606      11.301143      6.1140676     -250.38945    
     57420  -253.13144      90             90             90             8.2711799      11.238243      8.3991135      5.1761835     -253.13144    
     57440  -256.77391      90             90             90             5.8037074      13.444502     -2.4991662      6.4657867     -256.77391    
     57460  -254.64614      90             90             90             1.5027004      12.300244     -12.390204      4.598061      -254.64614    
     57480  -250.4083       90             90             90            -2.9397843      4.485437      -11.618471     -1.6863189     -250.4083     
     57500  -243.78633      90             90             90            -6.1476657     -6.049429      -7.7852576     -4.6083105     -243.78633    
     57520  -249.86997      90             90             90            -5.6054593     -7.8492131     -9.3818347      0.41466976    -249.86997    
     57540  -255.91197      90             90             90            -3.3905103     -6.9607152     -11.781464      8.5706479     -255.91197    
     57560  -242.61387      90             90             90            -2.8111759     -9.4254769     -11.261309      12.253258     -242.61387    
     57580  -237.06764      90             90             90            -2.5446432     -7.9365402     -7.7057715      8.008382      -237.06764    
     57600  -240.24779      90             90             90            -2.4048946     -5.3231937     -5.3398636      3.4483735     -240.24779    
     57620  -242.3821       90             90             90            -2.9599806     -1.9417818     -8.2772445      1.3390845     -242.3821     
     57640  -232.73184      90             90             90            -5.3085187      2.1949877     -19.396778      1.2762344     -232.73184    
     57660  -226.97915      90             90             90            -5.9647709      6.7718492     -27.941468      3.2753062     -226.97915    
     57680  -242.53338      90             90             90            -1.4714576      12.94115      -17.237781     -0.11774161    -242.53338    
     57700  -248.73535      90             90             90             3.2074531      14.650406      0.46241157    -5.4904584     -248.73535    
     57720  -245.25953      90             90             90             6.0081004      17.128909      8.0879025     -7.1925103     -245.25953    
     57740  -238.18167      90             90             90             5.2101887      20.707233      0.66935217    -5.7460189     -238.18167    
     57760  -223.32393      90             90             90             2.6343501      18.862631     -10.776653     -0.18292786    -223.32393    
     57780  -225.45353      90             90             90             1.1296866      16.855165     -11.704316     -1.7617896     -225.45353    
     57800  -223.11053      90             90             90             0.08949275     15.806233     -9.0899025     -6.4478521     -223.11053    
     57820  -227.44524      90             90             90             1.8359514      13.722606     -3.9576945     -4.257057      -227.44524    
     57840  -226.06289      90             90             90             4.5410791      8.1268084      2.3285031      3.1679257     -226.06289    
     57860  -220.52265      90             90             90             7.5930172      4.3197916      1.7200781      16.739182     -220.52265    
     57880  -227.63858      90             90             90             12.434766      10.75666       2.7151397      23.832498     -227.63858    
     57900  -224.49232      90             90             90             15.876797      17.228976      7.9905322      22.410884     -224.49232    
     57920  -228.91054      90             90             90             19.074364      16.574272      18.054149      22.594673     -228.91054    
     57940  -227.08743      90             90             90             18.911517      9.9555149      27.027178      19.751859     -227.08743    
     57960  -224.94708      90             90             90             15.39859       2.5037276      26.657543      17.034499     -224.94708    
     57980  -244.71617      90             90             90             12.548919     -3.1793349      29.287006      11.539086     -244.71617    
     58000  -233.64291      90             90             90             5.9286706     -13.82848       31.401495      0.21299742    -233.64291    
     58020  -221.19395      90             90             90             0.29809445    -21.831328      27.063379     -4.3377672     -221.19395    
     58040  -234.56033      90             90             90            -0.48345803    -22.381201      23.589424     -2.6585974     -234.56033    
     58060  -236.44076      90             90             90            -1.3104643     -23.673347      17.656921      2.0850337     -236.44076    
     58080  -243.88319      90             90             90            -0.95032634    -21.88198       13.463296      5.567705      -243.88319    
     58100  -251.1017       90             90             90            -1.0849969     -13.895376      9.1844146      1.4559702     -251.1017     
     58120  -248.94697      90             90             90            -3.5662697     -7.2095132     -0.35498587    -3.13431       -248.94697    
     58140  -257.85554      90             90             90            -5.1464827     -6.0931809     -7.15896       -2.1873071     -257.85554    
     58160  -264.36355      90             90             90            -7.1744928     -6.1113308     -15.352647     -0.059500979   -264.36355    
     58180  -257.08667      90             90             90            -9.7232014     -3.5351135     -23.074728     -2.5597625     -257.08667    
     58200  -258.92102      90             90             90            -9.1331833      2.0727219     -23.30447      -6.1678022     -258.92102    
     58220  -261.00736      90             90             90            -7.7877495      9.6099398     -22.863303     -10.109885     -261.00736    
     58240  -251.11869      90             90             90            -8.3715361      12.900137     -23.428801     -14.585945     -251.11869    
     58260  -256.75236      90             90             90            -7.2832488      12.049029     -24.101015     -9.7977606     -256.75236    
     58280  -259.56936      90             90             90            -4.9416788      9.8061468     -23.047872     -1.5833116     -259.56936    
     58300  -255.43967      90             90             90            -0.28488165     10.791906     -14.764985      3.1184336     -255.43967    
     58320  -261.43013      90             90             90             8.1740664      18.879292     -3.116862       8.7597694     -261.43013    
     58340  -257.50878      90             90             90             15.735341      27.625506      7.1824644      12.398053     -257.50878    
     58360  -250.57558      90             90             90             20.792328      27.971015      15.093147      19.312822     -250.57558    
     58380  -240.88956      90             90             90             23.219068      20.824625      20.461689      28.370891     -240.88956    
     58400  -238.52659      90             90             90             25.789814      16.834342      31.457339      29.077763     -238.52659    
     58420  -240.67029      90             90             90             27.600165      16.593405      42.554291      23.652799     -240.67029    
     58440  -234.21612      90             90             90             26.332867      19.551563      40.221464      19.225574     -234.21612    
     58460  -244.21555      90             90             90             24.659213      24.913897      28.05993       21.003812     -244.21555    
     58480  -236.48826      90             90             90             19.826085      23.615114      13.461828      22.401312     -236.48826    
     58500  -228.02826      90             90             90             15.467459      18.049343      7.0730537      21.279979     -228.02826    
     58520  -236.58412      90             90             90             12.495323      9.5449787      9.1787403      18.76225      -236.58412    
     58540  -224.07565      90             90             90             6.050176       1.9580107      7.1266725      9.0658447     -224.07565    
     58560  -232.50695      90             90             90             2.0381585      2.1019511      0.7684381      3.2440863     -232.50695    
     58580  -248.5294       90             90             90            -0.18596356     1.1193854     -5.679301       4.0020249     -248.5294     
     58600  -241.78493      90             90             90            -3.2393275      0.072948409   -13.787664      3.9967328     -241.78493    
     58620  -240.32676      90             90             90            -3.7951557     -0.90073521    -17.290028      6.805296      -240.32676    
     58640  -239.16536      90             90             90            -3.5342401     -3.198816      -12.690619      5.286715      -239.16536    
     58660  -242.86647      90             90             90            -2.9501063      0.39016692    -7.0045119     -2.2359739     -242.86647    
     58680  -249.59369      90             90             90            -2.9206725      0.85293182    -1.9674596     -7.6474898     -249.59369    
     58700  -247.28201      90             90             90            -5.0743561     -5.247023      -1.1409776     -8.8350678     -247.28201    
     58720  -240.56473      90             90             90            -8.6043088     -15.25265      -6.1191724     -4.4411042     -240.56473    
     58740  -245.21775      90             90             90            -10.821451     -23.568483     -5.4466503     -3.449219      -245.21775    
     58760  -258.87425      90             90             90            -10.351097     -22.554414      0.3791585     -8.8780367     -258.87425    
     58780  -257.36605      90             90             90            -8.9650098     -20.679299      5.7158146     -11.931545     -257.36605    
     58800  -259.3123       90             90             90            -5.1619493     -15.114303      9.9753403     -10.346885     -259.3123     
     58820  -258.4861       90             90             90            -1.3480403     -8.9395769      9.6182176     -4.7227617     -258.4861     
     58840  -249.86698      90             90             90             0.54177528    -12.426321      11.325224      2.7264227     -249.86698    
     58860  -262.0145       90             90             90             3.6805204     -12.043536      13.655883      9.4292139     -262.0145     
     58880  -260.97017      90             90             90             3.9154346     -9.0501663      8.6325639      12.163906     -260.97017    
     58900  -242.35887      90             90             90             0.055211274   -9.8109039     -0.30187334     10.278411     -242.35887    
     58920  -231.63616      90             90             90            -4.7394708     -11.417169     -9.896046       7.0948029     -231.63616    
     58940  -233.04989      90             90             90            -7.7226267     -10.704082     -16.789759      4.3259608     -233.04989    
     58960  -235.92907      90             90             90            -7.7934273     -4.6548421     -21.660955      2.9355151     -235.92907    
     58980  -225.45853      90             90             90            -6.5242483      0.9269458     -22.354823      1.8551326     -225.45853    
     59000  -226.60412      90             90             90            -3.1709403      5.60731       -15.604806      0.48467527    -226.60412    
     59020  -234.0883       90             90             90            -0.84955424     7.0409357     -10.726297      1.1366981     -234.0883     
     59040  -243.63809      90             90             90            -1.0086801      10.171659     -13.717695      0.51999528    -243.63809    
     59060  -248.83406      90             90             90            -3.0403649      17.818309     -22.483438     -4.4559662     -248.83406    
     59080  -233.5924       90             90             90            -7.1457613      17.554151     -28.904937     -10.086497     -233.5924     
     59100  -240.7517       90             90             90            -7.7350858      16.367865     -23.797824     -15.775298     -240.7517     
     59120  -249.84747      90             90             90            -7.5891279      15.970491     -14.786911     -23.950965     -249.84747    
     59140  -231.65013      90             90             90            -10.239689      9.7579804     -11.794874     -28.682174     -231.65013    
     59160  -230.4778       90             90             90            -8.8852999      7.1158158     -9.7381117     -24.033604     -230.4778     
     59180  -237.26745      90             90             90            -4.6680549      8.1502687     -5.9903222     -16.164111     -237.26745    
     59200  -228.1787       90             90             90            -2.0080352      7.3288375     -3.1936885     -10.159255     -228.1787     
     59220  -230.26841      90             90             90             0.41469616     1.1028371      4.1042248     -3.9629734     -230.26841    
     59240  -241.0051       90             90             90             1.012529      -5.5728348      8.9569101     -0.34648842    -241.0051     
     59260  -239.55147      90             90             90            -0.77402559    -5.8827944      5.7360819     -2.1753642     -239.55147    
     59280  -243.48762      90             90             90            -0.51568686    -4.2489672      5.6185986     -2.916692      -243.48762    
     59300  -243.774        90             90             90            -0.62296754    -7.2629707      5.44359       -0.049521868   -243.774      
     59320  -230.21764      90             90             90            -3.5385122     -17.689957      3.8226185      3.2518016     -230.21764    
     59340  -232.77569      90             90             90            -3.6325348     -24.625119      4.3628745      9.3646396     -232.77569    
     59360  -237.41784      90             90             90            -1.8657211     -23.527522      1.4346602      16.495699     -237.41784    
     59380  -229.33159      90             90             90            -0.74979428    -23.044562      1.1754318      19.619747     -229.33159    
     59400  -230.42099      90             90             90            -0.53249868    -18.454088      0.56275168     16.29384      -230.42099    
     59420  -220.38241      90             90             90            -1.5599936     -14.719043      1.2573514      8.7817109     -220.38241    
     59440  -207.26563      90             90             90            -2.7175767     -13.361101      4.7770752      0.4312959     -207.26563    
     59460  -211.14184      90             90             90            -2.0599756     -7.3148922      7.4947294     -6.359764      -211.14184    
     59480  -218.92868      90             90             90             2.5850011      0.63879493     12.365104     -5.2488958     -218.92868    
     59500  -216.41549      90             90             90             8.2060405      8.0103975      13.926731      2.6809936     -216.41549    
     59520  -222.77701      90             90             90             13.096661      15.046113      15.319233      8.9246354     -222.77701    
     59540  -228.9815       90             90             90             15.773021      18.388304      18.38296       10.5478       -228.9815     
     59560  -210.95126      90             90             90             14.363996      17.530984      14.413679      11.147327     -210.95126    
     59580  -211.04609      90             90             90             14.437035      17.291106      13.232666      12.787334     -211.04609    
     59600  -221.24753      90             90             90             14.34678       17.679967      15.438254      9.9221172     -221.24753    
     59620  -210.16269      90             90             90             10.525936      12.395854      16.946424      2.2355302     -210.16269    
     59640  -215.79814      90             90             90             7.1810596      3.0863911      18.500051     -0.043262978   -215.79814    
     59660  -224.32351      90             90             90             4.2362954     -4.8670521      15.039018      2.5369204     -224.32351    
     59680  -218.21287      90             90             90             1.5973248     -9.8892736      11.315254      3.3659943     -218.21287    
     59700  -219.7347       90             90             90            -0.25292393    -14.304578      10.995627      2.550179      -219.7347     
     59720  -220.06802      90             90             90            -1.6655769     -20.266323      15.063954      0.20563913    -220.06802    
     59740  -225.69606      90             90             90            -1.7941377     -18.466454      17.743855     -4.6598138     -225.69606    
     59760  -233.91427      90             90             90            -1.1334401     -8.0923437      12.734596     -8.042573      -233.91427    
     59780  -231.84943      90             90             90            -1.9379224     -0.25931732     3.9591854     -9.5136351     -231.84943    
     59800  -221.92584      90             90             90            -4.056011       1.5392079     -7.1032196     -6.6040214     -221.92584    
     59820  -226.23464      90             90             90            -3.5478611      0.20424659    -9.3008599     -1.5469701     -226.23464    
     59840  -237.02266      90             90             90            -0.71316156     3.0042193     -2.3776756     -2.7660284     -237.02266    
     59860  -229.63858      90             90             90             0.28900145     7.3823219     -1.3105833     -5.2047342     -229.63858    
     59880  -233.51667      90             90             90             1.728674       7.6546634     -3.0105208      0.54187948    -233.51667    
     59900  -244.37771      90             90             90             2.9893241      5.0966533     -7.9742446      11.845564     -244.37771    
     59920  -238.77808      90             90             90             1.2861185     -0.21094869    -14.496317      18.565621     -238.77808    
     59940  -231.40441      90             90             90            -0.6806427     -1.8644392     -14.368747      14.191258     -231.40441    
     59960  -225.42175      90             90             90            -2.9945564     -0.14242548    -13.857069      5.0158254     -225.42175    
     59980  -226.49075      90             90             90            -5.5773312      4.0269125     -17.269806     -3.4890997     -226.49075    
     60000  -237.1034       90             90             90            -7.0965569      7.7971236     -24.369215     -4.7175788     -237.1034     
     60020  -235.88634      90             90             90            -8.603383       2.5714758     -29.391271      1.0096465     -235.88634    
     60040  -218.43917      90             90             90            -9.3023661      0.50617552    -29.398829      0.98555466    -218.43917    
     60060  -215.64645      90             90             90            -5.4279227      10.821624     -25.979514     -1.1258786     -215.64645    
     60080  -222.54793      90             90             90             0.20979505     22.471491     -21.240899     -0.60120695    -222.54793    
     60100  -213.49965      90             90             90             1.8969943      25.088703     -20.073805      0.67608476    -213.49965    
     60120  -202.89231      90             90             90             0.81986086     18.799897     -19.680779      3.3404647     -202.89231    
     60140  -206.22123      90             90             90             1.0546239      13.048581     -14.264762      4.380053      -206.22123    
     60160  -217.48367      90             90             90             1.5826357      9.1545725     -5.4642621      1.0575966     -217.48367    
     60180  -221.85212      90             90             90            -0.45135608     4.737684       0.092278122   -6.1840304     -221.85212    
     60200  -216.02148      90             90             90            -3.5555319     -1.1495083      3.8147438     -13.331831     -216.02148    
     60220  -207.18994      90             90             90            -5.3079066     -9.3735906      8.113684      -14.663813     -207.18994    
     60240  -214.27542      90             90             90            -2.5540897     -12.528229      16.006087     -11.140127     -214.27542    
     60260  -225.51572      90             90             90             1.9064471     -11.046133      26.099854     -9.3343796     -225.51572    
     60280  -210.08368      90             90             90             1.81944       -9.0400986      26.92821      -12.429791     -210.08368    
     60300  -219.7848       90             90             90             3.3621322     -2.4689492      23.465095     -10.909749     -219.7848     
     60320  -243.713        90             90             90             7.1364059      0.18959299     25.697135     -4.4775108     -243.713      
     60340  -228.61692      90             90             90             8.1191192     -8.3018595      28.146267      4.5129503     -228.61692    
     60360  -229.97128      90             90             90             13.367811     -7.9793628      30.622662      17.460133     -229.97128    
     60380  -235.70042      90             90             90             19.867157      8.0824879      25.24672       26.272263     -235.70042    
     60400  -228.93462      90             90             90             21.311141      18.402847      14.36249       31.168084     -228.93462    
     60420  -240.57981      90             90             90             20.615751      17.060622      11.267802      33.518828     -240.57981    
     60440  -237.93312      90             90             90             15.360226      6.4574578      7.0188937      32.604327     -237.93312    
     60460  -230.0958       90             90             90             7.5685017     -8.3833818      0.71927553     30.369611     -230.0958     
     60480  -231.92323      90             90             90            -0.93207701    -15.033875     -9.766932       22.004576     -231.92323    
     60500  -219.89245      90             90             90            -10.431606     -17.526571     -27.159701      13.391454     -219.89245    
     60520  -220.1809       90             90             90            -15.355297     -20.071238     -34.187642      8.1929891     -220.1809     
     60540  -234.10608      90             90             90            -14.516871     -18.465086     -27.386689      2.3011628     -234.10608    
     60560  -235.32725      90             90             90            -12.925315     -19.812686     -13.595832     -5.367427      -235.32725    
     60580  -231.14557      90             90             90            -10.892583     -18.797734      0.10408593    -13.984102     -231.14557    
     60600  -236.42967      90             90             90            -6.7141532     -10.198354      2.6863226     -12.630428     -236.42967    
     60620  -240.46456      90             90             90            -2.1408236     -6.2561542      1.7840171     -1.9503338     -240.46456    
     60640  -235.71332      90             90             90             1.5095539     -7.301943       8.5876446      3.2429602     -235.71332    
     60660  -229.72147      90             90             90             4.4913887     -7.4694174      20.402768      0.54081593    -229.72147    
     60680  -221.81854      90             90             90             6.5428757     -4.8637338      29.256176     -4.7638151     -221.81854    
     60700  -217.97429      90             90             90             7.0264236      0.16577304     27.532021     -6.6185238     -217.97429    
     60720  -217.93933      90             90             90             7.5337771      4.9433318      21.700962     -4.0429622     -217.93933    
     60740  -216.33711      90             90             90             10.109586      9.1039287      19.436102      1.7887282     -216.33711    
     60760  -215.51923      90             90             90             12.754401      10.586772      20.240467      7.4359639     -215.51923    
     60780  -228.35237      90             90             90             15.168532      12.327625      25.082861      8.0951105     -228.35237    
     60800  -248.68812      90             90             90             16.842006      18.893434      25.511321      6.1212644     -248.68812    
     60820  -245.46152      90             90             90             15.316265      23.211965      20.832429      1.9044006     -245.46152    
     60840  -240.55082      90             90             90             13.525319      23.87458       17.617489     -0.91611192    -240.55082    
     60860  -243.89781      90             90             90             12.364537      24.082465      12.179009      0.83213624    -243.89781    
     60880  -234.40962      90             90             90             9.6747335      23.9231        3.3939767      1.7071233     -234.40962    
     60900  -225.71877      90             90             90             8.0874246      25.593815     -5.1812814      3.8497405     -225.71877    
     60920  -227.21603      90             90             90             8.8644987      25.987716     -7.9304657      8.536246      -227.21603    
     60940  -230.15594      90             90             90             10.966953      22.777347     -5.6123099      15.735823     -230.15594    
     60960  -234.71968      90             90             90             11.386369      18.074069     -9.5465267      25.631564     -234.71968    
     60980  -231.59602      90             90             90             6.6463557      12.527015     -19.265801      26.677854     -231.59602    
     61000  -221.11842      90             90             90            -3.7822684      2.2855459     -29.410359      15.778008     -221.11842    
     61020  -222.51209      90             90             90            -12.395015     -10.865665     -29.177637      2.8582556     -222.51209    
     61040  -234.00391      90             90             90            -15.898494     -20.767531     -15.793929     -11.134024     -234.00391    
     61060  -221.3853       90             90             90            -18.748466     -27.75071      -7.0193305     -21.475358     -221.3853     
     61080  -216.89136      90             90             90            -17.890331     -28.153636     -5.2217502     -20.295607     -216.89136    
     61100  -232.05987      90             90             90            -12.21565      -17.471771     -6.7162396     -12.45894      -232.05987    
     61120  -217.83883      90             90             90            -7.0269755     -4.8565878     -7.3642271     -8.8601115     -217.83883    
     61140  -221.91357      90             90             90             2.495938       5.0411691      7.5335349     -5.08689       -221.91357    
     61160  -233.07606      90             90             90             12.499091      9.2615667      29.21956      -0.98385403    -233.07606    
     61180  -215.99934      90             90             90             15.566778      9.0216552      38.470938     -0.79225832    -215.99934    
     61200  -226.05381      90             90             90             18.323448      14.03429       33.501712      7.4343407     -226.05381    
     61220  -231.62038      90             90             90             18.940825      15.52179       22.331801      18.968885     -231.62038    
     61240  -220.69457      90             90             90             17.258068      9.3325443      17.924471      24.517189     -220.69457    
     61260  -230.45113      90             90             90             18.114796      6.8902553      20.830138      26.623996     -230.45113    
     61280  -234.53888      90             90             90             17.63878       8.9276854      20.351673      23.636981     -234.53888    
     61300  -242.29568      90             90             90             16.339535      12.361248      16.258306      20.39905      -242.29568    
     61320  -248.27298      90             90             90             13.71343       13.017385      12.168325      15.95458      -248.27298    
     61340  -233.78825      90             90             90             7.9735703      12.228024      5.2571747      6.4355121     -233.78825    
     61360  -226.1423       90             90             90             4.3058676      16.316369     -3.7639266      0.36516105    -226.1423     
     61380  -229.75372      90             90             90             2.817316       19.010922     -9.0216993     -1.5372746     -229.75372    
     61400  -240.32372      90             90             90             0.58920076     17.652393     -13.792748     -2.0920427     -240.32372    
     61420  -240.37331      90             90             90            -1.9173503      17.390322     -20.724322     -2.41805       -240.37331    
     61440  -244.44956      90             90             90            -4.2734039      15.313675     -27.169465     -0.96442238    -244.44956    
     61460  -247.7323       90             90             90            -8.8210803      6.5882817     -30.557163     -2.4943593     -247.7323     
     61480  -235.41201      90             90             90            -17.099289     -5.2364965     -32.532078     -13.529294     -235.41201    
     61500  -239.26409      90             90             90            -23.167865     -12.664996     -37.691874     -19.146725     -239.26409    
     61520  -244.00721      90             90             90            -25.919297     -20.601444     -39.55371      -17.602738     -244.00721    
     61540  -238.6241       90             90             90            -24.933889     -31.202077     -27.470407     -16.129181     -238.6241     
     61560  -234.72018      90             90             90            -19.962024     -33.730546     -14.194372     -11.961154     -234.72018    
     61580  -225.28375      90             90             90            -14.720356     -28.999966     -5.8394099     -9.3216915     -225.28375    
     61600  -225.3287       90             90             90            -10.576896     -23.194898      0.19912488    -8.7349147     -225.3287     
     61620  -225.54544      90             90             90            -6.8919785     -16.262918      5.7925495     -10.205567     -225.54544    
     61640  -220.87175      90             90             90            -2.7020492     -12.605934      16.594534     -12.094747     -220.87175    
     61660  -211.43796      90             90             90             1.4825742     -11.108916      21.622463     -6.0658241     -211.43796    
     61680  -210.83418      90             90             90             6.4291356     -8.2583437      20.762452      6.7832983     -210.83418    
     61700  -212.64027      90             90             90             11.211503     -5.5552866      20.226898      18.962897     -212.64027    
     61720  -205.42501      90             90             90             15.442353     -1.2784092      17.882435      29.723033     -205.42501    
     61740  -220.22966      90             90             90             21.463847      6.2696059      24.129944      33.99199      -220.22966    
     61760  -219.05579      90             90             90             22.89916       9.2246484      32.847998      26.624835     -219.05579    
     61780  -219.6724       90             90             90             21.102423      9.1248401      30.00481       24.177618     -219.6724     
     61800  -229.65455      90             90             90             18.20539       13.338279      15.31799       25.959901     -229.65455    
     61820  -210.65818      90             90             90             12.547931      15.742367     -5.0882729      26.989699     -210.65818    
     61840  -216.35435      90             90             90             10.481487      15.169671     -9.9326378      26.207428     -216.35435    
     61860  -222.20273      90             90             90             10.052074      12.839494      0.17355047     17.143177     -222.20273    
     61880  -231.89772      90             90             90             9.798916       8.4687186      9.1538753      11.774154     -231.89772    
     61900  -234.61957      90             90             90             7.4600203      7.1585629      13.818357      1.403141      -234.61957    
     61920  -220.7446       90             90             90             2.2664559      9.6802169      13.213713     -16.094562     -220.7446     
     61940  -236.04416      90             90             90            -0.20779007     14.103718      13.374988     -28.102077     -236.04416    
     61960  -231.23952      90             90             90            -4.6446434      12.846348      13.747091     -40.527369     -231.23952    
     61980  -233.24884      90             90             90            -6.9308041      4.8535466      13.648816     -39.294775     -233.24884    
     62000  -245.3412       90             90             90            -6.6876236     -5.9837126      17.048486     -31.127644     -245.3412     
     62020  -240.01732      90             90             90            -7.0999975     -12.791277      16.083244     -24.59196      -240.01732    
     62040  -258.46247      90             90             90            -4.1001509     -10.851764      12.799546     -14.248234     -258.46247    
     62060  -246.42752      90             90             90            -5.9719513     -9.0473876      10.457504     -19.32597      -246.42752    
     62080  -240.64388      90             90             90            -8.8077847     -8.7118524      5.6683174     -23.379819     -240.64388    
     62100  -257.17538      90             90             90            -8.6640321     -9.1463329      2.5948719     -19.440635     -257.17538    
     62120  -242.85138      90             90             90            -9.2416867     -8.8520171      2.286645      -21.159688     -242.85138    
     62140  -245.06696      90             90             90            -3.8894582     -2.5276967      3.2917545     -12.432432     -245.06696    
     62160  -246.71496      90             90             90             3.2990219      5.1554436      5.3669832     -0.625361      -246.71496    
     62180  -235.11801      90             90             90             8.2767824      10.45435       5.3834539      8.9925432     -235.11801    
     62200  -228.26072      90             90             90             12.406363      10.766669      8.0890458      18.363373     -228.26072    
     62220  -223.86227      90             90             90             14.812352      9.6996297      16.233524      18.503903     -223.86227    
     62240  -225.26209      90             90             90             15.649146      11.754116      19.715339      15.477983     -225.26209    
     62260  -219.77358      90             90             90             13.479529      14.318765      16.292322      9.827499      -219.77358    
     62280  -218.051        90             90             90             10.682922      13.997141      11.632704      6.4189203     -218.051      
     62300  -212.2512       90             90             90             8.486904       8.3401748      9.0244446      8.0960925     -212.2512     
     62320  -216.52436      90             90             90             10.87388       5.141062       14.137062      13.343516     -216.52436    
     62340  -227.39135      90             90             90             16.361873      6.4138068      20.494376      22.177436     -227.39135    
     62360  -218.3401       90             90             90             17.428519      6.6411555      18.760129      26.884272     -218.3401     
     62380  -220.38457      90             90             90             15.199462      7.2337041      13.469829      24.894854     -220.38457    
     62400  -220.95489      90             90             90             8.5003955      5.8257753      2.779559       16.895852     -220.95489    
     62420  -218.90792      90             90             90            -0.088113017    0.68232972    -7.9899851      7.0433163     -218.90792    
     62440  -222.49399      90             90             90            -5.7069372     -5.1532379     -12.354767      0.38719314    -222.49399    
     62460  -225.29529      90             90             90            -8.4360384     -7.3228873     -13.60046      -4.3847682     -225.29529    
     62480  -235.93403      90             90             90            -8.6975686     -7.5993071     -10.760718     -7.7326811     -235.93403    
     62500  -230.38124      90             90             90            -8.9497883     -9.2943223     -12.056395     -5.4986474     -230.38124    
     62520  -237.05724      90             90             90            -5.2712642     -3.9029919     -17.534706      5.6239055     -237.05724    
     62540  -243.72564      90             90             90            -1.3262613      3.3342746     -22.039861      14.726802     -243.72564    
     62560  -229.42302      90             90             90            -2.2456282      4.2659503     -27.551335      16.5485       -229.42302    
     62580  -239.63502      90             90             90            -2.9826223      4.3494656     -28.951087      15.653754     -239.63502    
     62600  -238.60106      90             90             90            -5.4023579      2.1542932     -29.905621      11.544254     -238.60106    
     62620  -230.3823       90             90             90            -6.7649034      1.1835413     -31.05868       9.580428      -230.3823     
     62640  -241.91619      90             90             90            -3.7830623      5.2639762     -27.940571      11.327408     -241.91619    
     62660  -243.68205      90             90             90            -2.1075944      7.5502662     -26.951141      13.078092     -243.68205    
     62680  -252.15516      90             90             90            -0.9631015      8.4193159     -23.145264      11.836643     -252.15516    
     62700  -258.64375      90             90             90            -0.65775127     5.8149002     -16.124128      8.3359742     -258.64375    
     62720  -239.56553      90             90             90            -3.0458201     -2.8508229     -11.943033      5.656396      -239.56553    
     62740  -238.23157      90             90             90            -2.2556512     -0.73688551    -5.8295611     -0.20050709    -238.23157    
     62760  -248.37986      90             90             90            -1.2186732      11.163224     -5.7136009     -9.1056426     -248.37986    
     62780  -233.18513      90             90             90            -4.8434812      11.99809      -11.090027     -15.438506     -233.18513    
     62800  -226.95887      90             90             90            -6.9318742      4.6137598     -9.8318697     -15.577513     -226.95887    
     62820  -228.75566      90             90             90            -6.3568226     -0.9949945     -3.2606097     -14.814863     -228.75566    
     62840  -221.99618      90             90             90            -4.9720059     -4.5389443      6.9438556     -17.320929     -221.99618    
     62860  -227.82744      90             90             90            -1.3191174     -1.6414309      13.865662     -16.181583     -227.82744    
     62880  -224.4416       90             90             90             1.0738876      1.8457332      15.235531     -13.859601     -224.4416     
     62900  -223.45351      90             90             90             3.658862       4.9286427      17.069266     -11.021323     -223.45351    
     62920  -230.81836      90             90             90             6.9403148      8.1814957      16.010397     -3.3709487     -230.81836    
     62940  -225.9909       90             90             90             8.483085       6.0953237      15.027437      4.3264945     -225.9909     
     62960  -226.89728      90             90             90             7.5674925      3.1270085      10.00628       9.5691892     -226.89728    
     62980  -216.56013      90             90             90             4.6392865      0.6429434      1.6232107      11.651706     -216.56013    
     63000  -225.99135      90             90             90             4.5984527     -4.2327438     -1.3878189      19.415921     -225.99135    
     63020  -235.76186      90             90             90             5.6045665     -7.0949336     -6.2381322      30.146765     -235.76186    
     63040  -223.63822      90             90             90             4.0069777     -3.7925545     -12.950648      28.764136     -223.63822    
     63060  -238.30169      90             90             90             4.4198972      3.0440375     -13.365904      23.581558     -238.30169    
     63080  -230.35235      90             90             90             1.3112153      3.555796      -12.76407       13.14192      -230.35235    
     63100  -210.85519      90             90             90            -3.152332      -1.5618825     -10.542883      2.6477701     -210.85519    
     63120  -232.53505      90             90             90            -2.3898614     -2.8106597     -7.9819326      3.6230081     -232.53505    
     63140  -235.26964      90             90             90            -2.8639092     -0.16671667    -7.1692357     -1.2557752     -235.26964    
     63160  -237.91916      90             90             90            -2.4584812      2.5854961     -4.6003724     -5.3605674     -237.91916    
     63180  -249.93661      90             90             90             0.50945446     7.5648916     -2.7361176     -3.3004106     -249.93661    
     63200  -233.4643       90             90             90             2.0313895      11.260193      1.8138944     -6.9799186     -233.4643     
     63220  -235.26018      90             90             90             6.8106611      12.255279      9.0812965     -0.90459269    -235.26018    
     63240  -237.54122      90             90             90             10.469936      13.350755      11.578637      6.4804167     -237.54122    
     63260  -223.9207       90             90             90             9.9756272      12.83559       10.471178      6.6201135     -223.9207     
     63280  -228.86943      90             90             90             10.81859       13.236777      11.499162      7.7198323     -228.86943    
     63300  -232.44885      90             90             90             12.49855       16.578463      18.303627      2.613559      -232.44885    
     63320  -238.81508      90             90             90             14.792026      18.865527      24.108427      1.4021248     -238.81508    
     63340  -247.06158      90             90             90             15.411639      18.825494      21.922612      5.4868111     -247.06158    
     63360  -246.07956      90             90             90             12.160938      18.03469       18.725292     -0.27716804    -246.07956    
     63380  -239.31087      90             90             90             7.1527779      13.174633      17.637252     -9.3535515     -239.31087    
     63400  -234.28567      90             90             90             2.8548701      4.3659785      17.363925     -13.165293     -234.28567    
     63420  -239.28869      90             90             90             0.94912325    -1.642557       16.414337     -11.924411     -239.28869    
     63440  -230.95328      90             90             90            -2.0981134     -12.078657      13.10266      -7.3183429     -230.95328    
     63460  -223.83444      90             90             90            -4.5708602     -24.627312      13.281717     -2.3669853     -223.83444    
     63480  -233.86968      90             90             90            -3.7151519     -25.910551      16.499268     -1.7341729     -233.86968    
     63500  -228.53219      90             90             90            -3.3709091     -21.044646      14.913373     -3.9814544     -228.53219    
     63520  -218.74365      90             90             90            -3.282234      -15.334512      9.9762918     -4.4884815     -218.74365    
     63540  -217.7961       90             90             90            -3.1043568     -12.044956      6.2154235     -3.4835376     -217.7961     
     63560  -219.28887      90             90             90            -3.9179393     -11.340376      2.8296297     -3.243072      -219.28887    
     63580  -229.84979      90             90             90            -3.3735539     -3.447557       1.2579764     -7.931081      -229.84979    
     63600  -233.36917      90             90             90            -1.9112117      6.3771245      0.65970951    -12.770469     -233.36917    
     63620  -225.82663      90             90             90            -0.22499045     15.962665     -2.7782443     -13.859392     -225.82663    
     63640  -223.11333      90             90             90             2.0662154      25.731098     -5.1521613     -14.38029      -223.11333    
     63660  -230.39766      90             90             90             4.6152804      29.922388     -4.8649776     -11.211569     -230.39766    
     63680  -230.22206      90             90             90             4.790044       30.623779     -7.6812224     -8.572425      -230.22206    
     63700  -234.12084      90             90             90             3.8897897      31.909236     -12.349157     -7.8907106     -234.12084    
     63720  -249.43458      90             90             90             2.6518433      31.627883     -16.208472     -7.4638806     -249.43458    
     63740  -238.80251      90             90             90            -2.9879158      25.468469     -21.746077     -12.68614      -238.80251    
     63760  -239.87415      90             90             90            -5.9911646      18.331461     -27.026915     -9.2780398     -239.87415    
     63780  -246.41626      90             90             90            -5.6377229      10.627341     -29.022618      1.4821077     -246.41626    
     63800  -239.45178      90             90             90            -4.6190063      6.7634761     -23.712413      3.0919179     -239.45178    
     63820  -254.25049      90             90             90             0.029694558    7.7457738     -9.3120832      1.655393      -254.25049    
     63840  -250.92493      90             90             90             1.129787       1.9804726      3.427287      -2.0183986     -250.92493    
     63860  -240.51054      90             90             90            -0.34591779    -3.430726       5.3517876     -2.958815      -240.51054    
     63880  -241.83717      90             90             90            -0.88890903    -7.7677557      1.7053167      3.3957119     -241.83717    
     63900  -232.6647       90             90             90            -2.2197758     -17.040024      3.3639124      7.0167841     -232.6647     
     63920  -236.86019      90             90             90            -1.0859335     -22.784484      13.019691      6.5069924     -236.86019    
     63940  -233.32376      90             90             90            -0.26926591    -23.724216      19.933484      2.9829348     -233.32376    
     63960  -229.9956       90             90             90             1.4619262     -17.157678      17.720669      3.8227875     -229.9956     
     63980  -242.93817      90             90             90             5.8844867     -8.0270793      12.445072      13.235467     -242.93817    
     64000  -245.32084      90             90             90             7.6855906     -5.8140959      9.009303       19.861565     -245.32084    
     64020  -247.6113       90             90             90             6.6086043     -7.1008326      3.6684175      23.258228     -247.6113     
     64040  -237.98211      90             90             90             1.8151619     -11.85528      -5.8641076      23.164873     -237.98211    
     64060  -225.21065      90             90             90            -4.9423278     -15.858624     -11.891494      12.923134     -225.21065    
     64080  -222.75524      90             90             90            -7.0355087     -16.234132     -12.992858      8.1204646     -222.75524    
     64100  -212.88861      90             90             90            -5.6551358     -12.421879     -13.873809      9.3302812     -212.88861    
     64120  -209.25045      90             90             90            -1.1800511     -3.6186657     -8.7090392      8.7875517     -209.25045    
     64140  -211.10792      90             90             90             4.192199       4.7221746      0.38842236     7.466         -211.10792    
     64160  -212.12646      90             90             90             9.1780332      10.27665       11.528839      5.7286108     -212.12646    
     64180  -221.33187      90             90             90             14.356454      11.92888       21.606023      9.5344583     -221.33187    
     64200  -225.07204      90             90             90             15.410515      10.106799      24.612845      11.5119       -225.07204    
     64220  -223.6043       90             90             90             10.96239       1.7436416      24.258937      6.8845933     -223.6043     
     64240  -228.82694      90             90             90             3.7812021     -12.838524      16.714336      7.4677942     -228.82694    
     64260  -229.55849      90             90             90            -3.1771682     -24.497872      6.6493837      8.316984      -229.55849    
     64280  -229.64838      90             90             90            -6.52522       -29.157829      4.7842285      4.7979403     -229.64838    
     64300  -226.21665      90             90             90            -8.2284965     -30.151461      4.4367575      1.0292142     -226.21665    
     64320  -224.60845      90             90             90            -10.536516     -31.023187      4.7649443     -5.3513038     -224.60845    
     64340  -231.62806      90             90             90            -12.115836     -27.944568      3.26968       -11.672619     -231.62806    
     64360  -236.21215      90             90             90            -12.650906     -20.64819      -3.3042287     -14.000299     -236.21215    
     64380  -238.03425      90             90             90            -10.640424     -12.670569     -7.6211733     -11.629528     -238.03425    
     64400  -237.12545      90             90             90            -5.6979286     -5.4640853     -6.2870082     -5.3426922     -237.12545    
     64420  -244.09607      90             90             90             1.1017427     -1.0659811      3.3817648      0.98944454    -244.09607    
     64440  -247.60508      90             90             90             6.7344908      8.3985648      9.8765863      1.9283215     -247.60508    
     64460  -237.59595      90             90             90             11.64919       24.924264      4.9623536      5.0609524     -237.59595    
     64480  -245.7267       90             90             90             18.420816      41.259252     -0.10128215     14.10448      -245.7267     
     64500  -243.27374      90             90             90             21.870139      48.187836      0.40230858     17.020273     -243.27374    
     64520  -234.20947      90             90             90             21.590814      41.46564       6.6416295      16.665172     -234.20947    
     64540  -239.66344      90             90             90             19.643228      35.410744      8.3362826      15.182656     -239.66344    
     64560  -231.39101      90             90             90             13.977883      30.20257       3.1490532      8.5820266     -231.39101    
     64580  -227.84169      90             90             90             9.1368763      24.422495     -1.1579549      4.1460891     -227.84169    
     64600  -226.56         90             90             90             6.1659619      21.795708     -6.5619541      3.2641316     -226.56       
     64620  -220.34061      90             90             90             3.8800244      11.734144     -6.8984202      6.8043493     -220.34061    
     64640  -231.60777      90             90             90             4.2199852      0.47995308     3.22335        8.9566524     -231.60777    
     64660  -238.39639      90             90             90             6.6748549     -5.3092578      16.008195      9.3256269     -238.39639    
     64680  -241.09134      90             90             90             9.6499587     -5.4679368      19.19123       15.226582     -241.09134    
     64700  -237.78662      90             90             90             10.238072      0.27872614     11.414827      19.020663     -237.78662    
     64720  -233.19252      90             90             90             7.8071814     -0.019217895    8.3684506      15.072312     -233.19252    
     64740  -235.8942       90             90             90             3.8947757     -6.2023259      9.9353029      7.9513501     -235.8942     
     64760  -237.72182      90             90             90            -0.044175696   -10.067068      8.642658       1.2918833     -237.72182    
     64780  -237.93711      90             90             90            -3.5392364     -10.738508      4.9899816     -4.8691824     -237.93711    
     64800  -230.20505      90             90             90            -6.4252848     -10.373592      0.91336498    -9.8156274     -230.20505    
     64820  -241.42236      90             90             90            -5.5901257     -7.8139317     -1.3080131     -7.6484321     -241.42236    
     64840  -249.46763      90             90             90            -4.3478406     -3.7335738     -3.4201291     -5.8898188     -249.46763    
     64860  -238.02162      90             90             90            -5.0347431     -4.309437       0.3965142     -11.191306     -238.02162    
     64880  -235.82216      90             90             90            -5.0122611     -3.5340429      4.114563      -15.617303     -235.82216    
     64900  -233.67609      90             90             90            -5.5627213     -0.20378717    -0.21684316    -16.267534     -233.67609    
     64920  -239.1881       90             90             90            -5.0149033      3.7831185     -6.7868167     -12.041012     -239.1881     
     64940  -238.53344      90             90             90            -2.7314247      11.751319     -14.889313     -5.0562802     -238.53344    
     64960  -230.26708      90             90             90             1.2793679      16.564269     -16.363971      3.6378065     -230.26708    
     64980  -234.61417      90             90             90             7.0492796      21.211254     -12.636863      12.573448     -234.61417    
     65000  -231.86287      90             90             90             10.329359      27.225904     -11.342451      15.104623     -231.86287    
     65020  -241.32962      90             90             90             12.383973      27.557947     -4.8428276      14.436798     -241.32962    
     65040  -245.82796      90             90             90             11.399884      21.129633     -1.0229809      14.092999     -245.82796    
     65060  -238.60285      90             90             90             7.9963662      11.758258     -3.5925873      15.823428     -238.60285    
     65080  -248.26517      90             90             90             6.9508335      10.090165     -7.0279125      17.790248     -248.26517    
     65100  -246.94473      90             90             90             3.6049058      9.8890655     -12.181762      13.107414     -246.94473    
     65120  -238.79127      90             90             90            -1.5471165      3.3854704     -13.29922       5.2724002     -238.79127    
     65140  -227.80945      90             90             90            -5.3493335     -3.0154241     -12.495482     -0.53709431    -227.80945    
     65160  -215.46274      90             90             90            -6.6702875     -9.3606843     -8.6461541     -2.0040241     -215.46274    
     65180  -220.14557      90             90             90            -4.5759684     -11.25643       0.34912684    -2.8206022     -220.14557    
     65200  -224.59603      90             90             90            -3.3074792     -6.0501539      2.9403945     -6.8126783     -224.59603    
     65220  -224.84114      90             90             90            -4.3610589     -2.3823667     -1.0844281     -9.6163819     -224.84114    
     65240  -227.60044      90             90             90            -4.4331523      1.9538436     -4.6649547     -10.588346     -227.60044    
     65260  -239.88254      90             90             90            -1.1624829      9.1113132     -4.7058986     -7.8928632     -239.88254    
     65280  -239.08311      90             90             90             0.6440221      13.44836      -2.4005552     -9.115739      -239.08311    
     65300  -225.81005      90             90             90            -1.8302548      12.527684     -3.1721705     -14.846278     -225.81005    
     65320  -231.65707      90             90             90            -4.0129319      8.0778548     -5.5500642     -14.566586     -231.65707    
     65340  -232.4042       90             90             90            -6.1966842      3.1835437     -7.3835946     -14.390002     -232.4042     
     65360  -225.07297      90             90             90            -6.8257694     -0.48399717    -5.9439062     -14.049405     -225.07297    
     65380  -220.23524      90             90             90            -4.9291252     -4.2101158      0.029689219   -10.606949     -220.23524    
     65400  -212.40149      90             90             90            -2.9163204     -8.5978511      3.2738009     -3.4249109     -212.40149    
     65420  -218.72266      90             90             90             0.14080083    -9.2901151      2.0567512      7.6557664     -218.72266    
     65440  -232.14578      90             90             90             4.0508523     -3.4095151      1.9972493      13.564823     -232.14578    
     65460  -238.05131      90             90             90             7.0810912      0.75098173     1.6589558      18.833336     -238.05131    
     65480  -233.90819      90             90             90             7.4784766     -0.79225607    -0.13502355     23.36271      -233.90819    
     65500  -235.11907      90             90             90             6.1928237     -3.8535658     -0.34212113     22.774158     -235.11907    
     65520  -238.2302       90             90             90             3.3739306     -8.5085386     -8.1836134      26.813944     -238.2302     
     65540  -228.68565      90             90             90            -0.92277084    -11.548808     -20.745711      29.526206     -228.68565    
     65560  -227.74924      90             90             90            -1.8431997     -9.1243942     -21.801151      25.395946     -227.74924    
     65580  -230.35005      90             90             90             0.23046811    -4.6769863     -14.453812      19.822203     -230.35005    
     65600  -229.52054      90             90             90             2.0049617     -3.6548044     -5.6658219      15.335511     -229.52054    
     65620  -229.09331      90             90             90             1.9319139     -9.4025251      1.7755571      13.42271      -229.09331    
     65640  -221.66261      90             90             90            -1.1263436     -15.982752      4.0709701      8.5327518     -221.66261    
     65660  -221.54336      90             90             90            -3.2737508     -17.74026       5.2447003      2.6743078     -221.54336    
     65680  -226.7957       90             90             90            -2.7631656     -17.281138      8.0369027      0.95473889    -226.7957     
     65700  -227.31003      90             90             90            -1.240496      -17.89429       14.792385     -0.61958296    -227.31003    
     65720  -236.44799      90             90             90             2.0933371     -15.324566      22.472411     -0.86783402    -236.44799    
     65740  -241.66944      90             90             90             5.2344837     -4.1994872      21.286374     -1.3834355     -241.66944    
     65760  -229.25218      90             90             90             6.2937827      6.1556711      17.860878     -5.1352009     -229.25218    
     65780  -224.79468      90             90             90             7.1865063      9.2674507      17.990981     -5.698913      -224.79468    
     65800  -229.75418      90             90             90             6.2660194      8.8388739      13.848312     -3.8891277     -229.75418    
     65820  -224.47521      90             90             90             0.64364127     3.927896       2.8145728     -4.811545      -224.47521    
     65840  -217.13379      90             90             90            -5.8889359     -4.2664401     -8.759726      -4.6406417     -217.13379    
     65860  -224.64025      90             90             90            -8.3395559     -10.472216     -10.641967     -3.9044841     -224.64025    
     65880  -230.75039      90             90             90            -7.8361447     -14.015214     -3.9679328     -5.5252873     -230.75039    
     65900  -224.68687      90             90             90            -6.2444968     -11.743734     -3.226145      -3.7636116     -224.68687    
     65920  -222.70533      90             90             90            -2.9497383     -2.8253497     -10.075292      4.0514274     -222.70533    
     65940  -223.16718      90             90             90             0.27205599     3.7449672     -15.472154      12.543354     -223.16718    
     65960  -218.16347      90             90             90             1.5568905      5.1860699     -15.704726      15.189327     -218.16347    
     65980  -219.39042      90             90             90             2.1302308      2.1349487     -8.5475759      12.80332      -219.39042    
     66000  -225.7266       90             90             90             1.980333      -3.954564      -3.8338421      13.729405     -225.7266     
     66020  -232.12044      90             90             90             2.2951761     -2.6908233     -8.0448144      17.621166     -232.12044    
     66040  -237.70772      90             90             90             5.9502247      9.0782712     -7.2872193      16.059622     -237.70772    
     66060  -236.65695      90             90             90             10.756137      20.443904      0.75542801     11.069078     -236.65695    
     66080  -237.51406      90             90             90             13.757356      24.558894      10.914774      5.798398      -237.51406    
     66100  -244.0848       90             90             90             13.46845       25.247533      14.953877      0.20393891    -244.0848     
     66120  -233.1158       90             90             90             8.392675       22.026213      4.5562524     -1.4044407     -233.1158     
     66140  -220.84802      90             90             90             2.7427009      19.104623     -10.038263     -0.83825649    -220.84802    
     66160  -230.24235      90             90             90             3.530973       20.843748     -9.7014314     -0.54939784    -230.24235    
     66180  -231.54489      90             90             90             5.576945       18.504662      1.1518185     -2.9256458     -231.54489    
     66200  -229.01754      90             90             90             7.0975235      15.294924      15.705326     -9.7076799     -229.01754    
     66220  -241.89586      90             90             90             9.3276369      12.444766      28.00471      -12.466566     -241.89586    
     66240  -231.44597      90             90             90             6.9412016      4.3295908      27.317666     -10.823652     -231.44597    
     66260  -219.03502      90             90             90             3.9735401      2.4881298      20.696138     -11.263648     -219.03502    
     66280  -220.93192      90             90             90             1.9980725      4.4852993      16.634961     -15.126042     -220.93192    
     66300  -211.3667       90             90             90            -2.2246375      1.3642094      11.188948     -19.22707      -211.3667     
     66320  -214.82524      90             90             90            -4.3199495      1.2061681      5.4954019     -19.661418     -214.82524    
     66340  -214.21616      90             90             90            -4.2015197      4.8119087      2.855687      -20.272155     -214.21616    
     66360  -214.88906      90             90             90            -1.2516145      8.9890646      4.6040231     -17.347931     -214.88906    
     66380  -236.04536      90             90             90             3.8957204      9.0981871      11.519768     -8.9307943     -236.04536    
     66400  -235.34103      90             90             90             3.3025897      1.3755405      13.835643     -5.3034142     -235.34103    
     66420  -220.58724      90             90             90            -1.3207013     -11.404188      8.278157      -0.83607269    -220.58724    
     66440  -223.22784      90             90             90            -2.3792027     -22.760913      5.1753899      10.447915     -223.22784    
     66460  -234.73966      90             90             90            -0.33722209    -24.711335      8.8339763      14.865692     -234.73966    
     66480  -233.1513       90             90             90            -0.39460845    -21.719967      11.548043      8.988099      -233.1513     
     66500  -218.64432      90             90             90            -4.0316037     -20.465412      8.3925845     -0.021983062   -218.64432    
     66520  -225.77018      90             90             90            -5.605221      -17.725279      5.7570119     -4.8473958     -225.77018    
     66540  -237.04564      90             90             90            -5.0124548     -13.071383      3.4992129     -5.4651941     -237.04564    
     66560  -233.76811      90             90             90            -4.2949886     -6.5520985      1.6031672     -7.9360345     -233.76811    
     66580  -235.08989      90             90             90            -2.859274      -1.0290988      5.8481774     -13.396901     -235.08989    
     66600  -225.36145      90             90             90            -2.0120176      1.823942       11.293021     -19.153015     -225.36145    
     66620  -227.95802      90             90             90             1.6899011      6.5594114      14.344466     -15.834174     -227.95802    
     66640  -233.83353      90             90             90             6.7111519      11.270418      11.30919      -2.4461522     -233.83353    
     66660  -222.8989       90             90             90             9.466451       16.064749      5.0451871      7.2894172     -222.8989     
     66680  -220.38147      90             90             90             11.839747      22.667517      4.9974377      7.854286      -220.38147    
     66700  -220.73252      90             90             90             11.823273      23.71692       5.8272719      5.9256283     -220.73252    
     66720  -228.70587      90             90             90             9.8682023      15.494678      5.5349994      8.5749299     -228.70587    
     66740  -227.50982      90             90             90             7.6587357      3.3845138      6.4756388      13.116054     -227.50982    
     66760  -212.74619      90             90             90             5.1165603     -2.90091        3.4999345      14.750656     -212.74619    
     66780  -209.47058      90             90             90             3.2874094     -2.4016347     -0.15580135     12.419664     -209.47058    
     66800  -212.58474      90             90             90             0.98092202     0.72183875    -3.4858776      5.7068049     -212.58474    
     66820  -230.99647      90             90             90            -0.62167128     2.5946672     -4.0513402     -0.40834085    -230.99647    
     66840  -218.35534      90             90             90            -5.7872945     -8.6031266     -6.7436135     -2.0151435     -218.35534    
     66860  -204.43366      90             90             90            -11.215628     -24.151764     -10.9739        1.4787794     -204.43366    
     66880  -230.96797      90             90             90            -13.054944     -30.040435     -9.2694844      0.14508709    -230.96797    
     66900  -228.36318      90             90             90            -16.583562     -30.447088     -11.175915     -8.127685      -228.36318    
     66920  -220.91717      90             90             90            -18.039439     -28.39096      -11.385316     -14.342041     -220.91717    
     66940  -221.35138      90             90             90            -15.922116     -25.820917     -3.7963879     -18.149044     -221.35138    
     66960  -218.49889      90             90             90            -13.671737     -20.433045     -1.8689006     -18.713264     -218.49889    
     66980  -230.22989      90             90             90            -10.448041     -11.092603     -5.3528097     -14.898711     -230.22989    
     67000  -216.5143       90             90             90            -10.270211     -3.1848361     -13.678123     -13.947673     -216.5143     
     67020  -199.49337      90             90             90            -9.5921158      3.3884154     -20.630829     -11.533934     -199.49337    
     67040  -216.39949      90             90             90            -3.7655937      9.1801203     -14.044275     -6.4326265     -216.39949    
     67060  -234.34236      90             90             90             3.0553943      15.185055     -0.39156459    -5.6273077     -234.34236    
     67080  -228.58194      90             90             90             6.059636       16.459265      8.6838604     -6.9642171     -228.58194    
     67100  -215.22079      90             90             90             6.6009396      16.538052      11.974025     -8.7092574     -215.22079    
     67120  -221.35552      90             90             90             8.9469696      24.482956      11.251234     -8.8932819     -221.35552    
     67140  -226.17524      90             90             90             11.610828      31.004624      8.0918811     -4.2640206     -226.17524    
     67160  -221.22284      90             90             90             13.012451      28.178044      12.203464     -1.3441541     -221.22284    
     67180  -220.31687      90             90             90             14.026232      19.767752      25.345187     -3.0342424     -220.31687    
     67200  -216.76766      90             90             90             14.456513      12.447473      33.398035     -2.4759698     -216.76766    
     67220  -223.88366      90             90             90             16.390514      11.993917      33.828988      3.3486383     -223.88366    
     67240  -229.39611      90             90             90             17.24024       11.906731      27.889165      11.924823     -229.39611    
     67260  -218.86798      90             90             90             13.531947      6.0113178      20.001937      14.582587     -218.86798    
     67280  -219.09192      90             90             90             7.8556058     -0.52958287     15.875939      8.220461      -219.09192    
     67300  -228.05903      90             90             90             0.79966326    -5.0093041      8.1425087     -0.73421488    -228.05903    
     67320  -222.67234      90             90             90            -7.6130011     -11.078609     -3.2094864     -8.5509077     -222.67234    
     67340  -219.56487      90             90             90            -12.988006     -14.965131     -13.882253     -10.116633     -219.56487    
     67360  -216.91595      90             90             90            -15.948139     -15.227973     -23.937182     -8.6792607     -216.91595    
     67380  -198.69546      90             90             90            -19.007213     -17.033738     -29.86065      -10.12725      -198.69546    
     67400  -208.44138      90             90             90            -16.675087     -14.845761     -24.252976     -10.926524     -208.44138    
     67420  -229.74598      90             90             90            -10.970889     -5.5743842     -13.140322     -14.197961     -229.74598    
     67440  -215.93012      90             90             90            -8.852669       1.0541189     -13.374027     -14.238099     -215.93012    
     67460  -212.26739      90             90             90            -6.5686419      5.5572127     -18.855604     -6.4075344     -212.26739    
     67480  -217.29749      90             90             90            -3.6678774      11.752661     -17.764608     -4.991686      -217.29749    
     67500  -212.34406      90             90             90            -0.64818784     15.682256     -8.4256769     -9.2011429     -212.34406    
     67520  -208.46441      90             90             90             5.3929149      18.426671      6.9808362     -9.2287626     -208.46441    
     67540  -207.03631      90             90             90             13.948319      24.233667      16.50977       1.1015193     -207.03631    
     67560  -216.09409      90             90             90             22.615943      32.425339      18.045948      17.376543     -216.09409    
     67580  -224.85377      90             90             90             27.928102      40.289085      16.197305      27.297917     -224.85377    
     67600  -227.49871      90             90             90             29.028241      40.40968       14.416773      32.25827      -227.49871    
     67620  -220.18982      90             90             90             26.255561      31.551854      14.123651      33.091177     -220.18982    
     67640  -221.29115      90             90             90             22.665593      23.844715      9.9901978      34.161867     -221.29115    
     67660  -236.64233      90             90             90             18.845524      15.652281      5.1651345      35.719156     -236.64233    
     67680  -226.35951      90             90             90             10.154772      2.7329338      0.37408163     27.357299     -226.35951    
     67700  -226.65693      90             90             90             3.0333206     -6.4053395     -2.0790615      17.584363     -226.65693    
     67720  -233.77191      90             90             90            -1.0097047     -13.834251      0.96447426     9.8406626     -233.77191    
     67740  -213.63966      90             90             90            -6.0414602     -22.115023      2.3320053      1.6586367     -213.63966    
     67760  -218.2208       90             90             90            -7.7932141     -27.816784      5.0412193     -0.60407723    -218.2208     
     67780  -223.57316      90             90             90            -11.090649     -34.435241      3.6506949     -2.4874023     -223.57316    
     67800  -214.54944      90             90             90            -16.992583     -39.622682     -3.9168561     -7.4382122     -214.54944    
     67820  -212.66724      90             90             90            -20.46544      -42.458318     -4.6272264     -14.310775     -212.66724    
     67840  -208.69997      90             90             90            -21.207748     -41.735574     -2.1942513     -19.693418     -208.69997    
     67860  -215.17642      90             90             90            -17.092665     -31.580983     -2.4467838     -17.250229     -215.17642    
     67880  -219.02657      90             90             90            -10.401989     -17.827554     -1.8508829     -11.52753      -219.02657    
     67900  -221.38236      90             90             90            -2.6566436     -6.633867       7.1351591     -8.4712228     -221.38236    
     67920  -229.80337      90             90             90             5.7284784      2.6299562      22.312393     -7.7569141     -229.80337    
     67940  -227.93095      90             90             90             10.672195      10.886487      29.032072     -7.9019749     -227.93095    
     67960  -221.55654      90             90             90             11.564316      17.569083      26.7064       -9.5825342     -221.55654    
     67980  -204.80312      90             90             90             9.7582967      19.196858      13.09464      -3.0166082     -204.80312    
     68000  -211.87353      90             90             90             11.887338      17.83302       3.5901136      14.238881     -211.87353    
     68020  -228.95959      90             90             90             16.655204      17.678354      10.054058      22.2332       -228.95959    
     68040  -215.19028      90             90             90             17.493487      17.83478       14.102062      20.54362      -215.19028    
     68060  -222.02998      90             90             90             18.819728      19.706281      14.320456      22.432449     -222.02998    
     68080  -231.36841      90             90             90             18.182546      22.140779      6.8332415      25.573618     -231.36841    
     68100  -218.84496      90             90             90             12.668975      16.510426     -3.6015611      25.09806      -218.84496    
     68120  -219.57949      90             90             90             6.7978586      3.8865373     -3.1541636      19.661202     -219.57949    
     68140  -223.81187      90             90             90             0.15536878    -5.7943965     -5.6562576      11.91676      -223.81187    
     68160  -226.5075       90             90             90            -6.6697156     -8.8370527     -16.497252      5.3251581     -226.5075     
     68180  -225.69093      90             90             90            -13.1518       -8.6701338     -28.350662     -2.4346057     -225.69093    
     68200  -229.18731      90             90             90            -16.402398     -8.1825926     -33.932008     -7.0925916     -229.18731    
     68220  -233.78738      90             90             90            -15.595852     -6.762002      -35.096237     -4.9293185     -233.78738    
     68240  -216.59506      90             90             90            -15.074995     -7.3466775     -35.035052     -2.8432571     -216.59506    
     68260  -211.20387      90             90             90            -13.342095     -13.384305     -23.809028     -2.8329513     -211.20387    
     68280  -211.87328      90             90             90            -11.747593     -18.973867     -13.908527     -2.3603859     -211.87328    
     68300  -212.86039      90             90             90            -9.8031631     -17.58949      -10.813232     -1.0067669     -212.86039    
     68320  -225.66191      90             90             90            -5.8163378     -10.582977     -7.1671504      0.30111418    -225.66191    
     68340  -204.62489      90             90             90            -5.857728      -4.8967852     -8.1776729     -4.4987258     -204.62489    
     68360  -209.45954      90             90             90            -2.720908       4.4776441     -1.5731613     -11.067207     -209.45954    
     68380  -228.94111      90             90             90             3.3404294      16.502663      5.9020461     -12.383421     -228.94111    
     68400  -204.07805      90             90             90             6.4577784      20.327833      8.3117159     -9.2662142     -204.07805    
     68420  -224.53406      90             90             90             16.590895      25.336111      19.528684      4.907891      -224.53406    
     68440  -238.60406      90             90             90             23.854877      30.466619      24.939847      16.158166     -238.60406    
     68460  -216.23844      90             90             90             21.665326      30.213426      22.601158      12.181392     -216.23844    
     68480  -227.07272      90             90             90             18.937706      28.362983      22.243494      6.2066419     -227.07272    
     68500  -218.52446      90             90             90             12.452638      20.777938      18.398309     -1.8183335     -218.52446    
     68520  -209.39934      90             90             90             7.9237257      17.251822      12.926062     -6.4067067     -209.39934    
     68540  -211.24592      90             90             90             8.1016572      20.638875      7.5409772     -3.8748809     -211.24592    
     68560  -207.80593      90             90             90             9.3709117      22.85256       5.8190645     -0.55888921    -207.80593    
     68580  -220.14357      90             90             90             10.629241      24.929172      3.5948762      3.3636751     -220.14357    
     68600  -220.70631      90             90             90             7.8425396      21.896358     -0.21529345     1.8465546     -220.70631    
     68620  -219.36098      90             90             90             6.1693449      15.139912      5.7107149     -2.3425923     -219.36098    
     68640  -218.24478      90             90             90             5.3325938      6.3673727      12.47108      -2.8406716     -218.24478    
     68660  -219.42189      90             90             90             3.120691       3.4883853      10.416529     -4.542841      -219.42189    
     68680  -232.31115      90             90             90             2.2471815      9.4204137      4.4473381     -7.1262072     -232.31115    
     68700  -227.00102      90             90             90             0.66786657     12.367004     -1.2650351     -9.0983696     -227.00102    
     68720  -224.42179      90             90             90             0.92040837     12.820583      0.66635607    -10.725714     -224.42179    
     68740  -218.85967      90             90             90             1.5191118      11.130824      6.4028469     -12.976336     -218.85967    
     68760  -208.35301      90             90             90             0.5787833      8.0258649      9.9965422     -16.286057     -208.35301    
     68780  -214.07405      90             90             90             0.55896035     7.8673218      8.8339574     -15.024398     -214.07405    
     68800  -217.30591      90             90             90             0.56742629     4.3500979      7.0835578     -9.7313768     -217.30591    
     68820  -217.55629      90             90             90             1.5432937      2.0663182      9.0360716     -6.4725087     -217.55629    
     68840  -218.63015      90             90             90             4.0442859      6.2039492      11.669315     -5.7404064     -218.63015    
     68860  -225.66961      90             90             90             7.8315661      8.7651704      16.589411     -1.8598836     -225.66961    
     68880  -210.0631       90             90             90             8.2777451      4.5765973      15.390665      4.8659726     -210.0631     
     68900  -190.3539       90             90             90             8.9927645      0.79217238     12.441831      13.74429      -190.3539     
     68920  -210.40768      90             90             90             15.677798      4.0922246      16.438825      26.502344     -210.40768    
     68940  -210.7716       90             90             90             18.989289      4.0982648      16.472928      36.396673     -210.7716     
     68960  -209.49306      90             90             90             19.373341      0.1943024      16.647254      41.278467     -209.49306    
     68980  -215.79507      90             90             90             18.143615     -1.4710015      15.265335      40.636511     -215.79507    
     69000  -196.73438      90             90             90             13.093767     -2.4862632      10.033247      31.734316     -196.73438    
     69020  -211.97111      90             90             90             12.666057     -1.7683488      12.999363      26.767157     -211.97111    
     69040  -219.41683      90             90             90             12.595682     -4.7878315      15.41394       27.160939     -219.41683    
     69060  -212.24283      90             90             90             11.432748     -5.9721561      15.670866      24.599533     -212.24283    
     69080  -235.41682      90             90             90             13.378645      2.6912458      16.559636      20.885052     -235.41682    
     69100  -235.57608      90             90             90             10.824651      7.7576292      10.848629      13.867695     -235.57608    
     69120  -228.36287      90             90             90             5.417102       4.8928451      5.8114526      5.5470083     -228.36287    
     69140  -223.39072      90             90             90            -1.199554       0.85798453    -1.4705644     -2.9860822     -223.39072    
     69160  -214.27126      90             90             90            -8.6575096     -3.9571099     -11.711046     -10.304373     -214.27126    
     69180  -224.7319       90             90             90            -11.879392     -6.7521092     -17.314344     -11.571722     -224.7319     
     69200  -232.34006      90             90             90            -12.381464     -6.4199419     -17.196903     -13.527547     -232.34006    
     69220  -229.98763      90             90             90            -12.006576     -6.4698407     -13.688515     -15.861373     -229.98763    
     69240  -221.91978      90             90             90            -11.807801     -3.7711999     -16.066889     -15.585312     -221.91978    
     69260  -217.18272      90             90             90            -11.875568      3.1344732     -18.405793     -20.355384     -217.18272    
     69280  -228.47989      90             90             90            -10.850307      9.8935659     -17.482943     -24.961543     -228.47989    
     69300  -229.60246      90             90             90            -11.116148      12.33499      -21.568811     -24.114624     -229.60246    
     69320  -215.11293      90             90             90            -12.230715      5.3540977     -19.724442     -22.3218       -215.11293    
     69340  -221.45588      90             90             90            -10.595916     -3.3901231     -8.9818557     -19.41577      -221.45588    
     69360  -228.32801      90             90             90            -7.4983785     -3.6251378     -1.8176736     -17.052324     -228.32801    
     69380  -218.10771      90             90             90            -4.3837574      4.8617299     -4.9963179     -13.016684     -218.10771    
     69400  -225.95727      90             90             90             1.2011274      16.53684      -10.38831      -2.5451476     -225.95727    
     69420  -228.83053      90             90             90             4.7993861      18.218839     -6.9142213      3.0935404     -228.83053    
     69440  -219.135        90             90             90             5.3853084      14.854425     -0.20518819     1.5066886     -219.135      
     69460  -226.07105      90             90             90             6.2608715      8.2198149      5.9541725      4.608627      -226.07105    
     69480  -221.03288      90             90             90             5.0654553     -2.4161437      8.235529       9.3769805     -221.03288    
     69500  -218.60356      90             90             90             4.0553532     -5.2712909      6.2851328      11.152218     -218.60356    
     69520  -228.75793      90             90             90             3.1696535     -8.3863933      6.2520261      11.643328     -228.75793    
     69540  -217.55237      90             90             90            -1.1023608     -15.224189      4.6982802      7.2188267     -217.55237    
     69560  -223.06466      90             90             90            -2.9276322     -22.074577      6.0540566      7.2376235     -223.06466    
     69580  -234.4568       90             90             90            -3.2777616     -27.218371      6.4443972      10.940689     -234.4568     
     69600  -224.03367      90             90             90            -5.9361346     -23.250155     -2.4684539      7.9102055     -224.03367    
     69620  -223.84966      90             90             90            -6.9523008     -17.904904     -8.2061813      5.2541832     -223.84966    
     69640  -228.14711      90             90             90            -7.0171565     -13.965306     -9.0148149      1.9286517     -228.14711    
     69660  -228.49011      90             90             90            -8.673806      -14.202        -8.8121508     -3.0072674     -228.49011    
     69680  -234.92488      90             90             90            -7.139716      -14.013728     -6.5093044     -0.89611558    -234.92488    
     69700  -245.12355      90             90             90            -2.9561378     -11.054074     -4.2944476      6.4801079     -245.12355    
     69720  -246.51913      90             90             90             0.23397877    -8.0874541     -3.3198533      12.109244     -246.51913    
     69740  -246.64154      90             90             90             2.1812621      0.79674464    -4.2700054      10.017047     -246.64154    
     69760  -247.0663       90             90             90             2.9909439      7.4481597     -1.9431349      3.4678071     -247.0663     
     69780  -244.24945      90             90             90             2.8479402      9.6452504     -0.85647436    -0.24495537    -244.24945    
     69800  -242.99472      90             90             90             2.6559649      12.844006     -1.4565137     -3.4195975     -242.99472    
     69820  -244.51697      90             90             90             2.6514511      8.5557344      3.8515086     -4.4528898     -244.51697    
     69840  -248.03419      90             90             90             3.9177929      5.300924       9.7651532     -3.3126984     -248.03419    
     69860  -245.09087      90             90             90             6.4581008      7.625259       14.986729     -3.2376858     -245.09087    
     69880  -243.77673      90             90             90             10.152816      13.797679      14.408032      2.2527372     -243.77673    
     69900  -247.99337      90             90             90             13.142285      18.933467      9.268414       11.224975     -247.99337    
     69920  -238.88415      90             90             90             12.114174      11.030697      11.093068      14.218757     -238.88415    
     69940  -234.73044      90             90             90             9.5435087      5.1052012      9.5093545      14.01597      -234.73044    
     69960  -231.52642      90             90             90             6.7305046      5.5821184      2.5696217      12.039774     -231.52642    
     69980  -228.909        90             90             90             5.3074309      7.1416533      0.18107976     8.5995596     -228.909      
     70000  -235.17429      90             90             90             5.5662802      12.931821     -3.6888189      7.4558384     -235.17429    
     70020  -225.77207      90             90             90             2.9751731      13.717744     -10.649993      5.8577681     -225.77207    
     70040  -222.15977      90             90             90             1.1012218      11.765884     -13.603966      5.1417471     -222.15977    
     70060  -232.98564      90             90             90             2.5736951      9.1889617     -9.5670426      8.0991663     -232.98564    
     70080  -228.14592      90             90             90             3.4276559      5.5902708     -6.4915648      11.184262     -228.14592    
     70100  -226.2545       90             90             90             4.6659534      8.1187482     -10.908305      16.787417     -226.2545     
     70120  -229.57084      90             90             90             6.4857767      12.737099     -13.547049      20.267281     -229.57084    
     70140  -226.37322      90             90             90             8.6804875      17.69737      -7.1585065      15.502599     -226.37322    
     70160  -229.90908      90             90             90             13.620844      23.229767      5.6691131      11.963652     -229.90908    
     70180  -233.98529      90             90             90             16.076539      18.710736      13.262767      16.256113     -233.98529    
     70200  -233.43864      90             90             90             15.872123      10.496143      12.108597      25.011628     -233.43864    
     70220  -239.16758      90             90             90             12.868541      7.4903561      8.5398624      22.575405     -239.16758    
     70240  -244.5664       90             90             90             6.5164272      4.9178609      3.6289518      11.002469     -244.5664     
     70260  -243.39952      90             90             90            -2.5726176     -3.5659877     -6.3376461      2.1857809     -243.39952    
     70280  -230.29262      90             90             90            -12.534407     -16.042219     -14.698154     -6.8628489     -230.29262    
     70300  -225.50497      90             90             90            -18.340379     -26.655872     -14.679361     -13.685906     -225.50497    
     70320  -227.64883      90             90             90            -19.318239     -29.309862     -9.8344078     -18.810447     -227.64883    
     70340  -228.61754      90             90             90            -16.540626     -26.039857      0.59241704    -24.174438     -228.61754    
     70360  -233.11169      90             90             90            -11.334449     -24.850484      15.472105     -24.624968     -233.11169    
     70380  -223.86611      90             90             90            -8.1062753     -23.319447      21.468241     -22.467619     -223.86611    
     70400  -220.70672      90             90             90            -5.3400014     -16.411366      16.102361     -15.710999     -220.70672    
     70420  -225.76243      90             90             90            -2.1483745     -11.95694       8.5848612     -3.0730447     -225.76243    
     70440  -213.30104      90             90             90            -0.043410889   -11.482813      4.5991934      6.7533867     -213.30104    
     70460  -221.84181      90             90             90             6.2194447     -4.421416       9.9893121      13.090438     -221.84181    
     70480  -236.17425      90             90             90             12.538209      2.3432229      19.283613      15.987791     -236.17425    
     70500  -233.44396      90             90             90             14.013873      3.0676775      25.066039      13.907901     -233.44396    
     70520  -232.87357      90             90             90             12.717539     -1.8204669      28.118507      11.854577     -232.87357    
     70540  -223.8593       90             90             90             8.0988833     -10.758777      24.91159       10.143838     -223.8593     
     70560  -230.7059       90             90             90             3.9569582     -9.8761183      17.34495       4.4020429     -230.7059     
     70580  -231.76464      90             90             90            -1.2868735     -6.2813763      7.3593639     -4.9386079     -231.76464    
     70600  -218.9791       90             90             90            -6.2726265     -7.5296169     -3.2080459     -8.0802167     -218.9791     
     70620  -232.42895      90             90             90            -4.7569831     -6.8956312     -7.4251861      0.049867976   -232.42895    
     70640  -237.28201      90             90             90            -2.8658672     -11.87639      -5.1140917      8.3928804     -237.28201    
     70660  -229.77844      90             90             90            -2.0556575     -16.598064      0.29417046     10.136921     -229.77844    
     70680  -218.28829      90             90             90            -2.9854072     -18.051297      1.5013139      7.5937618     -218.28829    
     70700  -208.17228      90             90             90            -5.7421242     -23.000147      0.98544851     4.7883259     -208.17228    
     70720  -222.1052       90             90             90            -6.1787503     -24.764367      4.2013968      2.0267194     -222.1052     
     70740  -223.10565      90             90             90            -7.3387582     -22.366408      3.1370695     -2.7869363     -223.10565    
     70760  -216.34429      90             90             90            -8.2599918     -16.73299       0.56803585    -8.6150214     -216.34429    
     70780  -226.35667      90             90             90            -6.5561966     -7.9394341      2.899653      -14.628809     -226.35667    
     70800  -233.194        90             90             90            -5.0444517     -0.44298472     4.4420498     -19.13242      -233.194      
     70820  -229.99943      90             90             90            -4.4578687      4.6418713      1.2832426     -19.29872      -229.99943    
     70840  -221.05081      90             90             90            -5.0214439      6.2821818     -2.6620994     -18.684414     -221.05081    
     70860  -220.30172      90             90             90            -5.0107063      7.9637953     -5.0314966     -17.964417     -220.30172    
     70880  -221.60865      90             90             90            -5.0106459      12.421756     -10.949046     -16.504647     -221.60865    
     70900  -224.02896      90             90             90            -4.1082818      17.069277     -13.484379     -15.909743     -224.02896    
     70920  -228.40497      90             90             90            -0.90898549     18.432365     -9.847103      -11.312218     -228.40497    
     70940  -218.93391      90             90             90             2.5437418      19.988288     -7.3495461     -5.0075161     -218.93391    
     70960  -211.03062      90             90             90             6.1272987      24.199533     -5.8102457     -0.0073907028  -211.03062    
     70980  -212.66314      90             90             90             9.3767595      28.430764     -6.4660593      6.1655733     -212.66314    
     71000  -227.62749      90             90             90             11.566738      32.956371     -6.4743762      8.2182202     -227.62749    
     71020  -235.85392      90             90             90             11.443521      31.374798     -5.8280903      8.783857      -235.85392    
     71040  -223.049        90             90             90             8.1972795      25.401423     -8.7429762      7.9333919     -223.049      
     71060  -219.63936      90             90             90             5.949604       24.16837      -7.0849945      0.76543661    -219.63936    
     71080  -235.49015      90             90             90             5.5478489      24.741841     -1.3559688     -6.7423253     -235.49015    
     71100  -242.82256      90             90             90             3.3187669      23.893655     -1.8766685     -12.060686     -242.82256    
     71120  -239.81808      90             90             90             0.69611388     20.344968     -4.9826206     -13.274005     -239.81808    
     71140  -245.60247      90             90             90             0.55298678     14.308555     -0.18111897    -12.468475     -245.60247    
     71160  -250.34032      90             90             90            -0.23914194     9.4113261      7.5970917     -17.725844     -250.34032    
     71180  -253.4754       90             90             90            -2.4675048      5.2104717      9.4114518     -22.024438     -253.4754     
     71200  -245.73698      90             90             90            -4.6860004     -0.012665495    5.3001795     -19.345515     -245.73698    
     71220  -240.44634      90             90             90            -5.4497416     -0.94431563    -0.54974879    -14.85516      -240.44634    
     71240  -252.06257      90             90             90            -4.0140077     -0.89896062     0.64826344    -11.791326     -252.06257    
     71260  -248.70324      90             90             90            -4.0043181     -4.7234887      1.5338319     -8.8232976     -248.70324    
     71280  -248.95405      90             90             90            -3.7879096     -3.9659236      0.81552755    -8.2133327     -248.95405    
     71300  -248.62438      90             90             90            -3.5595709     -2.9885423      4.0201113     -11.710282     -248.62438    
     71320  -224.85298      90             90             90            -5.4206287     -4.6996803      0.51402431    -12.07623      -224.85298    
     71340  -227.31738      90             90             90            -3.2330698     -1.2744886     -2.104282      -6.320439      -227.31738    
     71360  -234.13398      90             90             90             0.29782307     0.21874626    -0.22249093     0.89721387    -234.13398    
     71380  -233.89456      90             90             90             3.5584329     -1.5350619      1.0466835      11.163677     -233.89456    
     71400  -242.75892      90             90             90             7.7326366     -0.9901763      1.6271029      22.560983     -242.75892    
     71420  -240.16285      90             90             90             9.4154103      2.3582046     -4.1406875      30.028714     -240.16285    
     71440  -252.6491       90             90             90             12.055559      5.5616787     -5.199076       35.804075     -252.6491     
     71460  -250.09046      90             90             90             12.123097      3.3116479     -3.1361649      36.193808     -250.09046    
     71480  -223.97969      90             90             90             8.7472066     -1.8911547     -1.9271495      30.059924     -223.97969    
     71500  -231.02986      90             90             90             9.8085609     -4.8503294      7.858418       26.417594     -231.02986    
     71520  -234.38826      90             90             90             9.8657819     -4.3280284      12.374819      21.550556     -234.38826    
     71540  -223.63131      90             90             90             6.5082221     -5.1948968      10.941871      13.777692     -223.63131    
     71560  -221.42169      90             90             90             2.7749112     -8.1337421      7.2978755      9.1606003     -221.42169    
     71580  -222.28364      90             90             90             0.42351499    -8.9206294      1.6917472      8.4994272     -222.28364    
     71600  -231.25724      90             90             90             1.6618399     -11.230269      3.0135245      13.202265     -231.25724    
     71620  -230.33325      90             90             90             4.0070753     -11.966821      7.3334105      16.654636     -230.33325    
     71640  -222.24542      90             90             90             5.8489988     -11.118357      13.723523      14.94183      -222.24542    
     71660  -227.31413      90             90             90             7.5319598     -8.507059       19.36344       11.739499     -227.31413    
     71680  -236.58649      90             90             90             7.2496939     -1.8548005      17.998764      5.6051185     -236.58649    
     71700  -242.07535      90             90             90             5.4617313      1.5578655      14.904346     -0.077017552   -242.07535    
     71720  -233.97862      90             90             90             2.3936463      2.8402717      10.840583     -6.4999154     -233.97862    
     71740  -219.97703      90             90             90            -0.92977023     4.8582306      8.0080775     -15.655619     -219.97703    
     71760  -230.98067      90             90             90            -0.40312238     10.218904      7.439515      -18.867786     -230.98067    
     71780  -247.57159      90             90             90             1.7474225      13.176594      7.8765376     -15.810865     -247.57159    
     71800  -242.91836      90             90             90             2.3765179      10.806519      9.4250039     -13.10197      -242.91836    
     71820  -236.89937      90             90             90             3.726594       13.506912      8.462953      -10.790083     -236.89937    
     71840  -233.71172      90             90             90             4.953262       17.127453      2.7650683     -5.0327356     -233.71172    
     71860  -242.50948      90             90             90             5.802893       22.144904     -2.0512779     -2.6849466     -242.50948    
     71880  -245.81217      90             90             90             3.5680143      24.592387     -3.4816121     -10.406732     -245.81217    
     71900  -228.8044       90             90             90            -1.3457198      19.661605     -8.6968201     -15.001944     -228.8044     
     71920  -235.70482      90             90             90            -1.6555596      17.120563     -13.811741     -8.2755003     -235.70482    
     71940  -241.46916      90             90             90            -0.3919689      10.290045     -14.901988      3.4360372     -241.46916    
     71960  -229.38821      90             90             90            -1.7419032      2.0810556     -17.909627      10.602862     -229.38821    
     71980  -236.31278      90             90             90            -3.3171778     -2.6158489     -17.992145      10.656461     -236.31278    
     72000  -233.28281      90             90             90            -4.5518107     -6.7912041     -15.860453      8.9962244     -233.28281    
     72020  -230.45368      90             90             90            -4.6755705     -5.7450805     -12.454517      4.1728854     -230.45368    
     72040  -239.9874       90             90             90            -1.9370651     -5.3070578     -3.8291056      3.3249681     -239.9874     
     72060  -241.92588      90             90             90             0.23366256    -6.9818798     -0.060123965    7.7429914     -241.92588    
     72080  -244.09683      90             90             90             1.8520239     -9.7102607      5.8639563      9.402376      -244.09683    
     72100  -244.21749      90             90             90             2.7475168     -13.173816      15.595828      5.820538      -244.21749    
     72120  -241.47679      90             90             90             3.2528394     -7.3771873      17.639397     -0.50369118    -241.47679    
     72140  -241.61777      90             90             90             4.2843279     -1.3703885      14.011799      0.21157299    -241.61777    
     72160  -234.19667      90             90             90             3.8911813     -1.0494279      10.541713      2.1812588     -234.19667    
     72180  -227.97545      90             90             90             2.079944       0.50620421     8.8585104     -3.1248826     -227.97545    
     72200  -232.67603      90             90             90            -0.16579371    -1.0080374      6.1425923     -5.631936      -232.67603    
     72220  -236.20989      90             90             90            -1.8966483     -4.5531641      5.7790475     -6.9158284     -236.20989    
     72240  -226.3399       90             90             90            -4.2049029     -8.691688       8.7981061     -12.721127     -226.3399     
     72260  -220.50087      90             90             90            -5.3475636     -12.10856       8.9300538     -12.864184     -220.50087    
     72280  -232.46364      90             90             90            -3.6448385     -10.103701      4.2673377     -5.0981519     -232.46364    
     72300  -228.67716      90             90             90            -2.8856292     -7.5371398     -2.6857202      1.5659726     -228.67716    
     72320  -228.89273      90             90             90            -1.989055      -2.6150998     -2.9425758     -0.40948935    -228.89273    
     72340  -247.49195      90             90             90            -0.22522032     3.4444717      2.1292798     -6.2494125     -247.49195    
     72360  -239.63088      90             90             90            -1.781688      -0.47518348     3.2143786     -8.0842591     -239.63088    
     72380  -238.36456      90             90             90            -2.4538933     -3.6015623      0.72322057    -4.4833381     -238.36456    
     72400  -250.32649      90             90             90            -1.3357942     -1.1052789     -4.999619       2.0975151     -250.32649    
     72420  -244.13244      90             90             90            -1.9722329     -3.6797587     -6.9743161      4.7373761     -244.13244    
     72440  -235.41872      90             90             90            -1.9938841     -2.7738818     -4.6485345      1.440764      -235.41872    
     72460  -228.11203      90             90             90            -0.56255799     2.8058462     -3.0662864     -1.4272338     -228.11203    
     72480  -243.81953      90             90             90             5.5297193      6.8124414      6.4199577      3.3567587     -243.81953    
     72500  -256.4934       90             90             90             12.238687      11.199505      13.129922      12.386632     -256.4934     
     72520  -244.30333      90             90             90             14.150314      14.863053      12.811192      14.776696     -244.30333    
     72540  -248.82869      90             90             90             15.254016      21.667501      14.862887      9.2316595     -248.82869    
     72560  -250.69662      90             90             90             14.347131      28.853737      10.83284       3.3548174     -250.69662    
     72580  -251.55474      90             90             90             13.4089        29.255462      6.8785269      4.09271       -251.55474    
     72600  -243.20491      90             90             90             12.497283      24.289523      2.9768229      10.225504     -243.20491    
     72620  -226.38186      90             90             90             10.65485       18.094381     -4.0350068      17.905175     -226.38186    
     72640  -239.61394      90             90             90             10.578026      16.886967     -6.9248631      21.771973     -239.61394    
     72660  -237.19016      90             90             90             6.7988892      14.732565     -11.256145      16.920248     -237.19016    
     72680  -229.01278      90             90             90             2.4026383      5.9948831     -6.7135657      7.9265974     -229.01278    
     72700  -228.87192      90             90             90            -0.35069695    -2.4921836      2.9804479     -1.5403551     -228.87192    
     72720  -214.09611      90             90             90            -4.4278837     -5.5122653     -0.12415036    -7.6472353     -214.09611    
     72740  -224.91347      90             90             90            -4.2049524     -4.2570136     -3.3331023     -5.0247412     -224.91347    
     72760  -236.53359      90             90             90            -1.7518074     -5.1362032     -1.4876449      1.368426      -236.53359    
     72780  -231.05259      90             90             90             0.82933599    -4.5875399      2.0560173      5.0195306     -231.05259    
     72800  -235.31625      90             90             90             4.2339043     -1.261636       6.1391207      7.8242281     -235.31625    
     72820  -243.49183      90             90             90             7.0666218      0.65988242     9.0665192      11.473464     -243.49183    
     72840  -247.87135      90             90             90             5.9733064      1.8271191      6.8938015      9.1989987     -247.87135    
     72860  -229.47368      90             90             90            -1.2553089     -1.4094331     -3.5850046      1.2285109     -229.47368    
     72880  -215.48567      90             90             90            -7.4634553     -6.4323738     -11.02149      -4.9365025     -215.48567    
     72900  -219.18845      90             90             90            -7.6134292     -8.0978402     -7.1931351     -7.5493123     -219.18845    
     72920  -227.48501      90             90             90            -4.2833152     -6.9263075     -0.44674828    -5.4768897     -227.48501    
     72940  -231.36178      90             90             90            -1.039785      -3.8416815      3.9216297     -3.1993032     -231.36178    
     72960  -231.2583       90             90             90             0.40612297    -0.95918646     4.1786125     -2.0010571     -231.2583     
     72980  -241.81798      90             90             90             1.0875429      1.4532487      3.0024648     -1.1930847     -241.81798    
     73000  -240.21729      90             90             90            -0.48808046     1.3755977      2.5407076     -5.3805466     -240.21729    
     73020  -230.84348      90             90             90            -3.1499178     -0.44017588    -1.6462722     -7.3633051     -230.84348    
     73040  -231.73723      90             90             90            -4.7252945     -1.8978802     -8.1682159     -4.1097875     -231.73723    
     73060  -231.77347      90             90             90            -5.0449318     -1.1312051     -11.745251     -2.2583389     -231.77347    
     73080  -232.37534      90             90             90            -2.802061       1.7209859     -9.5092523     -0.61791661    -232.37534    
     73100  -225.73441      90             90             90            -0.053391744    2.6882179     -7.7972156      4.9488225     -225.73441    
     73120  -232.34596      90             90             90             3.2061932      5.736711      -5.5233474      9.4052159     -232.34596    
     73140  -231.38344      90             90             90             3.6301792      8.9541102     -2.070548       4.0069755     -231.38344    
     73160  -213.06546      90             90             90             0.42191541     8.6953731     -5.143088      -2.2865389     -213.06546    
     73180  -224.58434      90             90             90             1.0770315      10.666725     -4.5140922     -2.9215378     -224.58434    
     73200  -224.99359      90             90             90             2.4615723      10.645854      0.90509786    -4.1662351     -224.99359    
     73220  -224.57685      90             90             90             6.2106341      13.930781      6.8001847     -2.0990633     -224.57685    
     73240  -236.01751      90             90             90             12.37615       18.755618      17.89309       0.47974165    -236.01751    
     73260  -225.3113       90             90             90             14.740791      19.602099      23.392193      1.2280794     -225.3113     
     73280  -227.45537      90             90             90             16.656188      26.862809      23.480793     -0.37503882    -227.45537    
     73300  -220.4863       90             90             90             15.54642       31.6495        18.463377     -3.4736186     -220.4863     
     73320  -207.06239      90             90             90             12.330423      30.04322       8.7976417     -1.8495943     -207.06239    
     73340  -215.56095      90             90             90             11.118607      28.975977      8.440891      -4.0610478     -215.56095    
     73360  -220.68224      90             90             90             9.3975666      27.675062      8.4015464     -7.883909      -220.68224    
     73380  -222.39228      90             90             90             7.3387444      26.822616      5.7866613     -10.593044     -222.39228    
     73400  -224.55038      90             90             90             4.1396959      18.222035      7.8612311     -13.664178     -224.55038    
     73420  -231.64712      90             90             90            -0.34197839     5.5502558      2.2734107     -8.8496017     -231.64712    
     73440  -229.1597       90             90             90            -6.698071      -6.1714918     -9.4884794     -4.4342417     -229.1597     
     73460  -223.32139      90             90             90            -12.178843     -17.029726     -18.093749     -1.4130544     -223.32139    
     73480  -234.34164      90             90             90            -13.026498     -19.506139     -21.533267      1.9599115     -234.34164    
     73500  -243.9985       90             90             90            -10.965745     -18.463574     -16.947866      2.5142033     -243.9985     
     73520  -250.64076      90             90             90            -7.4758788     -15.505523     -17.017782      10.095669     -250.64076    
     73540  -244.04579      90             90             90            -5.4611247     -9.4707505     -23.157198      16.244574     -244.04579    
     73560  -236.73087      90             90             90            -3.6966273     -3.2259904     -21.337445      13.473553     -236.73087    
     73580  -230.15633      90             90             90            -1.0854375      2.5190317     -12.431171      6.6558267     -230.15633    
     73600  -228.05764      90             90             90             2.7501244      3.7808941      1.7136313      2.7558479     -228.05764    
     73620  -238.26223      90             90             90             8.2222527      1.1971107      15.587226      7.882421      -238.26223    
     73640  -229.71507      90             90             90             9.5300134      0.15667365     20.009811      8.4235555     -229.71507    
     73660  -236.91292      90             90             90             10.814098      7.7054231      22.686691      2.0501814     -236.91292    
     73680  -251.16438      90             90             90             11.730036      16.505233      23.209943     -4.5250695     -251.16438    
     73700  -237.66071      90             90             90             8.6697799      14.929041      21.35924      -10.278942     -237.66071    
     73720  -236.5566       90             90             90             6.1036864      6.5655031      23.142389     -11.396833     -236.5566     
     73740  -233.03176      90             90             90             2.4324035     -1.429099       18.715089     -9.9887798     -233.03176    
     73760  -239.09449      90             90             90             0.40250412    -2.5632909      10.043657     -6.2728538     -239.09449    
     73780  -258.90867      90             90             90             1.2917645     -3.1275714      8.6092414     -1.6063766     -258.90867    
     73800  -248.11096      90             90             90            -0.36973501    -12.075713      12.614973     -1.6484648     -248.11096    
     73820  -235.96317      90             90             90            -1.8601061     -18.993532      16.279501     -2.8662871     -235.96317    
     73840  -237.14806      90             90             90            -2.5652474     -15.693465      11.307222     -3.3094989     -237.14806    
     73860  -235.63998      90             90             90            -3.860913      -4.917383      -0.61934045    -6.0460156     -235.63998    
     73880  -231.57584      90             90             90            -5.1290279      2.1156128     -9.9005066     -7.6021899     -231.57584    
     73900  -234.55552      90             90             90            -6.0770711      0.48251647    -14.063123     -4.6506069     -234.55552    
     73920  -239.23871      90             90             90            -6.8055074     -6.2074533     -14.532389      0.32331985    -239.23871    
     73940  -235.49704      90             90             90            -8.6591019     -13.631958     -16.05087       3.7055224     -235.49704    
     73960  -239.62337      90             90             90            -9.7353889     -12.94661      -20.88664       4.6270827     -239.62337    
     73980  -229.44181      90             90             90            -12.832695     -8.2473584     -27.746921     -2.5038065     -229.44181    
     74000  -219.85231      90             90             90            -14.461385     -4.4370244     -31.116517     -7.8306142     -219.85231    
     74020  -233.89973      90             90             90            -11.270622     -4.5923064     -26.282591     -2.9369669     -233.89973    
     74040  -222.34115      90             90             90            -9.4213975     -7.524219      -24.169257      3.4292838     -222.34115    
     74060  -213.82103      90             90             90            -6.4617986     -3.3032629     -27.520955      11.438822     -213.82103    
     74080  -220.21315      90             90             90            -2.9412978      5.8045536     -29.360477      14.73203      -220.21315    
     74100  -212.47639      90             90             90            -1.2300131      14.355851     -26.512747      8.4668567     -212.47639    
     74120  -206.96439      90             90             90             1.0822642      15.652135     -18.217193      5.8118505     -206.96439    
     74140  -193.18659      90             90             90             2.7207601      10.716705     -8.1628204      5.6083961     -193.18659    
     74160  -194.0562       90             90             90             6.4082178      11.990795      0.10342504     7.1304339     -194.0562     
     74180  -203.63283      90             90             90             10.911466      13.849747      6.2097405      12.674911     -203.63283    
     74200  -198.74768      90             90             90             13.13921       14.874939      9.7777769      14.764915     -198.74768    
     74220  -199.13412      90             90             90             14.913591      14.518089      12.840847      17.381837     -199.13412    
     74240  -202.81319      90             90             90             15.06879       11.01687       13.183545      21.005955     -202.81319    
     74260  -218.78636      90             90             90             14.904643      13.137191      8.5227683      23.053969     -218.78636    
     74280  -223.23709      90             90             90             12.99739       15.159884     -1.7987895      25.631076     -223.23709    
     74300  -212.45324      90             90             90             10.074186      15.111953     -7.7856953      22.896299     -212.45324    
     74320  -226.35099      90             90             90             10.483955      18.334123     -1.4783033      14.596046     -226.35099    
     74340  -238.0954       90             90             90             10.067621      17.596084      4.284798       8.3219805     -238.0954     
     74360  -236.62921      90             90             90             7.3918018      11.987531      4.0226686      6.1652057     -236.62921    
     74380  -238.44058      90             90             90             5.4697789      8.2238744      3.1155539      5.0699082     -238.44058    
     74400  -235.05928      90             90             90             3.4374915      8.7697162      1.1519666      0.39079189    -235.05928    
     74420  -230.55448      90             90             90             0.37862572     9.3136115     -2.918442      -5.2592923     -230.55448    
     74440  -237.48751      90             90             90            -2.0490606      8.9571139     -8.867397      -6.2368986     -237.48751    
     74460  -243.23287      90             90             90            -4.377656       4.7399065     -13.192506     -4.680369      -243.23287    
     74480  -229.85917      90             90             90            -7.6744741     -6.3225268     -13.518251     -3.1826448     -229.85917    
     74500  -224.2915       90             90             90            -7.623776      -11.022617     -12.431517      0.58280611    -224.2915     
     74520  -227.52236      90             90             90            -5.6009431     -7.805577      -11.859132      2.86188       -227.52236    
     74540  -227.70302      90             90             90            -3.8317431     -8.832117      -7.3341607      4.6710485     -227.70302    
     74560  -235.17797      90             90             90            -1.0554765     -16.467127      2.3965838      10.904113     -235.17797    
     74580  -224.17615      90             90             90            -0.40240648    -20.429144      7.2481471      11.973778     -224.17615    
     74600  -220.70117      90             90             90             0.48260372    -12.048992      5.8025566      7.6942461     -220.70117    
     74620  -238.53993      90             90             90             3.3932475     -2.5108309      9.4067553      3.2838181     -238.53993    
     74640  -232.83124      90             90             90             3.9797977     -1.6714753      15.802262     -2.1913937     -232.83124    
     74660  -219.56983      90             90             90             5.0400464     -2.9289464      19.291461     -1.2423757     -219.56983    
     74680  -221.90097      90             90             90             9.0529458      3.3395294      20.314552      3.504756      -221.90097    
     74700  -222.65653      90             90             90             11.705531      14.584997      17.828122      2.7034738     -222.65653    
     74720  -219.60056      90             90             90             10.453439      18.802531      14.201156     -1.6433714     -219.60056    
     74740  -215.15364      90             90             90             5.6938625      13.882325      9.4996766     -6.3004143     -215.15364    
     74760  -206.39733      90             90             90            -0.5264373      7.1396135      2.0992851     -10.81821      -206.39733    
     74780  -209.13416      90             90             90            -3.8322842      4.0672345     -5.8581074     -9.7059797     -209.13416    
     74800  -222.13644      90             90             90            -3.9454172      5.0394462     -12.532491     -4.3432066     -222.13644    
     74820  -223.60729      90             90             90            -4.7013453      11.101206     -19.064088     -6.141154      -223.60729    
     74840  -221.69325      90             90             90            -5.8916001      18.709011     -26.402823     -9.9809881     -221.69325    
     74860  -220.38354      90             90             90            -6.7021494      16.822202     -30.071116     -6.857534      -220.38354    
     74880  -219.94444      90             90             90            -6.4838533      11.674039     -28.405363     -2.7202358     -219.94444    
     74900  -226.69484      90             90             90            -6.1631503      9.0481465     -27.559246      0.021648321   -226.69484    
     74920  -228.16604      90             90             90            -8.0342029      7.0089756     -30.55099      -0.56059431    -228.16604    
     74940  -226.01773      90             90             90            -10.921563      4.5309548     -32.460315     -4.8353287     -226.01773    
     74960  -227.38558      90             90             90            -11.327938      0.41574516    -26.23928      -8.1602785     -227.38558    
     74980  -237.12995      90             90             90            -6.6673995      1.1037491     -13.763046     -7.3429017     -237.12995    
     75000  -245.37555      90             90             90             0.43623185     4.2285934     -1.8803278     -1.0395701     -245.37555    
     75020  -239.89135      90             90             90             5.0638223      5.2603779      4.4995012      5.4315879     -239.89135    
     75040  -242.3636       90             90             90             7.5804588      4.2807761      10.200311      8.2602892     -242.3636     
     75060  -241.58062      90             90             90             7.7013603     -2.1546865      16.612998      8.6457693     -241.58062    
     75080  -233.75865      90             90             90             7.6641913     -4.1662707      17.134195      10.02465      -233.75865    
     75100  -240.17354      90             90             90             10.714743      2.0851899      17.467977      12.591063     -240.17354    
     75120  -235.41287      90             90             90             12.298078      6.5726627      18.127894      12.193677     -235.41287    
     75140  -236.33006      90             90             90             13.614393      9.4648125      18.755742      12.622624     -236.33006    
     75160  -255.52363      90             90             90             16.812382      14.971726      24.248521      11.2169       -255.52363    
     75180  -249.69331      90             90             90             16.370176      17.24365       25.502316      6.3645613     -249.69331    
     75200  -236.86348      90             90             90             12.689616      12.409407      21.487622      4.1718184     -236.86348    
     75220  -236.77651      90             90             90             6.8994186      6.7166954      14.967071     -0.98551037    -236.77651    
     75240  -226.22318      90             90             90            -2.6551711     -2.2701134      3.2537624     -8.9491622     -226.22318    
     75260  -226.82362      90             90             90            -9.0291708     -11.447854     -1.8603147     -13.779343     -226.82362    
     75280  -232.11232      90             90             90            -10.254413     -15.35473       0.11478994    -15.523298     -232.11232    
     75300  -228.90501      90             90             90            -8.6265801     -15.231292     -0.69891438    -9.9495336     -228.90501    
     75320  -236.73804      90             90             90            -4.4670707     -8.3923404     -6.7519528      1.7430812     -236.73804    
     75340  -232.72658      90             90             90            -5.1152022     -6.6120927     -15.008709      6.2751954     -232.72658    
     75360  -227.03732      90             90             90            -7.5513791     -12.41444      -11.713319      1.4736218     -227.03732    
     75380  -230.2496       90             90             90            -8.91343       -20.26566      -5.1741377     -1.3004922     -230.2496     
     75400  -220.27351      90             90             90            -9.3174354     -24.13073      -2.6061653     -1.2154108     -220.27351    
     75420  -237.38343      90             90             90            -3.3681809     -13.79705       3.1895715      0.50293573    -237.38343    
     75440  -246.12142      90             90             90             3.4109124     -2.1944383      7.7841208      4.6430546     -246.12142    
     75460  -236.67858      90             90             90             8.0413365      5.0358963      12.947327      6.1407856     -236.67858    
     75480  -245.06199      90             90             90             12.757145      9.8016819      19.324882      9.1448695     -245.06199    
     75500  -235.60758      90             90             90             11.917469      7.6329611      17.763289      10.356157     -235.60758    
     75520  -233.52996      90             90             90             8.9802805      8.8229255      12.669835      5.4480813     -233.52996    
     75540  -237.12403      90             90             90             5.7588709      9.2298323      7.2482063      0.79857414    -237.12403    
     75560  -236.31019      90             90             90             2.9809933      8.2211319      1.9528868     -1.2310388     -236.31019    
     75580  -250.56674      90             90             90             3.6045348      9.0171387      0.56940366     1.2270621     -250.56674    
     75600  -242.15636      90             90             90             2.3465414      5.5252658     -0.17066586     1.6850243     -242.15636    
     75620  -231.63972      90             90             90             0.81389983     6.8570942     -2.6167869     -1.7986078     -231.63972    
     75640  -236.62152      90             90             90             1.2482797      11.451625     -9.4406846      1.733899      -236.62152    
     75660  -241.36491      90             90             90             2.5227693      14.451124     -16.798688      9.9158717     -241.36491    
     75680  -231.69856      90             90             90             1.9221714      13.096034     -19.144956      11.815436     -231.69856    
     75700  -218.84636      90             90             90            -0.56991319     6.3735829     -16.119869      8.0365465     -218.84636    
     75720  -238.441        90             90             90            -0.034507697    3.1746645     -7.974663       4.6964753     -238.441      
     75740  -234.79836      90             90             90            -2.1779945     -2.6317976     -6.3358319      2.4336462     -234.79836    
     75760  -222.60547      90             90             90            -4.0527373     -4.5051158     -10.510962      2.8578658     -222.60547    
     75780  -229.65459      90             90             90            -2.5013552     -1.0820122     -12.902403      6.48035       -229.65459    
     75800  -227.11535      90             90             90            -3.7914034     -3.5081043     -15.152793      7.2866873     -227.11535    
     75820  -240.14011      90             90             90            -4.133351      -2.5429155     -14.049451      4.1923131     -240.14011    
     75840  -242.75887      90             90             90            -4.9433543     -0.39551799    -14.238454     -0.19609098    -242.75887    
     75860  -237.54908      90             90             90            -4.7327091     -1.1525161     -13.03511      -0.010501471   -237.54908    
     75880  -242.01191      90             90             90            -1.3427854     -2.1784373     -4.5530614      2.7031425     -242.01191    
     75900  -243.2147       90             90             90             0.54283018    -0.22015175    -0.65966516     2.5083075     -243.2147     
     75920  -247.94707      90             90             90             0.94561595     7.5484691     -4.6685488     -0.043072444   -247.94707    
     75940  -232.59766      90             90             90            -1.6942767      9.6659326     -7.7586207     -6.9901418     -232.59766    
     75960  -226.76504      90             90             90            -1.2591685      6.3700426      0.60129834    -10.748846     -226.76504    
     75980  -234.3785       90             90             90             3.1284194      4.3392753      14.039355     -8.9933724     -234.3785     
     76000  -225.38539      90             90             90             5.4735579      3.0026845      18.195086     -4.7770966     -225.38539    
     76020  -234.37657      90             90             90             7.7564034      2.5949313      19.239843      1.4344361     -234.37657    
     76040  -233.38943      90             90             90             7.1541513      3.3474507      22.932675     -4.8176715     -233.38943    
     76060  -228.08116      90             90             90             6.1934669      10.253123      25.906367     -17.57909      -228.08116    
     76080  -237.76026      90             90             90             7.4284282      13.792748      26.220102     -17.727566     -237.76026    
     76100  -226.03266      90             90             90             4.6951421      5.7351268      22.186658     -13.836359     -226.03266    
     76120  -213.764        90             90             90             1.0124163     -2.4500399      16.883679     -11.396391     -213.764      
     76140  -221.27973      90             90             90             1.1337891     -3.6910816      14.809102     -7.7166532     -221.27973    
     76160  -223.19978      90             90             90             2.2589485     -0.059197274    13.859037     -7.022994      -223.19978    
     76180  -206.94357      90             90             90             2.5972918      3.4909         11.523912     -7.2229366     -206.94357    
     76200  -207.46922      90             90             90             4.1574345      5.9993156      12.325001     -5.8520129     -207.46922    
     76220  -216.96426      90             90             90             3.9545977      2.7072148      13.567274     -4.4106959     -216.96426    
     76240  -216.55091      90             90             90             1.4286462     -1.2638307      9.165175      -3.6154057     -216.55091    
     76260  -225.98271      90             90             90             1.6896233      3.7216439      4.4148443     -3.0676182     -225.98271    
     76280  -214.37242      90             90             90             1.6408997      6.8926611      1.7204151     -3.6903771     -214.37242    
     76300  -208.9981       90             90             90             3.6095489      9.6081183      4.9741388     -3.7536104     -208.9981     
     76320  -228.67316      90             90             90             8.1309626      10.606849      12.760099      1.0259402     -228.67316    
     76340  -221.89071      90             90             90             7.9720933      0.84862575     13.660208      9.407446      -221.89071    
     76360  -212.01466      90             90             90             6.840056      -4.7898885      10.674755      14.635301     -212.01466    
     76380  -220.08542      90             90             90             7.7526007     -2.2928644      10.726552      14.824115     -220.08542    
     76400  -229.65544      90             90             90             8.843579      -0.21931884     13.751522      12.998534     -229.65544    
     76420  -223.21145      90             90             90             8.0685539     -1.3692488      14.666523      10.908388     -223.21145    
     76440  -215.49873      90             90             90             8.1326239     -0.38525361     11.173043      13.610082     -215.49873    
     76460  -220.01491      90             90             90             12.460887      6.8890034      10.387484      20.106173     -220.01491    
     76480  -219.28779      90             90             90             16.584685      16.065554      10.990777      22.697722     -219.28779    
     76500  -230.4332       90             90             90             18.899331      24.972652      9.0769229      22.648418     -230.4332     
     76520  -232.27632      90             90             90             15.58507       21.599311      7.383841       17.772059     -232.27632    
     76540  -220.61764      90             90             90             9.5674066      13.082706      6.0728573      9.5466565     -220.61764    
     76560  -231.31785      90             90             90             6.0484737      11.767998     -2.2156465      8.5930692     -231.31785    
     76580  -228.07041      90             90             90             1.5781475      10.694939     -16.674423      10.713926     -228.07041    
     76600  -224.46314      90             90             90            -1.9612015      11.754233     -26.614628      8.9767908     -224.46314    
     76620  -230.47842      90             90             90            -1.63466        10.609613     -24.370847      8.8572536     -230.47842    
     76640  -223.00511      90             90             90             0.30333017     10.458523     -17.357399      7.8088663     -223.00511    
     76660  -220.76364      90             90             90             3.4029328      14.771206     -11.331892      6.7694845     -220.76364    
     76680  -226.59247      90             90             90             5.4240175      13.378535     -7.2717855      10.165303     -226.59247    
     76700  -227.3097       90             90             90             4.7587223      10.777788     -4.423784       7.9221634     -227.3097     
     76720  -221.00569      90             90             90             4.0794905      6.5238081      1.4754903      4.239173      -221.00569    
     76740  -230.17596      90             90             90             8.6898134      4.6492703      11.218011      10.202159     -230.17596    
     76760  -235.40363      90             90             90             14.607519      6.5111799      20.459086      16.852292     -235.40363    
     76780  -223.79922      90             90             90             15.609063      4.602984       25.852274      16.371931     -223.79922    
     76800  -226.61546      90             90             90             12.089671      4.4488625      23.571196      8.2489554     -226.61546    
     76820  -221.65754      90             90             90             4.9311589     -2.100531       18.150125     -1.2561177     -221.65754    
     76840  -211.21095      90             90             90            -0.85730791    -11.377424      16.921999     -8.116498      -211.21095    
     76860  -204.02199      90             90             90            -3.5195034     -11.484047      14.40671      -13.481173     -204.02199    
     76880  -201.67792      90             90             90            -5.710658      -15.105674      11.690096     -13.716395     -201.67792    
     76900  -211.89596      90             90             90            -8.3932626     -19.416262      7.0865115     -12.850037     -211.89596    
     76920  -212.20889      90             90             90            -10.918879     -20.024035      0.10548526    -12.838088     -212.20889    
     76940  -205.99151      90             90             90            -11.203951     -18.343475     -4.8991496     -10.369227     -205.99151    
     76960  -205.35872      90             90             90            -9.7940535     -11.316043     -10.481597     -7.5845198     -205.35872    
     76980  -221.31716      90             90             90            -8.7941717     -6.314884      -13.189394     -6.878237      -221.31716    
     77000  -225.23508      90             90             90            -12.036059     -6.3796916     -15.653426     -14.075059     -225.23508    
     77020  -218.77199      90             90             90            -15.179439     -6.1750454     -19.956571     -19.4067       -218.77199    
     77040  -238.02741      90             90             90            -11.49473      -3.9127653     -16.279659     -14.291765     -238.02741    
     77060  -237.77512      90             90             90            -7.8862532     -2.2477475     -9.7013156     -11.709697     -237.77512    
     77080  -230.91607      90             90             90            -5.8597405     -2.0783601     -4.9741176     -10.526744     -230.91607    
     77100  -239.0028       90             90             90            -3.4192294     -1.3860484     -4.8071986     -4.0644412     -239.0028     
     77120  -235.14652      90             90             90            -1.4260216     -0.30758827    -8.3703996      4.3999232     -235.14652    
     77140  -238.13202      90             90             90             4.1560007      3.3146237     -2.4898208      11.643199     -238.13202    
     77160  -240.62943      90             90             90             11.312302      12.156633      6.5941248      15.186149     -240.62943    
     77180  -239.24956      90             90             90             17.04748       19.878028      11.515334      19.749079     -239.24956    
     77200  -243.22352      90             90             90             20.641588      20.813008      16.430909      24.680847     -243.22352    
     77220  -241.99296      90             90             90             22.286884      20.757096      21.304696      24.798862     -241.99296    
     77240  -232.37746      90             90             90             22.176639      19.573535      23.035802      23.920579     -232.37746    
     77260  -227.39438      90             90             90             21.228434      19.595636      20.854489      23.235176     -227.39438    
     77280  -236.65017      90             90             90             19.24599       21.331004      18.581409      17.825557     -236.65017    
     77300  -234.57639      90             90             90             12.634693      14.150109      16.416383      7.3375886     -234.57639    
     77320  -223.64973      90             90             90             5.2523383      5.0320549      13.53554      -2.8105804     -223.64973    
     77340  -220.73705      90             90             90             1.652542       2.6526456      9.6831416     -7.3781613     -220.73705    
     77360  -222.06646      90             90             90             0.74847608     4.4369761      4.3906026     -6.5821505     -222.06646    
     77380  -221.27307      90             90             90             0.56001674     6.7134801      3.6643742     -8.697804      -221.27307    
     77400  -221.10032      90             90             90             0.93254826     5.6790802      7.5986373     -10.480073     -221.10032    
     77420  -224.55427      90             90             90             1.9246975      1.1872036      9.0422115     -4.4553226     -224.55427    
     77440  -225.99099      90             90             90             1.5096543     -3.9291912      7.0181835      1.4399707     -225.99099    
     77460  -231.42335      90             90             90            -0.90617089    -7.0752197      0.39973267     3.9569743     -231.42335    
     77480  -222.52259      90             90             90            -7.6076483     -10.833051     -9.270656      -2.7192374     -222.52259    
     77500  -206.98536      90             90             90            -14.71546      -12.425824     -12.481512     -19.239045     -206.98536    
     77520  -218.17152      90             90             90            -15.387821     -10.931349     -7.2280784     -28.004036     -218.17152    
     77540  -212.80393      90             90             90            -14.413966     -11.661946     -5.3697119     -26.21024      -212.80393    
     77560  -208.93959      90             90             90            -11.008341     -8.2282212     -9.1796111     -15.61719      -208.93959    
     77580  -228.15499      90             90             90            -3.7691133      1.7643252     -9.479583      -3.592082      -228.15499    
     77600  -225.1331       90             90             90             1.8043089      11.464833     -4.9808081     -1.0710977     -225.1331     
     77620  -227.33158      90             90             90             8.4164649      15.803614      6.5821775      2.8636035     -227.33158    
     77640  -232.91987      90             90             90             14.174383      10.257607      21.893307      10.372236     -232.91987    
     77660  -226.88198      90             90             90             16.309842      4.3034663      28.392372      16.233687     -226.88198    
     77680  -233.00996      90             90             90             17.821782      4.1070844      26.33307       23.02519      -233.00996    
     77700  -228.51848      90             90             90             16.382313      5.8440368      21.658435      21.644467     -228.51848    
     77720  -222.13488      90             90             90             13.509441      6.3706821      19.946932      14.210708     -222.13488    
     77740  -226.41511      90             90             90             11.523671      1.5201661      20.482859      12.567987     -226.41511    
     77760  -222.59632      90             90             90             5.7506329     -5.2402821      13.112681      9.3795        -222.59632    
     77780  -220.25017      90             90             90            -2.1274191     -9.5136565     -0.74335113     3.8747505     -220.25017    
     77800  -216.58938      90             90             90            -9.0393465     -12.660101     -9.0157945     -5.4421443     -216.58938    
     77820  -212.74391      90             90             90            -11.790262     -13.675972     -7.9242485     -13.770566     -212.74391    
     77840  -217.57053      90             90             90            -9.6535799     -12.60848      -5.8528232     -10.499436     -217.57053    
     77860  -227.99238      90             90             90            -5.3077806     -11.546507     -1.0981102     -3.2787242     -227.99238    
     77880  -240.19651      90             90             90            -0.81988196    -9.6419748      4.5198113      2.6625177     -240.19651    
     77900  -233.91231      90             90             90             1.2060174     -5.0641096      3.1550142      5.5271476     -233.91231    
     77920  -223.63687      90             90             90             3.4461887     -0.56665679     6.1740095      4.7312132     -223.63687    
     77940  -233.00753      90             90             90             8.0169712      1.6771781      11.691232      10.682503     -233.00753    
     77960  -235.04665      90             90             90             8.9228726      0.3911026      11.642222      14.735293     -235.04665    
     77980  -228.61372      90             90             90             5.2306627     -1.6202288      7.93548        9.3767369     -228.61372    
     78000  -232.19988      90             90             90             1.7951528     -1.4395644      1.4608304      5.3641923     -232.19988    
     78020  -235.91048      90             90             90             0.26003212    -1.9217645      3.6876871     -0.98582628    -235.91048    
     78040  -237.075        90             90             90             0.58187935     0.19349952     10.259132     -8.7069931     -237.075      
     78060  -244.1077       90             90             90             1.6065125      1.095772       10.265386     -6.5416209     -244.1077     
     78080  -243.6879       90             90             90             0.78458658    -0.71058157     4.7381405     -1.6737992     -243.6879     
     78100  -248.94177      90             90             90             0.53028736     3.012352      -2.100527       0.679037      -248.94177    
     78120  -255.86674      90             90             90             1.5121988      6.34425       -2.1075186      0.29986509    -255.86674    
     78140  -241.77952      90             90             90             0.67369711     7.7166176     -4.1300471     -1.5654792     -241.77952    
     78160  -234.48889      90             90             90             0.49143149     8.7468183     -7.2096066     -0.062917228   -234.48889    
     78180  -233.99377      90             90             90             0.53532323     7.2119875     -5.8026115      0.19659367    -233.99377    
     78200  -230.07734      90             90             90             0.73394476     7.3256882     -5.6519879      0.52813396    -230.07734    
     78220  -232.65954      90             90             90             3.70503        7.6171857     -0.040067843    3.5379722     -232.65954    
     78240  -223.9948       90             90             90             6.4073364      9.5883076      3.8291287      5.8045731     -223.9948     
     78260  -226.71682      90             90             90             9.0939557      12.911552      3.2289855      11.14133      -226.71682    
     78280  -235.69078      90             90             90             10.105599      14.874245      7.2522605      8.1902913     -235.69078    
     78300  -223.65155      90             90             90             7.6703662      14.93907       9.0024073     -0.9303789     -223.65155    
     78320  -222.07103      90             90             90             7.1263868      8.6274981      11.031916      1.7197459     -222.07103    
     78340  -219.22799      90             90             90             7.0428255      4.681326       11.559574      4.8875763     -219.22799    
     78360  -220.12942      90             90             90             6.314935       4.6363419      6.138933       8.16953       -220.12942    
     78380  -224.02476      90             90             90             5.1381031     -0.56435413     3.7724758      12.206187     -224.02476    
     78400  -212.17064      90             90             90             3.1823532     -3.9796605      6.049534       7.477186      -212.17064    
     78420  -223.83968      90             90             90             5.7470691      1.0043184      9.2709681      6.9659209     -223.83968    
     78440  -225.34868      90             90             90             6.2261639      6.4415453      5.3274948      6.9094516     -225.34868    
     78460  -213.81024      90             90             90             1.6051511      4.2380499     -1.1415213      1.7189246     -213.81024    
     78480  -220.1657       90             90             90            -2.0861781      1.4369437     -5.4512729     -2.244205      -220.1657     
     78500  -212.07126      90             90             90            -5.7078138      6.1651711     -9.9151835     -13.373429     -212.07126    
     78520  -218.69333      90             90             90            -5.2592896      9.3337237     -4.9954183     -20.116174     -218.69333    
     78540  -223.87374      90             90             90            -5.0056787      6.556786       0.65823021    -22.232052     -223.87374    
     78560  -211.92627      90             90             90            -8.6453434      2.9051853     -2.5605288     -26.280687     -211.92627    
     78580  -221.45663      90             90             90            -10.618174     -0.15040042    -9.2146464     -22.489474     -221.45663    
     78600  -212.78282      90             90             90            -13.144754     -3.1552763     -13.950931     -22.328055     -212.78282    
     78620  -205.63834      90             90             90            -12.634759     -3.1403715     -10.907624     -23.856281     -205.63834    
     78640  -218.20949      90             90             90            -7.3384171     -0.34407261    -3.7214052     -17.949774     -218.20949    
     78660  -223.13292      90             90             90            -2.444046      -2.1392245      2.4741298     -7.6670432     -223.13292    
     78680  -222.27491      90             90             90             1.2144717     -8.2317763      2.5079916      9.3671998     -222.27491    
     78700  -208.7965       90             90             90             3.4981141     -7.5143876     -1.1098422      19.118572     -208.7965     
     78720  -209.07445      90             90             90             7.0346671     -2.1467402     -0.29166622     23.542408     -209.07445    
     78740  -214.88421      90             90             90             10.417894     -3.1084607      3.6552618      30.706879     -214.88421    
     78760  -214.61664      90             90             90             11.414944     -5.5195478      12.079332      27.685048     -214.61664    
     78780  -213.966        90             90             90             10.902234     -6.7711864      18.982024      20.495863     -213.966      
     78800  -210.49207      90             90             90             10.183983     -7.4011757      21.728502      16.224622     -210.49207    
     78820  -216.23798      90             90             90             10.936113     -3.9590296      24.232626      12.534741     -216.23798    
     78840  -209.31496      90             90             90             8.703457      -0.82176566     19.402449      7.5296874     -209.31496    
     78860  -200.8707       90             90             90             3.9074006     -0.8673185      10.796851      1.7926691     -200.8707     
     78880  -204.32544      90             90             90             0.72155688    -3.1424637      5.5739559     -0.26682158    -204.32544    
     78900  -214.62466      90             90             90             0.55691515    -2.2985601      3.8968809      0.072424616   -214.62466    
     78920  -223.00981      90             90             90             1.1065429     -2.029016       4.6385914      0.71005339    -223.00981    
     78940  -205.43119      90             90             90            -2.1717903     -4.7000916      2.968559      -4.7838384     -205.43119    
     78960  -206.9932       90             90             90            -3.5693566     -1.9514708      2.3445924     -11.101191     -206.9932     
     78980  -216.41707      90             90             90            -3.0973491     -3.7038082      3.5277591     -9.1159981     -216.41707    
     79000  -213.40049      90             90             90            -2.7592172     -5.4828549      5.3360116     -8.1308083     -213.40049    
     79020  -225.89387      90             90             90             0.17940955     2.4318729      5.9259362     -7.8195805     -225.89387    
     79040  -214.65347      90             90             90            -1.4630709      2.5358701      4.2862187     -11.211301     -214.65347    
     79060  -217.65841      90             90             90            -3.9714494     -1.3958758      3.789131      -14.307603     -217.65841    
     79080  -235.05293      90             90             90            -4.3407024     -4.4058362      0.63848604    -9.2547571     -235.05293    
     79100  -219.27839      90             90             90            -6.6826593     -7.9520064     -2.9704472     -9.1255243     -219.27839    
     79120  -226.10541      90             90             90            -5.7171271     -2.1747697     -6.0396658     -8.9369459     -226.10541    
     79140  -231.85258      90             90             90            -5.4452562     -0.2236443     -9.9129881     -6.1991361     -231.85258    
     79160  -227.90471      90             90             90            -6.3919344     -5.1204285     -10.82177      -3.2336045     -227.90471    
     79180  -230.17373      90             90             90            -4.5529396     -7.041136      -12.746002      6.128319      -230.17373    
     79200  -220.90499      90             90             90            -1.0665689     -2.8422058     -13.159522      12.802021     -220.90499    
     79220  -229.55296      90             90             90             5.4731324      9.0844325     -11.164336      18.4993       -229.55296    
     79240  -231.89578      90             90             90             9.754414       14.159596     -6.1358084      21.239454     -231.89578    
     79260  -221.67228      90             90             90             9.6182926      11.008102      0.82810702     17.018669     -221.67228    
     79280  -218.19975      90             90             90             9.4325475      10.973769     -0.29992852     17.623802     -218.19975    
     79300  -220.04509      90             90             90             11.443184      16.383141     -1.9649066      19.911319     -220.04509    
     79320  -233.87092      90             90             90             16.174312      27.010117     -1.9852279      23.498047     -233.87092    
     79340  -229.94472      90             90             90             17.674826      29.054595     -1.5782635      25.548146     -229.94472    
     79360  -220.93579      90             90             90             15.945729      23.219105      5.6225773      18.995504     -220.93579    
     79380  -224.86746      90             90             90             12.99681       18.140465      6.2326984      14.617268     -224.86746    
     79400  -217.56687      90             90             90             7.0242902      12.208105     -1.4862711      10.351036     -217.56687    
     79420  -214.35838      90             90             90             1.3012425      12.09609      -8.8485381      0.6561757     -214.35838    
     79440  -218.70946      90             90             90            -2.6715611      11.284784     -11.629734     -7.6697337     -218.70946    
     79460  -216.19031      90             90             90            -5.5670858      5.3763606     -6.7292579     -15.34836      -216.19031    
     79480  -216.70502      90             90             90            -4.5413977      3.3732975      0.3262993     -17.32379      -216.70502    
     79500  -212.3946       90             90             90            -2.3550424     -0.32467037     4.4565183     -11.196975     -212.3946     
     79520  -207.67311      90             90             90            -1.0955744     -3.9777637      2.1280462     -1.4370059     -207.67311    
     79540  -223.29771      90             90             90            -0.14536295    -3.5550542      0.39915923     2.7198061     -223.29771    
     79560  -229.16712      90             90             90            -3.4919264     -5.2919598      0.31391387    -5.4977333     -229.16712    
     79580  -219.8635       90             90             90            -9.6729199     -12.319195     -3.7218431     -12.977721     -219.8635     
     79600  -221.24308      90             90             90            -12.570753     -18.931004     -7.8686635     -10.912591     -221.24308    
     79620  -223.13604      90             90             90            -12.512943     -16.333647     -17.810464     -3.3947166     -223.13604    
     79640  -220.58827      90             90             90            -10.19498      -9.5153177     -25.978529      4.9089075     -220.58827    
     79660  -219.06726      90             90             90            -5.03804       -1.8102468     -22.415451      9.1115778     -219.06726    
     79680  -221.66823      90             90             90             2.238812       6.5130157     -14.301225      14.504645     -221.66823    
     79700  -232.96         90             90             90             9.4507223      8.5151335     -2.1573421      21.994376     -232.96       
     79720  -238.908        90             90             90             12.559025      8.1440122      5.1726341      24.360429     -238.908      
     79740  -238.0247       90             90             90             11.225617      8.4155989      3.3403521      21.9209       -238.0247     
     79760  -235.79206      90             90             90             8.4359309      6.1845353      1.6477709      17.475487     -235.79206    
     79780  -235.97934      90             90             90             7.2965515      5.7215279      4.090969       12.077158     -235.97934    
     79800  -236.67744      90             90             90             7.9225403      7.6934595      8.0722606      8.0019008     -236.67744    
     79820  -222.26772      90             90             90             6.600153       10.686869      4.3071978      4.8063925     -222.26772    
     79840  -221.68812      90             90             90             5.3113497      14.707062     -2.3649886      3.5919759     -221.68812    
     79860  -237.87503      90             90             90             4.3300746      17.084426     -4.7174681      0.62326548    -237.87503    
     79880  -228.50417      90             90             90            -0.41114438     14.732384     -8.6229519     -7.3428655     -228.50417    
     79900  -222.6444       90             90             90            -4.0185149      10.68576      -10.584706     -12.156599     -222.6444     
     79920  -226.35924      90             90             90            -5.2410559      10.715693     -13.410264     -13.028596     -226.35924    
     79940  -224.29659      90             90             90            -5.9832856      10.226933     -14.98928      -13.187509     -224.29659    
     79960  -235.61526      90             90             90            -3.7127591      9.3893956     -6.1769337     -14.350739     -235.61526    
     79980  -224.7703       90             90             90            -3.261202       10.772315     -2.1156866     -18.440234     -224.7703     
     80000  -209.16418      90             90             90            -2.9753435      12.956773     -4.1342293     -17.748574     -209.16418    
     80020  -231.14453      90             90             90             1.2478891      19.213103     -1.9732694     -13.496166     -231.14453    
     80040  -229.593        90             90             90             1.1075215      15.148066      1.5608067     -13.386309     -229.593      
     80060  -205.83106      90             90             90            -1.7984107      0.3431322      10.2367       -15.975064     -205.83106    
     80080  -209.23908      90             90             90            -0.1168365     -1.2037406      18.903979     -18.050748     -209.23908    
     80100  -209.80168      90             90             90             2.125896      -0.1221597      19.112178     -12.612331     -209.80168    
     80120  -205.01223      90             90             90             3.6837652     -4.4351784      16.591983     -1.1055092     -205.01223    
     80140  -199.90266      90             90             90             3.9657657     -4.9877163      13.065841      3.8191722     -199.90266    
     80160  -185.57112      90             90             90             2.8247921     -6.4801704      9.8602848      5.0942621     -185.57112    
     80180  -194.49478      90             90             90             5.7511819     -8.6528877      15.523945      10.382488     -194.49478    
     80200  -214.13119      90             90             90             10.996624     -7.1521893      26.414389      13.727672     -214.13119    
     80220  -211.79289      90             90             90             12.804852     -1.2008893      27.518783      12.096662     -211.79289    
     80240  -213.86227      90             90             90             12.544516      3.1704853      21.430389      13.032673     -213.86227    
     80260  -226.82081      90             90             90             12.250722      2.5649178      20.175455      14.011792     -226.82081    
     80280  -228.89776      90             90             90             9.9815334      3.0358467      18.64478       8.2639739     -228.89776    
     80300  -226.77644      90             90             90             6.4974044      4.4685883      13.817693      1.2059319     -226.77644    
     80320  -233.22743      90             90             90             3.7647748      1.8383157      9.1496474      0.30636126    -233.22743    
     80340  -234.66461      90             90             90             1.5303955     -0.88725031     2.5928266      2.8856103     -234.66461    
     80360  -234.10386      90             90             90             1.2355311     -0.66480609     1.5504989      2.8209004     -234.10386    
     80380  -244.68808      90             90             90             3.2913218      2.2614444      7.5971063      0.015414718   -244.68808    
     80400  -244.60808      90             90             90             3.2373263      1.0334862      11.591831     -2.9133386     -244.60808    
     80420  -244.84152      90             90             90             1.7702687     -1.9312417      9.8383538     -2.5963061     -244.84152    
     80440  -252.48047      90             90             90             0.4137617     -2.0135793      4.1162304     -0.86136603    -252.48047    
     80460  -248.23725      90             90             90            -2.7070975     -5.2473985     -0.40924461    -2.4646493     -248.23725    
     80480  -245.47046      90             90             90            -4.854186      -7.1780034     -6.1359376     -1.2486172     -245.47046    
     80500  -251.99802      90             90             90            -5.7443556     -5.8776663     -11.695069      0.33966897    -251.99802    
     80520  -258.53554      90             90             90            -6.9069478     -3.0093551     -15.906235     -1.8052528     -258.53554    
     80540  -259.23064      90             90             90            -8.6739529      0.57891906    -23.365        -3.2357773     -259.23064    
     80560  -254.79727      90             90             90            -10.158129     -0.29821304    -22.657273     -7.5189002     -254.79727    
     80580  -257.48555      90             90             90            -9.6211717     -6.0240971     -15.239769     -7.5996495     -257.48555    
     80600  -257.65709      90             90             90            -8.2225206     -12.320878     -12.146207     -0.20047681    -257.65709    
     80620  -257.39861      90             90             90            -5.1249084     -13.340247     -8.12351        6.089032      -257.39861    
     80640  -249.38353      90             90             90            -0.34476112    -6.0160144     -6.221375       11.203106     -249.38353    
     80660  -245.87536      90             90             90             5.8505042      5.6573369     -2.9988407      14.893016     -245.87536    
     80680  -263.20047      90             90             90             12.518054      15.379789      5.0867482      17.087625     -263.20047    
     80700  -257.10028      90             90             90             13.032083      13.75616       5.9937386      19.346351     -257.10028    
     80720  -245.04229      90             90             90             10.614637      5.9158904      3.0652584      22.862763     -245.04229    
     80740  -253.48728      90             90             90             10.539957      6.2646495     -0.060869543    25.416091     -253.48728    
     80760  -247.24351      90             90             90             9.5550576      9.7718289     -6.1931047      25.086448     -247.24351    
     80780  -240.81452      90             90             90             9.2644798      9.5826282     -5.8433113      24.054123     -240.81452    
     80800  -241.16303      90             90             90             9.3892478      11.570045     -3.05528        19.652978     -241.16303    
     80820  -238.34248      90             90             90             8.6206307      15.567982     -5.9339406      16.227851     -238.34248    
     80840  -235.62738      90             90             90             6.7660041      16.170176     -8.2399489      12.367785     -235.62738    
     80860  -231.17481      90             90             90             4.7268388      13.456334     -4.6845027      5.4086855     -231.17481    
     80880  -234.26388      90             90             90             3.5231393      11.247387      1.1134806     -1.79145       -234.26388    
     80900  -233.73411      90             90             90             2.056187       13.32662       3.5746579     -10.732716     -233.73411    
     80920  -229.77302      90             90             90             1.6294071      15.563735      2.439465      -13.114978     -229.77302    
     80940  -225.97347      90             90             90             3.3781523      17.687333      4.154881      -11.707757     -225.97347    
     80960  -225.78798      90             90             90             5.76082        22.137581      8.6583269     -13.513448     -225.78798    
     80980  -226.62806      90             90             90             5.4601365      24.88728       9.9910363     -18.497907     -226.62806    
     81000  -218.42944      90             90             90             0.55181235     21.789594      5.2267751     -25.360932     -218.42944    
     81020  -228.12085      90             90             90            -3.1509637      11.892671     -1.0757827     -20.269779     -228.12085    
     81040  -238.21942      90             90             90            -4.2073608     -0.27086431    -3.2590664     -9.0921516     -238.21942    
     81060  -230.78218      90             90             90            -4.3086244     -11.276021     -2.2035229      0.55367081    -230.78218    
     81080  -229.69451      90             90             90            -1.2523426     -15.99939       3.3071874      8.935175      -229.69451    
     81100  -233.19664      90             90             90             3.2789786     -11.682177      11.444277      10.074835     -233.19664    
     81120  -234.99074      90             90             90             6.4578014     -6.8014958      12.27073       13.90417      -234.99074    
     81140  -223.68125      90             90             90             7.159069      -3.9278275      9.3552017      16.049833     -223.68125    
     81160  -229.95987      90             90             90             9.0099584     -2.6084252      12.647199      16.991101     -229.95987    
     81180  -241.08087      90             90             90             9.5584912     -6.9243005      16.284383      19.315391     -241.08087    
     81200  -226.10858      90             90             90             4.0818771     -11.65305       11.763549      12.135132     -226.10858    
     81220  -229.3322       90             90             90             0.98923235    -11.706864      3.7880656      10.886496     -229.3322     
     81240  -241.5672       90             90             90             2.0773597     -10.053644     -1.0764506      17.362173     -241.5672     
     81260  -245.58079      90             90             90             4.2538694     -7.4320395      2.2208631      17.972785     -245.58079    
     81280  -250.56289      90             90             90             5.1478024     -7.091115       8.1640412      14.370481     -250.56289    
     81300  -235.943        90             90             90            -0.39487722    -12.442075      3.5677495      7.6896941     -235.943      
     81320  -234.12901      90             90             90            -6.1430424     -19.315557     -6.8375449      7.7239752     -234.12901    
     81340  -236.74668      90             90             90            -9.9659948     -22.03873      -17.316943      9.457688      -236.74668    
     81360  -220.10628      90             90             90            -13.750742     -17.617065     -27.572738      3.9375778     -220.10628    
     81380  -233.74654      90             90             90            -11.844296     -10.469789     -24.669315     -0.39378517    -233.74654    
     81400  -251.3242       90             90             90            -7.9324518     -7.6626143     -11.555268     -4.5794729     -251.3242     
     81420  -242.36425      90             90             90            -7.269952      -9.5526543     -3.6112602     -8.6459416     -242.36425    
     81440  -237.001        90             90             90            -7.1474186     -11.845005     -2.4187627     -7.1784883     -237.001      
     81460  -235.70667      90             90             90            -7.9070408     -10.281872     -5.8723308     -7.5669199     -235.70667    
     81480  -230.79611      90             90             90            -10.099377     -9.9130091     -4.910566      -15.474556     -230.79611    
     81500  -228.99837      90             90             90            -11.204541     -12.587725      0.81107364    -21.836972     -228.99837    
     81520  -238.54236      90             90             90            -7.9286262     -7.1453151      3.7773963     -20.41796      -238.54236    
     81540  -248.36338      90             90             90            -1.2962311      2.2829784      6.811493      -12.983165     -248.36338    
     81560  -242.76868      90             90             90             3.8607582      3.6277068      8.9265212     -0.97195348    -242.76868    
     81580  -245.57168      90             90             90             7.4270766     -0.26328817     11.776694      10.767824     -245.57168    
     81600  -250.33381      90             90             90             8.6069341     -2.4297061      12.654315      15.596193     -250.33381    
     81620  -236.95738      90             90             90             6.7675612     -1.0612178      6.4313801      14.932521     -236.95738    
     81640  -237.11776      90             90             90             6.4243228     -3.4652503      3.2693332      19.468886     -237.11776    
     81660  -244.61628      90             90             90             6.2586508     -9.5099621      1.6540557      26.631859     -244.61628    
     81680  -234.39141      90             90             90             4.4345995     -9.3838051     -0.25642879     22.944033     -234.39141    
     81700  -234.04603      90             90             90             5.2286357     -2.6103525      7.2518666      11.044393     -234.04603    
     81720  -234.74939      90             90             90             7.384395       7.2281349      11.021382      3.9036682     -234.74939    
     81740  -232.90936      90             90             90             8.8833912      14.51773       4.6858948      7.446549      -232.90936    
     81760  -246.54603      90             90             90             9.1403376      15.93774       0.051402912    11.431869     -246.54603    
     81780  -233.34234      90             90             90             4.8630407      15.26514      -6.5139407      5.8379229     -233.34234    
     81800  -230.55016      90             90             90             2.1636349      12.631587     -7.9711758      1.8304931     -230.55016    
     81820  -252.2014       90             90             90             3.3627942      13.540919     -4.1848499      0.73231362    -252.2014     
     81840  -232.0332       90             90             90            -0.64946        14.55338      -9.3748223     -7.1269378     -232.0332     
     81860  -219.01588      90             90             90            -5.0051946      13.077689     -12.055194     -16.038079     -219.01588    
     81880  -236.72344      90             90             90            -5.9754465      11.083569     -10.40994      -18.599969     -236.72344    
     81900  -236.35852      90             90             90            -7.5800759      6.129269      -10.162353     -18.707144     -236.35852    
     81920  -229.06262      90             90             90            -7.0460738      4.3801104     -6.1522066     -19.366125     -229.06262    
     81940  -226.61824      90             90             90            -4.0195273      6.0694616     -4.997138      -13.130905     -226.61824    
     81960  -229.45068      90             90             90             0.27054071     7.641123      -7.0685819      0.23908104    -229.45068    
     81980  -238.16049      90             90             90             3.8385079      9.489515      -9.0119238      11.037932     -238.16049    
     82000  -236.53712      90             90             90             3.6062749      5.2044064     -6.502919       12.117337     -236.53712    
     82020  -237.21109      90             90             90             3.5447535      1.9834451     -1.4582555      10.109071     -237.21109    
     82040  -245.956        90             90             90             3.5735893      1.5838576     -5.6276026      14.764513     -245.956      
     82060  -243.99686      90             90             90             2.2961445      0.10303771    -9.902821       16.688217     -243.99686    
     82080  -237.83617      90             90             90             2.0401526      3.7692099     -12.207362      14.55861      -237.83617    
     82100  -233.91612      90             90             90             3.849435       4.975007      -11.789137      18.362435     -233.91612    
     82120  -240.12814      90             90             90             8.0295855      5.3339197     -2.3446225      21.099459     -240.12814    
     82140  -247.31239      90             90             90             10.958418      9.4075757      2.8089284      20.65875      -247.31239    
     82160  -235.5559       90             90             90             8.3873011      8.810771      -2.9866881      19.33782      -235.5559     
     82180  -243.88567      90             90             90             5.5263598      9.7192699     -7.6338789      14.493688     -243.88567    
     82200  -251.63926      90             90             90             2.8754132      8.4780904     -3.7558058      3.9039551     -251.63926    
     82220  -239.2448       90             90             90            -0.91146525     1.4258165      3.5602472     -7.7204595     -239.2448     
     82240  -248.60176      90             90             90            -1.0344959      0.17550047     5.8205085     -9.0994967     -248.60176    
     82260  -246.85467      90             90             90            -2.283221       1.6319925     -1.5215878     -6.9600677     -246.85467    
     82280  -241.51809      90             90             90            -3.9257918      1.6726313     -7.2434716     -6.2065352     -241.51809    
     82300  -254.67125      90             90             90            -3.3716221      0.2935814     -4.5987462     -5.8097014     -254.67125    
     82320  -239.71378      90             90             90            -6.5933494      0.73231369    -5.1318034     -15.380558     -239.71378    
     82340  -227.76906      90             90             90            -7.8563594      5.1052496     -8.9560714     -19.718256     -227.76906    
     82360  -238.89521      90             90             90            -3.8711424      8.0286743     -8.4890194     -11.153082     -238.89521    
     82380  -237.15679      90             90             90            -0.41936403     8.0332007     -5.7368276     -3.5544652     -237.15679    
     82400  -227.97688      90             90             90             3.381607       7.4734971      3.8420742     -1.1707503     -227.97688    
     82420  -224.03997      90             90             90             7.2882495      12.451438      12.311597     -2.8982863     -224.03997    
     82440  -223.68973      90             90             90             9.429403       16.408268      12.090913     -0.21097176    -223.68973    
     82460  -220.69153      90             90             90             9.3317171      13.493799      7.9403982      6.5609538     -220.69153    
     82480  -233.00251      90             90             90             10.145579      16.516589      1.5632277      12.35692      -233.00251    
     82500  -234.97538      90             90             90             8.8019158      15.681795     -3.2499474      13.9739       -234.97538    
     82520  -226.463        90             90             90             6.4586166      9.442782      -3.7236972      13.656765     -226.463      
     82540  -246.14769      90             90             90             8.086065       6.2900853      0.69423571     17.273874     -246.14769    
     82560  -232.41385      90             90             90             6.109539      -0.33486005     1.7997139      16.863763     -232.41385    
     82580  -222.48003      90             90             90             4.6373008     -1.3019072     -1.3455029      16.559312     -222.48003    
     82600  -243.59756      90             90             90             6.2164383     -2.2238149      2.5316953      18.341434     -243.59756    
     82620  -233.27853      90             90             90             2.0482524     -7.2629891      0.45977053     12.947976     -233.27853    
     82640  -228.49195      90             90             90            -3.1918836     -4.4478984     -8.5576056      3.4298532     -228.49195    
     82660  -227.84813      90             90             90            -6.9569489     -0.6150572     -13.349398     -6.9063921     -227.84813    
     82680  -228.87301      90             90             90            -7.346081       4.1055593     -15.874206     -10.269596     -228.87301    
     82700  -246.67499      90             90             90            -2.5464051      6.9627156     -5.4989619     -9.1029689     -246.67499    
     82720  -250.46526      90             90             90             0.4931333      3.7212297      11.38759      -13.62942      -250.46526    
     82740  -240.91059      90             90             90            -0.98554457     1.749622       15.493998     -20.200254     -240.91059    
     82760  -236.94046      90             90             90            -3.3017486      1.0732493      10.101495     -21.07999      -236.94046    
     82780  -245.91732      90             90             90            -3.1524509      3.3629829      4.8774048     -17.69774      -245.91732    
     82800  -240.12518      90             90             90            -4.6093131      1.2074212      6.6543689     -21.68973      -240.12518    
     82820  -233.45989      90             90             90            -4.4422614     -6.6047599      17.932395     -24.654419     -233.45989    
     82840  -243.38732      90             90             90            -1.1200708     -12.966903      28.84488      -19.238189     -243.38732    
     82860  -229.50695      90             90             90            -0.0058219274  -15.22818       29.91388      -14.703166     -229.50695    
     82880  -220.02882      90             90             90             2.8341574     -10.403694      27.588342     -8.6821756     -220.02882    
     82900  -220.38538      90             90             90             8.291748      -5.6858406      31.135331     -0.57424641    -220.38538    
     82920  -220.11884      90             90             90             12.629276     -7.0504258      37.001576      7.9366793     -220.11884    
     82940  -222.64909      90             90             90             14.033956     -10.121457      39.457886      12.76544      -222.64909    
     82960  -226.75373      90             90             90             13.075056     -7.640383       31.619934      15.245619     -226.75373    
     82980  -238.35531      90             90             90             12.048757      0.71313369     17.914177      17.51896      -238.35531    
     83000  -225.93451      90             90             90             9.1098572      1.2873453      9.6486548      16.393572     -225.93451    
     83020  -222.48542      90             90             90             8.3136298     -3.0322145      8.3084104      19.664694     -222.48542    
     83040  -224.80578      90             90             90             7.105177      -8.6917917      10.322973      19.68435      -224.80578    
     83060  -220.00785      90             90             90             2.8284921     -13.999017      8.4848892      13.999604     -220.00785    
     83080  -234.48944      90             90             90            -0.31842637    -9.4157073      2.2674996      6.1929286     -234.48944    
     83100  -220.31822      90             90             90            -6.7586794     -6.5674411     -6.0035637     -7.7050333     -220.31822    
     83120  -216.52554      90             90             90            -10.269426     -6.4585191     -14.089138     -10.260622     -216.52554    
     83140  -224.55379      90             90             90            -10.443292     -3.4561307     -18.65975      -9.2139956     -224.55379    
     83160  -207.49715      90             90             90            -11.898866     -2.6069653     -21.053441     -12.036192     -207.49715    
     83180  -219.98156      90             90             90            -8.2495012      1.0327974     -16.499767     -9.2815334     -219.98156    
     83200  -227.046        90             90             90            -3.9581851      5.0972383     -9.8573373     -7.1144563     -227.046      
     83220  -217.62537      90             90             90            -1.2417193      7.5799759     -13.217391      1.9122572     -217.62537    
     83240  -222.87921      90             90             90             2.5622064      7.4528153     -14.428084      14.661888     -222.87921    
     83260  -225.22867      90             90             90             4.8066477      1.1460508     -6.3908473      19.66474      -225.22867    
     83280  -228.16709      90             90             90             6.409871      -1.3383767     -1.7920948      22.360084     -228.16709    
     83300  -223.15798      90             90             90             7.1565406     -0.22699367    -1.6227954      23.319411     -223.15798    
     83320  -224.53988      90             90             90             8.5116834      0.63866039     0.1814691      24.714921     -224.53988    
     83340  -234.04095      90             90             90             9.7190539      5.6924147      1.7019385      21.762809     -234.04095    
     83360  -231.31577      90             90             90             7.9477731      6.8101279      6.1677093      10.865482     -231.31577    
     83380  -227.83525      90             90             90             5.0347192      3.0945553      10.406908      1.6026939     -227.83525    
     83400  -216.71577      90             90             90             1.2159313      2.7483967      3.6993081     -2.799911      -216.71577    
     83420  -208.69931      90             90             90            -1.3883361      1.5686031     -2.7281339     -3.0054776     -208.69931    
     83440  -209.29063      90             90             90            -1.8783774      1.0988212     -3.4507947     -3.2831586     -209.29063    
     83460  -217.79187      90             90             90            -0.39612601     7.5398494     -5.5788878     -3.1493396     -217.79187    
     83480  -222.01583      90             90             90             1.5474815      10.984074     -3.8680784     -2.4735513     -222.01583    
     83500  -215.18852      90             90             90             1.6333509      11.681716     -2.8417632     -3.9399001     -215.18852    
     83520  -218.55845      90             90             90             0.9613815      9.9893217     -4.3665823     -2.7385949     -218.55845    
     83540  -207.68147      90             90             90            -1.5106325      0.40541507    -2.658959      -2.2783534     -207.68147    
     83560  -207.84734      90             90             90            -2.8303844     -0.15067349    -3.3056183     -5.0348613     -207.84734    
     83580  -204.73753      90             90             90            -4.3841522      8.0717727     -6.780637      -14.443592     -204.73753    
     83600  -196.01518      90             90             90            -4.9227314      11.152075     -8.9408392     -16.97943      -196.01518    
     83620  -233.19008      90             90             90             0.69015025     12.411025     -4.5001441     -5.8404302     -233.19008    
     83640  -240.37703      90             90             90             1.7614363      4.2937773      5.3487043     -4.3581727     -240.37703    
     83660  -224.66504      90             90             90             0.39618161    -3.3013328      13.460456     -8.9705785     -224.66504    
     83680  -224.97087      90             90             90             3.1426324      3.7244326      16.141887     -10.438423     -224.97087    
     83700  -209.31735      90             90             90             3.5988337      9.0098826      12.2058       -10.419181     -209.31735    
     83720  -215.57979      90             90             90             8.3302797      16.455555      11.368453     -2.8331682     -215.57979    
     83740  -223.1142       90             90             90             11.45151       18.934741      13.153556      2.2662323     -223.1142     
     83760  -209.55213      90             90             90             10.066664      9.5992508      11.690076      8.9106662     -209.55213    
     83780  -214.74705      90             90             90             10.328979      6.8712253      13.259612      10.856101     -214.74705    
     83800  -216.45573      90             90             90             9.7184535      5.8907977      17.726931      5.5376322     -216.45573    
     83820  -220.10578      90             90             90             8.6027027      6.0015301      15.941447      3.8651316     -220.10578    
     83840  -219.96588      90             90             90             6.8092025      10.170582      10.518104     -0.26107811    -219.96588    
     83860  -214.98866      90             90             90             4.5942911      7.311293       4.5529992      1.9185812     -214.98866    
     83880  -217.17105      90             90             90             3.5408442      4.9162264     -2.3055328      8.0118388     -217.17105    
     83900  -221.43038      90             90             90             2.3304428      4.4755855     -4.0894983      6.6052412     -221.43038    
     83920  -223.79776      90             90             90            -1.1654385      2.5737357     -6.0900218      0.019970722   -223.79776    
     83940  -207.56562      90             90             90            -9.1151362     -0.084753238   -13.946348     -13.314307     -207.56562    
     83960  -203.87391      90             90             90            -15.439089     -8.6184273     -19.100736     -18.598105     -203.87391    
     83980  -213.90939      90             90             90            -17.247537     -15.57709      -18.168571     -17.996949     -213.90939    
     84000  -213.20866      90             90             90            -16.872259     -21.212082     -10.698425     -18.70627      -213.20866    
     84020  -219.94524      90             90             90            -13.774996     -28.563352     -5.0560129     -7.7056241     -219.94524    
     84040  -225.82814      90             90             90            -10.803238     -29.546425     -8.1162489      5.2529597     -225.82814    
     84060  -227.99469      90             90             90            -8.8695289     -23.246886     -15.24263       11.880929     -227.99469    
     84080  -224.14336      90             90             90            -7.7030348     -12.358681     -24.780592      14.030168     -224.14336    
     84100  -217.70756      90             90             90            -6.0589862     -3.6035533     -25.662908      11.089503     -217.70756    
     84120  -217.08748      90             90             90            -2.776231       0.15292347    -17.949569      9.4679523     -217.08748    
     84140  -211.62942      90             90             90            -0.21253352     2.9451279     -10.536092      6.9533639     -211.62942    
     84160  -211.71168      90             90             90             2.7964101      4.0015553      0.82673039     3.5609446     -211.71168    
     84180  -210.80401      90             90             90             5.1975154      6.0089773      5.1716177      4.4119512     -210.80401    
     84200  -207.55638      90             90             90             6.3000432      10.607314      2.6207319      5.6720835     -207.55638    
     84220  -202.11097      90             90             90             6.6105774      14.435178      4.590397       0.8061568     -202.11097    
     84240  -198.66145      90             90             90             7.1348358      18.298767      6.2753967     -3.1696562     -198.66145    
     84260  -209.71925      90             90             90             9.7463734      19.990151      9.5052082     -0.25623926    -209.71925    
     84280  -212.3381       90             90             90             11.998398      20.273715      13.981762      1.7397164     -212.3381     
     84300  -203.04623      90             90             90             12.806242      21.444371      15.23556       1.7387938     -203.04623    
     84320  -200.02955      90             90             90             13.643325      18.853178      18.575221      3.5015773     -200.02955    
     84340  -210.61156      90             90             90             15.452003      12.815622      25.428948      8.1114391     -210.61156    
     84360  -214.63308      90             90             90             15.640015      8.3402799      29.249049      9.3307163     -214.63308    
     84380  -197.28249      90             90             90             12.287105      7.0980232      25.659778      4.1035135     -197.28249    
     84400  -204.02695      90             90             90             10.943574      10.679154      18.882416      3.2691534     -204.02695    
     84420  -215.58413      90             90             90             9.1197478      13.625437      9.3916117      4.3421947     -215.58413    
     84440  -210.45555      90             90             90             4.4044314      6.8808883      5.1295418      1.2028642     -210.45555    
     84460  -215.45414      90             90             90             1.4041345     -1.7869861      10.537213     -4.5378233     -215.45414    
     84480  -204.94708      90             90             90            -2.1686854     -5.9647976      11.261957     -11.803215     -204.94708    
     84500  -203.20419      90             90             90            -4.5741599     -10.352234      11.825525     -15.195771     -203.20419    
     84520  -216.76501      90             90             90            -5.658462      -13.985529      12.151161     -15.141018     -216.76501    
     84540  -214.13726      90             90             90            -7.615341      -17.849605      5.6104922     -10.60691      -214.13726    
     84560  -217.76492      90             90             90            -6.4852037     -20.041868      4.6657129     -4.0794557     -217.76492    
     84580  -223.37555      90             90             90            -2.875591      -16.130281      9.5438339     -2.0403265     -223.37555    
     84600  -234.24943      90             90             90             1.9565028     -12.54366       15.12961       3.2835579     -234.24943    
     84620  -240.54171      90             90             90             5.5896889     -8.8037596      17.516758      8.0560678     -240.54171    
     84640  -231.44748      90             90             90             6.4672626     -3.3476305      12.488479      10.26094      -231.44748    
     84660  -222.70713      90             90             90             7.3984698     -1.0914066      6.3252766      16.961539     -222.70713    
     84680  -219.30749      90             90             90             9.6769164      3.959338       3.2513536      21.820058     -219.30749    
     84700  -226.60654      90             90             90             12.982835      11.446432      6.9252037      20.57687      -226.60654    
     84720  -216.42879      90             90             90             12.157469      14.194634      5.1983997      17.079373     -216.42879    
     84740  -208.3218       90             90             90             9.1196009      15.941691     -5.1965618      16.613674     -208.3218     
     84760  -225.57522      90             90             90             8.475157       18.608725     -5.3497459      12.166492     -225.57522    
     84780  -216.4867       90             90             90             5.7198758      19.743208     -8.3676809      5.7841002     -216.4867     
     84800  -212.23545      90             90             90             4.4975726      16.131836     -11.105645      8.4665276     -212.23545    
     84820  -209.27005      90             90             90             2.178626       2.5201686     -7.1812348      11.196944     -209.27005    
     84840  -192.62282      90             90             90            -2.6318044     -10.208468     -6.6526474      8.9657024     -192.62282    
     84860  -208.1353       90             90             90            -3.4407403     -12.933301     -1.783709       4.3947888     -208.1353     
     84880  -206.68799      90             90             90            -4.8646799     -10.021813     -0.37512088    -4.1971062     -206.68799    
     84900  -198.06909      90             90             90            -6.1934953     -4.8187529     -6.6005311     -7.1612019     -198.06909    
     84920  -209.14742      90             90             90            -6.6603453     -4.7986824     -8.1741559     -7.0081977     -209.14742    
     84940  -202.81085      90             90             90            -8.6920105     -11.508164     -4.2355448     -10.332322     -202.81085    
     84960  -207.13802      90             90             90            -7.2598787     -16.758267      5.2631463     -10.284515     -207.13802    
     84980  -209.33373      90             90             90            -3.6719749     -15.172226      10.647536     -6.4912342     -209.33373    
     85000  -202.21479      90             90             90            -0.010667905   -9.6523532      15.026017     -5.4056672     -202.21479    
     85020  -206.38034      90             90             90             4.7104307     -4.1615273      21.967686     -3.6748662     -206.38034    
     85040  -205.05375      90             90             90             6.7197343     -0.72907624     22.626141     -1.7378617     -205.05375    
     85060  -201.308        90             90             90             5.8985097      1.4424308      23.669429     -7.4163311     -201.308      
     85080  -201.85302      90             90             90             3.7185717      2.5120239      23.976845     -15.333154     -201.85302    
     85100  -198.75464      90             90             90             0.005525468    1.06974        15.490634     -16.543797     -198.75464    
     85120  -194.21249      90             90             90            -3.4399853     -1.3408206      2.3711105     -11.350246     -194.21249    
     85140  -197.60618      90             90             90            -4.1132234     -4.4049813     -4.8867614     -3.0479274     -197.60618    
     85160  -202.86754      90             90             90            -1.679964      -3.6324473     -0.90913086    -0.49831386    -202.86754    
     85180  -206.02274      90             90             90             2.2529177      1.4368232      6.7888392     -1.4669093     -206.02274    
     85200  -206.62266      90             90             90             4.4556402      3.0972864      9.0360828      1.2335514     -206.62266    
     85220  -203.43969      90             90             90             2.5436034      3.1757495      0.6915509      3.7635097     -203.43969    
     85240  -208.24139      90             90             90            -1.1974671      1.9211754     -7.7892229      2.2756461     -208.24139    
     85260  -202.82887      90             90             90            -6.5920873     -0.57308323    -11.793458     -7.409721      -202.82887    
     85280  -197.42768      90             90             90            -8.9775061      2.9241884     -13.216637     -16.64007      -197.42768    
     85300  -215.19087      90             90             90            -4.7243715      6.8474411     -4.8406963     -16.179859     -215.19087    
     85320  -214.43537      90             90             90            -1.4335877      8.7184383     -3.4245831     -9.5946185     -214.43537    
     85340  -205.76552      90             90             90             0.016488321    10.618289     -6.1686242     -4.4002002     -205.76552    
     85360  -207.797        90             90             90             0.95342625     7.5770378      0.73120053    -5.4479596     -207.797      
     85380  -212.15307      90             90             90             0.48186695     4.5860324      1.2160321     -4.3564637     -212.15307    
     85400  -228.05072      90             90             90             0.35393343     4.0414939     -0.057432778   -2.9222608     -228.05072    
     85420  -228.81681      90             90             90            -1.9088395      4.1956434     -1.8380253     -8.0841365     -228.81681    
     85440  -228.24584      90             90             90            -3.7825956      4.9580569     -8.6826116     -7.623232      -228.24584    
     85460  -233.38651      90             90             90            -3.3390051      1.2028807     -7.168116      -4.0517801     -233.38651    
     85480  -225.57506      90             90             90            -3.0047113     -2.7621475     -0.34269485    -5.9092917     -225.57506    
     85500  -222.85343      90             90             90            -2.4653559     -6.4728255      6.4850592     -7.4083015     -222.85343    
     85520  -217.56915      90             90             90            -3.6085543     -10.007926      10.605254     -11.422991     -217.56915    
     85540  -218.25974      90             90             90            -4.8334505     -3.7972202      6.3985137     -17.101645     -218.25974    
     85560  -226.18514      90             90             90            -4.378251       6.1487102     -2.8789794     -16.404484     -226.18514    
     85580  -222.18078      90             90             90            -3.6272         10.603002     -9.3353388     -12.149263     -222.18078    
     85600  -227.66537      90             90             90            -0.4447255      8.6623453     -6.705134      -3.2913879     -227.66537    
     85620  -229.10377      90             90             90             3.1547341      7.0167668     -5.9240575      8.371493      -229.10377    
     85640  -223.68706      90             90             90             5.8454211      14.396883     -13.520531      16.659911     -223.68706    
     85660  -239.32798      90             90             90             9.8110977      19.519119     -15.428709      25.342883     -239.32798    
     85680  -236.90484      90             90             90             9.8414947      13.365413     -16.242657      32.401728     -236.90484    
     85700  -216.80244      90             90             90             6.3937293      4.5667404     -19.647812      34.26226      -216.80244    
     85720  -218.39508      90             90             90             5.3125525      0.057338243   -20.755957      36.636276     -218.39508    
     85740  -209.49762      90             90             90             3.6141764      0.47994972    -25.64131       36.00389      -209.49762    
     85760  -197.74051      90             90             90             2.6981569      1.884865      -25.582224      31.79183      -197.74051    
     85780  -208.75631      90             90             90             4.6474042     -0.33725466    -15.605681      29.885148     -208.75631    
     85800  -204.96895      90             90             90             4.2319032     -4.5811518     -8.1767965      25.453658     -204.96895    
     85820  -204.3252       90             90             90             4.3214826     -3.19354       -6.1083943      22.266382     -204.3252     
     85840  -213.46822      90             90             90             6.1506957      4.5470253     -3.4620602      17.367122     -213.46822    
     85860  -212.88223      90             90             90             7.0392821      15.042891      0.41949472     5.655461      -212.88223    
     85880  -224.47832      90             90             90             8.9099787      23.826596      2.2701682      0.63317194    -224.47832    
     85900  -224.23101      90             90             90             7.92279        21.726531      1.8877771      0.15406233    -224.23101    
     85920  -217.9694       90             90             90             4.556136       15.430326      0.55339597    -2.3153141     -217.9694     
     85940  -228.0299       90             90             90             3.4081016      18.479933     -1.8628072     -6.3928213     -228.0299     
     85960  -222.92102      90             90             90             1.627345       21.47162      -3.1382318     -13.451353     -222.92102    
     85980  -218.06643      90             90             90             0.31531752     16.322671      0.28377901    -15.660498     -218.06643    
     86000  -219.3328       90             90             90            -0.35239162     6.5998876      7.9787096     -15.635772     -219.3328     
     86020  -222.26722      90             90             90            -0.41469192     1.6340236      14.909659     -17.787759     -222.26722    
     86040  -238.64218      90             90             90             2.4011934      4.1628304      19.284658     -16.243909     -238.64218    
     86060  -235.40172      90             90             90             3.8592918      6.212266       21.23234      -15.866731     -235.40172    
     86080  -233.26163      90             90             90             5.1480677      7.7458002      22.99087      -15.292467     -233.26163    
     86100  -244.14148      90             90             90             6.6750483      6.3199717      23.749812     -10.044639     -244.14148    
     86120  -242.41791      90             90             90             5.4675617      1.5466542      17.039535     -2.1835038     -242.41791    
     86140  -251.7303       90             90             90             5.6542262     -0.15045625     10.256492      6.8566425     -251.7303     
     86160  -250.56091      90             90             90             4.8740391     -3.3243615      8.0432931      9.9031857     -250.56091    
     86180  -234.79667      90             90             90             1.3004649     -10.208302      5.7168978      8.3927986     -234.79667    
     86200  -242.89461      90             90             90            -0.39165499    -17.031298      5.0877165      10.768616     -242.89461    
     86220  -249.43874      90             90             90            -2.4477919     -21.752252      1.1009345      13.307942     -249.43874    
     86240  -243.14168      90             90             90            -5.1189508     -22.741545     -2.837437       10.22213      -243.14168    
     86260  -241.22299      90             90             90            -5.4372384     -17.460124     -4.5488779      5.6972868     -241.22299    
     86280  -239.09313      90             90             90            -4.4873804     -5.4705256     -14.038944      6.0473289     -239.09313    
     86300  -242.7025       90             90             90            -2.8977163      3.2746405     -18.450462      6.4826725     -242.7025     
     86320  -244.38811      90             90             90            -2.2424364      5.5232975     -11.035704     -1.214903      -244.38811    
     86340  -231.14396      90             90             90            -3.6663185      7.6695932     -9.4606837     -9.2078651     -231.14396    
     86360  -225.07353      90             90             90            -3.9671758      8.705235      -10.926053     -9.6807099     -225.07353    
     86380  -243.14652      90             90             90            -1.8658358      7.7253068     -4.4959608     -8.8268533     -243.14652    
     86400  -240.4764       90             90             90            -3.3157864      3.0246116     -0.79835379    -12.173617     -240.4764     
     86420  -226.58977      90             90             90            -6.1461594     -2.8855527     -2.5082554     -13.04467      -226.58977    
     86440  -235.73899      90             90             90            -4.3247877     -3.0943761     -4.8309465     -5.0490407     -235.73899    
     86460  -233.09515      90             90             90            -1.7430616     -0.26114918    -8.3537722      3.3857366     -233.09515    
     86480  -229.94635      90             90             90             1.306312       4.9106827     -3.5901975      2.5984509     -229.94635    
     86500  -230.44154      90             90             90             3.4018331      6.3663029      5.1905695     -1.351373      -230.44154    
     86520  -223.45661      90             90             90             2.7765617      1.8796058      7.0338162     -0.58373682    -223.45661    
     86540  -222.04127      90             90             90             2.6657985      0.6490001      5.7798241      1.5685712     -222.04127    
     86560  -214.86845      90             90             90             3.5822119      0.5415489      7.2146712      2.9904155     -214.86845    
     86580  -216.98476      90             90             90             7.0295635      0.5197773      14.716378      5.8525353     -216.98476    
     86600  -220.94792      90             90             90             10.902114      4.7372697      19.975583      7.9934879     -220.94792    
     86620  -221.43655      90             90             90             12.316437      8.8747106      20.95597       7.1186294     -221.43655    
     86640  -237.58462      90             90             90             11.909464      11.798061      17.454298      6.476032      -237.58462    
     86660  -242.23495      90             90             90             6.7152972      12.990823     -1.0700726      8.2251408     -242.23495    
     86680  -240.24935      90             90             90            -1.157606       7.7687071     -17.853788      6.6122625     -240.24935    
     86700  -238.13609      90             90             90            -8.7244831     -1.9682935     -21.26016      -2.9449953     -238.13609    
     86720  -227.37557      90             90             90            -14.619809     -9.8362427     -20.836949     -13.186236     -227.37557    
     86740  -237.49235      90             90             90            -13.371811     -13.613041     -14.457784     -12.044609     -237.49235    
     86760  -243.88517      90             90             90            -8.8245363     -16.073871     -8.4289278     -1.9708101     -243.88517    
     86780  -231.38019      90             90             90            -5.4769078     -18.286852     -3.4948482      5.3509763     -231.38019    
     86800  -238.90936      90             90             90            -0.40653473    -15.363764      3.282379       10.86178      -238.90936    
     86820  -243.63476      90             90             90             2.5307917     -10.583487      5.2505042      12.925358     -243.63476    
     86840  -240.39021      90             90             90             2.3899109     -9.2327593      5.6675761      10.734916     -240.39021    
     86860  -244.06158      90             90             90             2.2934712     -7.8336543      0.56729427     14.146774     -244.06158    
     86880  -231.54022      90             90             90             1.232485      -8.8311271     -5.8407294      18.369311     -231.54022    
     86900  -226.14412      90             90             90             3.4015239     -8.9765101      2.5974198      16.583662     -226.14412    
     86920  -239.84709      90             90             90             9.3159935     -2.2189593      15.941664      14.225276     -239.84709    
     86940  -243.21947      90             90             90             13.06335       2.5636816      22.211898      14.41447      -243.21947    
     86960  -232.5816       90             90             90             12.385562      4.2656569      16.913488      15.977541     -232.5816     
     86980  -217.33493      90             90             90             7.3681668      2.0936004      2.8063194      17.20458      -217.33493    
     87000  -224.45885      90             90             90             2.5422524     -6.2538448     -3.3234297      17.204032     -224.45885    
     87020  -232.49902      90             90             90            -1.321878      -8.9597898     -6.4374161      11.431572     -232.49902    
     87040  -216.86642      90             90             90            -4.5775167     -5.9633122     -10.914129      3.1448911     -216.86642    
     87060  -215.71319      90             90             90            -2.9668362     -0.076923868   -8.3124322     -0.51115253    -215.71319    
     87080  -227.03194      90             90             90             0.68385039     9.6537946     -5.9528687     -1.6493747     -227.03194    
     87100  -231.2829       90             90             90             3.9273854      14.692342      0.18378106    -3.0939669     -231.2829     
     87120  -222.71029      90             90             90             5.5469884      12.998636      11.781081     -8.138751      -222.71029    
     87140  -205.30711      90             90             90             4.7886256      9.6427479      17.454867     -12.731738     -205.30711    
     87160  -213.14084      90             90             90             4.8616867      9.4493549      15.99509      -10.859385     -213.14084    
     87180  -217.71264      90             90             90             2.9091146      14.867173      1.5600788     -7.6999076     -217.71264    
     87200  -213.56738      90             90             90             0.18494581     18.013642     -11.600892     -5.8579129     -213.56738    
     87220  -227.63866      90             90             90             0.97053096     13.632307     -5.0074387     -5.713275      -227.63866    
     87240  -223.11675      90             90             90             2.0584315      6.3653242      5.082995      -5.2730248     -223.11675    
     87260  -223.26993      90             90             90             4.6318159      4.4166539      8.9690649      0.50972874    -223.26993    
     87280  -238.33452      90             90             90             7.750387       8.8003792      5.5851111      8.8656707     -238.33452    
     87300  -231.7581       90             90             90             7.3338348      12.136311     -1.2298209      11.095014     -231.7581     
     87320  -222.69319      90             90             90             6.5516217      10.320321      2.5019693      6.8325751     -222.69319    
     87340  -220.1364       90             90             90             6.335048       3.5697194      10.671566      4.7638591     -220.1364     
     87360  -231.76318      90             90             90             6.77994       -0.071095854    13.385261      7.0256548     -231.76318    
     87380  -233.62273      90             90             90             4.8291257      3.0120772      5.3482389      6.1270611     -233.62273    
     87400  -221.07385      90             90             90             1.1854406      8.8508797     -8.1997716      2.9052139     -221.07385    
     87420  -234.03592      90             90             90             1.9797312      11.036678     -8.7987805      3.701296      -234.03592    
     87440  -243.90546      90             90             90             4.0677021      8.047695      -1.6917562      5.8471674     -243.90546    
     87460  -247.17664      90             90             90             5.1503165      8.3970407      2.4590336      4.5948751     -247.17664    
     87480  -247.50377      90             90             90             3.7105758      7.0823692      0.25497446     3.7943837     -247.50377    
     87500  -235.27706      90             90             90            -0.45118456     3.0465568     -12.00353       7.6034196     -235.27706    
     87520  -235.97299      90             90             90            -2.0990952      3.0329507     -19.283375      9.9531385     -235.97299    
     87540  -231.33835      90             90             90            -3.2808817     -1.9306834     -12.463709      4.5517468     -231.33835    
     87560  -227.88003      90             90             90            -3.798842      -4.3448657     -5.1540821     -1.8975781     -227.88003    
     87580  -242.63147      90             90             90            -2.1845875     -0.66926062    -3.388857      -2.4956449     -242.63147    
     87600  -242.38359      90             90             90            -2.5468508     -2.9274748     -2.6474356     -2.0656418     -242.38359    
     87620  -241.36535      90             90             90            -2.6124437     -2.7603129     -4.5568042     -0.52021398    -241.36535    
     87640  -250.115        90             90             90            -2.2638352     -2.611989      -8.3115292      4.1320126     -250.115      
     87660  -239.36772      90             90             90            -4.8291188     -6.5011962     -11.227688      3.2415278     -239.36772    
     87680  -231.71223      90             90             90            -6.3245028     -4.443876      -13.524807     -1.0048253     -231.71223    
     87700  -235.96677      90             90             90            -4.6424044     -1.8743851     -13.491812      1.4389837     -235.96677    
     87720  -237.74535      90             90             90            -1.5567593     -2.0900283     -5.2836702      2.7034205     -237.74535    
     87740  -235.06376      90             90             90             1.763652      -4.861474       10.034804      0.11762616    -235.06376    
     87760  -226.09246      90             90             90             4.3974185     -7.3276664      18.772121      1.7478007     -226.09246    
     87780  -231.51119      90             90             90             7.0566274     -4.7383597      18.189722      7.7185202     -231.51119    
     87800  -233.90745      90             90             90             7.0049968     -6.3604751      15.443076      11.932389     -233.90745    
     87820  -226.52161      90             90             90             3.7952736     -11.629094      10.930616      12.084298     -226.52161    
     87840  -230.74284      90             90             90             0.54112946    -15.06785       7.8101936      8.8810447     -230.74284    
     87860  -233.22122      90             90             90            -3.2677733     -18.780659      7.809206       1.1681332     -233.22122    
     87880  -242.89943      90             90             90            -6.3019077     -19.240468      5.3959383     -5.0611933     -242.89943    
     87900  -240.3312       90             90             90            -9.3125117     -19.772912     -0.91867303    -7.24595       -240.3312     
     87920  -221.64807      90             90             90            -14.134872     -22.142546     -8.0482902     -12.213781     -221.64807    
     87940  -229.64742      90             90             90            -16.068879     -22.860368     -8.5112548     -16.835013     -229.64742    
     87960  -230.136        90             90             90            -18.34954      -25.098674     -10.257        -19.692945     -230.136      
     87980  -218.85281      90             90             90            -21.704605     -21.994857     -17.299357     -25.819602     -218.85281    
     88000  -218.81971      90             90             90            -22.126893     -16.677971     -20.274008     -29.428701     -218.81971    
     88020  -198.98516      90             90             90            -21.032819     -17.89362      -19.414764     -25.790073     -198.98516    
     88040  -193.20798      90             90             90            -15.522547     -13.715268     -13.568734     -19.283639     -193.20798    
     88060  -205.32945      90             90             90            -6.743278      -4.6947437     -2.7681821     -12.766908     -205.32945    
     88080  -199.70513      90             90             90            -0.31680222     5.1464533      3.4924509     -9.5893109     -199.70513    
     88100  -199.04771      90             90             90             5.6234681      20.091686      6.6050244     -9.8263064     -199.04771    
     88120  -213.44911      90             90             90             11.883133      32.260691      7.7172676     -4.3285598     -213.44911    
     88140  -227.29631      90             90             90             17.084424      37.504911      7.510707       6.237655      -227.29631    
     88160  -234.8859       90             90             90             20.927546      38.086783      9.650888       15.044968     -234.8859     
     88180  -224.00001      90             90             90             22.886367      39.678615      11.03267       17.947815     -224.00001    
     88200  -206.01935      90             90             90             24.602703      42.407341      16.352913      15.047854     -206.01935    
     88220  -208.10469      90             90             90             28.603902      39.752798      27.174341      18.884566     -208.10469    
     88240  -216.44783      90             90             90             31.850327      37.143419      33.17993       25.227633     -216.44783    
     88260  -211.51135      90             90             90             28.915161      33.371875      31.960593      21.413013     -211.51135    
     88280  -210.58364      90             90             90             23.634824      28.325702      27.69899       14.87978      -210.58364    
     88300  -212.97432      90             90             90             18.340348      24.553446      18.687026      11.780572     -212.97432    
     88320  -215.48782      90             90             90             14.427242      17.349968      12.776715      13.155043     -215.48782    
     88340  -231.16315      90             90             90             14.395626      13.477325      13.415009      16.294544     -231.16315    
     88360  -240.57753      90             90             90             14.48837       13.785796      11.089975      18.589339     -240.57753    
     88380  -238.26971      90             90             90             11.540229      7.0281283      6.789993       20.802566     -238.26971    
     88400  -225.15637      90             90             90             4.4048093     -0.124194      -0.4672198      13.805842     -225.15637    
     88420  -219.4999       90             90             90            -3.2316952     -3.162586      -10.441714      3.9092145     -219.4999     
     88440  -230.62577      90             90             90            -8.021914      -11.33975      -13.897166      1.1711734     -230.62577    
     88460  -218.27813      90             90             90            -13.830979     -18.703463     -18.165871     -4.623604      -218.27813    
     88480  -217.34243      90             90             90            -16.847028     -16.590807     -24.042809     -9.9074697     -217.34243    
     88500  -230.22505      90             90             90            -17.314714     -15.599481     -25.689185     -10.655476     -230.22505    
     88520  -224.97492      90             90             90            -18.008851     -16.613193     -26.166304     -11.247057     -224.97492    
     88540  -228.15085      90             90             90            -14.426284     -15.337294     -21.497348     -6.4442096     -228.15085    
     88560  -225.95779      90             90             90            -9.0862511     -11.392478     -11.790385     -4.0758905     -225.95779    
     88580  -235.74116      90             90             90            -2.3499475     -3.6993878      0.1958127     -3.5462674     -235.74116    
     88600  -249.48152      90             90             90             3.0904131     -2.7078573      7.4968523      4.4822442     -249.48152    
     88620  -229.26511      90             90             90             2.6941377     -6.9374329      6.937983       8.0818631     -229.26511    
     88640  -223.16707      90             90             90             3.4812603     -5.3591892      8.5141729      7.2887971     -223.16707    
     88660  -224.10087      90             90             90             4.545484      -2.5671272      11.726699      4.4768806     -224.10087    
     88680  -207.75478      90             90             90             2.4840784     -2.254646       14.815492     -5.1086106     -207.75478    
     88700  -198.22474      90             90             90             1.1054525     -1.093129       17.343043     -12.933557     -198.22474    
     88720  -194.47208      90             90             90             0.47164768     0.42220576     17.467213     -16.474476     -194.47208    
     88740  -203.91705      90             90             90             3.6599153      3.7440589      19.644801     -12.409114     -203.91705    
     88760  -209.39498      90             90             90             7.8613346      9.6174087      17.326841     -3.3602454     -209.39498    
     88780  -213.26235      90             90             90             10.186601      14.541354      14.805649      1.2127997     -213.26235    
     88800  -234.67457      90             90             90             11.211499      14.058723      16.942989      2.6327856     -234.67457    
     88820  -221.05885      90             90             90             7.5178518      9.4758245      13.735076     -0.65734498    -221.05885    
     88840  -203.44046      90             90             90             3.4139633      3.262311       10.304392     -3.3248133     -203.44046    
     88860  -209.68612      90             90             90             2.3418391      0.44739954     6.6127398     -0.034622084   -209.68612    
     88880  -197.73183      90             90             90            -1.0263942      1.6125043     -2.8262702     -1.8654167     -197.73183    
     88900  -193.07293      90             90             90            -3.6740439      2.4911909     -13.892698      0.3793754     -193.07293    
     88920  -202.1674       90             90             90            -5.4618136     -1.8230499     -21.836933      7.2745416     -202.1674     
     88940  -206.48939      90             90             90            -9.0906175     -13.02854      -24.37804       10.134728     -206.48939    
     88960  -210.37431      90             90             90            -13.001586     -21.464835     -28.658651      11.11873      -210.37431    
     88980  -188.17359      90             90             90            -19.306182     -24.271662     -33.258938     -0.38794458    -188.17359    
     89000  -181.89602      90             90             90            -22.375822     -20.779891     -32.306573     -14.041003     -181.89602    
     89020  -210.94775      90             90             90            -18.791086     -11.611896     -28.734267     -16.027095     -210.94775    
     89040  -210.27119      90             90             90            -15.658094     -9.413834      -19.874804     -17.685644     -210.27119    
     89060  -215.48329      90             90             90            -9.212116      -7.2783586     -4.8532439     -15.504746     -215.48329    
     89080  -236.42031      90             90             90             0.00021792482  3.5116693      6.7152496     -10.226265     -236.42031    
     89100  -222.38601      90             90             90             3.854083       15.154078      9.5355383     -13.127367     -222.38601    
     89120  -208.95286      90             90             90             5.6768859      23.582941      11.09419      -17.646473     -208.95286    
     89140  -205.67299      90             90             90             6.8203734      22.944907      13.754705     -16.238492     -205.67299    
     89160  -213.37855      90             90             90             8.3125218      19.765583      13.60266      -8.430678      -213.37855    
     89180  -230.74496      90             90             90             10.202964      20.829635      11.976653     -2.1973954     -230.74496    
     89200  -218.02248      90             90             90             7.4885776      20.427023      7.8136003     -5.7748902     -218.02248    
     89220  -215.7204       90             90             90             5.6342731      20.429727      3.601129      -7.1280365     -215.7204     
     89240  -227.79775      90             90             90             5.3623393      18.336823     -1.2898107     -0.95999389    -227.79775    
     89260  -213.70246      90             90             90             2.8138409      13.233327     -7.6475735      2.8557694     -213.70246    
     89280  -219.8872       90             90             90             2.8158669      6.2388301     -5.4180693      7.6268399     -219.8872     
     89300  -229.99605      90             90             90             3.3935767      1.1229283      0.27763846     8.7801633     -229.99605    
     89320  -225.69347      90             90             90             1.8111368      6.0256127     -3.6217049      3.0295026     -225.69347    
     89340  -223.35936      90             90             90            -0.054465092    7.3718058     -9.7747918      2.2395907     -223.35936    
     89360  -215.97183      90             90             90            -2.4396718      1.9404583     -11.386332      2.1268584     -215.97183    
     89380  -215.6937       90             90             90            -3.6927703      2.7634255     -14.734561      0.89282474    -215.6937     
     89400  -211.95806      90             90             90            -5.5147425      3.7032517     -16.890684     -3.3567954     -211.95806    
     89420  -204.6345       90             90             90            -8.2820435      2.3683346     -14.478924     -12.735541     -204.6345     
     89440  -207.24236      90             90             90            -8.7629244     -0.75922227    -12.150182     -13.379369     -207.24236    
     89460  -208.25564      90             90             90            -6.6386007     -5.069126      -6.3877572     -8.4589189     -208.25564    
     89480  -200.05522      90             90             90            -4.0394307     -4.1103046     -3.1722969     -4.8356908     -200.05522    
     89500  -188.32265      90             90             90            -0.89392046    -3.7823629     -1.335734       2.4363355     -188.32265    
     89520  -198.1375       90             90             90             5.4694757     -3.3173846      8.3324289      11.393383     -198.1375     
     89540  -204.68256      90             90             90             10.312289     -2.1416887      13.498423      19.580133     -204.68256    
     89560  -197.68569      90             90             90             11.145549     -3.7861082      13.88388       23.338875     -197.68569    
     89580  -198.91383      90             90             90             10.145897     -3.4954191      14.504617      19.428492     -198.91383    
     89600  -190.47673      90             90             90             6.3360831     -3.7996769      10.23464       12.573286     -190.47673    
     89620  -195.42232      90             90             90             4.1531098     -4.8352421      6.7009193      10.593652     -195.42232    
     89640  -199.66756      90             90             90             3.4567614     -6.4164165      5.0903797      11.696321     -199.66756    
     89660  -203.46927      90             90             90             5.088035      -3.8301608      6.2679253      12.82634      -203.46927    
     89680  -202.56103      90             90             90             7.6617774      1.2624018      5.4402016      16.282729     -202.56103    
     89700  -184.13674      90             90             90             5.8807407     -2.1137331      5.2605693      14.495386     -184.13674    
     89720  -208.90699      90             90             90             6.1699936     -3.0152001      8.3423966      13.182784     -208.90699    
     89740  -222.97079      90             90             90             4.0459629     -2.4326546     -1.9219592      16.492502     -222.97079    
     89760  -207.79252      90             90             90            -1.07702       -6.0911662     -11.513515      14.373621     -207.79252    
     89780  -217.45058      90             90             90            -1.2356778     -4.445928      -7.4200259      8.1589205     -217.45058    
     89800  -205.63994      90             90             90            -2.1486996     -7.9031333     -0.68533883     2.1423733     -205.63994    
     89820  -206.61539      90             90             90            -1.0352099     -15.806416      12.916276     -0.21548989    -206.61539    
     89840  -217.43419      90             90             90             1.031092      -19.569511      24.250005     -1.5872177     -217.43419    
     89860  -204.7342       90             90             90            -1.2556382     -24.170801      23.668804     -3.2649183     -204.7342     
     89880  -225.05176      90             90             90            -0.35230268    -22.691931      17.850668      3.7843556     -225.05176    
     89900  -224.767        90             90             90            -1.7703371     -18.127971      7.9660738      4.8508855     -224.767      
     89920  -200.15149      90             90             90            -4.9455486     -12.762179     -1.747468      -0.32699885    -200.15149    
     89940  -213.01879      90             90             90            -1.6043419     -2.0705023     -4.3420581      1.5995348     -213.01879    
     89960  -212.80715      90             90             90             2.053805       6.5074303      0.32696078    -0.67297606    -212.80715    
     89980  -203.26541      90             90             90             5.0399593      14.494799      1.1312606     -0.50618201    -203.26541    
     90000  -209.86218      90             90             90             8.9070162      21.018307      1.2771963      4.4255457     -209.86218    
     90020  -209.72108      90             90             90             9.8633655      19.224826      6.5788776      3.7863928     -209.72108    
     90040  -207.713        90             90             90             8.4403968      17.341375      7.0954599      0.8843556     -207.713      
     90060  -208.53693      90             90             90             5.7655604      19.879418      3.7881731     -6.3709106     -208.53693    
     90080  -209.19991      90             90             90             2.3232925      20.426605     -6.6186731     -6.8380548     -209.19991    
     90100  -211.63105      90             90             90            -1.3683888      14.792605     -14.993603     -3.9041685     -211.63105    
     90120  -205.79546      90             90             90            -5.7741991      7.980589      -10.518156     -14.785031     -205.79546    
     90140  -208.07237      90             90             90            -8.2074672      5.6953511     -7.1111971     -23.206556     -208.07237    
     90160  -207.68474      90             90             90            -10.060183      4.206619      -6.5717638     -27.815405     -207.68474    
     90180  -201.28747      90             90             90            -11.932798      2.5297706     -7.4926187     -30.835547     -201.28747    
     90200  -216.98675      90             90             90            -10.268873      2.8715901     -10.117088     -23.561121     -216.98675    
     90220  -223.47453      90             90             90            -8.5497471      5.8018624     -15.665198     -15.785906     -223.47453    
     90240  -228.58496      90             90             90            -5.6380966      10.995634     -22.337766     -5.572158      -228.58496    
     90260  -237.63656      90             90             90            -1.795904       11.866071     -19.674828      2.4210448     -237.63656    
     90280  -227.2158       90             90             90            -0.61471047     7.3180735     -14.33037       5.1681647     -227.2158     
     90300  -240.26735      90             90             90             2.1202986      1.9466078     -9.5065518      13.92084      -240.26735    
     90320  -234.6315       90             90             90             1.5324766     -5.2788281     -8.7968429      18.673101     -234.6315     
     90340  -214.67818      90             90             90            -0.15138206    -10.171382     -11.360978      21.078214     -214.67818    
     90360  -235.54934      90             90             90             4.0386865     -8.5090841     -1.3424417      21.967585     -235.54934    
     90380  -236.33278      90             90             90             5.9303528     -6.2478701      9.0368698      15.002059     -236.33278    
     90400  -224.48278      90             90             90             6.1863597     -6.792974       13.478529      11.873524     -224.48278    
     90420  -216.71122      90             90             90             7.5682205     -4.5206626      19.589076      7.6362478     -216.71122    
     90440  -213.95482      90             90             90             10.922958      4.749965       27.820433      0.19847477    -213.95482    
     90460  -226.97452      90             90             90             17.099689      13.682088      37.893131     -0.27615247    -226.97452    
     90480  -215.30155      90             90             90             16.891141      12.571615      37.526769      0.5750384     -215.30155    
     90500  -212.17218      90             90             90             15.379915      7.8169402      34.566566      3.75624       -212.17218    
     90520  -220.66288      90             90             90             14.827222      6.38688        29.156588      8.9381989     -220.66288    
     90540  -212.70471      90             90             90             11.857654      4.4631221      19.106587      12.003254     -212.70471    
     90560  -221.73855      90             90             90             9.2984655      1.0121395      15.890088      10.993169     -221.73855    
     90580  -215.11412      90             90             90             3.1953104     -5.334681       8.073518       6.8470943     -215.11412    
     90600  -207.99005      90             90             90            -3.8227207     -14.611996      0.15900803     2.9848255     -207.99005    
     90620  -227.07558      90             90             90            -6.9743151     -22.662048     -2.9977359      4.7368391     -227.07558    
     90640  -224.38208      90             90             90            -9.4268347     -24.502511     -12.973776      9.1957835     -224.38208    
     90660  -229.11176      90             90             90            -10.139291     -20.220901     -17.245057      7.0480857     -229.11176    
     90680  -232.34952      90             90             90            -9.6613472     -16.337348     -15.050159      2.4034657     -232.34952    
     90700  -222.84886      90             90             90            -10.348748     -15.604818     -15.221962     -0.21946382    -222.84886    
     90720  -238.28963      90             90             90            -7.2049095     -10.009053     -16.221942      4.6162663     -238.28963    
     90740  -237.81865      90             90             90            -4.3696005     -0.98729815    -19.82514       7.7036368     -237.81865    
     90760  -222.95074      90             90             90            -2.2458656      6.1293945     -18.097882      5.23089       -222.95074    
     90780  -238.14441      90             90             90             3.1068521      12.47435      -7.7770807      4.6232868     -238.14441    
     90800  -241.53669      90             90             90             5.2616599      14.892763      1.6460544     -0.75383776    -241.53669    
     90820  -231.13375      90             90             90             4.6308976      13.104329      2.3532104     -1.5648471     -231.13375    
     90840  -234.61556      90             90             90             5.9038193      11.718475      0.0038123487   5.9891709     -234.61556    
     90860  -228.15142      90             90             90             5.4517679      8.4774939      0.46677456     7.4110352     -228.15142    
     90880  -223.66223      90             90             90             4.9759588      6.0101761      1.7289226      7.1887777     -223.66223    
     90900  -227.97289      90             90             90             5.8051637      7.6684759      8.5560836      1.1909315     -227.97289    
     90920  -225.12816      90             90             90             7.313564       10.503155      16.416367     -4.9788299     -225.12816    
     90940  -233.16879      90             90             90             12.158526      15.268531      25.280119     -4.0730715     -233.16879    
     90960  -231.15416      90             90             90             16.384441      18.77906       36.999034     -6.6247715     -231.15416    
     90980  -223.15313      90             90             90             18.269721      19.975968      39.352968     -4.5197736     -223.15313    
     91000  -231.55867      90             90             90             18.727797      22.219621      35.9471       -1.9833295     -231.55867    
     91020  -224.26139      90             90             90             13.667955      21.752197      29.184789     -9.9331197     -224.26139    
     91040  -217.42522      90             90             90             7.5885488      19.470006      19.109792     -15.814152     -217.42522    
     91060  -217.53487      90             90             90             2.6994314      10.677672      12.361238     -14.940615     -217.53487    
     91080  -211.83965      90             90             90            -2.7825233     -2.2587348      6.2640776     -12.352913     -211.83965    
     91100  -220.92738      90             90             90            -6.1225834     -6.0271539      2.2852655     -14.625862     -220.92738    
     91120  -217.34981      90             90             90            -9.3132895     -11.368425      0.38945082    -16.960895     -217.34981    
     91140  -213.44935      90             90             90            -10.370198     -18.292558      0.54842889    -13.366465     -213.44935    
     91160  -224.50401      90             90             90            -8.39468       -17.936341      3.2857181     -10.533417     -224.50401    
     91180  -221.49605      90             90             90            -7.4566898     -19.045191     -0.57503155    -2.7498469     -221.49605    
     91200  -234.3298       90             90             90            -3.6843104     -18.024321     -2.8898252      9.8612147     -234.3298     
     91220  -241.48931      90             90             90             0.61357641    -14.647889      0.49824997     15.990368     -241.48931    
     91240  -225.80821      90             90             90             2.6283779     -10.582276     -3.6867618      22.154171     -225.80821    
     91260  -233.94034      90             90             90             6.2478539     -3.904973      -8.5341144      31.182649     -233.94034    
     91280  -229.56505      90             90             90             6.1065051     -4.9252738     -8.7182642      31.963053     -229.56505    
     91300  -219.79952      90             90             90             3.7317986     -6.1853644     -9.1509635      26.531724     -219.79952    
     91320  -224.6471       90             90             90             2.8689559     -3.3981874     -7.5874685      19.592524     -224.6471     
     91340  -221.07632      90             90             90             1.5209475     -2.7781288     -6.9032606      14.244232     -221.07632    
     91360  -240.6244       90             90             90             3.6088042      1.3163678     -5.9068882      15.416933     -240.6244     
     91380  -239.40339      90             90             90             3.5426131     -0.82629792    -3.9280734      15.382211     -239.40339    
     91400  -224.34587      90             90             90             2.3278894     -5.5581967     -0.78553332     13.327398     -224.34587    
     91420  -242.75964      90             90             90             5.8532569      0.90524062     2.6763592      13.978171     -242.75964    
     91440  -230.53427      90             90             90             5.8837207      4.2466604      1.0835577      12.320944     -230.53427    
     91460  -222.8227       90             90             90             5.4741301      4.3041559      1.2049412      10.913293     -222.8227     
     91480  -232.75391      90             90             90             5.6983704      6.4887587      1.7883442      8.8180082     -232.75391    
     91500  -224.75899      90             90             90             3.28007        5.5075791     -0.69786339     5.0304943     -224.75899    
     91520  -236.05041      90             90             90             3.5063645      8.9872639      1.0563414      0.47548823    -236.05041    
     91540  -230.29864      90             90             90             1.110119       10.464163     -1.2445415     -5.8892648     -230.29864    
     91560  -213.14561      90             90             90            -3.3098976      6.3704582     -10.111608     -6.1885433     -213.14561    
     91580  -225.26687      90             90             90            -4.1536248      6.934507      -17.763057     -1.6323242     -225.26687    
     91600  -220.69924      90             90             90            -6.0867743      4.2043928     -21.971929     -0.49278675    -220.69924    
     91620  -217.26091      90             90             90            -5.5188727      0.64668634    -12.552222     -4.6510822     -217.26091    
     91640  -230.82132      90             90             90            -1.0832883      2.4919158      4.1058574     -9.8476381     -230.82132    
     91660  -222.80262      90             90             90             0.80267712     2.3735893      10.048759     -10.014317     -222.80262    
     91680  -224.70614      90             90             90             2.1420332      6.2017938      10.256519     -10.032213     -224.70614    
     91700  -237.45016      90             90             90             2.6369004      7.9820392      12.017171     -12.088509     -237.45016    
     91720  -213.50927      90             90             90            -1.6767757      1.3506088      9.4809992     -15.861935     -213.50927    
     91740  -205.22973      90             90             90            -3.1711781     -0.034460569    8.4256737     -17.904747     -205.22973    
     91760  -213.70751      90             90             90            -1.6497067      0.13128299     13.198508     -18.278911     -213.70751    
     91780  -208.4348       90             90             90            -1.7317643     -1.0188671      14.450261     -18.626687     -208.4348     
     91800  -222.21697      90             90             90             1.0122196      0.46225959     13.969971     -11.395572     -222.21697    
     91820  -218.23098      90             90             90             3.1120888      0.41634262     14.52666      -5.6067357     -218.23098    
     91840  -211.81365      90             90             90             5.9921256      7.0891073      19.228097     -8.3408279     -211.81365    
     91860  -228.10253      90             90             90             10.608912      14.059005      29.444406     -11.676674     -228.10253    
     91880  -214.33288      90             90             90             9.0955774      13.193846      25.337935     -11.245049     -214.33288    
     91900  -214.21088      90             90             90             7.777679       13.089186      8.4831547      1.7606963     -214.21088    
     91920  -219.96815      90             90             90             6.3379611      7.7689665     -2.2966546      13.541571     -219.96815    
     91940  -208.95949      90             90             90             3.3259279      5.8735738     -9.5097044      13.613914     -208.95949    
     91960  -226.45574      90             90             90             4.068193       12.505237     -13.841147      13.54049      -226.45574    
     91980  -229.02191      90             90             90             2.3348488      11.932517     -17.370689      12.442719     -229.02191    
     92000  -226.92601      90             90             90             0.4017255      8.2226336     -20.205825      13.188367     -226.92601    
     92020  -229.58205      90             90             90            -1.3520828      3.1160882     -19.015837      11.8435       -229.58205    
     92040  -220.68344      90             90             90            -5.495765      -4.7110893     -17.783796      6.0075905     -220.68344    
     92060  -235.95812      90             90             90            -6.6989755     -7.5565514     -15.677804      3.1374289     -235.95812    
     92080  -236.97251      90             90             90            -8.185362      -8.7081544     -14.012927     -1.8350045     -236.97251    
     92100  -227.16073      90             90             90            -9.6392589     -10.838756     -10.443672     -7.6353478     -227.16073    
     92120  -236.24048      90             90             90            -7.6632555     -11.240643     -2.7324718     -9.0166513     -236.24048    
     92140  -235.46258      90             90             90            -6.6121917     -12.361733      0.21817359    -7.6930155     -235.46258    
     92160  -236.92097      90             90             90            -5.6156649     -12.050346      2.1144547     -6.9111038     -236.92097    
     92180  -239.18623      90             90             90            -5.0454256     -12.747732      3.2316595     -5.6202038     -239.18623    
     92200  -220.76674      90             90             90            -6.6708537     -19.197837      0.84180141    -1.656526      -220.76674    
     92220  -224.4195       90             90             90            -4.8118798     -21.381873      5.6946562      1.2515774     -224.4195     
     92240  -236.36146      90             90             90            -2.4439233     -20.43432       12.53031       0.57223967    -236.36146    
     92260  -220.94386      90             90             90            -4.3357995     -21.297108      11.436853     -3.1471429     -220.94386    
     92280  -229.29172      90             90             90            -3.2643962     -14.921276      5.8262338     -0.69814616    -229.29172    
     92300  -240.06714      90             90             90            -1.3687056     -5.3215612     -4.0254099      5.2408543     -240.06714    
     92320  -239.04106      90             90             90             0.60352685     2.5916133     -9.4544438      8.673411      -239.04106    
     92340  -248.79062      90             90             90             5.1960736      11.370381     -6.9425892      11.160429     -248.79062    
     92360  -235.45971      90             90             90             6.5501613      21.012084     -4.7216566      3.3600564     -235.45971    
     92380  -229.40707      90             90             90             7.3067942      28.446909     -3.721807      -2.8047194     -229.40707    
     92400  -231.18934      90             90             90             8.3488406      26.505759     -4.3382298      2.8789925     -231.18934    
     92420  -222.44336      90             90             90             7.8802688      22.442103     -6.4963636      7.6950664     -222.44336    
     92440  -219.98117      90             90             90             5.9301699      20.503375     -9.1021304      6.3892646     -219.98117    
     92460  -222.43143      90             90             90             3.9247064      19.982094     -8.8218623      0.61388698    -222.43143    
     92480  -239.41852      90             90             90             4.0033569      19.990421     -8.5610269      0.58067665    -239.41852    
     92500  -234.28737      90             90             90             1.615658       13.185854     -15.540612      7.201732      -234.28737    
     92520  -221.86639      90             90             90            -1.351134       5.8985544     -17.687298      7.7353413     -221.86639    
     92540  -229.48962      90             90             90            -1.4382187      2.0014714     -12.274111      5.9579833     -229.48962    
     92560  -232.01539      90             90             90            -1.5455613     -2.3101785     -3.3932296      1.0667242     -232.01539    
     92580  -239.08565      90             90             90            -0.35621126    -0.24587156     11.848997     -12.67176      -239.08565    
     92600  -225.54353      90             90             90             0.0084589376   4.2796033      15.292228     -19.546455     -225.54353    
     92620  -217.35289      90             90             90             2.9996883      11.0218        7.3307975     -9.3535325     -217.35289    
     92640  -231.83721      90             90             90             9.5657238      18.943382      6.7264378      3.0273514     -231.83721    
     92660  -230.34041      90             90             90             12.889852      19.615246      9.4873639      9.5669466     -230.34041    
     92680  -227.25737      90             90             90             12.486215      15.964669      11.286865      10.20711      -227.25737    
     92700  -223.87742      90             90             90             11.023748      7.2742855      14.625722      11.171237     -223.87742    
     92720  -238.91958      90             90             90             12.318272      0.81722703     15.712422      20.425166     -238.91958    
     92740  -239.9835       90             90             90             11.122366      1.4574657      8.7385637      23.171068     -239.9835     
     92760  -220.26709      90             90             90             6.2889657     -0.91580625    -0.78145452     20.564158     -220.26709    
     92780  -231.60989      90             90             90             4.6826387     -5.6248066     -2.7433692      22.416092     -231.60989    
     92800  -238.52625      90             90             90             3.6164038     -8.0996584     -0.57301469     19.521884     -238.52625    
     92820  -243.9296       90             90             90             3.8035366     -7.0092152     -0.95505895     19.374884     -243.9296     
     92840  -243.41958      90             90             90             3.379264      -5.5384577     -5.9227824      21.599032     -243.41958    
     92860  -227.38292      90             90             90             0.57285997    -4.5305877     -12.115639      18.364806     -227.38292    
     92880  -232.96626      90             90             90             0.69138107    -0.012265922   -10.029944      12.116353     -232.96626    
     92900  -240.27839      90             90             90             0.52046886     2.8362319     -1.3589299      0.084104543   -240.27839    
     92920  -236.07994      90             90             90             1.7424594      5.925564       4.3167715     -5.0149574     -236.07994    
     92940  -236.56081      90             90             90             4.4161647      14.849171      5.7831203     -7.3837978     -236.56081    
     92960  -243.6461       90             90             90             6.9935452      26.526247      4.5125334     -10.058145     -243.6461     
     92980  -252.63467      90             90             90             8.0830262      31.806954      1.9035546     -9.4614297     -252.63467    
     93000  -253.40343      90             90             90             7.090373       25.933678      5.3631884     -10.025747     -253.40343    
     93020  -252.60207      90             90             90             5.501439       14.340602      10.673364     -8.5096491     -252.60207    
     93040  -241.21705      90             90             90             3.2440689      4.2632175      10.99923      -5.5302403     -241.21705    
     93060  -245.09632      90             90             90             4.5656651      4.5566122      13.234115     -4.0937323     -245.09632    
     93080  -258.75419      90             90             90             8.4814097      11.510936      14.108402     -0.17510824    -258.75419    
     93100  -249.98278      90             90             90             9.5946873      16.551384      10.804219      1.4284586     -249.98278    
     93120  -242.68792      90             90             90             10.046484      19.83428       8.6421363      1.6630371     -242.68792    
     93140  -237.41137      90             90             90             8.3690154      14.87308       5.928278       4.3056879     -237.41137    
     93160  -237.19388      90             90             90             5.0463855      8.5143822      1.127451       5.4973234     -237.19388    
     93180  -242.11456      90             90             90             1.8934302      9.2994995     -6.4271749      2.8079661     -242.11456    
     93200  -223.83417      90             90             90            -2.4333531      8.2894145     -14.594191     -0.99528217    -223.83417    
     93220  -210.99662      90             90             90            -4.3065098      5.7409685     -18.267909     -0.392589      -210.99662    
     93240  -221.16994      90             90             90            -3.3653638      3.0466031     -15.058906      1.9162118     -221.16994    
     93260  -227.33797      90             90             90            -3.3560238     -3.2196559     -9.4324576      2.584042      -227.33797    
     93280  -218.10671      90             90             90            -5.1147525     -5.9089311     -8.9961713     -0.4391551     -218.10671    
     93300  -217.0152       90             90             90            -5.7612761     -2.1915023     -6.9698859     -8.12244       -217.0152     
     93320  -228.11505      90             90             90            -5.0428616      3.2091829     -5.5749226     -12.762845     -228.11505    
     93340  -234.49362      90             90             90            -5.7738782      5.7154984     -8.9746743     -14.062459     -234.49362    
     93360  -229.58969      90             90             90            -8.1775483      0.32532168    -12.552501     -12.305465     -229.58969    
     93380  -225.77782      90             90             90            -8.5280876     -3.2177773     -18.337695     -4.0287904     -225.77782    
     93400  -222.95183      90             90             90            -5.7161948     -1.9513854     -20.198552      5.0013533     -222.95183    
     93420  -223.57692      90             90             90            -1.2067396     -2.7792222     -14.031173      13.190176     -223.57692    
     93440  -237.73517      90             90             90             3.5541225     -0.65370158    -3.2481536      14.564223     -237.73517    
     93460  -232.76528      90             90             90             3.2003823     -1.7950254      0.1013137      11.294859     -232.76528    
     93480  -225.60352      90             90             90             1.2493758     -4.4755862     -6.7184769      14.942191     -225.60352    
     93500  -239.60117      90             90             90             2.3743942     -5.6247892     -6.8564114      19.604383     -239.60117    
     93520  -234.12372      90             90             90             2.2647065     -12.953854     -2.1338145      21.881788     -234.12372    
     93540  -235.09148      90             90             90             3.9314766     -14.393992      6.3450211      19.8434       -235.09148    
     93560  -235.05833      90             90             90             6.3141117     -11.18288       18.673262      11.451953     -235.05833    
     93580  -222.75142      90             90             90             7.570944      -6.3655228      22.121949      6.9564062     -222.75142    
     93600  -245.7972       90             90             90             12.264913      5.0131366      22.515412      9.2661904     -245.7972     
     93620  -250.24931      90             90             90             13.524254      8.196588       19.362257      13.013916     -250.24931    
     93640  -233.01268      90             90             90             9.4501223      6.3607452      14.782865      7.2067571     -233.01268    
     93660  -246.83902      90             90             90             6.4403426      4.8069171      18.742275     -4.2281645     -246.83902    
     93680  -250.52388      90             90             90             0.82781488    -1.3318053      15.278799     -11.463549     -250.52388    
     93700  -245.42539      90             90             90            -5.3757706     -3.2793546      4.2525628     -17.10052      -245.42539    
     93720  -248.64532      90             90             90            -7.8555392     -2.8514762     -3.9302133     -16.784928     -248.64532    
     93740  -243.82908      90             90             90            -8.6331635     -3.8775629     -11.364823     -10.657105     -243.82908    
     93760  -248.67476      90             90             90            -6.7244866     -4.9396827     -8.9948416     -6.2389356     -248.67476    
     93780  -257.21304      90             90             90            -4.0284586     -5.5646295     -0.52624898    -5.9944974     -257.21304    
     93800  -253.75082      90             90             90            -2.4816451     -1.3479045      3.9674696     -10.064501     -253.75082    
     93820  -249.65162      90             90             90             0.056772575    5.7212688      3.111252      -8.6622031     -249.65162    
     93840  -248.70429      90             90             90             3.7320435      4.0357295      1.9968469      5.1635541     -248.70429    
     93860  -252.46882      90             90             90             7.6403885     -4.4336324      7.8906034      19.464194     -252.46882    
     93880  -257.56556      90             90             90             10.402273     -3.6931885      13.146908      21.7531       -257.56556    
     93900  -251.76555      90             90             90             10.426034      3.7527937      9.388939       18.136369     -251.76555    
     93920  -250.40242      90             90             90             10.584039      9.7289007      1.685349       20.337867     -250.40242    
     93940  -261.3531       90             90             90             10.846324      11.94696      -2.149502       22.741515     -261.3531     
     93960  -255.48252      90             90             90             6.4857711      3.4495351      0.54416623     15.463612     -255.48252    
     93980  -233.19296      90             90             90            -1.4408174     -7.1424474      2.4324287      0.38756649    -233.19296    
     94000  -226.33526      90             90             90            -7.8769436     -14.038679      2.8859882     -12.47814      -226.33526    
     94020  -234.41141      90             90             90            -10.678988     -17.542081      1.3005024     -15.795385     -234.41141    
     94040  -236.6474       90             90             90            -11.389614     -13.82565      -9.7680486     -10.575144     -236.6474     
     94060  -229.46951      90             90             90            -10.537416     -8.2029701     -23.081439     -0.32783896    -229.46951    
     94080  -222.83999      90             90             90            -7.2828528     -4.4162162     -23.341309      5.9089668     -222.83999    
     94100  -232.76395      90             90             90            -1.4286353     -2.2225765     -8.5306795      6.46735       -232.76395    
     94120  -233.43859      90             90             90             0.80408128    -2.5784898     -0.16148201     5.1522157     -233.43859    
     94140  -221.9838       90             90             90            -1.0995813     -1.5756944     -4.0849527      2.3619031     -221.9838     
     94160  -232.89335      90             90             90            -2.0667797      0.73305366    -6.8797455     -0.05364714    -232.89335    
     94180  -220.92911      90             90             90            -6.1724611     -2.9021969     -14.425913     -1.1892734     -220.92911    
     94200  -214.85715      90             90             90            -7.7694803     -7.656655      -19.974066      4.3222799     -214.85715    
     94220  -226.64172      90             90             90            -5.736572      -6.7963754     -16.849926      6.436585      -226.64172    
     94240  -209.43775      90             90             90            -5.4068407     -5.7901955     -14.170081      3.7397543     -209.43775    
     94260  -232.27153      90             90             90             2.2420656      0.53691462    -6.2393929      12.428675     -232.27153    
     94280  -236.87595      90             90             90             8.112869       5.6743593      0.46854162     18.195706     -236.87595    
     94300  -224.53205      90             90             90             9.0396544      4.8859796      0.39675338     21.83623      -224.53205    
     94320  -252.74924      90             90             90             11.919525      7.8077507      0.52341492     27.427409     -252.74924    
     94340  -239.36918      90             90             90             8.4210109      6.0376407      0.88940461     18.335987     -239.36918    
     94360  -245.83159      90             90             90             8.0765133      4.6575935      6.4783505      13.093596     -245.83159    
     94380  -255.00229      90             90             90             9.4036593      3.0387548      11.605785      13.566438     -255.00229    
     94400  -230.04338      90             90             90             6.4912917      0.29745631     6.9824799      12.193939     -230.04338    
     94420  -245.18675      90             90             90             5.9542266      4.0958774      2.0210081      11.745794     -245.18675    
     94440  -247.49582      90             90             90             2.2542535     -1.4036679     -0.43739741     8.6038258     -247.49582    
     94460  -241.97853      90             90             90            -1.696132      -9.6390267     -3.9206241      8.4712547     -241.97853    
     94480  -240.05991      90             90             90            -1.6264639     -3.8923498     -5.0707242      4.0836822     -240.05991    
     94500  -242.02749      90             90             90             1.4902616      6.9004724     -1.0591616     -1.370526      -242.02749    
     94520  -260.4141       90             90             90             6.0341176      14.174716      6.0770389     -2.1494022     -260.4141     
     94540  -246.81049      90             90             90             6.2577576      14.523174      12.797743     -8.5476437     -246.81049    
     94560  -242.03529      90             90             90             6.98497        15.394619      15.158989     -9.5986977     -242.03529    
     94580  -237.66892      90             90             90             8.0822623      17.511452      14.754693     -8.0193575     -237.66892    
     94600  -224.54317      90             90             90             8.0608843      18.53793       15.299812     -9.6550891     -224.54317    
     94620  -230.94912      90             90             90             7.3136839      19.834733      12.916512     -10.810193     -230.94912    
     94640  -222.73107      90             90             90             3.6310937      11.698138      13.03502      -13.839877     -222.73107    
     94660  -219.31372      90             90             90             0.94146641    -1.9064924      14.383362     -9.6524707     -219.31372    
     94680  -216.25472      90             90             90            -1.685598      -14.041793      15.229393     -6.2443932     -216.25472    
     94700  -215.62316      90             90             90            -4.4235485     -20.096414      17.343106     -10.517338     -215.62316    
     94720  -218.37257      90             90             90            -7.1654739     -19.520393      15.028014     -17.004043     -218.37257    
     94740  -218.51099      90             90             90            -9.4383224     -14.319275      10.935855     -24.931548     -218.51099    
     94760  -218.2229       90             90             90            -9.0292937     -6.0687598      2.0698139     -23.088935     -218.2229     
     94780  -206.40061      90             90             90            -6.3867299      0.089365797   -7.3972803     -11.852275     -206.40061    
     94800  -223.60783      90             90             90             1.1257437      8.3353446     -3.49881       -1.4593037     -223.60783    
     94820  -224.46711      90             90             90             5.4803317      15.409831      0.21229967     0.81886461    -224.46711    
     94840  -204.59177      90             90             90             5.6680763      19.542355      0.663928      -3.2020539     -204.59177    
     94860  -211.50847      90             90             90             7.8054527      21.237852      3.9211171     -1.7426113     -211.50847    
     94880  -208.51344      90             90             90             7.999509       17.428648      2.5010313      4.0688474     -208.51344    
     94900  -213.34678      90             90             90             9.0949082      19.551054     -5.1053024      12.838974     -213.34678    
     94920  -215.09878      90             90             90             10.623637      21.10806      -14.690497      25.453348     -215.09878    
     94940  -206.45199      90             90             90             11.071246      15.645164     -18.692374      36.260948     -206.45199    
     94960  -206.3291       90             90             90             11.933544      9.9400502     -14.317384      40.177967     -206.3291     
     94980  -210.09567      90             90             90             11.684497      3.6643665     -4.1073904      35.496516     -210.09567    
     95000  -216.31804      90             90             90             9.38404        3.6597658      0.13863179     24.353722     -216.31804    
     95020  -205.2548       90             90             90             4.2010387      4.4687966     -5.1231169      13.257436     -205.2548     
     95040  -210.36219      90             90             90             1.5052179      2.2818454     -5.2232639      7.4570721     -210.36219    
     95060  -213.84551      90             90             90            -0.57464574     2.1673813     -1.0764012     -2.8149173     -213.84551    
     95080  -204.56702      90             90             90            -4.9826741     -0.20942803     3.14697       -17.885564     -204.56702    
     95100  -207.34077      90             90             90            -7.1738771     -0.068247582    5.5401676     -26.993551     -207.34077    
     95120  -195.32351      90             90             90            -8.6420714      2.2566579      5.4776618     -33.660534     -195.32351    
     95140  -208.63314      90             90             90            -6.7717857      3.1144263      9.4116522     -32.841436     -208.63314    
     95160  -227.13042      90             90             90            -2.5696902      4.178167       12.947062     -24.834299     -227.13042    
     95180  -212.74023      90             90             90            -1.8819678     -1.0286299      14.958056     -19.575329     -212.74023    
     95200  -205.72883      90             90             90            -0.80739398    -6.0851033      15.852401     -12.18948      -205.72883    
     95220  -227.29801      90             90             90             3.0703132     -7.6885031      18.38878      -1.4893375     -227.29801    
     95240  -235.21729      90             90             90             4.7223214     -11.760748      20.038692      5.8890201     -235.21729    
     95260  -209.11601      90             90             90             1.6292146     -16.221658      13.583628      7.5256734     -209.11601    
     95280  -212.79288      90             90             90             1.1867545     -17.394918      9.9958349      10.959347     -212.79288    
     95300  -218.24379      90             90             90             0.24247373    -18.150052      6.8110648      12.066408     -218.24379    
     95320  -215.05382      90             90             90            -1.5998432     -16.678409      1.5915518      10.287328     -215.05382    
     95340  -226.36603      90             90             90            -0.34991179    -10.288502     -3.6257259      12.864492     -226.36603    
     95360  -207.59663      90             90             90            -1.1203718     -4.594725      -11.410631      12.644241     -207.59663    
     95380  -217.82555      90             90             90             1.4271516      2.1964906     -12.964858      15.049822     -217.82555    
     95400  -231.63712      90             90             90             2.353022       3.7864217     -15.076919      18.349563     -231.63712    
     95420  -216.89661      90             90             90            -2.0297339      0.54485163    -18.70876       12.074707     -216.89661    
     95440  -235.70351      90             90             90            -2.5706319      5.9166162     -18.385768      4.7572567     -235.70351    
     95460  -230.82877      90             90             90            -5.5268325      8.1694916     -20.183976     -4.566013      -230.82877    
     95480  -227.07494      90             90             90            -8.7877472      6.2690492     -22.127453     -10.504838     -227.07494    
     95500  -232.33293      90             90             90            -11.563158      5.1455824     -27.327308     -12.507747     -232.33293    
     95520  -220.55174      90             90             90            -16.415458      0.073639988   -29.324628     -19.995386     -220.55174    
     95540  -226.01937      90             90             90            -18.437179     -4.7256874     -20.69291      -29.89294      -226.01937    
     95560  -216.54844      90             90             90            -20.302795     -10.984903     -11.16158      -38.761901     -216.54844    
     95580  -227.55228      90             90             90            -18.598623     -13.770753     -5.002001      -37.023115     -227.55228    
     95600  -232.05198      90             90             90            -17.766124     -14.02384      -5.1675734     -34.106958     -232.05198    
     95620  -207.18275      90             90             90            -19.160446     -13.116738     -12.096795     -32.267806     -207.18275    
     95640  -221.96264      90             90             90            -11.624056     -3.4513372     -11.41177      -20.00906      -221.96264    
     95660  -221.55399      90             90             90            -1.639297       6.6529096      1.8032679     -13.374069     -221.55399    
     95680  -227.39906      90             90             90             6.51346        13.613926      14.886209     -8.959755      -227.39906    
     95700  -241.45351      90             90             90             14.402157      15.490014      24.891625      2.8248334     -241.45351    
     95720  -219.62713      90             90             90             16.360601      14.717839      27.74805       6.6159146     -219.62713    
     95740  -220.01019      90             90             90             18.499742      18.441127      26.24475       10.81335      -220.01019    
     95760  -234.88979      90             90             90             20.881777      15.276707      29.173262      18.195363     -234.88979    
     95780  -218.93931      90             90             90             18.156017      9.6147298      18.942568      25.910752     -218.93931    
     95800  -205.56172      90             90             90             14.367807      8.0199998      4.489334       30.594087     -205.56172    
     95820  -208.77138      90             90             90             11.321878      9.8910119      3.4225656      20.652057     -208.77138    
     95840  -205.58849      90             90             90             6.3935971      13.819622      3.791577       1.5695929     -205.58849    
     95860  -210.31375      90             90             90             1.4375416      9.6524904      7.0999853     -12.439851     -210.31375    
     95880  -213.56083      90             90             90            -4.2644935      0.8816005      3.4886062     -17.163687     -213.56083    
     95900  -198.27818      90             90             90            -11.160241     -7.2758331     -7.5842463     -18.620644     -198.27818    
     95920  -198.03239      90             90             90            -13.296819     -11.075802     -10.919394     -17.895261     -198.03239    
     95940  -199.09888      90             90             90            -11.884086     -8.1756422     -11.264224     -16.212391     -199.09888    
     95960  -190.51292      90             90             90            -8.9965113     -3.8465154     -4.5904683     -18.55255      -190.51292    
     95980  -195.94833      90             90             90            -3.279504       1.6017985      6.6151702     -18.055481     -195.94833    
     96000  -205.8657       90             90             90             1.7905698      1.4821207      15.163457     -11.273868     -205.8657     
     96020  -203.4868       90             90             90             3.1904402     -1.8656036      17.514161     -6.0772368     -203.4868     
     96040  -199.25224      90             90             90             2.8113175      3.782189       12.016869     -7.365106      -199.25224    
     96060  -203.80744      90             90             90             2.4709515      10.898197      9.2005713     -12.685914     -203.80744    
     96080  -188.57664      90             90             90            -0.041968935    10.383488      3.6062831     -14.115678     -188.57664    
     96100  -180.92901      90             90             90            -0.020079997    9.7104081     -1.2126332     -8.558015      -180.92901    
     96120  -210.07673      90             90             90             4.5441371      8.9159307      0.80512029     3.9113602     -210.07673    
     96140  -212.17806      90             90             90             5.3164989      3.2808488     -1.2540523      13.9227       -212.17806    
     96160  -211.73008      90             90             90             4.1077437      4.3335515     -8.3362121      16.325892     -211.73008    
     96180  -224.87427      90             90             90             2.7432824      9.0757937     -16.087245      15.241299     -224.87427    
     96200  -221.67087      90             90             90             0.30702881     7.5166608     -16.734358      10.138784     -221.67087    
     96220  -234.2163       90             90             90             2.39957        5.7662201     -12.634884      14.067374     -234.2163     
     96240  -240.16623      90             90             90             5.0401238      4.2232787     -11.022382      21.919475     -240.16623    
     96260  -236.59992      90             90             90             4.7702056      6.1912769     -7.8920281      16.011368     -236.59992    
     96280  -238.57106      90             90             90             1.7361353      8.9866451     -9.5052783      5.7270391     -238.57106    
     96300  -230.31499      90             90             90            -4.7615052      1.822491      -13.548614     -2.5583925     -230.31499    
     96320  -220.9211       90             90             90            -12.311832     -8.1139468     -19.324559     -9.496991      -220.9211     
     96340  -217.70813      90             90             90            -19.312097     -16.863494     -26.822606     -14.25019      -217.70813    
     96360  -229.06198      90             90             90            -23.393986     -21.465107     -27.889398     -20.827454     -229.06198    
     96380  -216.00749      90             90             90            -28.298375     -21.833768     -31.515694     -31.545664     -216.00749    
     96400  -208.5546       90             90             90            -28.980155     -20.081896     -30.675537     -36.183032     -208.5546     
     96420  -231.69507      90             90             90            -22.244635     -16.63939      -21.122031     -28.972485     -231.69507    
     96440  -216.51824      90             90             90            -18.392239     -16.90404      -12.97104      -25.301635     -216.51824    
     96460  -217.67653      90             90             90            -12.683897     -19.942221      3.0612744     -21.170744     -217.67653    
     96480  -228.7587       90             90             90            -5.8534587     -25.248841      17.318575     -9.6301096     -228.7587     
     96500  -210.77397      90             90             90            -1.4251096     -23.459699      21.707724     -2.523353      -210.77397    
     96520  -222.17129      90             90             90             7.2895758     -11.309724      27.978788      5.199664      -222.17129    
     96540  -226.89741      90             90             90             13.928574     -2.5666329      30.675154      13.677202     -226.89741    
     96560  -213.78803      90             90             90             15.657495      2.9594147      27.13158       16.881491     -213.78803    
     96580  -205.42922      90             90             90             15.612035      3.6513225      22.892309      20.292475     -205.42922    
     96600  -204.38927      90             90             90             14.891817      0.87379594     20.027077      23.774579     -204.38927    
     96620  -204.55313      90             90             90             13.507835     -0.53028885     14.573355      26.48044      -204.55313    
     96640  -205.80146      90             90             90             12.212494      2.1177298      9.4823565      25.037394     -205.80146    
     96660  -215.31842      90             90             90             11.719132      6.1655076      11.130614      17.861275     -215.31842    
     96680  -208.55637      90             90             90             8.9797041      2.4908098      13.856394      10.591908     -208.55637    
     96700  -220.39579      90             90             90             8.1107603      2.8386163      16.83565       4.658015      -220.39579    
     96720  -227.68759      90             90             90             5.8055351     -0.64331507     14.804108      3.2558126     -227.68759    
     96740  -211.1932       90             90             90             0.27545432    -8.7090623      6.6888257      2.8465996     -211.1932     
     96760  -227.05542      90             90             90            -0.92954118     3.3860463     -1.6451421     -4.5295277     -227.05542    
     96780  -227.56662      90             90             90            -3.1711381      14.096462     -9.2374905     -14.372386     -227.56662    
     96800  -218.9738       90             90             90            -6.1040669      9.8376983     -6.2545621     -21.895337     -218.9738     
     96820  -230.48483      90             90             90            -7.0763125      2.5198255      1.2293771     -24.97814      -230.48483    
     96840  -232.15445      90             90             90            -10.221444     -5.1661615     -1.6938314     -23.804339     -232.15445    
     96860  -229.38427      90             90             90            -14.436015     -5.1653768     -12.456895     -25.685774     -229.38427    
     96880  -225.68225      90             90             90            -17.41736       0.42823388    -26.301204     -26.37911      -225.68225    
     96900  -236.36378      90             90             90            -16.025473      3.7698968     -31.293448     -20.552868     -236.36378    
     96920  -233.57307      90             90             90            -13.330068     -0.72094263    -26.123883     -13.145377     -233.57307    
     96940  -230.49718      90             90             90            -8.78551       -6.4167456     -20.064672      0.12488728    -230.49718    
     96960  -244.39379      90             90             90            -0.33842599    -4.1475208     -11.252071      14.384314     -244.39379    
     96980  -237.24888      90             90             90             6.2278782      3.0978588     -5.7666903      21.352466     -237.24888    
     97000  -245.39313      90             90             90             12.358619      14.019063     -3.5693411      26.626136     -245.39313    
     97020  -249.26801      90             90             90             13.326762      13.437538     -0.73917864     27.281926     -249.26801    
     97040  -236.6847       90             90             90             9.3928101     -0.25673646     2.2719141      26.163253     -236.6847     
     97060  -248.87681      90             90             90             8.5999135     -7.688979       6.533035       26.955684     -248.87681    
     97080  -241.80752      90             90             90             9.1199816     -2.7120987      5.3669479      24.705096     -241.80752    
     97100  -234.74994      90             90             90             12.412889      13.84218       1.7968442      21.599643     -234.74994    
     97120  -243.65988      90             90             90             17.676241      29.928851      6.024113       17.07576      -243.65988    
     97140  -235.58499      90             90             90             18.094072      30.545833      12.391156      11.345226     -235.58499    
     97160  -230.82287      90             90             90             15.514503      21.772614      18.194622      6.5762724     -230.82287    
     97180  -237.13883      90             90             90             11.028941      12.097433      20.625916      0.36347387    -237.13883    
     97200  -237.71812      90             90             90             4.9232641      3.2910783      12.593738     -1.1150237     -237.71812    
     97220  -234.41337      90             90             90             0.47001973     2.5993861     -1.2068699      0.017542969   -234.41337    
     97240  -235.82891      90             90             90            -1.7001511      5.5805683     -8.6738617     -2.0071599     -235.82891    
     97260  -235.34652      90             90             90            -1.8321646      2.4608476     -5.2632632     -2.6940783     -235.34652    
     97280  -240.33455      90             90             90             0.33033993     2.2031335      3.8528642     -5.0649779     -240.33455    
     97300  -245.78265      90             90             90             1.6760035      5.8421743      8.8276791     -9.6418429     -245.78265    
     97320  -243.92528      90             90             90             0.33562884    -0.31432929     9.4735302     -8.1523144     -243.92528    
     97340  -242.8752       90             90             90            -2.5658845     -5.905138       5.7637814     -7.5562967     -242.8752     
     97360  -242.28007      90             90             90            -4.8410088     -2.8938993      2.8690313     -14.498159     -242.28007    
     97380  -240.42235      90             90             90            -4.4976045      0.31507732     7.1007315     -20.908622     -240.42235    
     97400  -228.22768      90             90             90            -1.9440181      3.4573148      13.127648     -22.417017     -228.22768    
     97420  -226.2507       90             90             90             3.5499273      5.986906       19.853684     -15.190808     -226.2507     
     97440  -232.94332      90             90             90             9.1525586      4.7811144      24.401372     -1.7248108     -232.94332    
     97460  -224.28144      90             90             90             10.636746      2.670014       24.766999      4.4732238     -224.28144    
     97480  -232.56421      90             90             90             11.73663       2.9694596      26.936985      5.3034443     -232.56421    
     97500  -231.94907      90             90             90             9.7017322      3.3495139      25.613685      0.14199783    -231.94907    
     97520  -213.09532      90             90             90             4.5858191      0.70553811     21.783043     -8.7311237     -213.09532    
     97540  -230.02938      90             90             90             4.8561132     -3.5093214      20.071232     -1.9935714     -230.02938    
     97560  -240.33403      90             90             90             6.4384494     -6.6091893      16.264381      9.6601569     -240.33403    
     97580  -234.36253      90             90             90             6.4366328     -5.4069959      12.398284      12.31861      -234.36253    
     97600  -233.42495      90             90             90             5.4839108     -1.6699332      6.1798955      11.94177      -233.42495    
     97620  -230.59434      90             90             90             2.7271659     -2.0444072      2.1663469      8.0595582     -230.59434    
     97640  -243.9674       90             90             90             1.0474143     -4.5291512      4.3490737      3.3223205     -243.9674     
     97660  -240.9798       90             90             90            -1.8676357     -2.5943032      0.53677372    -3.5453777     -240.9798     
     97680  -222.96089      90             90             90            -4.8853886      1.8444541     -7.9648909     -8.5357289     -222.96089    
     97700  -229.51915      90             90             90            -3.3710443      8.084421      -13.635809     -4.5617452     -229.51915    
     97720  -246.95286      90             90             90             0.11183902     13.129408     -15.108361      2.3144704     -246.95286    
     97740  -242.70123      90             90             90             0.92471809     8.2580375     -13.058873      7.5749901     -242.70123    
     97760  -230.68794      90             90             90             1.0889413      3.7086352     -10.043275      9.601464      -230.68794    
     97780  -241.5849       90             90             90             2.2320474      10.155848     -12.075826      8.6161203     -241.5849     
     97800  -251.75993      90             90             90             2.0682276      17.439847     -13.729397      2.494233      -251.75993    
     97820  -251.89699      90             90             90            -0.28751409     13.589316     -10.69106      -3.7607981     -251.89699    
     97840  -251.36365      90             90             90            -2.2357477      5.046171      -5.362824      -6.3905902     -251.36365    
     97860  -253.49782      90             90             90            -0.84990861     3.2675779      2.5643696     -8.3816733     -253.49782    
     97880  -247.02365      90             90             90             1.4790179      2.4013308      5.4178606     -3.3821377     -247.02365    
     97900  -244.29259      90             90             90             4.3077594      3.1423945      3.2445218      6.5363618     -244.29259    
     97920  -253.74809      90             90             90             6.6462635      4.3768203      2.4722595      13.089711     -253.74809    
     97940  -245.88158      90             90             90             6.0467489      1.9153311      3.1967727      13.028143     -245.88158    
     97960  -250.86577      90             90             90             8.8349667      3.5364613      11.95035       11.018089     -250.86577    
     97980  -251.87792      90             90             90             12.558303      7.6842852      22.189519      7.8011047     -251.87792    
     98000  -241.56345      90             90             90             12.27524       12.457896      24.602205     -0.23438159    -241.56345    
     98020  -260.28982      90             90             90             11.513869      13.924753      18.175292      2.4415631     -260.28982    
     98040  -250.73035      90             90             90             6.16466        2.4584689      5.9466594      10.088852     -250.73035    
     98060  -239.15062      90             90             90             1.9813972     -5.7293332      5.4704901      6.2030348     -239.15062    
     98080  -236.34541      90             90             90            -0.21579654    -9.457126       9.9309666     -1.1212303     -236.34541    
     98100  -218.64347      90             90             90            -5.3697607     -16.731351      9.7119265     -9.0898572     -218.64347    
     98120  -227.33035      90             90             90            -8.679706      -21.634737      7.4499141     -11.854295     -227.33035    
     98140  -225.40198      90             90             90            -12.161483     -30.076424      2.0799842     -8.4880098     -225.40198    
     98160  -218.05196      90             90             90            -12.761076     -38.357624      5.6745545     -5.6001575     -218.05196    
     98180  -222.06722      90             90             90            -8.5642119     -35.511356      8.3932004      1.4255197     -222.06722    
     98200  -223.30719      90             90             90            -2.9587319     -23.133709      5.89348        8.364033      -223.30719    
     98220  -237.13889      90             90             90             1.0765514     -13.729127      9.8658016      7.09298       -237.13889    
     98240  -220.49518      90             90             90             0.51328278    -15.362458      7.7309658      9.171341      -220.49518    
     98260  -219.87254      90             90             90             2.1675049     -14.533197      7.2982804      13.737431     -219.87254    
     98280  -241.32717      90             90             90             6.7684105     -6.6234837      11.006151      15.922564     -241.32717    
     98300  -231.25049      90             90             90             6.8982571      0.34486631     5.8634419      14.486463     -231.25049    
     98320  -228.17501      90             90             90             6.3709509      11.704607     -0.70529886     8.1135443     -228.17501    
     98340  -235.68849      90             90             90             7.01749        22.991037     -9.8337728      7.8952056     -235.68849    
     98360  -240.96064      90             90             90             8.9612362      23.324944     -12.723088      16.281853     -240.96064    
     98380  -248.59335      90             90             90             14.621194      19.415407     -1.858464       26.306638     -248.59335    
     98400  -242.75752      90             90             90             19.234309      20.412894      7.6488952      29.641138     -242.75752    
     98420  -238.40304      90             90             90             20.701056      27.320832      10.876374      23.905964     -238.40304    
     98440  -256.21303      90             90             90             20.754833      32.115736      8.4569045      21.691859     -256.21303    
     98460  -258.66813      90             90             90             16.797126      24.534867      7.1348777      18.721632     -258.66813    
     98480  -242.49757      90             90             90             8.816241       9.6512531      9.2990767      7.4983932     -242.49757    
     98500  -257.73243      90             90             90             4.1642496      1.1588877      6.0919306      5.2419305     -257.73243    
     98520  -261.09089      90             90             90            -0.45925357    -5.9932695     -3.1192809      7.7347897     -261.09089    
     98540  -250.69406      90             90             90            -6.2501725     -10.405723     -13.210896      4.8661015     -250.69406    
     98560  -256.94958      90             90             90            -9.2836867     -11.373728     -17.121662      0.64433039    -256.94958    
     98580  -244.24294      90             90             90            -14.746968     -19.036162     -17.130769     -8.073972      -244.24294    
     98600  -251.37509      90             90             90            -18.898715     -24.875426     -16.311594     -15.509126     -251.37509    
     98620  -265.93944      90             90             90            -21.913053     -30.250683     -16.120037     -19.368439     -265.93944    
     98640  -252.73681      90             90             90            -25.338377     -34.479615     -18.148156     -23.387361     -252.73681    
     98660  -252.83094      90             90             90            -22.984181     -30.236752     -14.519356     -24.196433     -252.83094    
     98680  -244.03418      90             90             90            -18.189833     -25.547608     -5.4320917     -23.589799     -244.03418    
     98700  -239.78434      90             90             90            -11.354704     -13.619302      1.5748479     -22.019656     -239.78434    
     98720  -242.40596      90             90             90            -4.1733011      1.9440038      2.8583088     -17.322216     -242.40596    
     98740  -237.13309      90             90             90             1.317731       11.950293     -1.0692011     -6.9278992     -237.13309    
     98760  -245.89313      90             90             90             7.4311399      19.414961     -1.7966341      4.6750926     -245.89313    
     98780  -240.41143      90             90             90             9.675115       19.861353      0.59708393     8.5669077     -240.41143    
     98800  -234.55174      90             90             90             10.701575      21.262743      1.6697448      9.172237      -234.55174    
     98820  -234.16374      90             90             90             12.752925      23.58847       4.6042199      10.066085     -234.16374    
     98840  -222.50207      90             90             90             16.161097      27.777081      7.0384478      13.667761     -222.50207    
     98860  -226.94399      90             90             90             22.708706      38.51286       9.8482017      19.765057     -226.94399    
     98880  -216.9534       90             90             90             25.929253      38.106491      16.021609      23.65966      -216.9534     
     98900  -211.27028      90             90             90             25.320078      31.701255      18.043077      26.215903     -211.27028    
     98920  -236.21395      90             90             90             23.766773      30.342766      16.147902      24.809651     -236.21395    
     98940  -232.68254      90             90             90             16.524204      25.15597       9.3734959      15.043147     -232.68254    
     98960  -219.26764      90             90             90             8.2417374      21.645638     -0.7898287      3.8694028     -219.26764    
     98980  -230.63297      90             90             90             4.3313453      15.12898       0.016102179   -2.1510463     -230.63297    
     99000  -238.35294      90             90             90             0.50122936     1.2683462      2.835272      -2.5999302     -238.35294    
     99020  -240.02838      90             90             90            -2.5227994     -5.8083231     -3.1198656      1.3597905     -240.02838    
     99040  -235.03008      90             90             90            -4.7540514     -5.9350386     -11.348306      3.0211905     -235.03008    
     99060  -225.27301      90             90             90            -7.3454684     -8.3448052     -12.923267     -0.76833282    -225.27301    
     99080  -241.97418      90             90             90            -8.020005      -13.310274     -4.8993022     -5.8504387     -241.97418    
     99100  -251.55307      90             90             90            -11.643958     -18.230409     -4.8794253     -11.822039     -251.55307    
     99120  -234.66474      90             90             90            -18.371483     -19.759403     -16.485683     -18.869362     -234.66474    
     99140  -241.41976      90             90             90            -18.952999     -16.553211     -21.273901     -19.031883     -241.41976    
     99160  -257.66414      90             90             90            -13.517609     -13.441615     -17.581571     -9.5296397     -257.66414    
     99180  -253.67662      90             90             90            -8.4103365     -10.967934     -11.582339     -2.680736      -253.67662    
     99200  -245.31606      90             90             90            -5.4335172     -8.4912484     -7.7488233     -0.060479918   -245.31606    
     99220  -248.51164      90             90             90            -3.2222104     -2.4488522     -9.5901608      2.3723818     -248.51164    
     99240  -248.81891      90             90             90            -2.0932374      6.2415349     -11.56699      -0.95425675    -248.81891    
     99260  -236.13623      90             90             90            -0.30909535     6.3752073     -6.3888116     -0.91368174    -236.13623    
     99280  -239.25083      90             90             90             3.8792641      2.7263189      4.6182856      4.2931877     -239.25083    
     99300  -237.47408      90             90             90             6.2515074      0.62662424     11.916422      6.2114763     -237.47408    
     99320  -240.77824      90             90             90             7.8278273      5.5405872      11.856545      6.0863496     -240.77824    
     99340  -240.09311      90             90             90             9.0268613      16.76383       8.0942899      2.2224637     -240.09311    
     99360  -217.69113      90             90             90             11.07272       19.36974       12.513162      1.3352587     -217.69113    
     99380  -231.41323      90             90             90             17.901493      19.473273      29.103189      5.1280177     -231.41323    
     99400  -238.64174      90             90             90             20.167473      20.945587      38.881246      0.67558618    -238.64174    
     99420  -227.4573       90             90             90             16.073035      19.867724      31.738465     -3.3870828     -227.4573     
     99440  -237.57204      90             90             90             13.000287      20.579548      20.034688     -1.6133752     -237.57204    
     99460  -233.95245      90             90             90             8.5233565      13.651851      10.509984      1.4082339     -233.95245    
     99480  -224.29439      90             90             90             4.0691921      0.65656986     4.791219       6.7597873     -224.29439    
     99500  -222.55112      90             90             90             0.61385693    -6.9044654      0.82802457     7.9180116     -222.55112    
     99520  -231.66185      90             90             90            -2.0366128     -7.4460048     -3.3729913      4.7091578     -231.66185    
     99540  -235.81939      90             90             90            -4.9666188     -0.34066826    -10.605518     -3.9536699     -235.81939    
     99560  -230.84848      90             90             90            -7.878238       1.6946362     -15.352651     -9.9766993     -230.84848    
     99580  -234.84089      90             90             90            -8.2791353     -12.417234     -9.0511709     -3.3690014     -234.84089    
     99600  -226.42943      90             90             90            -10.945733     -29.709073     -4.89735        1.7692231     -226.42943    
     99620  -234.03336      90             90             90            -10.971592     -29.725559     -5.9330765      2.7438587     -234.03336    
     99640  -240.3375       90             90             90            -8.8144088     -20.041329     -8.5354348      2.1335371     -240.3375     
     99660  -231.66128      90             90             90            -8.0012736     -19.472751     -9.3344853      4.8034161     -231.66128    
     99680  -248.85502      90             90             90            -4.4169362     -27.638905     -0.48653235     14.874629     -248.85502    
     99700  -242.44883      90             90             90            -4.6781982     -33.781734      2.6598385      17.087301     -242.44883    
     99720  -234.40724      90             90             90            -5.5435474     -28.938044      0.92125091     11.386151     -234.40724    
     99740  -249.52715      90             90             90            -2.7840455     -16.057421      1.830291       5.8749934     -249.52715    
     99760  -251.92807      90             90             90            -2.8030006     -4.9714914     -7.5402732      4.1027627     -251.92807    
     99780  -250.36921      90             90             90            -2.5749852     -1.8388563     -16.449351      10.563251     -250.36921    
     99800  -242.0079       90             90             90            -1.6132726     -6.3668956     -15.071674      16.598752     -242.0079     
     99820  -243.43017      90             90             90             1.4219177     -1.4685127     -9.5242992      15.258565     -243.43017    
     99840  -246.78431      90             90             90             4.6587523      12.33602      -4.0925237      5.7327604     -246.78431    
     99860  -245.8085       90             90             90             6.4694837      22.312692     -2.3039341     -0.60030717    -245.8085     
     99880  -251.38356      90             90             90             7.7762562      22.752209     -2.3491305      2.9256907     -251.38356    
     99900  -236.36614      90             90             90             6.5933672      15.486215      0.54311575     3.750771      -236.36614    
     99920  -237.98185      90             90             90             8.2761457      17.874491      8.1975481     -1.243602      -237.98185    
     99940  -236.80752      90             90             90             9.6088308      25.581286      13.703937     -10.458731     -236.80752    
     99960  -225.34006      90             90             90             8.3345309      25.178634      12.859272     -13.034313     -225.34006    
     99980  -244.89712      90             90             90             7.7852773      21.453467      3.2693555     -1.3669901     -244.89712    
    100000  -243.64709      90             90             90             3.0206886      12.023963     -8.9454101      5.9835133     -243.64709    
    100020  -238.67028      90             90             90            -1.76721        9.8362202     -13.467644     -1.6702062     -238.67028    
    100040  -249.81271      90             90             90            -3.2909116      19.186985     -13.027672     -16.032048     -249.81271    
    100060  -240.29926      90             90             90            -6.3681727      20.828741     -15.249661     -24.683597     -240.29926    
    100080  -235.19439      90             90             90            -7.8377532      17.294584     -20.201606     -20.606238     -235.19439    
    100100  -237.3087       90             90             90            -6.2568529      7.5355637     -16.499633     -9.8064899     -237.3087     
    100120  -238.60476      90             90             90            -2.2039725      2.2694237     -6.6521036     -2.2292375     -238.60476    
    100140  -236.65449      90             90             90             1.6071363      10.87178      -4.4207196     -1.629651      -236.65449    
    100160  -238.04337      90             90             90             2.724249       12.543684     -3.2194746     -1.1514621     -238.04337    
    100180  -242.56973      90             90             90             0.93174413     7.1474645     -4.4715668      0.11933476    -242.56973    
    100200  -232.95028      90             90             90            -3.7078982     -4.5425653     -5.882648      -0.69848122    -232.95028    
    100220  -232.24295      90             90             90            -5.2419223     -17.971732      0.74698385     1.4989814     -232.24295    
    100240  -236.88984      90             90             90            -3.611999      -17.182043      2.0594706      4.2865752     -236.88984    
    100260  -233.54089      90             90             90            -1.1609026     -10.309123      0.3213903      6.505025      -233.54089    
    100280  -236.28592      90             90             90             1.5727786     -3.7948553     -1.1288691      9.6420602     -236.28592    
    100300  -244.14829      90             90             90             3.318522      -3.1238276      1.2718261      11.807568     -244.14829    
    100320  -243.77748      90             90             90             4.4618658     -9.5714564      9.4446436      13.51241      -243.77748    
    100340  -241.7371       90             90             90             6.0029151     -6.4611354      12.558126      11.911755     -241.7371     
    100360  -240.92834      90             90             90             6.5097335     -1.3194936      13.681922      7.1667719     -240.92834    
    100380  -230.93444      90             90             90             3.9540562     -1.5400078      10.859         2.5431765     -230.93444    
    100400  -240.94747      90             90             90             3.914232      -0.48805994     7.7310183      4.4997376     -240.94747    
    100420  -242.48006      90             90             90             4.9338153     -2.1595696      8.8575823      8.1034334     -242.48006    
    100440  -223.57258      90             90             90             4.6951284      0.036608619    7.5307988      6.5179779     -223.57258    
    100459  -238.21006      90             90             90             6.7661916      3.3670322      7.4670645      9.4644779     -238.21006    
Loop time of 44.5503 on 1 procs for 100000 steps with 378 atoms

Performance: 193.938 ns/day, 0.124 hours/ns, 2244.655 timesteps/s, 848.480 katom-step/s
36.3% CPU use with 1 MPI tasks x no OpenMP threads

MPI task timing breakdown:
Section |  min time  |  avg time  |  max time  |%varavg| %total
---------------------------------------------------------------
Pair    | 16.243     | 16.243     | 16.243     |   0.0 | 36.46
Bond    | 17.165     | 17.165     | 17.165     |   0.0 | 38.53
Neigh   | 1.707      | 1.707      | 1.707      |   0.0 |  3.83
Comm    | 1.3081     | 1.3081     | 1.3081     |   0.0 |  2.94
Output  | 3.9694     | 3.9694     | 3.9694     |   0.0 |  8.91
Modify  | 3.2471     | 3.2471     | 3.2471     |   0.0 |  7.29
Other   |            | 0.9098     |            |       |  2.04

Nlocal:            378 ave         378 max         378 min
Histogram: 1 0 0 0 0 0 0 0 0 0
Nghost:            241 ave         241 max         241 min
Histogram: 1 0 0 0 0 0 0 0 0 0
Neighs:           4471 ave        4471 max        4471 min
Histogram: 1 0 0 0 0 0 0 0 0 0

Total # of neighbors = 4471
Ave neighs/atom = 11.828042
Ave special neighs/atom = 7.1428571
Neighbor list builds = 1271
Dangerous builds = 0
Total wall time: 0:01:08
