read_data	InitialFile.txt
Reading data file ...
  orthogonal box = (0 0 0) to (158.5 158.5 158.5)
  1 by 1 by 1 MPI processor grid
WARNING: Atom style in data file atomic differs from currently defined atom style molecular (src/src/read_data.cpp:621)
  reading atoms ...
  100 atoms
  scanning bonds ...
  1 = max bonds/atom
  scanning angles ...
  1 = max angles/atom
  scanning dihedrals ...
  1 = max dihedrals/atom
  reading bonds ...
  99 bonds
  reading angles ...
  98 angles
  reading dihedrals ...
  97 dihedrals
Finding 1-2 1-3 1-4 neighbors ...
  special bond factors lj:    0        0        0       
  special bond factors coul:  0        0        0       
     2 = max # of 1-2 neighbors
     2 = max # of 1-3 neighbors
     4 = max # of 1-4 neighbors
     6 = max # of special neighbors
  special bonds CPU = 0.005 seconds
  read_data CPU = 0.029 seconds

# Dreiding potential information
neighbor	0.4 bin
neigh_modify	every 10 one 10000

bond_style      harmonic
bond_coeff	1 350 1.53
bond_coeff	2 700 1.53

angle_style     harmonic
angle_coeff	1 60 109.5
angle_coeff	2 120 109.5

dihedral_style	multi/harmonic
dihedral_coeff	1 1.73 -4.49 0.776 6.99 0.0
dihedral_coeff	2 1.73 -4.49 0.776 6.99 0.0

pair_style	lj/cut 10.5
pair_coeff	* * 1.0 1.0 10.5
pair_coeff	3 3 2.0 0.5 10.5

compute csym all centro/atom fcc
compute peratom all pe/atom


#####################################################
# Equilibration (Brownian dynamics at 300 K)

velocity 	all create 300.0 1231
fix		1 all nve/limit 0.05
fix 2 all brownian 30.0 12908410 gamma_t 3.0 rng gaussian # Compute a correct 300K simulation, check the value for gamma_t
thermo_style	custom step temp
thermo          10000
timestep	1
run		100000
Generated 0 of 3 mixed pair_coeff terms from geometric mixing rule
WARNING: One or more atoms are time integrated more than once (src/src/modify.cpp:289)
Neighbor list info ...
  update: every = 10 steps, delay = 0 steps, check = yes
  max neighbors/atom: 10000, page size: 100000
  master list distance cutoff = 10.9
  ghost atom cutoff = 10.9
  binsize = 5.45, bins = 30 30 30
  2 neighbor lists, perpetual/occasional/extra = 1 1 0
  (1) pair lj/cut, perpetual
      attributes: half, newton on
      pair build: half/bin/newton
      stencil: half/bin/3d
      bin: standard
  (2) compute centro/atom, occasional
      attributes: full, newton on
      pair build: full/bin
      stencil: full/bin/3d
      bin: standard
Per MPI rank memory allocation (min/avg/max) = 8.15 | 8.15 | 8.15 Mbytes
   Step          Temp     
         0   300          
     10000   301.14599    
     20000   258.43265    
     30000   315.00716    
     40000   288.15873    
     50000   282.34048    
     60000   293.92088    
     70000   308.43796    
     80000   274.17263    
     90000   333.82677    
    100000   337.04712    
Loop time of 2.73773 on 1 procs for 100000 steps with 100 atoms

Performance: 3155.898 ns/day, 0.008 hours/ns, 36526.597 timesteps/s, 3.653 Matom-step/s
98.4% CPU use with 1 MPI tasks x no OpenMP threads

MPI task timing breakdown:
Section |  min time  |  avg time  |  max time  |%varavg| %total
---------------------------------------------------------------
Pair    | 0.55097    | 0.55097    | 0.55097    |   0.0 | 20.13
Bond    | 1.3192     | 1.3192     | 1.3192     |   0.0 | 48.18
Neigh   | 0.060846   | 0.060846   | 0.060846   |   0.0 |  2.22
Comm    | 0.014781   | 0.014781   | 0.014781   |   0.0 |  0.54
Output  | 0.00024545 | 0.00024545 | 0.00024545 |   0.0 |  0.01
Modify  | 0.75973    | 0.75973    | 0.75973    |   0.0 | 27.75
Other   |            | 0.03199    |            |       |  1.17

Nlocal:            100 ave         100 max         100 min
Histogram: 1 0 0 0 0 0 0 0 0 0
Nghost:              0 ave           0 max           0 min
Histogram: 1 0 0 0 0 0 0 0 0 0
Neighs:            470 ave         470 max         470 min
Histogram: 1 0 0 0 0 0 0 0 0 0
FullNghs:            0 ave           0 max           0 min
Histogram: 1 0 0 0 0 0 0 0 0 0

Total # of neighbors = 470
Ave neighs/atom = 4.7
Ave special neighs/atom = 5.88
Neighbor list builds = 1219
Dangerous builds = 30
unfix 1
unfix 2
write_restart 	restart.${simname}.dreiding1
write_restart 	restart.InitialFile.dreiding1
System init for write_restart ...
Generated 0 of 3 mixed pair_coeff terms from geometric mixing rule

#####################################################
# Define Settings
compute eng all pe/atom
compute eatoms all reduce sum c_eng

#####################################################
# Minimization

dump mydmp all atom 100 dump.lammpstrj

reset_timestep 0
fix 1 all nvt temp 300.0 300.0 100.0
thermo 20
thermo_style custom step pe lx ly lz press pxx pyy pzz c_eatoms
min_style cg
minimize 1e-25 1e-25 500000 1000000
Switching to 'neigh_modify every 1 delay 0 check yes' setting during minimization
Generated 0 of 3 mixed pair_coeff terms from geometric mixing rule
Per MPI rank memory allocation (min/avg/max) = 9.275 | 9.275 | 9.275 Mbytes
   Step         PotEng           Lx             Ly             Lz           Press           Pxx            Pyy            Pzz          c_eatoms   
         0   16.772214      158.5          158.5          158.5          1.4629839      1.9998021      0.76524724     1.6239025      16.772214    
        20   2.7834278      158.5          158.5          158.5          2.2458359      2.4258599      2.2378029      2.0738448      2.7834278    
        40   2.0634689      158.5          158.5          158.5          2.0105893      2.1067081      2.0245764      1.9004835      2.0634689    
        60   1.6549229      158.5          158.5          158.5          2.0271142      2.2429329      2.0082349      1.8301749      1.6549229    
        80   1.5324646      158.5          158.5          158.5          2.109101       2.3264189      2.093288       1.9075961      1.5324646    
       100   1.4708134      158.5          158.5          158.5          2.0814659      2.2851651      2.0644638      1.8947687      1.4708134    
       120   1.4690161      158.5          158.5          158.5          2.0706899      2.2789466      2.0566074      1.8765159      1.4690161    
       140   1.4690161      158.5          158.5          158.5          2.0706898      2.2789465      2.0566073      1.8765157      1.4690161    
       144   1.4690161      158.5          158.5          158.5          2.0706898      2.2789465      2.0566073      1.8765157      1.4690161    
Loop time of 0.0166149 on 1 procs for 144 steps with 100 atoms

90.3% CPU use with 1 MPI tasks x no OpenMP threads

Minimization stats:
  Stopping criterion = energy tolerance
  Energy initial, next-to-last, final = 
      16.7722143561777   1.46901609616566   1.46901609616566
  Force two-norm initial, final = 143.00241 1.9584092
  Force max component initial, final = 32.695767 0.60960853
  Final line search alpha, max atom move = 0.082019849 0.05
  Iterations, force evaluations = 144 439

MPI task timing breakdown:
Section |  min time  |  avg time  |  max time  |%varavg| %total
---------------------------------------------------------------
Pair    | 0.0065663  | 0.0065663  | 0.0065663  |   0.0 | 39.52
Bond    | 0.0074762  | 0.0074762  | 0.0074762  |   0.0 | 45.00
Neigh   | 0.00071772 | 0.00071772 | 0.00071772 |   0.0 |  4.32
Comm    | 8.6974e-05 | 8.6974e-05 | 8.6974e-05 |   0.0 |  0.52
Output  | 0.00034569 | 0.00034569 | 0.00034569 |   0.0 |  2.08
Modify  | 0          | 0          | 0          |   0.0 |  0.00
Other   |            | 0.001422   |            |       |  8.56

Nlocal:            100 ave         100 max         100 min
Histogram: 1 0 0 0 0 0 0 0 0 0
Nghost:              0 ave           0 max           0 min
Histogram: 1 0 0 0 0 0 0 0 0 0
Neighs:            470 ave         470 max         470 min
Histogram: 1 0 0 0 0 0 0 0 0 0
FullNghs:            0 ave           0 max           0 min
Histogram: 1 0 0 0 0 0 0 0 0 0

Total # of neighbors = 470
Ave neighs/atom = 4.7
Ave special neighs/atom = 5.88
Neighbor list builds = 9
Dangerous builds = 0

group type1_atoms type 1
35 atoms in group type1_atoms
group type2_atoms type 2
28 atoms in group type2_atoms
group type3_atoms type 3
37 atoms in group type3_atoms

molecule mol1closeTo3PRE mol1closeTo3PRE.txt
Read molecule template mol1closeTo3PRE:
  1 molecules
  0 fragments
  3 atoms with max type 3
  0 bonds with max type 0
  0 angles with max type 0
  0 dihedrals with max type 0
  0 impropers with max type 0
molecule mol1closeTo3POST mol1closeTo3POST.txt
Read molecule template mol1closeTo3POST:
  1 molecules
  0 fragments
  3 atoms with max type 3
  0 bonds with max type 0
  0 angles with max type 0
  0 dihedrals with max type 0
  0 impropers with max type 0
molecule mol3closeTo1POST mol3closeTo1POST.txt
Read molecule template mol3closeTo1POST:
  1 molecules
  0 fragments
  3 atoms with max type 2
  0 bonds with max type 0
  0 angles with max type 0
  0 dihedrals with max type 0
  0 impropers with max type 0
molecule mol2closeTo3PRE mol2closeTo3PRE.txt
Read molecule template mol2closeTo3PRE:
  1 molecules
  0 fragments
  3 atoms with max type 3
  0 bonds with max type 0
  0 angles with max type 0
  0 dihedrals with max type 0
  0 impropers with max type 0
molecule mol2closeTo3POST mol2closeTo3POST.txt
Read molecule template mol2closeTo3POST:
  1 molecules
  0 fragments
  3 atoms with max type 3
  0 bonds with max type 0
  0 angles with max type 0
  0 dihedrals with max type 0
  0 impropers with max type 0
molecule mol3closeTo2POST mol3closeTo2POST.txt
Read molecule template mol3closeTo2POST:
  1 molecules
  0 fragments
  3 atoms with max type 2
  0 bonds with max type 0
  0 angles with max type 0
  0 dihedrals with max type 0
  0 impropers with max type 0
molecule mol2closeTo1PRE mol2closeTo1PRE.txt
Read molecule template mol2closeTo1PRE:
  1 molecules
  0 fragments
  3 atoms with max type 3
  0 bonds with max type 0
  0 angles with max type 0
  0 dihedrals with max type 0
  0 impropers with max type 0
molecule mol2closeTo1POST mol2closeTo1POST.txt
Read molecule template mol2closeTo1POST:
  1 molecules
  0 fragments
  3 atoms with max type 3
  0 bonds with max type 0
  0 angles with max type 0
  0 dihedrals with max type 0
  0 impropers with max type 0

fix 3 all bond/react   react reac1to2 type1_atoms 1 0 8 mol1closeTo3PRE mol1closeTo3POST map_1to2.txt   react reac2to3 type2_atoms 1 0 8 mol2closeTo3PRE mol2closeTo3POST map_2to3.txt   react reac3to2 type3_atoms 1 0 8 mol2closeTo3PRE mol3closeTo2POST map_3to2.txt   react reac2to1 type2_atoms 1 0 8 mol2closeTo1PRE mol2closeTo1POST map_2to1.txt
dynamic group bond_react_MASTER_group defined
group type1_atoms type 1
35 atoms in group type1_atoms
group type2_atoms type 2
28 atoms in group type2_atoms
group type3_atoms type 3
37 atoms in group type3_atoms

thermo_style multi f_react[1]
run 50000

CITE-CITE-CITE-CITE-CITE-CITE-CITE-CITE-CITE-CITE-CITE-CITE-CITE

Your simulation uses code contributions which should be cited:

- fix bond/react: reacter.org doi:10.1016/j.polymer.2017.09.038, doi:10.1021/acs.macromol.0c02012

@Article{Gissinger17,
 author = {J. R. Gissinger and B. D. Jensen and K. E. Wise},
 title = {Modeling Chemical Reactions in Classical Molecular Dynamics Simulations},
 journal = {Polymer},
 year =    2017,
 volume =  128,
 pages =   {211--217}
}

@Article{Gissinger20,
 author = {J. R. Gissinger, B. D. Jensen, K. E. Wise},
 title = {{REACTER}: A Heuristic Method for Reactive Molecular Dynamics},
 journal = {Macromolecules},
 year =    2020,
 volume =  53,
 number =  22,
 pages =   {9953--9961}
}

CITE-CITE-CITE-CITE-CITE-CITE-CITE-CITE-CITE-CITE-CITE-CITE-CITE

Generated 0 of 3 mixed pair_coeff terms from geometric mixing rule
Neighbor list info ...
  update: every = 10 steps, delay = 0 steps, check = yes
  max neighbors/atom: 10000, page size: 100000
  master list distance cutoff = 10.9
  ghost atom cutoff = 10.9
  binsize = 5.45, bins = 30 30 30
  3 neighbor lists, perpetual/occasional/extra = 1 2 0
  (1) pair lj/cut, perpetual
      attributes: half, newton on
      pair build: half/bin/newton
      stencil: half/bin/3d
      bin: standard
  (2) compute centro/atom, occasional
      attributes: full, newton on
      pair build: full/bin
      stencil: full/bin/3d
      bin: standard
  (3) fix bond/react, occasional, copy from (1)
      attributes: half, newton on
      pair build: copy
      stencil: none
      bin: none
Per MPI rank memory allocation (min/avg/max) = 9.591 | 9.591 | 9.591 Mbytes
------------ Step            144 ----- CPU =            0 (sec) -------------
TotEng   =       100.9317 KinEng   =        99.4627 Temp     =       337.0471 
PotEng   =         1.4690 E_bond   =         0.0943 E_angle  =         0.2972 
E_dihed  =         1.1079 E_impro  =         0.0000 E_vdwl   =        -0.0304 
E_coul   =         0.0000 E_long   =         0.0000 Press    =         2.0707
------------ Step            160 ----- CPU =  0.000775707 (sec) -------------
TotEng   =       101.3360 KinEng   =        74.7806 Temp     =       253.4073 
PotEng   =        26.5554 E_bond   =         7.7520 E_angle  =        11.2723 
E_dihed  =         7.5615 E_impro  =         0.0000 E_vdwl   =        -0.0304 
E_coul   =         0.0000 E_long   =         0.0000 Press    =         0.8551
------------ Step            180 ----- CPU =  0.001575133 (sec) -------------
TotEng   =       103.0939 KinEng   =        41.6780 Temp     =       141.2335 
PotEng   =        61.4158 E_bond   =        31.9139 E_angle  =        10.1483 
E_dihed  =        19.3841 E_impro  =         0.0000 E_vdwl   =        -0.0305 
E_coul   =         0.0000 E_long   =         0.0000 Press    =         1.7150
------------ Step            200 ----- CPU =  0.002433517 (sec) -------------
TotEng   =       105.8938 KinEng   =        50.5866 Temp     =       171.4219 
PotEng   =        55.3072 E_bond   =        20.8974 E_angle  =        15.6023 
E_dihed  =        18.8379 E_impro  =         0.0000 E_vdwl   =        -0.0304 
E_coul   =         0.0000 E_long   =         0.0000 Press    =        -0.5818
------------ Step            220 ----- CPU =  0.003408299 (sec) -------------
TotEng   =       110.1620 KinEng   =        69.6276 Temp     =       235.9455 
PotEng   =        40.5345 E_bond   =        18.9149 E_angle  =         8.9774 
E_dihed  =        12.6724 E_impro  =         0.0000 E_vdwl   =        -0.0303 
E_coul   =         0.0000 E_long   =         0.0000 Press    =         0.0556
------------ Step            240 ----- CPU =  0.004185407 (sec) -------------
TotEng   =       113.9419 KinEng   =        59.4903 Temp     =       201.5936 
PotEng   =        54.4516 E_bond   =        18.6944 E_angle  =        20.6523 
E_dihed  =        15.1351 E_impro  =         0.0000 E_vdwl   =        -0.0303 
E_coul   =         0.0000 E_long   =         0.0000 Press    =         1.2052
------------ Step            260 ----- CPU =  0.005069423 (sec) -------------
TotEng   =       116.9977 KinEng   =        55.2759 Temp     =       187.3124 
PotEng   =        61.7218 E_bond   =        28.5039 E_angle  =        13.7407 
E_dihed  =        19.5073 E_impro  =         0.0000 E_vdwl   =        -0.0302 
E_coul   =         0.0000 E_long   =         0.0000 Press    =        -0.8567
------------ Step            280 ----- CPU =  0.005632797 (sec) -------------
TotEng   =       120.0350 KinEng   =        66.9857 Temp     =       226.9929 
PotEng   =        53.0493 E_bond   =        21.6500 E_angle  =        14.6590 
E_dihed  =        16.7706 E_impro  =         0.0000 E_vdwl   =        -0.0303 
E_coul   =         0.0000 E_long   =         0.0000 Press    =        -0.5783
------------ Step            300 ----- CPU =  0.006246109 (sec) -------------
TotEng   =       123.8976 KinEng   =        74.1091 Temp     =       251.1320 
PotEng   =        49.7885 E_bond   =        18.7498 E_angle  =        16.3063 
E_dihed  =        14.7626 E_impro  =         0.0000 E_vdwl   =        -0.0302 
E_coul   =         0.0000 E_long   =         0.0000 Press    =         0.3324
------------ Step            320 ----- CPU =  0.007027439 (sec) -------------
TotEng   =       127.9733 KinEng   =        67.3496 Temp     =       228.2263 
PotEng   =        60.6237 E_bond   =        27.3500 E_angle  =        14.8267 
E_dihed  =        18.4770 E_impro  =         0.0000 E_vdwl   =        -0.0301 
E_coul   =         0.0000 E_long   =         0.0000 Press    =        -0.8414
------------ Step            340 ----- CPU =  0.007924866 (sec) -------------
TotEng   =       132.2203 KinEng   =        70.3343 Temp     =       238.3405 
PotEng   =        61.8860 E_bond   =        28.0289 E_angle  =        12.7129 
E_dihed  =        21.1743 E_impro  =         0.0000 E_vdwl   =        -0.0301 
E_coul   =         0.0000 E_long   =         0.0000 Press    =        -0.7796
------------ Step            360 ----- CPU =  0.008541619 (sec) -------------
TotEng   =       136.6850 KinEng   =        78.3369 Temp     =       265.4586 
PotEng   =        58.3481 E_bond   =        21.1812 E_angle  =        17.6612 
E_dihed  =        19.5359 E_impro  =         0.0000 E_vdwl   =        -0.0302 
E_coul   =         0.0000 E_long   =         0.0000 Press    =        -0.4406
------------ Step            380 ----- CPU =   0.00923732 (sec) -------------
TotEng   =       141.2292 KinEng   =        70.9542 Temp     =       240.4409 
PotEng   =        70.2751 E_bond   =        30.2782 E_angle  =        19.8951 
E_dihed  =        20.1321 E_impro  =         0.0000 E_vdwl   =        -0.0302 
E_coul   =         0.0000 E_long   =         0.0000 Press    =        -1.5957
------------ Step            400 ----- CPU =   0.01096561 (sec) -------------
TotEng   =       145.5121 KinEng   =        79.4523 Temp     =       269.2383 
PotEng   =        66.0598 E_bond   =        29.2146 E_angle  =        15.0920 
E_dihed  =        21.7834 E_impro  =         0.0000 E_vdwl   =        -0.0302 
E_coul   =         0.0000 E_long   =         0.0000 Press    =        -1.6382
------------ Step            420 ----- CPU =   0.01206754 (sec) -------------
TotEng   =       149.8037 KinEng   =        85.3170 Temp     =       289.1121 
PotEng   =        64.4867 E_bond   =        26.7543 E_angle  =        17.2786 
E_dihed  =        20.4839 E_impro  =         0.0000 E_vdwl   =        -0.0301 
E_coul   =         0.0000 E_long   =         0.0000 Press    =        -0.6693
------------ Step            440 ----- CPU =   0.01277684 (sec) -------------
TotEng   =       153.9202 KinEng   =        80.2027 Temp     =       271.7813 
PotEng   =        73.7174 E_bond   =        33.6858 E_angle  =        19.3727 
E_dihed  =        20.6890 E_impro  =         0.0000 E_vdwl   =        -0.0300 
E_coul   =         0.0000 E_long   =         0.0000 Press    =        -2.0629
------------ Step            460 ----- CPU =   0.01335316 (sec) -------------
TotEng   =       157.5830 KinEng   =        79.7568 Temp     =       270.2702 
PotEng   =        77.8262 E_bond   =        31.2383 E_angle  =        20.7356 
E_dihed  =        25.8821 E_impro  =         0.0000 E_vdwl   =        -0.0298 
E_coul   =         0.0000 E_long   =         0.0000 Press    =        -2.8809
------------ Step            480 ----- CPU =   0.01390547 (sec) -------------
TotEng   =       161.2614 KinEng   =        86.6524 Temp     =       293.6371 
PotEng   =        74.6091 E_bond   =        23.7713 E_angle  =        23.6859 
E_dihed  =        27.1814 E_impro  =         0.0000 E_vdwl   =        -0.0296 
E_coul   =         0.0000 E_long   =         0.0000 Press    =        -1.2663
------------ Step            500 ----- CPU =   0.01443884 (sec) -------------
TotEng   =       165.1157 KinEng   =        88.8158 Temp     =       300.9684 
PotEng   =        76.2998 E_bond   =        31.1950 E_angle  =        20.0836 
E_dihed  =        25.0508 E_impro  =         0.0000 E_vdwl   =        -0.0296 
E_coul   =         0.0000 E_long   =         0.0000 Press    =        -3.1420
------------ Step            520 ----- CPU =   0.01544593 (sec) -------------
TotEng   =       168.8949 KinEng   =        87.2748 Temp     =       295.7465 
PotEng   =        81.6200 E_bond   =        34.2222 E_angle  =        20.0677 
E_dihed  =        27.3598 E_impro  =         0.0000 E_vdwl   =        -0.0296 
E_coul   =         0.0000 E_long   =         0.0000 Press    =        -3.2187
------------ Step            540 ----- CPU =    0.0160626 (sec) -------------
TotEng   =       172.2414 KinEng   =        84.1550 Temp     =       285.1744 
PotEng   =        88.0864 E_bond   =        34.1059 E_angle  =        22.9065 
E_dihed  =        31.1037 E_impro  =         0.0000 E_vdwl   =        -0.0296 
E_coul   =         0.0000 E_long   =         0.0000 Press    =        -1.6726
------------ Step            560 ----- CPU =    0.0165977 (sec) -------------
TotEng   =       175.3344 KinEng   =        96.1397 Temp     =       325.7866 
PotEng   =        79.1947 E_bond   =        22.0740 E_angle  =        26.1229 
E_dihed  =        31.0277 E_impro  =         0.0000 E_vdwl   =        -0.0299 
E_coul   =         0.0000 E_long   =         0.0000 Press    =        -3.5046
------------ Step            580 ----- CPU =   0.01802874 (sec) -------------
TotEng   =       178.6544 KinEng   =        85.5132 Temp     =       289.7769 
PotEng   =        93.1412 E_bond   =        40.4288 E_angle  =        26.1835 
E_dihed  =        26.5591 E_impro  =         0.0000 E_vdwl   =        -0.0302 
E_coul   =         0.0000 E_long   =         0.0000 Press    =        -1.5490
------------ Step            600 ----- CPU =   0.01858799 (sec) -------------
TotEng   =       181.3235 KinEng   =        97.7435 Temp     =       331.2215 
PotEng   =        83.5800 E_bond   =        35.8798 E_angle  =        22.1908 
E_dihed  =        25.5396 E_impro  =         0.0000 E_vdwl   =        -0.0302 
E_coul   =         0.0000 E_long   =         0.0000 Press    =         0.7907
------------ Step            620 ----- CPU =   0.01925793 (sec) -------------
TotEng   =       183.4015 KinEng   =        89.3990 Temp     =       302.9447 
PotEng   =        94.0025 E_bond   =        38.5222 E_angle  =        25.8886 
E_dihed  =        29.6219 E_impro  =         0.0000 E_vdwl   =        -0.0302 
E_coul   =         0.0000 E_long   =         0.0000 Press    =        -3.3413
------------ Step            640 ----- CPU =   0.02098938 (sec) -------------
TotEng   =       184.9983 KinEng   =        89.7122 Temp     =       304.0060 
PotEng   =        95.2861 E_bond   =        35.7435 E_angle  =        29.0194 
E_dihed  =        30.5534 E_impro  =         0.0000 E_vdwl   =        -0.0303 
E_coul   =         0.0000 E_long   =         0.0000 Press    =        -0.6974
------------ Step            660 ----- CPU =   0.02166125 (sec) -------------
TotEng   =       186.7174 KinEng   =        88.8786 Temp     =       301.1811 
PotEng   =        97.8388 E_bond   =        36.3748 E_angle  =        33.4731 
E_dihed  =        28.0212 E_impro  =         0.0000 E_vdwl   =        -0.0304 
E_coul   =         0.0000 E_long   =         0.0000 Press    =         1.1519
------------ Step            680 ----- CPU =   0.02220947 (sec) -------------
TotEng   =       187.9520 KinEng   =        94.3423 Temp     =       319.6957 
PotEng   =        93.6098 E_bond   =        39.0772 E_angle  =        26.2332 
E_dihed  =        28.3298 E_impro  =         0.0000 E_vdwl   =        -0.0304 
E_coul   =         0.0000 E_long   =         0.0000 Press    =        -4.3645
------------ Step            700 ----- CPU =   0.02302869 (sec) -------------
TotEng   =       188.6058 KinEng   =        93.8126 Temp     =       317.9009 
PotEng   =        94.7931 E_bond   =        34.8486 E_angle  =        28.5062 
E_dihed  =        31.4689 E_impro  =         0.0000 E_vdwl   =        -0.0305 
E_coul   =         0.0000 E_long   =         0.0000 Press    =        -0.5224
------------ Step            720 ----- CPU =   0.02479605 (sec) -------------
TotEng   =       188.9722 KinEng   =        96.8846 Temp     =       328.3108 
PotEng   =        92.0877 E_bond   =        38.1050 E_angle  =        23.5351 
E_dihed  =        30.4782 E_impro  =         0.0000 E_vdwl   =        -0.0306 
E_coul   =         0.0000 E_long   =         0.0000 Press    =         1.9478
------------ Step            740 ----- CPU =   0.02572186 (sec) -------------
TotEng   =       188.5172 KinEng   =       100.1193 Temp     =       339.2723 
PotEng   =        88.3979 E_bond   =        33.3846 E_angle  =        26.9686 
E_dihed  =        28.0754 E_impro  =         0.0000 E_vdwl   =        -0.0307 
E_coul   =         0.0000 E_long   =         0.0000 Press    =        -4.6407
------------ Step            760 ----- CPU =   0.02844712 (sec) -------------
TotEng   =       186.9917 KinEng   =       100.2744 Temp     =       339.7978 
PotEng   =        86.7172 E_bond   =        31.5714 E_angle  =        23.5418 
E_dihed  =        31.6348 E_impro  =         0.0000 E_vdwl   =        -0.0308 
E_coul   =         0.0000 E_long   =         0.0000 Press    =        -0.4907
------------ Step            780 ----- CPU =   0.02931076 (sec) -------------
TotEng   =       184.8785 KinEng   =        93.4868 Temp     =       316.7968 
PotEng   =        91.3918 E_bond   =        36.7863 E_angle  =        21.6364 
E_dihed  =        32.9999 E_impro  =         0.0000 E_vdwl   =        -0.0309 
E_coul   =         0.0000 E_long   =         0.0000 Press    =         2.2356
------------ Step            800 ----- CPU =   0.03281305 (sec) -------------
TotEng   =       181.8718 KinEng   =        99.6239 Temp     =       337.5934 
PotEng   =        82.2480 E_bond   =        32.7884 E_angle  =        20.8399 
E_dihed  =        28.6507 E_impro  =         0.0000 E_vdwl   =        -0.0310 
E_coul   =         0.0000 E_long   =         0.0000 Press    =        -4.2749
------------ Step            820 ----- CPU =   0.03350599 (sec) -------------
TotEng   =       178.2904 KinEng   =        94.7691 Temp     =       321.1423 
PotEng   =        83.5212 E_bond   =        34.6964 E_angle  =        22.0728 
E_dihed  =        26.7833 E_impro  =         0.0000 E_vdwl   =        -0.0313 
E_coul   =         0.0000 E_long   =         0.0000 Press    =         0.3334
------------ Step            840 ----- CPU =   0.03424447 (sec) -------------
TotEng   =       174.3087 KinEng   =        95.3409 Temp     =       323.0798 
PotEng   =        78.9678 E_bond   =        29.7593 E_angle  =        19.8558 
E_dihed  =        29.3841 E_impro  =         0.0000 E_vdwl   =        -0.0314 
E_coul   =         0.0000 E_long   =         0.0000 Press    =         3.5277
------------ Step            860 ----- CPU =   0.03549696 (sec) -------------
TotEng   =       170.9142 KinEng   =        78.5102 Temp     =       266.0458 
PotEng   =        92.4041 E_bond   =        36.2552 E_angle  =        22.5329 
E_dihed  =        33.6475 E_impro  =         0.0000 E_vdwl   =        -0.0315 
E_coul   =         0.0000 E_long   =         0.0000 Press    =        -3.6056
------------ Step            880 ----- CPU =   0.03604794 (sec) -------------
TotEng   =       168.2531 KinEng   =        83.9197 Temp     =       284.3769 
PotEng   =        84.3335 E_bond   =        31.4495 E_angle  =        19.9898 
E_dihed  =        32.9259 E_impro  =         0.0000 E_vdwl   =        -0.0318 
E_coul   =         0.0000 E_long   =         0.0000 Press    =         0.7986
------------ Step            900 ----- CPU =   0.03771663 (sec) -------------
TotEng   =       166.4216 KinEng   =        84.2653 Temp     =       285.5482 
PotEng   =        82.1562 E_bond   =        33.1471 E_angle  =        19.3600 
E_dihed  =        29.6810 E_impro  =         0.0000 E_vdwl   =        -0.0319 
E_coul   =         0.0000 E_long   =         0.0000 Press    =         4.0296
------------ Step            920 ----- CPU =   0.03862905 (sec) -------------
TotEng   =       164.9327 KinEng   =        85.7074 Temp     =       290.4348 
PotEng   =        79.2253 E_bond   =        27.7922 E_angle  =        22.3458 
E_dihed  =        29.1192 E_impro  =         0.0000 E_vdwl   =        -0.0319 
E_coul   =         0.0000 E_long   =         0.0000 Press    =        -2.3181
------------ Step            940 ----- CPU =   0.03924629 (sec) -------------
TotEng   =       164.0862 KinEng   =        74.0509 Temp     =       250.9347 
PotEng   =        90.0354 E_bond   =        36.4140 E_angle  =        22.5394 
E_dihed  =        31.1138 E_impro  =         0.0000 E_vdwl   =        -0.0319 
E_coul   =         0.0000 E_long   =         0.0000 Press    =         1.5193
------------ Step            960 ----- CPU =   0.04008659 (sec) -------------
TotEng   =       163.5603 KinEng   =        88.2387 Temp     =       299.0127 
PotEng   =        75.3215 E_bond   =        23.4133 E_angle  =        21.6744 
E_dihed  =        30.2657 E_impro  =         0.0000 E_vdwl   =        -0.0319 
E_coul   =         0.0000 E_long   =         0.0000 Press    =         4.7741
------------ Step            980 ----- CPU =   0.04148668 (sec) -------------
TotEng   =       163.9016 KinEng   =        81.9311 Temp     =       277.6383 
PotEng   =        81.9705 E_bond   =        35.5303 E_angle  =        20.6587 
E_dihed  =        25.8134 E_impro  =         0.0000 E_vdwl   =        -0.0319 
E_coul   =         0.0000 E_long   =         0.0000 Press    =        -2.1338
------------ Step           1000 ----- CPU =   0.04216034 (sec) -------------
TotEng   =       164.2873 KinEng   =        87.4119 Temp     =       296.2109 
PotEng   =        76.8754 E_bond   =        30.5597 E_angle  =        20.5072 
E_dihed  =        25.8404 E_impro  =         0.0000 E_vdwl   =        -0.0319 
E_coul   =         0.0000 E_long   =         0.0000 Press    =         1.9027
------------ Step           1020 ----- CPU =   0.04306974 (sec) -------------
TotEng   =       165.1244 KinEng   =        84.6732 Temp     =       286.9302 
PotEng   =        80.4512 E_bond   =        29.4341 E_angle  =        21.6786 
E_dihed  =        29.3705 E_impro  =         0.0000 E_vdwl   =        -0.0319 
E_coul   =         0.0000 E_long   =         0.0000 Press    =         4.8719
------------ Step           1040 ----- CPU =   0.04386644 (sec) -------------
TotEng   =       166.3695 KinEng   =        82.0751 Temp     =       278.1261 
PotEng   =        84.2944 E_bond   =        27.7948 E_angle  =        25.1380 
E_dihed  =        31.3937 E_impro  =         0.0000 E_vdwl   =        -0.0320 
E_coul   =         0.0000 E_long   =         0.0000 Press    =        -1.5887
------------ Step           1060 ----- CPU =   0.04504251 (sec) -------------
TotEng   =       168.4015 KinEng   =        82.0874 Temp     =       278.1677 
PotEng   =        86.3141 E_bond   =        33.3722 E_angle  =        20.2615 
E_dihed  =        32.7125 E_impro  =         0.0000 E_vdwl   =        -0.0321 
E_coul   =         0.0000 E_long   =         0.0000 Press    =         1.8515
------------ Step           1080 ----- CPU =   0.04587376 (sec) -------------
TotEng   =       171.1485 KinEng   =        80.4231 Temp     =       272.5282 
PotEng   =        90.7254 E_bond   =        35.2638 E_angle  =        24.3807 
E_dihed  =        31.1131 E_impro  =         0.0000 E_vdwl   =        -0.0321 
E_coul   =         0.0000 E_long   =         0.0000 Press    =         4.1179
------------ Step           1100 ----- CPU =   0.04683001 (sec) -------------
TotEng   =       174.4857 KinEng   =        93.8893 Temp     =       318.1606 
PotEng   =        80.5965 E_bond   =        29.8603 E_angle  =        20.8958 
E_dihed  =        29.8724 E_impro  =         0.0000 E_vdwl   =        -0.0320 
E_coul   =         0.0000 E_long   =         0.0000 Press    =        -1.9703
------------ Step           1120 ----- CPU =   0.04772434 (sec) -------------
TotEng   =       178.2212 KinEng   =        86.1110 Temp     =       291.8026 
PotEng   =        92.1102 E_bond   =        36.6207 E_angle  =        21.7483 
E_dihed  =        33.7731 E_impro  =         0.0000 E_vdwl   =        -0.0319 
E_coul   =         0.0000 E_long   =         0.0000 Press    =         0.3213
------------ Step           1140 ----- CPU =    0.0484374 (sec) -------------
TotEng   =       181.4835 KinEng   =        83.6948 Temp     =       283.6149 
PotEng   =        97.7887 E_bond   =        38.9200 E_angle  =        23.0343 
E_dihed  =        35.8661 E_impro  =         0.0000 E_vdwl   =        -0.0317 
E_coul   =         0.0000 E_long   =         0.0000 Press    =         2.5532
------------ Step           1160 ----- CPU =   0.04927075 (sec) -------------
TotEng   =       184.2955 KinEng   =        95.0565 Temp     =       322.1160 
PotEng   =        89.2390 E_bond   =        30.7040 E_angle  =        24.1005 
E_dihed  =        34.4662 E_impro  =         0.0000 E_vdwl   =        -0.0317 
E_coul   =         0.0000 E_long   =         0.0000 Press    =        -3.3014
------------ Step           1180 ----- CPU =   0.04996602 (sec) -------------
TotEng   =       186.7115 KinEng   =        97.3484 Temp     =       329.8826 
PotEng   =        89.3630 E_bond   =        36.0434 E_angle  =        20.0849 
E_dihed  =        33.2664 E_impro  =         0.0000 E_vdwl   =        -0.0316 
E_coul   =         0.0000 E_long   =         0.0000 Press    =        -0.6466
------------ Step           1200 ----- CPU =   0.05098693 (sec) -------------
TotEng   =       187.9576 KinEng   =        91.4239 Temp     =       309.8064 
PotEng   =        96.5337 E_bond   =        36.1593 E_angle  =        26.6548 
E_dihed  =        33.7512 E_impro  =         0.0000 E_vdwl   =        -0.0316 
E_coul   =         0.0000 E_long   =         0.0000 Press    =         2.8198
------------ Step           1220 ----- CPU =   0.05250023 (sec) -------------
TotEng   =       188.4988 KinEng   =        96.8362 Temp     =       328.1470 
PotEng   =        91.6626 E_bond   =        37.5089 E_angle  =        20.9754 
E_dihed  =        33.2098 E_impro  =         0.0000 E_vdwl   =        -0.0316 
E_coul   =         0.0000 E_long   =         0.0000 Press    =        -2.1937
------------ Step           1240 ----- CPU =   0.05357285 (sec) -------------
TotEng   =       188.2700 KinEng   =       103.9486 Temp     =       352.2486 
PotEng   =        84.3214 E_bond   =        28.0739 E_angle  =        22.7601 
E_dihed  =        33.5190 E_impro  =         0.0000 E_vdwl   =        -0.0316 
E_coul   =         0.0000 E_long   =         0.0000 Press    =        -0.6363
------------ Step           1260 ----- CPU =   0.05471599 (sec) -------------
TotEng   =       187.7198 KinEng   =        88.7972 Temp     =       300.9053 
PotEng   =        98.9226 E_bond   =        36.0803 E_angle  =        26.2517 
E_dihed  =        36.6223 E_impro  =         0.0000 E_vdwl   =        -0.0317 
E_coul   =         0.0000 E_long   =         0.0000 Press    =         3.5822
------------ Step           1280 ----- CPU =   0.05539628 (sec) -------------
TotEng   =       186.8808 KinEng   =        91.6278 Temp     =       310.4974 
PotEng   =        95.2530 E_bond   =        37.4739 E_angle  =        21.3021 
E_dihed  =        36.5087 E_impro  =         0.0000 E_vdwl   =        -0.0317 
E_coul   =         0.0000 E_long   =         0.0000 Press    =        -1.7964
------------ Step           1300 ----- CPU =   0.05593654 (sec) -------------
TotEng   =       185.8337 KinEng   =        93.5145 Temp     =       316.8905 
PotEng   =        92.3193 E_bond   =        31.7084 E_angle  =        24.7472 
E_dihed  =        35.8954 E_impro  =         0.0000 E_vdwl   =        -0.0317 
E_coul   =         0.0000 E_long   =         0.0000 Press    =        -1.0689
------------ Step           1320 ----- CPU =   0.05680306 (sec) -------------
TotEng   =       184.8129 KinEng   =        93.9464 Temp     =       318.3543 
PotEng   =        90.8665 E_bond   =        32.9896 E_angle  =        22.8957 
E_dihed  =        35.0131 E_impro  =         0.0000 E_vdwl   =        -0.0319 
E_coul   =         0.0000 E_long   =         0.0000 Press    =         4.4542
------------ Step           1340 ----- CPU =   0.05792306 (sec) -------------
TotEng   =       183.8442 KinEng   =        79.4986 Temp     =       269.3953 
PotEng   =       104.3456 E_bond   =        43.2309 E_angle  =        26.6572 
E_dihed  =        34.4895 E_impro  =         0.0000 E_vdwl   =        -0.0320 
E_coul   =         0.0000 E_long   =         0.0000 Press    =        -1.5915
------------ Step           1360 ----- CPU =   0.05889139 (sec) -------------
TotEng   =       182.8364 KinEng   =        97.4805 Temp     =       330.3301 
PotEng   =        85.3559 E_bond   =        28.3113 E_angle  =        24.4286 
E_dihed  =        32.6479 E_impro  =         0.0000 E_vdwl   =        -0.0319 
E_coul   =         0.0000 E_long   =         0.0000 Press    =        -1.1606
------------ Step           1380 ----- CPU =    0.0598104 (sec) -------------
TotEng   =       182.0736 KinEng   =        86.1791 Temp     =       292.0333 
PotEng   =        95.8945 E_bond   =        42.9470 E_angle  =        22.6804 
E_dihed  =        30.2992 E_impro  =         0.0000 E_vdwl   =        -0.0319 
E_coul   =         0.0000 E_long   =         0.0000 Press    =         4.9367
------------ Step           1400 ----- CPU =   0.06117702 (sec) -------------
TotEng   =       181.0211 KinEng   =        89.8341 Temp     =       304.4190 
PotEng   =        91.1870 E_bond   =        35.0441 E_angle  =        24.8071 
E_dihed  =        31.3678 E_impro  =         0.0000 E_vdwl   =        -0.0320 
E_coul   =         0.0000 E_long   =         0.0000 Press    =        -0.8974
------------ Step           1420 ----- CPU =   0.06241727 (sec) -------------
TotEng   =       180.2124 KinEng   =        81.8165 Temp     =       277.2499 
PotEng   =        98.3959 E_bond   =        34.7723 E_angle  =        30.3600 
E_dihed  =        33.2958 E_impro  =         0.0000 E_vdwl   =        -0.0321 
E_coul   =         0.0000 E_long   =         0.0000 Press    =        -0.5998
------------ Step           1440 ----- CPU =   0.06425004 (sec) -------------
TotEng   =       179.4290 KinEng   =        98.4122 Temp     =       333.4875 
PotEng   =        81.0168 E_bond   =        29.5761 E_angle  =        20.1117 
E_dihed  =        31.3612 E_impro  =         0.0000 E_vdwl   =        -0.0322 
E_coul   =         0.0000 E_long   =         0.0000 Press    =         5.7815
------------ Step           1460 ----- CPU =   0.06521256 (sec) -------------
TotEng   =       178.6525 KinEng   =        85.8660 Temp     =       290.9725 
PotEng   =        92.7865 E_bond   =        32.6115 E_angle  =        31.5838 
E_dihed  =        28.6232 E_impro  =         0.0000 E_vdwl   =        -0.0320 
E_coul   =         0.0000 E_long   =         0.0000 Press    =        -1.2109
------------ Step           1480 ----- CPU =   0.06628187 (sec) -------------
TotEng   =       177.8418 KinEng   =        85.3880 Temp     =       289.3525 
PotEng   =        92.4538 E_bond   =        39.8284 E_angle  =        21.8095 
E_dihed  =        30.8479 E_impro  =         0.0000 E_vdwl   =        -0.0319 
E_coul   =         0.0000 E_long   =         0.0000 Press    =        -0.8139
------------ Step           1500 ----- CPU =   0.09453373 (sec) -------------
TotEng   =       176.8794 KinEng   =        92.3215 Temp     =       312.8479 
PotEng   =        84.5579 E_bond   =        25.6773 E_angle  =        23.7549 
E_dihed  =        35.1576 E_impro  =         0.0000 E_vdwl   =        -0.0319 
E_coul   =         0.0000 E_long   =         0.0000 Press    =         5.7382
------------ Step           1520 ----- CPU =   0.09542596 (sec) -------------
TotEng   =       176.3503 KinEng   =        89.2945 Temp     =       302.5903 
PotEng   =        87.0558 E_bond   =        29.4031 E_angle  =        22.5253 
E_dihed  =        35.1593 E_impro  =         0.0000 E_vdwl   =        -0.0319 
E_coul   =         0.0000 E_long   =         0.0000 Press    =        -1.5176
------------ Step           1540 ----- CPU =   0.09662762 (sec) -------------
TotEng   =       176.0117 KinEng   =        84.5284 Temp     =       286.4396 
PotEng   =        91.4833 E_bond   =        37.3642 E_angle  =        23.3182 
E_dihed  =        30.8327 E_impro  =         0.0000 E_vdwl   =        -0.0319 
E_coul   =         0.0000 E_long   =         0.0000 Press    =        -2.2515
------------ Step           1560 ----- CPU =   0.09785435 (sec) -------------
TotEng   =       175.2142 KinEng   =        94.4958 Temp     =       320.2159 
PotEng   =        80.7184 E_bond   =        29.1433 E_angle  =        22.6832 
E_dihed  =        28.9238 E_impro  =         0.0000 E_vdwl   =        -0.0319 
E_coul   =         0.0000 E_long   =         0.0000 Press    =         5.0700
------------ Step           1580 ----- CPU =   0.09879988 (sec) -------------
TotEng   =       174.0887 KinEng   =        94.8508 Temp     =       321.4188 
PotEng   =        79.2379 E_bond   =        28.5145 E_angle  =        18.8405 
E_dihed  =        31.9148 E_impro  =         0.0000 E_vdwl   =        -0.0319 
E_coul   =         0.0000 E_long   =         0.0000 Press    =        -0.2088
------------ Step           1600 ----- CPU =   0.09943642 (sec) -------------
TotEng   =       172.6481 KinEng   =        75.9594 Temp     =       257.4020 
PotEng   =        96.6887 E_bond   =        35.5330 E_angle  =        25.2076 
E_dihed  =        35.9800 E_impro  =         0.0000 E_vdwl   =        -0.0318 
E_coul   =         0.0000 E_long   =         0.0000 Press    =        -3.1670
------------ Step           1620 ----- CPU =    0.1000635 (sec) -------------
TotEng   =       170.7003 KinEng   =        72.9953 Temp     =       247.3578 
PotEng   =        97.7050 E_bond   =        35.8811 E_angle  =        24.5761 
E_dihed  =        37.2797 E_impro  =         0.0000 E_vdwl   =        -0.0318 
E_coul   =         0.0000 E_long   =         0.0000 Press    =         3.9126
------------ Step           1640 ----- CPU =    0.1011008 (sec) -------------
TotEng   =       168.3579 KinEng   =        80.4379 Temp     =       272.5783 
PotEng   =        87.9200 E_bond   =        31.1987 E_angle  =        20.2757 
E_dihed  =        36.4775 E_impro  =         0.0000 E_vdwl   =        -0.0319 
E_coul   =         0.0000 E_long   =         0.0000 Press    =         0.7781
------------ Step           1660 ----- CPU =    0.1017032 (sec) -------------
TotEng   =       165.9613 KinEng   =        75.7008 Temp     =       256.5257 
PotEng   =        90.2605 E_bond   =        30.2610 E_angle  =        24.2411 
E_dihed  =        35.7905 E_impro  =         0.0000 E_vdwl   =        -0.0321 
E_coul   =         0.0000 E_long   =         0.0000 Press    =        -2.6830
------------ Step           1680 ----- CPU =    0.1023909 (sec) -------------
TotEng   =       163.8009 KinEng   =        74.4728 Temp     =       252.3646 
PotEng   =        89.3281 E_bond   =        35.2579 E_angle  =        22.1497 
E_dihed  =        31.9526 E_impro  =         0.0000 E_vdwl   =        -0.0322 
E_coul   =         0.0000 E_long   =         0.0000 Press    =         3.6229
------------ Step           1700 ----- CPU =    0.1029324 (sec) -------------
TotEng   =       162.0014 KinEng   =        79.5360 Temp     =       269.5220 
PotEng   =        82.4654 E_bond   =        29.9614 E_angle  =        24.6022 
E_dihed  =        27.9340 E_impro  =         0.0000 E_vdwl   =        -0.0322 
E_coul   =         0.0000 E_long   =         0.0000 Press    =         1.9796
------------ Step           1720 ----- CPU =    0.1049016 (sec) -------------
TotEng   =       160.6643 KinEng   =        80.8141 Temp     =       273.8531 
PotEng   =        79.8502 E_bond   =        25.8477 E_angle  =        24.3541 
E_dihed  =        29.6807 E_impro  =         0.0000 E_vdwl   =        -0.0322 
E_coul   =         0.0000 E_long   =         0.0000 Press    =        -1.0936
------------ Step           1740 ----- CPU =     0.105576 (sec) -------------
TotEng   =       160.3737 KinEng   =        69.6473 Temp     =       236.0124 
PotEng   =        90.7264 E_bond   =        33.3192 E_angle  =        26.6526 
E_dihed  =        30.7869 E_impro  =         0.0000 E_vdwl   =        -0.0322 
E_coul   =         0.0000 E_long   =         0.0000 Press    =         4.0761
------------ Step           1760 ----- CPU =    0.1065697 (sec) -------------
TotEng   =       160.8280 KinEng   =        85.5059 Temp     =       289.7520 
PotEng   =        75.3222 E_bond   =        23.7798 E_angle  =        22.7580 
E_dihed  =        28.8167 E_impro  =         0.0000 E_vdwl   =        -0.0323 
E_coul   =         0.0000 E_long   =         0.0000 Press    =         1.6045
------------ Step           1780 ----- CPU =    0.1075269 (sec) -------------
TotEng   =       162.3064 KinEng   =        75.0170 Temp     =       254.2086 
PotEng   =        87.2894 E_bond   =        33.2149 E_angle  =        26.2485 
E_dihed  =        27.8583 E_impro  =         0.0000 E_vdwl   =        -0.0323 
E_coul   =         0.0000 E_long   =         0.0000 Press    =        -0.8158
------------ Step           1800 ----- CPU =    0.1083346 (sec) -------------
TotEng   =       164.4730 KinEng   =        81.8998 Temp     =       277.5321 
PotEng   =        82.5733 E_bond   =        29.6376 E_angle  =        25.0731 
E_dihed  =        27.8949 E_impro  =         0.0000 E_vdwl   =        -0.0323 
E_coul   =         0.0000 E_long   =         0.0000 Press    =         5.0242
------------ Step           1820 ----- CPU =     0.109483 (sec) -------------
TotEng   =       167.7595 KinEng   =        78.3080 Temp     =       265.3608 
PotEng   =        89.4515 E_bond   =        37.9975 E_angle  =        24.9563 
E_dihed  =        26.5300 E_impro  =         0.0000 E_vdwl   =        -0.0323 
E_coul   =         0.0000 E_long   =         0.0000 Press    =         0.9640
------------ Step           1840 ----- CPU =    0.1103098 (sec) -------------
TotEng   =       171.4055 KinEng   =        89.1217 Temp     =       302.0048 
PotEng   =        82.2838 E_bond   =        29.3741 E_angle  =        27.3584 
E_dihed  =        25.5833 E_impro  =         0.0000 E_vdwl   =        -0.0321 
E_coul   =         0.0000 E_long   =         0.0000 Press    =        -0.3642
------------ Step           1860 ----- CPU =     0.111123 (sec) -------------
TotEng   =       174.9508 KinEng   =        91.6521 Temp     =       310.5796 
PotEng   =        83.2987 E_bond   =        34.4566 E_angle  =        19.9675 
E_dihed  =        28.9065 E_impro  =         0.0000 E_vdwl   =        -0.0320 
E_coul   =         0.0000 E_long   =         0.0000 Press    =         5.1173
------------ Step           1880 ----- CPU =    0.1120792 (sec) -------------
TotEng   =       177.7604 KinEng   =        79.9256 Temp     =       270.8421 
PotEng   =        97.8348 E_bond   =        39.3968 E_angle  =        26.5803 
E_dihed  =        31.8896 E_impro  =         0.0000 E_vdwl   =        -0.0319 
E_coul   =         0.0000 E_long   =         0.0000 Press    =        -0.1597
------------ Step           1900 ----- CPU =    0.1129175 (sec) -------------
TotEng   =       180.1935 KinEng   =        94.9510 Temp     =       321.7585 
PotEng   =        85.2425 E_bond   =        32.3392 E_angle  =        23.5411 
E_dihed  =        29.3939 E_impro  =         0.0000 E_vdwl   =        -0.0316 
E_coul   =         0.0000 E_long   =         0.0000 Press    =        -1.5909
------------ Step           1920 ----- CPU =    0.1136942 (sec) -------------
TotEng   =       181.9011 KinEng   =       101.7357 Temp     =       344.7496 
PotEng   =        80.1655 E_bond   =        34.7038 E_angle  =        19.7168 
E_dihed  =        25.7762 E_impro  =         0.0000 E_vdwl   =        -0.0314 
E_coul   =         0.0000 E_long   =         0.0000 Press    =         4.4881
------------ Step           1940 ----- CPU =    0.1144551 (sec) -------------
TotEng   =       182.4792 KinEng   =       100.7863 Temp     =       341.5324 
PotEng   =        81.6929 E_bond   =        34.8084 E_angle  =        20.3068 
E_dihed  =        26.6089 E_impro  =         0.0000 E_vdwl   =        -0.0312 
E_coul   =         0.0000 E_long   =         0.0000 Press    =         0.0421
------------ Step           1960 ----- CPU =    0.1153412 (sec) -------------
TotEng   =       182.1725 KinEng   =        92.2903 Temp     =       312.7422 
PotEng   =        89.8822 E_bond   =        39.1232 E_angle  =        19.4194 
E_dihed  =        31.3707 E_impro  =         0.0000 E_vdwl   =        -0.0311 
E_coul   =         0.0000 E_long   =         0.0000 Press    =        -3.3260
------------ Step           1980 ----- CPU =    0.1162506 (sec) -------------
TotEng   =       181.3796 KinEng   =        92.8089 Temp     =       314.4995 
PotEng   =        88.5708 E_bond   =        33.0515 E_angle  =        22.7134 
E_dihed  =        32.8366 E_impro  =         0.0000 E_vdwl   =        -0.0307 
E_coul   =         0.0000 E_long   =         0.0000 Press    =         1.4073
------------ Step           2000 ----- CPU =    0.1173936 (sec) -------------
TotEng   =       180.3119 KinEng   =        91.0445 Temp     =       308.5208 
PotEng   =        89.2674 E_bond   =        31.3426 E_angle  =        26.3038 
E_dihed  =        31.6513 E_impro  =         0.0000 E_vdwl   =        -0.0304 
E_coul   =         0.0000 E_long   =         0.0000 Press    =        -1.1045
------------ Step           2020 ----- CPU =    0.1182622 (sec) -------------
TotEng   =       179.1786 KinEng   =        99.5172 Temp     =       337.2319 
PotEng   =        79.6614 E_bond   =        27.3744 E_angle  =        22.1706 
E_dihed  =        30.1467 E_impro  =         0.0000 E_vdwl   =        -0.0303 
E_coul   =         0.0000 E_long   =         0.0000 Press    =        -3.9593
------------ Step           2040 ----- CPU =    0.1188609 (sec) -------------
TotEng   =       177.6869 KinEng   =        84.6334 Temp     =       286.7955 
PotEng   =        93.0535 E_bond   =        37.6606 E_angle  =        24.7221 
E_dihed  =        30.7011 E_impro  =         0.0000 E_vdwl   =        -0.0303 
E_coul   =         0.0000 E_long   =         0.0000 Press    =         0.2148
------------ Step           2060 ----- CPU =    0.1202718 (sec) -------------
TotEng   =       176.0077 KinEng   =        85.4950 Temp     =       289.7152 
PotEng   =        90.5127 E_bond   =        41.2638 E_angle  =        18.3343 
E_dihed  =        30.9447 E_impro  =         0.0000 E_vdwl   =        -0.0302 
E_coul   =         0.0000 E_long   =         0.0000 Press    =        -0.6972
------------ Step           2080 ----- CPU =     0.121133 (sec) -------------
TotEng   =       173.9701 KinEng   =        91.1398 Temp     =       308.8437 
PotEng   =        82.8302 E_bond   =        32.2475 E_angle  =        20.6416 
E_dihed  =        29.9713 E_impro  =         0.0000 E_vdwl   =        -0.0301 
E_coul   =         0.0000 E_long   =         0.0000 Press    =        -3.8169
------------ Step           2100 ----- CPU =    0.1223671 (sec) -------------
TotEng   =       172.1652 KinEng   =        80.3693 Temp     =       272.3459 
PotEng   =        91.7959 E_bond   =        38.5554 E_angle  =        23.6673 
E_dihed  =        29.6033 E_impro  =         0.0000 E_vdwl   =        -0.0301 
E_coul   =         0.0000 E_long   =         0.0000 Press    =        -0.7597
------------ Step           2120 ----- CPU =    0.1232379 (sec) -------------
TotEng   =       170.3258 KinEng   =        84.7789 Temp     =       287.2884 
PotEng   =        85.5469 E_bond   =        35.3440 E_angle  =        20.2840 
E_dihed  =        29.9488 E_impro  =         0.0000 E_vdwl   =        -0.0299 
E_coul   =         0.0000 E_long   =         0.0000 Press    =        -1.1487
------------ Step           2140 ----- CPU =     0.123834 (sec) -------------
TotEng   =       168.3716 KinEng   =        79.2384 Temp     =       268.5135 
PotEng   =        89.1332 E_bond   =        38.6940 E_angle  =        20.8095 
E_dihed  =        29.6594 E_impro  =         0.0000 E_vdwl   =        -0.0297 
E_coul   =         0.0000 E_long   =         0.0000 Press    =        -5.7354
------------ Step           2160 ----- CPU =    0.1243726 (sec) -------------
TotEng   =       166.2812 KinEng   =        88.2432 Temp     =       299.0279 
PotEng   =        78.0380 E_bond   =        30.9938 E_angle  =        19.5907 
E_dihed  =        27.4832 E_impro  =         0.0000 E_vdwl   =        -0.0298 
E_coul   =         0.0000 E_long   =         0.0000 Press    =        -1.1697
------------ Step           2180 ----- CPU =    0.1249935 (sec) -------------
TotEng   =       164.0886 KinEng   =        84.4076 Temp     =       286.0303 
PotEng   =        79.6810 E_bond   =        27.3866 E_angle  =        26.8314 
E_dihed  =        25.4928 E_impro  =         0.0000 E_vdwl   =        -0.0298 
E_coul   =         0.0000 E_long   =         0.0000 Press    =        -0.5834
------------ Step           2200 ----- CPU =    0.1273178 (sec) -------------
TotEng   =       161.7351 KinEng   =        76.9476 Temp     =       260.7509 
PotEng   =        84.7874 E_bond   =        37.2023 E_angle  =        22.4022 
E_dihed  =        25.2129 E_impro  =         0.0000 E_vdwl   =        -0.0299 
E_coul   =         0.0000 E_long   =         0.0000 Press    =        -5.3591
------------ Step           2220 ----- CPU =    0.1288695 (sec) -------------
TotEng   =       159.6531 KinEng   =        66.6932 Temp     =       226.0018 
PotEng   =        92.9599 E_bond   =        32.1405 E_angle  =        35.4919 
E_dihed  =        25.3575 E_impro  =         0.0000 E_vdwl   =        -0.0300 
E_coul   =         0.0000 E_long   =         0.0000 Press    =        -0.9533
------------ Step           2240 ----- CPU =    0.1301538 (sec) -------------
TotEng   =       157.9582 KinEng   =        82.3483 Temp     =       279.0519 
PotEng   =        75.6099 E_bond   =        23.6504 E_angle  =        27.9570 
E_dihed  =        24.0326 E_impro  =         0.0000 E_vdwl   =        -0.0302 
E_coul   =         0.0000 E_long   =         0.0000 Press    =         0.0136
------------ Step           2260 ----- CPU =    0.1308574 (sec) -------------
TotEng   =       157.0341 KinEng   =        78.8559 Temp     =       267.2175 
PotEng   =        78.1781 E_bond   =        34.5938 E_angle  =        21.4992 
E_dihed  =        22.1154 E_impro  =         0.0000 E_vdwl   =        -0.0303 
E_coul   =         0.0000 E_long   =         0.0000 Press    =        -4.5945
------------ Step           2280 ----- CPU =    0.1317518 (sec) -------------
TotEng   =       156.3542 KinEng   =        74.3601 Temp     =       251.9826 
PotEng   =        81.9941 E_bond   =        34.0901 E_angle  =        26.9864 
E_dihed  =        20.9481 E_impro  =         0.0000 E_vdwl   =        -0.0305 
E_coul   =         0.0000 E_long   =         0.0000 Press    =         0.5104
------------ Step           2300 ----- CPU =    0.1325547 (sec) -------------
TotEng   =       156.2444 KinEng   =        77.6398 Temp     =       263.0963 
PotEng   =        78.6046 E_bond   =        28.9590 E_angle  =        28.7100 
E_dihed  =        20.9662 E_impro  =         0.0000 E_vdwl   =        -0.0306 
E_coul   =         0.0000 E_long   =         0.0000 Press    =         1.3724
------------ Step           2320 ----- CPU =    0.1332463 (sec) -------------
TotEng   =       157.1633 KinEng   =        78.7636 Temp     =       266.9045 
PotEng   =        78.3997 E_bond   =        33.2921 E_angle  =        24.2263 
E_dihed  =        20.9122 E_impro  =         0.0000 E_vdwl   =        -0.0308 
E_coul   =         0.0000 E_long   =         0.0000 Press    =        -5.0888
------------ Step           2340 ----- CPU =    0.1338416 (sec) -------------
TotEng   =       159.0588 KinEng   =        85.0818 Temp     =       288.3150 
PotEng   =        73.9770 E_bond   =        29.4234 E_angle  =        24.8810 
E_dihed  =        19.7037 E_impro  =         0.0000 E_vdwl   =        -0.0311 
E_coul   =         0.0000 E_long   =         0.0000 Press    =         1.6440
------------ Step           2360 ----- CPU =     0.134514 (sec) -------------
TotEng   =       161.8683 KinEng   =        81.1429 Temp     =       274.9674 
PotEng   =        80.7254 E_bond   =        36.5408 E_angle  =        24.9606 
E_dihed  =        19.2552 E_impro  =         0.0000 E_vdwl   =        -0.0313 
E_coul   =         0.0000 E_long   =         0.0000 Press    =         3.2347
------------ Step           2380 ----- CPU =    0.1351088 (sec) -------------
TotEng   =       165.1370 KinEng   =        83.7577 Temp     =       283.8281 
PotEng   =        81.3793 E_bond   =        32.6974 E_angle  =        26.9692 
E_dihed  =        21.7440 E_impro  =         0.0000 E_vdwl   =        -0.0314 
E_coul   =         0.0000 E_long   =         0.0000 Press    =        -5.2615
------------ Step           2400 ----- CPU =    0.1357021 (sec) -------------
TotEng   =       168.7719 KinEng   =        88.5680 Temp     =       300.1285 
PotEng   =        80.2039 E_bond   =        28.2780 E_angle  =        28.0664 
E_dihed  =        23.8912 E_impro  =         0.0000 E_vdwl   =        -0.0317 
E_coul   =         0.0000 E_long   =         0.0000 Press    =         2.0174
------------ Step           2420 ----- CPU =    0.1364723 (sec) -------------
TotEng   =       172.5755 KinEng   =        93.0708 Temp     =       315.3870 
PotEng   =        79.5047 E_bond   =        32.8353 E_angle  =        24.3737 
E_dihed  =        22.3277 E_impro  =         0.0000 E_vdwl   =        -0.0320 
E_coul   =         0.0000 E_long   =         0.0000 Press    =         5.4833
------------ Step           2440 ----- CPU =    0.1383051 (sec) -------------
TotEng   =       175.7773 KinEng   =        96.4742 Temp     =       326.9201 
PotEng   =        79.3031 E_bond   =        32.0077 E_angle  =        27.6244 
E_dihed  =        19.7031 E_impro  =         0.0000 E_vdwl   =        -0.0321 
E_coul   =         0.0000 E_long   =         0.0000 Press    =        -4.0057
------------ Step           2460 ----- CPU =    0.1391852 (sec) -------------
TotEng   =       178.0661 KinEng   =        91.9381 Temp     =       311.5487 
PotEng   =        86.1280 E_bond   =        35.7973 E_angle  =        28.1019 
E_dihed  =        22.2609 E_impro  =         0.0000 E_vdwl   =        -0.0321 
E_coul   =         0.0000 E_long   =         0.0000 Press    =         1.6155
------------ Step           2480 ----- CPU =    0.1400741 (sec) -------------
TotEng   =       179.5132 KinEng   =        95.9250 Temp     =       325.0591 
PotEng   =        83.5882 E_bond   =        30.1463 E_angle  =        26.7263 
E_dihed  =        26.7476 E_impro  =         0.0000 E_vdwl   =        -0.0320 
E_coul   =         0.0000 E_long   =         0.0000 Press    =         6.4158
------------ Step           2500 ----- CPU =    0.1413846 (sec) -------------
TotEng   =       180.8454 KinEng   =        79.7141 Temp     =       270.1256 
PotEng   =       101.1313 E_bond   =        36.6727 E_angle  =        37.7330 
E_dihed  =        26.7576 E_impro  =         0.0000 E_vdwl   =        -0.0320 
E_coul   =         0.0000 E_long   =         0.0000 Press    =        -3.1958
------------ Step           2520 ----- CPU =    0.1431855 (sec) -------------
TotEng   =       182.1041 KinEng   =       100.4709 Temp     =       340.4638 
PotEng   =        81.6331 E_bond   =        31.6381 E_angle  =        26.0924 
E_dihed  =        23.9347 E_impro  =         0.0000 E_vdwl   =        -0.0320 
E_coul   =         0.0000 E_long   =         0.0000 Press    =         1.5474
------------ Step           2540 ----- CPU =    0.1438854 (sec) -------------
TotEng   =       182.9592 KinEng   =        90.4626 Temp     =       306.5488 
PotEng   =        92.4966 E_bond   =        39.2741 E_angle  =        27.1956 
E_dihed  =        26.0590 E_impro  =         0.0000 E_vdwl   =        -0.0321 
E_coul   =         0.0000 E_long   =         0.0000 Press    =         5.4000
------------ Step           2560 ----- CPU =    0.1447662 (sec) -------------
TotEng   =       183.2863 KinEng   =        84.8034 Temp     =       287.3714 
PotEng   =        98.4829 E_bond   =        32.0593 E_angle  =        33.6267 
E_dihed  =        32.8289 E_impro  =         0.0000 E_vdwl   =        -0.0320 
E_coul   =         0.0000 E_long   =         0.0000 Press    =        -2.8139
------------ Step           2580 ----- CPU =    0.1456385 (sec) -------------
TotEng   =       183.8352 KinEng   =        83.6286 Temp     =       283.3905 
PotEng   =       100.2066 E_bond   =        38.4193 E_angle  =        25.5796 
E_dihed  =        36.2396 E_impro  =         0.0000 E_vdwl   =        -0.0320 
E_coul   =         0.0000 E_long   =         0.0000 Press    =         0.6277
------------ Step           2600 ----- CPU =    0.1464836 (sec) -------------
TotEng   =       184.6148 KinEng   =        90.9848 Temp     =       308.3184 
PotEng   =        93.6300 E_bond   =        34.4376 E_angle  =        24.5708 
E_dihed  =        34.6533 E_impro  =         0.0000 E_vdwl   =        -0.0318 
E_coul   =         0.0000 E_long   =         0.0000 Press    =         4.2224
------------ Step           2620 ----- CPU =    0.1473764 (sec) -------------
TotEng   =       185.7439 KinEng   =        81.0278 Temp     =       274.5772 
PotEng   =       104.7161 E_bond   =        42.5428 E_angle  =        29.3153 
E_dihed  =        32.8898 E_impro  =         0.0000 E_vdwl   =        -0.0317 
E_coul   =         0.0000 E_long   =         0.0000 Press    =        -2.4935
------------ Step           2640 ----- CPU =    0.1480329 (sec) -------------
TotEng   =       186.6316 KinEng   =        99.1020 Temp     =       335.8248 
PotEng   =        87.5297 E_bond   =        31.3564 E_angle  =        23.7426 
E_dihed  =        32.4625 E_impro  =         0.0000 E_vdwl   =        -0.0318 
E_coul   =         0.0000 E_long   =         0.0000 Press    =         2.1499
------------ Step           2660 ----- CPU =    0.1487457 (sec) -------------
TotEng   =       187.6455 KinEng   =        96.8792 Temp     =       328.2925 
PotEng   =        90.7663 E_bond   =        31.4802 E_angle  =        26.5279 
E_dihed  =        32.7901 E_impro  =         0.0000 E_vdwl   =        -0.0320 
E_coul   =         0.0000 E_long   =         0.0000 Press    =         4.8319
------------ Step           2680 ----- CPU =    0.1493368 (sec) -------------
TotEng   =       188.3540 KinEng   =        85.4923 Temp     =       289.7060 
PotEng   =       102.8617 E_bond   =        42.3790 E_angle  =        28.9180 
E_dihed  =        31.5968 E_impro  =         0.0000 E_vdwl   =        -0.0321 
E_coul   =         0.0000 E_long   =         0.0000 Press    =        -1.9962
------------ Step           2700 ----- CPU =    0.1499352 (sec) -------------
TotEng   =       188.7313 KinEng   =       101.5903 Temp     =       344.2568 
PotEng   =        87.1410 E_bond   =        31.8071 E_angle  =        25.3868 
E_dihed  =        29.9792 E_impro  =         0.0000 E_vdwl   =        -0.0320 
E_coul   =         0.0000 E_long   =         0.0000 Press    =         2.4702
------------ Step           2720 ----- CPU =    0.1508095 (sec) -------------
TotEng   =       188.6209 KinEng   =        98.9324 Temp     =       335.2503 
PotEng   =        89.6884 E_bond   =        31.4807 E_angle  =        28.0901 
E_dihed  =        30.1496 E_impro  =         0.0000 E_vdwl   =        -0.0319 
E_coul   =         0.0000 E_long   =         0.0000 Press    =         4.2163
------------ Step           2740 ----- CPU =    0.1515461 (sec) -------------
TotEng   =       187.5722 KinEng   =        98.4680 Temp     =       333.6767 
PotEng   =        89.1041 E_bond   =        34.6253 E_angle  =        24.7117 
E_dihed  =        29.7988 E_impro  =         0.0000 E_vdwl   =        -0.0318 
E_coul   =         0.0000 E_long   =         0.0000 Press    =        -2.7360
------------ Step           2760 ----- CPU =    0.1523956 (sec) -------------
TotEng   =       185.2601 KinEng   =        88.8419 Temp     =       301.0566 
PotEng   =        96.4182 E_bond   =        37.8193 E_angle  =        30.0342 
E_dihed  =        28.5964 E_impro  =         0.0000 E_vdwl   =        -0.0317 
E_coul   =         0.0000 E_long   =         0.0000 Press    =         0.9507
------------ Step           2780 ----- CPU =    0.1533268 (sec) -------------
TotEng   =       181.8997 KinEng   =        96.1800 Temp     =       325.9230 
PotEng   =        85.7197 E_bond   =        36.5983 E_angle  =        22.6922 
E_dihed  =        26.4607 E_impro  =         0.0000 E_vdwl   =        -0.0315 
E_coul   =         0.0000 E_long   =         0.0000 Press    =         3.2629
------------ Step           2800 ----- CPU =    0.1546116 (sec) -------------
TotEng   =       177.5866 KinEng   =        89.6284 Temp     =       303.7218 
PotEng   =        87.9582 E_bond   =        32.8433 E_angle  =        29.2269 
E_dihed  =        25.9194 E_impro  =         0.0000 E_vdwl   =        -0.0313 
E_coul   =         0.0000 E_long   =         0.0000 Press    =        -3.1396
------------ Step           2820 ----- CPU =    0.1555509 (sec) -------------
TotEng   =       173.5867 KinEng   =        80.6375 Temp     =       273.2545 
PotEng   =        92.9492 E_bond   =        35.0063 E_angle  =        30.9275 
E_dihed  =        27.0467 E_impro  =         0.0000 E_vdwl   =        -0.0312 
E_coul   =         0.0000 E_long   =         0.0000 Press    =         0.2432
------------ Step           2840 ----- CPU =    0.1568806 (sec) -------------
TotEng   =       170.5037 KinEng   =        76.8572 Temp     =       260.4443 
PotEng   =        93.6465 E_bond   =        37.0185 E_angle  =        30.3955 
E_dihed  =        26.2638 E_impro  =         0.0000 E_vdwl   =        -0.0313 
E_coul   =         0.0000 E_long   =         0.0000 Press    =         2.7194
------------ Step           2860 ----- CPU =    0.1577027 (sec) -------------
TotEng   =       168.1694 KinEng   =        84.7504 Temp     =       287.1920 
PotEng   =        83.4189 E_bond   =        29.2306 E_angle  =        28.6648 
E_dihed  =        25.5548 E_impro  =         0.0000 E_vdwl   =        -0.0313 
E_coul   =         0.0000 E_long   =         0.0000 Press    =        -2.9733
------------ Step           2880 ----- CPU =     0.158321 (sec) -------------
TotEng   =       166.8794 KinEng   =        75.7884 Temp     =       256.8227 
PotEng   =        91.0909 E_bond   =        34.5937 E_angle  =        29.0988 
E_dihed  =        27.4298 E_impro  =         0.0000 E_vdwl   =        -0.0314 
E_coul   =         0.0000 E_long   =         0.0000 Press    =         0.3318
------------ Step           2900 ----- CPU =    0.1589227 (sec) -------------
TotEng   =       166.4592 KinEng   =        76.2733 Temp     =       258.4659 
PotEng   =        90.1859 E_bond   =        32.9959 E_angle  =        29.5656 
E_dihed  =        27.6557 E_impro  =         0.0000 E_vdwl   =        -0.0314 
E_coul   =         0.0000 E_long   =         0.0000 Press    =         2.6784
------------ Step           2920 ----- CPU =    0.1599098 (sec) -------------
TotEng   =       166.6398 KinEng   =        87.3094 Temp     =       295.8634 
PotEng   =        79.3304 E_bond   =        27.8453 E_angle  =        28.4697 
E_dihed  =        23.0468 E_impro  =         0.0000 E_vdwl   =        -0.0314 
E_coul   =         0.0000 E_long   =         0.0000 Press    =        -3.2775
------------ Step           2940 ----- CPU =    0.1605301 (sec) -------------
TotEng   =       167.3554 KinEng   =        87.1849 Temp     =       295.4416 
PotEng   =        80.1705 E_bond   =        30.2167 E_angle  =        28.5337 
E_dihed  =        21.4515 E_impro  =         0.0000 E_vdwl   =        -0.0314 
E_coul   =         0.0000 E_long   =         0.0000 Press    =         0.9772
------------ Step           2960 ----- CPU =    0.1615021 (sec) -------------
TotEng   =       168.2882 KinEng   =        78.5078 Temp     =       266.0378 
PotEng   =        89.7804 E_bond   =        34.2101 E_angle  =        30.0030 
E_dihed  =        25.5988 E_impro  =         0.0000 E_vdwl   =        -0.0315 
E_coul   =         0.0000 E_long   =         0.0000 Press    =         3.4249
------------ Step           2980 ----- CPU =    0.1621268 (sec) -------------
TotEng   =       169.7953 KinEng   =        80.3795 Temp     =       272.3804 
PotEng   =        89.4158 E_bond   =        33.2629 E_angle  =        27.5978 
E_dihed  =        28.5865 E_impro  =         0.0000 E_vdwl   =        -0.0313 
E_coul   =         0.0000 E_long   =         0.0000 Press    =        -3.5439
------------ Step           3000 ----- CPU =    0.1629342 (sec) -------------
TotEng   =       171.9484 KinEng   =        96.3049 Temp     =       326.3464 
PotEng   =        75.6436 E_bond   =        23.3299 E_angle  =        26.5080 
E_dihed  =        25.8368 E_impro  =         0.0000 E_vdwl   =        -0.0311 
E_coul   =         0.0000 E_long   =         0.0000 Press    =         0.0516
------------ Step           3020 ----- CPU =    0.1640249 (sec) -------------
TotEng   =       174.7991 KinEng   =        86.0176 Temp     =       291.4860 
PotEng   =        88.7815 E_bond   =        39.6730 E_angle  =        22.9811 
E_dihed  =        26.1584 E_impro  =         0.0000 E_vdwl   =        -0.0310 
E_coul   =         0.0000 E_long   =         0.0000 Press    =         2.9712
------------ Step           3040 ----- CPU =    0.1646758 (sec) -------------
TotEng   =       177.1287 KinEng   =        90.8435 Temp     =       307.8395 
PotEng   =        86.2852 E_bond   =        33.9190 E_angle  =        21.6669 
E_dihed  =        30.7302 E_impro  =         0.0000 E_vdwl   =        -0.0310 
E_coul   =         0.0000 E_long   =         0.0000 Press    =        -3.2898
------------ Step           3060 ----- CPU =      0.16539 (sec) -------------
TotEng   =       179.2939 KinEng   =        96.4845 Temp     =       326.9550 
PotEng   =        82.8094 E_bond   =        32.1171 E_angle  =        18.4505 
E_dihed  =        32.2729 E_impro  =         0.0000 E_vdwl   =        -0.0311 
E_coul   =         0.0000 E_long   =         0.0000 Press    =        -0.4320
------------ Step           3080 ----- CPU =    0.1659773 (sec) -------------
TotEng   =       181.3502 KinEng   =        90.1735 Temp     =       305.5690 
PotEng   =        91.1767 E_bond   =        32.0777 E_angle  =        26.9572 
E_dihed  =        32.1727 E_impro  =         0.0000 E_vdwl   =        -0.0310 
E_coul   =         0.0000 E_long   =         0.0000 Press    =         3.6228
------------ Step           3100 ----- CPU =    0.1665277 (sec) -------------
TotEng   =       183.0448 KinEng   =        92.8314 Temp     =       314.5760 
PotEng   =        90.2134 E_bond   =        37.1126 E_angle  =        19.4926 
E_dihed  =        33.6389 E_impro  =         0.0000 E_vdwl   =        -0.0307 
E_coul   =         0.0000 E_long   =         0.0000 Press    =        -2.2507
------------ Step           3120 ----- CPU =    0.1671801 (sec) -------------
TotEng   =       184.4866 KinEng   =        92.5837 Temp     =       313.7365 
PotEng   =        91.9029 E_bond   =        37.8151 E_angle  =        18.2289 
E_dihed  =        35.8894 E_impro  =         0.0000 E_vdwl   =        -0.0306 
E_coul   =         0.0000 E_long   =         0.0000 Press    =        -1.8951
------------ Step           3140 ----- CPU =    0.1679392 (sec) -------------
TotEng   =       185.5457 KinEng   =        98.2393 Temp     =       332.9016 
PotEng   =        87.3064 E_bond   =        29.6164 E_angle  =        22.1900 
E_dihed  =        35.5304 E_impro  =         0.0000 E_vdwl   =        -0.0304 
E_coul   =         0.0000 E_long   =         0.0000 Press    =         2.5620
------------ Step           3160 ----- CPU =    0.1684937 (sec) -------------
TotEng   =       186.4315 KinEng   =        92.4427 Temp     =       313.2587 
PotEng   =        93.9888 E_bond   =        38.8699 E_angle  =        20.4864 
E_dihed  =        34.6627 E_impro  =         0.0000 E_vdwl   =        -0.0302 
E_coul   =         0.0000 E_long   =         0.0000 Press    =        -2.6116
------------ Step           3180 ----- CPU =    0.1690414 (sec) -------------
TotEng   =       186.9642 KinEng   =        97.2171 Temp     =       329.4378 
PotEng   =        89.7471 E_bond   =        32.5897 E_angle  =        23.3321 
E_dihed  =        33.8556 E_impro  =         0.0000 E_vdwl   =        -0.0302 
E_coul   =         0.0000 E_long   =         0.0000 Press    =        -2.9377
------------ Step           3200 ----- CPU =    0.1696374 (sec) -------------
TotEng   =       187.4274 KinEng   =        93.3976 Temp     =       316.4946 
PotEng   =        94.0298 E_bond   =        37.1763 E_angle  =        24.4745 
E_dihed  =        32.4092 E_impro  =         0.0000 E_vdwl   =        -0.0302 
E_coul   =         0.0000 E_long   =         0.0000 Press    =         2.0125
------------ Step           3220 ----- CPU =    0.1709343 (sec) -------------
TotEng   =       187.3103 KinEng   =        98.4630 Temp     =       333.6595 
PotEng   =        88.8473 E_bond   =        32.8260 E_angle  =        24.3087 
E_dihed  =        31.7425 E_impro  =         0.0000 E_vdwl   =        -0.0300 
E_coul   =         0.0000 E_long   =         0.0000 Press    =        -2.3885
------------ Step           3240 ----- CPU =    0.1715499 (sec) -------------
TotEng   =       186.5017 KinEng   =        96.9199 Temp     =       328.4305 
PotEng   =        89.5818 E_bond   =        37.9703 E_angle  =        18.3399 
E_dihed  =        33.3013 E_impro  =         0.0000 E_vdwl   =        -0.0298 
E_coul   =         0.0000 E_long   =         0.0000 Press    =        -3.6637
------------ Step           3260 ----- CPU =    0.1723162 (sec) -------------
TotEng   =       184.6994 KinEng   =        87.1149 Temp     =       295.2046 
PotEng   =        97.5844 E_bond   =        32.3295 E_angle  =        28.9114 
E_dihed  =        36.3733 E_impro  =         0.0000 E_vdwl   =        -0.0297 
E_coul   =         0.0000 E_long   =         0.0000 Press    =         1.2410
------------ Step           3280 ----- CPU =    0.1728966 (sec) -------------
TotEng   =       182.5849 KinEng   =        82.1928 Temp     =       278.5251 
PotEng   =       100.3921 E_bond   =        41.2312 E_angle  =        22.9583 
E_dihed  =        36.2323 E_impro  =         0.0000 E_vdwl   =        -0.0297 
E_coul   =         0.0000 E_long   =         0.0000 Press    =        -3.9498
------------ Step           3300 ----- CPU =    0.1735909 (sec) -------------
TotEng   =       179.9994 KinEng   =        91.6527 Temp     =       310.5818 
PotEng   =        88.3467 E_bond   =        34.2786 E_angle  =        21.2656 
E_dihed  =        32.8322 E_impro  =         0.0000 E_vdwl   =        -0.0297 
E_coul   =         0.0000 E_long   =         0.0000 Press    =        -4.4998
------------ Step           3320 ----- CPU =    0.1745538 (sec) -------------
TotEng   =       177.1763 KinEng   =        89.5202 Temp     =       303.3553 
PotEng   =        87.6561 E_bond   =        32.2606 E_angle  =        24.9497 
E_dihed  =        30.4755 E_impro  =         0.0000 E_vdwl   =        -0.0297 
E_coul   =         0.0000 E_long   =         0.0000 Press    =         0.0788
------------ Step           3340 ----- CPU =    0.1751573 (sec) -------------
TotEng   =       174.1730 KinEng   =        83.5295 Temp     =       283.0546 
PotEng   =        90.6435 E_bond   =        39.6695 E_angle  =        19.1535 
E_dihed  =        31.8502 E_impro  =         0.0000 E_vdwl   =        -0.0298 
E_coul   =         0.0000 E_long   =         0.0000 Press    =        -5.0412
------------ Step           3360 ----- CPU =    0.1758156 (sec) -------------
TotEng   =       171.3564 KinEng   =        86.7301 Temp     =       293.9007 
PotEng   =        84.6263 E_bond   =        34.2290 E_angle  =        17.2903 
E_dihed  =        33.1368 E_impro  =         0.0000 E_vdwl   =        -0.0299 
E_coul   =         0.0000 E_long   =         0.0000 Press    =        -4.1486
------------ Step           3380 ----- CPU =    0.1764833 (sec) -------------
TotEng   =       168.9542 KinEng   =        83.8820 Temp     =       284.2492 
PotEng   =        85.0722 E_bond   =        29.8870 E_angle  =        23.4418 
E_dihed  =        31.7735 E_impro  =         0.0000 E_vdwl   =        -0.0300 
E_coul   =         0.0000 E_long   =         0.0000 Press    =         0.4859
------------ Step           3400 ----- CPU =    0.1770636 (sec) -------------
TotEng   =       167.1764 KinEng   =        81.1956 Temp     =       275.1458 
PotEng   =        85.9808 E_bond   =        31.9290 E_angle  =        24.3705 
E_dihed  =        29.7118 E_impro  =         0.0000 E_vdwl   =        -0.0304 
E_coul   =         0.0000 E_long   =         0.0000 Press    =        -4.3619
------------ Step           3420 ----- CPU =    0.1778022 (sec) -------------
TotEng   =       165.9221 KinEng   =        84.4871 Temp     =       286.2998 
PotEng   =        81.4349 E_bond   =        28.9528 E_angle  =        25.0809 
E_dihed  =        27.4320 E_impro  =         0.0000 E_vdwl   =        -0.0308 
E_coul   =         0.0000 E_long   =         0.0000 Press    =        -2.3391
------------ Step           3440 ----- CPU =    0.1787261 (sec) -------------
TotEng   =       165.3552 KinEng   =        80.5166 Temp     =       272.8449 
PotEng   =        84.8387 E_bond   =        33.5156 E_angle  =        24.9129 
E_dihed  =        26.4414 E_impro  =         0.0000 E_vdwl   =        -0.0313 
E_coul   =         0.0000 E_long   =         0.0000 Press    =         3.1834
------------ Step           3460 ----- CPU =    0.1795784 (sec) -------------
TotEng   =       164.8623 KinEng   =        86.4236 Temp     =       292.8618 
PotEng   =        78.4388 E_bond   =        25.4846 E_angle  =        26.2516 
E_dihed  =        26.7341 E_impro  =         0.0000 E_vdwl   =        -0.0316 
E_coul   =         0.0000 E_long   =         0.0000 Press    =        -1.4390
------------ Step           3480 ----- CPU =    0.1801721 (sec) -------------
TotEng   =       165.1820 KinEng   =        79.3739 Temp     =       268.9728 
PotEng   =        85.8081 E_bond   =        30.5858 E_angle  =        26.8733 
E_dihed  =        28.3808 E_impro  =         0.0000 E_vdwl   =        -0.0318 
E_coul   =         0.0000 E_long   =         0.0000 Press    =        -0.7777
------------ Step           3500 ----- CPU =    0.1807247 (sec) -------------
TotEng   =       166.2645 KinEng   =        76.4949 Temp     =       259.2169 
PotEng   =        89.7696 E_bond   =        36.8508 E_angle  =        25.5675 
E_dihed  =        27.3833 E_impro  =         0.0000 E_vdwl   =        -0.0320 
E_coul   =         0.0000 E_long   =         0.0000 Press    =         4.6024
------------ Step           3520 ----- CPU =    0.1815281 (sec) -------------
TotEng   =       168.0283 KinEng   =        86.3267 Temp     =       292.5335 
PotEng   =        81.7016 E_bond   =        33.9355 E_angle  =        23.3175 
E_dihed  =        24.4805 E_impro  =         0.0000 E_vdwl   =        -0.0319 
E_coul   =         0.0000 E_long   =         0.0000 Press    =        -0.1542
------------ Step           3540 ----- CPU =    0.1821027 (sec) -------------
TotEng   =       170.2556 KinEng   =        91.3108 Temp     =       309.4232 
PotEng   =        78.9448 E_bond   =        26.7005 E_angle  =        28.3938 
E_dihed  =        23.8825 E_impro  =         0.0000 E_vdwl   =        -0.0320 
E_coul   =         0.0000 E_long   =         0.0000 Press    =        -0.0176
------------ Step           3560 ----- CPU =    0.1826511 (sec) -------------
TotEng   =       173.0119 KinEng   =        82.0787 Temp     =       278.1385 
PotEng   =        90.9332 E_bond   =        37.8884 E_angle  =        23.7003 
E_dihed  =        29.3766 E_impro  =         0.0000 E_vdwl   =        -0.0321 
E_coul   =         0.0000 E_long   =         0.0000 Press    =         5.3714
------------ Step           3580 ----- CPU =    0.1833367 (sec) -------------
TotEng   =       175.7982 KinEng   =        84.2451 Temp     =       285.4795 
PotEng   =        91.5531 E_bond   =        32.2752 E_angle  =        28.1549 
E_dihed  =        31.1554 E_impro  =         0.0000 E_vdwl   =        -0.0323 
E_coul   =         0.0000 E_long   =         0.0000 Press    =         0.0488
------------ Step           3600 ----- CPU =    0.1840847 (sec) -------------
TotEng   =       179.1072 KinEng   =        93.8563 Temp     =       318.0488 
PotEng   =        85.2509 E_bond   =        29.5809 E_angle  =        26.3766 
E_dihed  =        29.3259 E_impro  =         0.0000 E_vdwl   =        -0.0325 
E_coul   =         0.0000 E_long   =         0.0000 Press    =         0.2627
------------ Step           3620 ----- CPU =    0.1847762 (sec) -------------
TotEng   =       182.3567 KinEng   =        89.8739 Temp     =       304.5540 
PotEng   =        92.4828 E_bond   =        37.1733 E_angle  =        26.2565 
E_dihed  =        29.0855 E_impro  =         0.0000 E_vdwl   =        -0.0326 
E_coul   =         0.0000 E_long   =         0.0000 Press    =         6.4820
------------ Step           3640 ----- CPU =     0.185348 (sec) -------------
TotEng   =       184.8935 KinEng   =        99.1120 Temp     =       335.8588 
PotEng   =        85.7815 E_bond   =        29.8833 E_angle  =        25.7616 
E_dihed  =        30.1690 E_impro  =         0.0000 E_vdwl   =        -0.0324 
E_coul   =         0.0000 E_long   =         0.0000 Press    =         1.1667
------------ Step           3660 ----- CPU =    0.1859022 (sec) -------------
TotEng   =       186.8140 KinEng   =        94.9297 Temp     =       321.6863 
PotEng   =        91.8843 E_bond   =        35.5568 E_angle  =        25.0271 
E_dihed  =        31.3328 E_impro  =         0.0000 E_vdwl   =        -0.0324 
E_coul   =         0.0000 E_long   =         0.0000 Press    =        -0.4169
------------ Step           3680 ----- CPU =    0.1866846 (sec) -------------
TotEng   =       187.9545 KinEng   =        92.7642 Temp     =       314.3482 
PotEng   =        95.1902 E_bond   =        35.8278 E_angle  =        29.0162 
E_dihed  =        30.3786 E_impro  =         0.0000 E_vdwl   =        -0.0324 
E_coul   =         0.0000 E_long   =         0.0000 Press    =         5.4611
------------ Step           3700 ----- CPU =    0.1876496 (sec) -------------
TotEng   =       188.5387 KinEng   =       102.4847 Temp     =       347.2878 
PotEng   =        86.0540 E_bond   =        29.4166 E_angle  =        29.0454 
E_dihed  =        27.6241 E_impro  =         0.0000 E_vdwl   =        -0.0322 
E_coul   =         0.0000 E_long   =         0.0000 Press    =        -0.2727
------------ Step           3720 ----- CPU =    0.1883713 (sec) -------------
TotEng   =       188.3276 KinEng   =        94.1407 Temp     =       319.0125 
PotEng   =        94.1870 E_bond   =        36.0500 E_angle  =        28.7571 
E_dihed  =        29.4120 E_impro  =         0.0000 E_vdwl   =        -0.0322 
E_coul   =         0.0000 E_long   =         0.0000 Press    =        -2.0634
------------ Step           3740 ----- CPU =    0.1889709 (sec) -------------
TotEng   =       187.6537 KinEng   =        91.6993 Temp     =       310.7394 
PotEng   =        95.9544 E_bond   =        35.3844 E_angle  =        25.7883 
E_dihed  =        34.8138 E_impro  =         0.0000 E_vdwl   =        -0.0320 
E_coul   =         0.0000 E_long   =         0.0000 Press    =         3.1096
------------ Step           3760 ----- CPU =    0.1897046 (sec) -------------
TotEng   =       186.7531 KinEng   =        85.3789 Temp     =       289.3219 
PotEng   =       101.3742 E_bond   =        34.6032 E_angle  =        29.4285 
E_dihed  =        37.3743 E_impro  =         0.0000 E_vdwl   =        -0.0318 
E_coul   =         0.0000 E_long   =         0.0000 Press    =        -3.2280
------------ Step           3780 ----- CPU =    0.1907399 (sec) -------------
TotEng   =       186.1167 KinEng   =        87.9506 Temp     =       298.0365 
PotEng   =        98.1660 E_bond   =        38.4485 E_angle  =        21.8372 
E_dihed  =        37.9119 E_impro  =         0.0000 E_vdwl   =        -0.0316 
E_coul   =         0.0000 E_long   =         0.0000 Press    =        -3.8663
------------ Step           3800 ----- CPU =    0.1913979 (sec) -------------
TotEng   =       185.6363 KinEng   =        86.2680 Temp     =       292.3345 
PotEng   =        99.3684 E_bond   =        35.2320 E_angle  =        28.3531 
E_dihed  =        35.8149 E_impro  =         0.0000 E_vdwl   =        -0.0315 
E_coul   =         0.0000 E_long   =         0.0000 Press    =         1.3025
------------ Step           3820 ----- CPU =    0.1921038 (sec) -------------
TotEng   =       185.1949 KinEng   =        93.4345 Temp     =       316.6194 
PotEng   =        91.7605 E_bond   =        38.0086 E_angle  =        25.0278 
E_dihed  =        28.7557 E_impro  =         0.0000 E_vdwl   =        -0.0316 
E_coul   =         0.0000 E_long   =         0.0000 Press    =        -3.0859
------------ Step           3840 ----- CPU =    0.1927585 (sec) -------------
TotEng   =       184.2764 KinEng   =        95.3146 Temp     =       322.9906 
PotEng   =        88.9618 E_bond   =        34.2259 E_angle  =        30.8764 
E_dihed  =        23.8913 E_impro  =         0.0000 E_vdwl   =        -0.0318 
E_coul   =         0.0000 E_long   =         0.0000 Press    =        -3.6680
------------ Step           3860 ----- CPU =    0.1933102 (sec) -------------
TotEng   =       182.9323 KinEng   =        96.8683 Temp     =       328.2556 
PotEng   =        86.0641 E_bond   =        27.4854 E_angle  =        32.0798 
E_dihed  =        26.5307 E_impro  =         0.0000 E_vdwl   =        -0.0318 
E_coul   =         0.0000 E_long   =         0.0000 Press    =         0.7383
------------ Step           3880 ----- CPU =    0.1940131 (sec) -------------
TotEng   =       181.6949 KinEng   =        87.2432 Temp     =       295.6392 
PotEng   =        94.4517 E_bond   =        42.0513 E_angle  =        23.9690 
E_dihed  =        28.4634 E_impro  =         0.0000 E_vdwl   =        -0.0320 
E_coul   =         0.0000 E_long   =         0.0000 Press    =        -3.6537
------------ Step           3900 ----- CPU =     0.194652 (sec) -------------
TotEng   =       180.4287 KinEng   =        97.6786 Temp     =       331.0015 
PotEng   =        82.7500 E_bond   =        28.2864 E_angle  =        29.1791 
E_dihed  =        25.3169 E_impro  =         0.0000 E_vdwl   =        -0.0323 
E_coul   =         0.0000 E_long   =         0.0000 Press    =        -3.9628
------------ Step           3920 ----- CPU =    0.1957399 (sec) -------------
TotEng   =       179.4680 KinEng   =        97.2411 Temp     =       329.5189 
PotEng   =        82.2269 E_bond   =        34.5297 E_angle  =        22.9222 
E_dihed  =        24.8078 E_impro  =         0.0000 E_vdwl   =        -0.0328 
E_coul   =         0.0000 E_long   =         0.0000 Press    =         1.1542
------------ Step           3940 ----- CPU =      0.19737 (sec) -------------
TotEng   =       178.2031 KinEng   =        94.0661 Temp     =       318.7600 
PotEng   =        84.1370 E_bond   =        31.8172 E_angle  =        23.9876 
E_dihed  =        28.3653 E_impro  =         0.0000 E_vdwl   =        -0.0331 
E_coul   =         0.0000 E_long   =         0.0000 Press    =        -1.1458
------------ Step           3960 ----- CPU =    0.1980149 (sec) -------------
TotEng   =       177.4980 KinEng   =        84.0229 Temp     =       284.7268 
PotEng   =        93.4751 E_bond   =        39.5577 E_angle  =        24.4624 
E_dihed  =        29.4880 E_impro  =         0.0000 E_vdwl   =        -0.0331 
E_coul   =         0.0000 E_long   =         0.0000 Press    =        -2.1651
------------ Step           3980 ----- CPU =    0.1987352 (sec) -------------
TotEng   =       176.9150 KinEng   =        87.5239 Temp     =       296.5906 
PotEng   =        89.3911 E_bond   =        32.0672 E_angle  =        30.0519 
E_dihed  =        27.3050 E_impro  =         0.0000 E_vdwl   =        -0.0331 
E_coul   =         0.0000 E_long   =         0.0000 Press    =         1.6970
------------ Step           4000 ----- CPU =    0.1992905 (sec) -------------
TotEng   =       176.5623 KinEng   =        96.2007 Temp     =       325.9933 
PotEng   =        80.3616 E_bond   =        34.4649 E_angle  =        21.0507 
E_dihed  =        24.8791 E_impro  =         0.0000 E_vdwl   =        -0.0331 
E_coul   =         0.0000 E_long   =         0.0000 Press    =         0.2045
------------ Step           4020 ----- CPU =    0.1999653 (sec) -------------
TotEng   =       175.7557 KinEng   =        89.9400 Temp     =       304.7779 
PotEng   =        85.8156 E_bond   =        34.6030 E_angle  =        25.0296 
E_dihed  =        26.2162 E_impro  =         0.0000 E_vdwl   =        -0.0332 
E_coul   =         0.0000 E_long   =         0.0000 Press    =        -1.5810
------------ Step           4040 ----- CPU =    0.2006047 (sec) -------------
TotEng   =       174.8174 KinEng   =        83.3459 Temp     =       282.4326 
PotEng   =        91.4715 E_bond   =        37.7057 E_angle  =        25.1762 
E_dihed  =        28.6229 E_impro  =         0.0000 E_vdwl   =        -0.0332 
E_coul   =         0.0000 E_long   =         0.0000 Press    =         1.4310
------------ Step           4060 ----- CPU =    0.2013063 (sec) -------------
TotEng   =       173.8204 KinEng   =        88.8428 Temp     =       301.0599 
PotEng   =        84.9775 E_bond   =        31.6083 E_angle  =        23.9979 
E_dihed  =        29.4047 E_impro  =         0.0000 E_vdwl   =        -0.0333 
E_coul   =         0.0000 E_long   =         0.0000 Press    =         0.6848
------------ Step           4080 ----- CPU =    0.2018655 (sec) -------------
TotEng   =       173.0532 KinEng   =        87.9140 Temp     =       297.9123 
PotEng   =        85.1392 E_bond   =        32.0984 E_angle  =        24.6905 
E_dihed  =        28.3840 E_impro  =         0.0000 E_vdwl   =        -0.0336 
E_coul   =         0.0000 E_long   =         0.0000 Press    =        -0.8896
------------ Step           4100 ----- CPU =    0.2024773 (sec) -------------
TotEng   =       172.4028 KinEng   =        87.6209 Temp     =       296.9193 
PotEng   =        84.7819 E_bond   =        33.7627 E_angle  =        22.7224 
E_dihed  =        28.3306 E_impro  =         0.0000 E_vdwl   =        -0.0338 
E_coul   =         0.0000 E_long   =         0.0000 Press    =         2.5141
------------ Step           4120 ----- CPU =    0.2033885 (sec) -------------
TotEng   =       171.5803 KinEng   =        86.5594 Temp     =       293.3222 
PotEng   =        85.0209 E_bond   =        32.4074 E_angle  =        22.9259 
E_dihed  =        29.7215 E_impro  =         0.0000 E_vdwl   =        -0.0339 
E_coul   =         0.0000 E_long   =         0.0000 Press    =         1.6659
------------ Step           4140 ----- CPU =    0.2045896 (sec) -------------
TotEng   =       170.8556 KinEng   =        90.9194 Temp     =       308.0968 
PotEng   =        79.9361 E_bond   =        28.2090 E_angle  =        22.0642 
E_dihed  =        29.6970 E_impro  =         0.0000 E_vdwl   =        -0.0340 
E_coul   =         0.0000 E_long   =         0.0000 Press    =        -0.0099
------------ Step           4160 ----- CPU =    0.2052803 (sec) -------------
TotEng   =       170.4672 KinEng   =        81.4947 Temp     =       276.1593 
PotEng   =        88.9725 E_bond   =        33.6484 E_angle  =        26.5174 
E_dihed  =        28.8412 E_impro  =         0.0000 E_vdwl   =        -0.0344 
E_coul   =         0.0000 E_long   =         0.0000 Press    =         2.1259
------------ Step           4180 ----- CPU =    0.2058791 (sec) -------------
TotEng   =       170.2382 KinEng   =        85.6112 Temp     =       290.1089 
PotEng   =        84.6270 E_bond   =        32.8409 E_angle  =        22.5320 
E_dihed  =        29.2890 E_impro  =         0.0000 E_vdwl   =        -0.0350 
E_coul   =         0.0000 E_long   =         0.0000 Press    =         1.0593
------------ Step           4200 ----- CPU =    0.2064589 (sec) -------------
TotEng   =       170.3568 KinEng   =        82.3223 Temp     =       278.9638 
PotEng   =        88.0345 E_bond   =        32.5848 E_angle  =        25.7482 
E_dihed  =        29.7365 E_impro  =         0.0000 E_vdwl   =        -0.0351 
E_coul   =         0.0000 E_long   =         0.0000 Press    =         0.0313
------------ Step           4220 ----- CPU =    0.2072147 (sec) -------------
TotEng   =       170.8984 KinEng   =        88.3835 Temp     =       299.5035 
PotEng   =        82.5149 E_bond   =        32.4332 E_angle  =        22.3857 
E_dihed  =        27.7309 E_impro  =         0.0000 E_vdwl   =        -0.0349 
E_coul   =         0.0000 E_long   =         0.0000 Press    =         3.2933
------------ Step           4240 ----- CPU =    0.2078238 (sec) -------------
TotEng   =       171.9332 KinEng   =        84.5417 Temp     =       286.4848 
PotEng   =        87.3915 E_bond   =        33.5460 E_angle  =        26.7022 
E_dihed  =        27.1782 E_impro  =         0.0000 E_vdwl   =        -0.0349 
E_coul   =         0.0000 E_long   =         0.0000 Press    =         0.5234
------------ Step           4260 ----- CPU =    0.2083987 (sec) -------------
TotEng   =       173.1252 KinEng   =        90.3631 Temp     =       306.2116 
PotEng   =        82.7621 E_bond   =        30.2682 E_angle  =        22.8821 
E_dihed  =        29.6465 E_impro  =         0.0000 E_vdwl   =        -0.0348 
E_coul   =         0.0000 E_long   =         0.0000 Press    =        -0.3815
------------ Step           4280 ----- CPU =    0.2089527 (sec) -------------
TotEng   =       175.0091 KinEng   =        79.5386 Temp     =       269.5309 
PotEng   =        95.4705 E_bond   =        41.4073 E_angle  =        22.8221 
E_dihed  =        31.2756 E_impro  =         0.0000 E_vdwl   =        -0.0346 
E_coul   =         0.0000 E_long   =         0.0000 Press    =         3.2172
------------ Step           4300 ----- CPU =    0.2096923 (sec) -------------
TotEng   =       177.3801 KinEng   =        92.4299 Temp     =       313.2152 
PotEng   =        84.9503 E_bond   =        26.5808 E_angle  =        24.4480 
E_dihed  =        33.9559 E_impro  =         0.0000 E_vdwl   =        -0.0344 
E_coul   =         0.0000 E_long   =         0.0000 Press    =         0.0780
------------ Step           4320 ----- CPU =    0.2103686 (sec) -------------
TotEng   =       180.5637 KinEng   =        88.0764 Temp     =       298.4626 
PotEng   =        92.4873 E_bond   =        35.6278 E_angle  =        18.0622 
E_dihed  =        38.8315 E_impro  =         0.0000 E_vdwl   =        -0.0343 
E_coul   =         0.0000 E_long   =         0.0000 Press    =        -1.3890
------------ Step           4340 ----- CPU =    0.2109197 (sec) -------------
TotEng   =       184.1090 KinEng   =        88.1483 Temp     =       298.7065 
PotEng   =        95.9607 E_bond   =        34.0812 E_angle  =        21.8777 
E_dihed  =        40.0359 E_impro  =         0.0000 E_vdwl   =        -0.0341 
E_coul   =         0.0000 E_long   =         0.0000 Press    =         2.5733
------------ Step           4360 ----- CPU =    0.2122804 (sec) -------------
TotEng   =       187.8849 KinEng   =        94.5757 Temp     =       320.4866 
PotEng   =        93.3093 E_bond   =        36.7822 E_angle  =        21.8865 
E_dihed  =        34.6745 E_impro  =         0.0000 E_vdwl   =        -0.0340 
E_coul   =         0.0000 E_long   =         0.0000 Press    =        -0.4300
------------ Step           4380 ----- CPU =    0.2129023 (sec) -------------
TotEng   =       191.1557 KinEng   =        98.5841 Temp     =       334.0700 
PotEng   =        92.5715 E_bond   =        31.0127 E_angle  =        28.1217 
E_dihed  =        33.4714 E_impro  =         0.0000 E_vdwl   =        -0.0342 
E_coul   =         0.0000 E_long   =         0.0000 Press    =        -1.2233
------------ Step           4400 ----- CPU =    0.2135282 (sec) -------------
TotEng   =       193.5799 KinEng   =        93.8391 Temp     =       317.9906 
PotEng   =        99.7408 E_bond   =        34.5129 E_angle  =        28.3908 
E_dihed  =        36.8716 E_impro  =         0.0000 E_vdwl   =        -0.0345 
E_coul   =         0.0000 E_long   =         0.0000 Press    =         2.2169
------------ Step           4420 ----- CPU =    0.2142275 (sec) -------------
TotEng   =       195.1924 KinEng   =        93.2377 Temp     =       315.9528 
PotEng   =       101.9546 E_bond   =        37.6264 E_angle  =        26.6314 
E_dihed  =        37.7314 E_impro  =         0.0000 E_vdwl   =        -0.0346 
E_coul   =         0.0000 E_long   =         0.0000 Press    =        -0.0199
------------ Step           4440 ----- CPU =    0.2149509 (sec) -------------
TotEng   =       196.4203 KinEng   =       100.5125 Temp     =       340.6048 
PotEng   =        95.9078 E_bond   =        38.4107 E_angle  =        22.5333 
E_dihed  =        34.9983 E_impro  =         0.0000 E_vdwl   =        -0.0345 
E_coul   =         0.0000 E_long   =         0.0000 Press    =        -0.8323
------------ Step           4460 ----- CPU =    0.2155457 (sec) -------------
TotEng   =       196.3784 KinEng   =        96.1019 Temp     =       325.6585 
PotEng   =       100.2766 E_bond   =        40.6263 E_angle  =        25.8642 
E_dihed  =        33.8206 E_impro  =         0.0000 E_vdwl   =        -0.0346 
E_coul   =         0.0000 E_long   =         0.0000 Press    =         0.9971
------------ Step           4480 ----- CPU =    0.2161061 (sec) -------------
TotEng   =       195.4606 KinEng   =       100.8470 Temp     =       341.7383 
PotEng   =        94.6136 E_bond   =        33.3996 E_angle  =        25.4215 
E_dihed  =        35.8268 E_impro  =         0.0000 E_vdwl   =        -0.0344 
E_coul   =         0.0000 E_long   =         0.0000 Press    =         0.1658
------------ Step           4500 ----- CPU =    0.2168113 (sec) -------------
TotEng   =       193.8364 KinEng   =        88.6009 Temp     =       300.2400 
PotEng   =       105.2355 E_bond   =        40.9829 E_angle  =        28.7625 
E_dihed  =        35.5244 E_impro  =         0.0000 E_vdwl   =        -0.0342 
E_coul   =         0.0000 E_long   =         0.0000 Press    =        -2.7334
------------ Step           4520 ----- CPU =    0.2176349 (sec) -------------
TotEng   =       191.7607 KinEng   =        92.9983 Temp     =       315.1415 
PotEng   =        98.7623 E_bond   =        38.2403 E_angle  =        27.9829 
E_dihed  =        32.5733 E_impro  =         0.0000 E_vdwl   =        -0.0341 
E_coul   =         0.0000 E_long   =         0.0000 Press    =        -0.8868
------------ Step           4540 ----- CPU =    0.2182209 (sec) -------------
TotEng   =       189.0550 KinEng   =        95.4705 Temp     =       323.5191 
PotEng   =        93.5845 E_bond   =        32.1849 E_angle  =        27.8728 
E_dihed  =        33.5610 E_impro  =         0.0000 E_vdwl   =        -0.0342 
E_coul   =         0.0000 E_long   =         0.0000 Press    =        -0.4036
------------ Step           4560 ----- CPU =    0.2187809 (sec) -------------
TotEng   =       186.3262 KinEng   =        85.4625 Temp     =       289.6050 
PotEng   =       100.8637 E_bond   =        40.4666 E_angle  =        25.0333 
E_dihed  =        35.3979 E_impro  =         0.0000 E_vdwl   =        -0.0341 
E_coul   =         0.0000 E_long   =         0.0000 Press    =        -2.9438
------------ Step           4580 ----- CPU =    0.2193397 (sec) -------------
TotEng   =       183.5203 KinEng   =        88.3215 Temp     =       299.2933 
PotEng   =        95.1988 E_bond   =        34.4923 E_angle  =        28.3265 
E_dihed  =        32.4138 E_impro  =         0.0000 E_vdwl   =        -0.0339 
E_coul   =         0.0000 E_long   =         0.0000 Press    =        -0.2521
------------ Step           4600 ----- CPU =    0.2198911 (sec) -------------
TotEng   =       180.8161 KinEng   =        90.6790 Temp     =       307.2821 
PotEng   =        90.1371 E_bond   =        32.0266 E_angle  =        25.3498 
E_dihed  =        32.7943 E_impro  =         0.0000 E_vdwl   =        -0.0337 
E_coul   =         0.0000 E_long   =         0.0000 Press    =        -1.5423
------------ Step           4620 ----- CPU =    0.2209928 (sec) -------------
TotEng   =       178.6026 KinEng   =        83.7769 Temp     =       283.8932 
PotEng   =        94.8257 E_bond   =        33.9216 E_angle  =        26.5239 
E_dihed  =        34.4139 E_impro  =         0.0000 E_vdwl   =        -0.0337 
E_coul   =         0.0000 E_long   =         0.0000 Press    =        -4.2447
------------ Step           4640 ----- CPU =    0.2217977 (sec) -------------
TotEng   =       177.1019 KinEng   =        81.0034 Temp     =       274.4946 
PotEng   =        96.0985 E_bond   =        35.2180 E_angle  =        28.7921 
E_dihed  =        32.1224 E_impro  =         0.0000 E_vdwl   =        -0.0340 
E_coul   =         0.0000 E_long   =         0.0000 Press    =         1.6901
------------ Step           4660 ----- CPU =    0.2226751 (sec) -------------
TotEng   =       175.8180 KinEng   =        91.0689 Temp     =       308.6032 
PotEng   =        84.7492 E_bond   =        27.0822 E_angle  =        27.5019 
E_dihed  =        30.1994 E_impro  =         0.0000 E_vdwl   =        -0.0344 
E_coul   =         0.0000 E_long   =         0.0000 Press    =        -0.8979
------------ Step           4680 ----- CPU =    0.2234412 (sec) -------------
TotEng   =       175.1305 KinEng   =        86.2985 Temp     =       292.4379 
PotEng   =        88.8320 E_bond   =        32.6391 E_angle  =        24.3834 
E_dihed  =        31.8441 E_impro  =         0.0000 E_vdwl   =        -0.0347 
E_coul   =         0.0000 E_long   =         0.0000 Press    =        -2.1031
------------ Step           4700 ----- CPU =    0.2241217 (sec) -------------
TotEng   =       174.9957 KinEng   =        73.7631 Temp     =       249.9594 
PotEng   =       101.2327 E_bond   =        40.0635 E_angle  =        26.8235 
E_dihed  =        34.3807 E_impro  =         0.0000 E_vdwl   =        -0.0351 
E_coul   =         0.0000 E_long   =         0.0000 Press    =         5.6297
------------ Step           4720 ----- CPU =    0.2249029 (sec) -------------
TotEng   =       175.1035 KinEng   =        88.3043 Temp     =       299.2348 
PotEng   =        86.7993 E_bond   =        28.0503 E_angle  =        25.2866 
E_dihed  =        33.4974 E_impro  =         0.0000 E_vdwl   =        -0.0351 
E_coul   =         0.0000 E_long   =         0.0000 Press    =         0.5660
------------ Step           4740 ----- CPU =    0.2255529 (sec) -------------
TotEng   =       175.6166 KinEng   =        84.6955 Temp     =       287.0061 
PotEng   =        90.9210 E_bond   =        32.7169 E_angle  =        26.4581 
E_dihed  =        31.7810 E_impro  =         0.0000 E_vdwl   =        -0.0349 
E_coul   =         0.0000 E_long   =         0.0000 Press    =        -0.7515
------------ Step           4760 ----- CPU =    0.2262794 (sec) -------------
TotEng   =       176.1039 KinEng   =        80.9598 Temp     =       274.3468 
PotEng   =        95.1441 E_bond   =        33.2286 E_angle  =        29.3940 
E_dihed  =        32.5566 E_impro  =         0.0000 E_vdwl   =        -0.0350 
E_coul   =         0.0000 E_long   =         0.0000 Press    =         5.3785
------------ Step           4780 ----- CPU =     0.227002 (sec) -------------
TotEng   =       176.7986 KinEng   =        84.0285 Temp     =       284.7456 
PotEng   =        92.7701 E_bond   =        33.0558 E_angle  =        27.2079 
E_dihed  =        32.5416 E_impro  =         0.0000 E_vdwl   =        -0.0351 
E_coul   =         0.0000 E_long   =         0.0000 Press    =         0.7390
------------ Step           4800 ----- CPU =    0.2275834 (sec) -------------
TotEng   =       177.6543 KinEng   =        83.3273 Temp     =       282.3694 
PotEng   =        94.3270 E_bond   =        30.9709 E_angle  =        29.6591 
E_dihed  =        33.7325 E_impro  =         0.0000 E_vdwl   =        -0.0355 
E_coul   =         0.0000 E_long   =         0.0000 Press    =         0.4672
------------ Step           4820 ----- CPU =    0.2288617 (sec) -------------
TotEng   =       178.8307 KinEng   =        83.1786 Temp     =       281.8656 
PotEng   =        95.6521 E_bond   =        33.9131 E_angle  =        25.6886 
E_dihed  =        36.0860 E_impro  =         0.0000 E_vdwl   =        -0.0356 
E_coul   =         0.0000 E_long   =         0.0000 Press    =         2.9270
------------ Step           4840 ----- CPU =    0.2294876 (sec) -------------
TotEng   =       180.2209 KinEng   =        86.1785 Temp     =       292.0313 
PotEng   =        94.0424 E_bond   =        28.8069 E_angle  =        26.8981 
E_dihed  =        38.3730 E_impro  =         0.0000 E_vdwl   =        -0.0356 
E_coul   =         0.0000 E_long   =         0.0000 Press    =         0.8114
------------ Step           4860 ----- CPU =    0.2300985 (sec) -------------
TotEng   =       181.9487 KinEng   =        75.1696 Temp     =       254.7257 
PotEng   =       106.7791 E_bond   =        39.3054 E_angle  =        27.3450 
E_dihed  =        40.1640 E_impro  =         0.0000 E_vdwl   =        -0.0353 
E_coul   =         0.0000 E_long   =         0.0000 Press    =         0.7169
------------ Step           4880 ----- CPU =    0.2306614 (sec) -------------
TotEng   =       184.0827 KinEng   =        82.5896 Temp     =       279.8695 
PotEng   =       101.4931 E_bond   =        30.8468 E_angle  =        28.8802 
E_dihed  =        41.8015 E_impro  =         0.0000 E_vdwl   =        -0.0353 
E_coul   =         0.0000 E_long   =         0.0000 Press    =        -0.9474
------------ Step           4900 ----- CPU =    0.2312986 (sec) -------------
TotEng   =       186.5526 KinEng   =        88.8938 Temp     =       301.2325 
PotEng   =        97.6588 E_bond   =        32.1327 E_angle  =        24.2149 
E_dihed  =        41.3467 E_impro  =         0.0000 E_vdwl   =        -0.0356 
E_coul   =         0.0000 E_long   =         0.0000 Press    =        -0.2067
------------ Step           4920 ----- CPU =    0.2321346 (sec) -------------
TotEng   =       189.4088 KinEng   =        85.7653 Temp     =       290.6311 
PotEng   =       103.6436 E_bond   =        38.4360 E_angle  =        26.1424 
E_dihed  =        39.1009 E_impro  =         0.0000 E_vdwl   =        -0.0357 
E_coul   =         0.0000 E_long   =         0.0000 Press    =         1.1534
------------ Step           4940 ----- CPU =    0.2326999 (sec) -------------
TotEng   =       191.7832 KinEng   =        89.0137 Temp     =       301.6389 
PotEng   =       102.7695 E_bond   =        34.3787 E_angle  =        31.8701 
E_dihed  =        36.5563 E_impro  =         0.0000 E_vdwl   =        -0.0357 
E_coul   =         0.0000 E_long   =         0.0000 Press    =        -0.1408
------------ Step           4960 ----- CPU =    0.2333225 (sec) -------------
TotEng   =       193.7961 KinEng   =       100.5328 Temp     =       340.6733 
PotEng   =        93.2633 E_bond   =        35.2684 E_angle  =        24.9929 
E_dihed  =        33.0375 E_impro  =         0.0000 E_vdwl   =        -0.0355 
E_coul   =         0.0000 E_long   =         0.0000 Press    =         1.6277
------------ Step           4980 ----- CPU =    0.2339128 (sec) -------------
TotEng   =       194.7611 KinEng   =       102.2145 Temp     =       346.3723 
PotEng   =        92.5465 E_bond   =        32.7275 E_angle  =        27.0432 
E_dihed  =        32.8112 E_impro  =         0.0000 E_vdwl   =        -0.0354 
E_coul   =         0.0000 E_long   =         0.0000 Press    =         2.4085
------------ Step           5000 ----- CPU =    0.2345719 (sec) -------------
TotEng   =       194.8251 KinEng   =        86.7020 Temp     =       293.8053 
PotEng   =       108.1231 E_bond   =        38.0702 E_angle  =        33.6912 
E_dihed  =        36.3969 E_impro  =         0.0000 E_vdwl   =        -0.0353 
E_coul   =         0.0000 E_long   =         0.0000 Press    =         1.1663
------------ Step           5020 ----- CPU =    0.2353073 (sec) -------------
TotEng   =       194.5929 KinEng   =        93.3278 Temp     =       316.2580 
PotEng   =       101.2651 E_bond   =        32.6541 E_angle  =        29.4081 
E_dihed  =        39.2380 E_impro  =         0.0000 E_vdwl   =        -0.0350 
E_coul   =         0.0000 E_long   =         0.0000 Press    =         0.8125
------------ Step           5040 ----- CPU =    0.2358943 (sec) -------------
TotEng   =       194.4722 KinEng   =        87.5876 Temp     =       296.8063 
PotEng   =       106.8846 E_bond   =        38.2052 E_angle  =        30.6968 
E_dihed  =        38.0176 E_impro  =         0.0000 E_vdwl   =        -0.0349 
E_coul   =         0.0000 E_long   =         0.0000 Press    =         0.8199
------------ Step           5060 ----- CPU =    0.2365795 (sec) -------------
TotEng   =       193.9086 KinEng   =        98.4100 Temp     =       333.4798 
PotEng   =        95.4987 E_bond   =        32.7131 E_angle  =        27.2293 
E_dihed  =        35.5910 E_impro  =         0.0000 E_vdwl   =        -0.0348 
E_coul   =         0.0000 E_long   =         0.0000 Press    =         0.8097
------------ Step           5080 ----- CPU =    0.2376657 (sec) -------------
TotEng   =       192.8699 KinEng   =        92.5823 Temp     =       313.7317 
PotEng   =       100.2876 E_bond   =        36.9095 E_angle  =        31.1904 
E_dihed  =        32.2220 E_impro  =         0.0000 E_vdwl   =        -0.0343 
E_coul   =         0.0000 E_long   =         0.0000 Press    =        -1.8902
------------ Step           5100 ----- CPU =    0.2383805 (sec) -------------
TotEng   =       191.0814 KinEng   =        96.5973 Temp     =       327.3374 
PotEng   =        94.4840 E_bond   =        32.6694 E_angle  =        32.8204 
E_dihed  =        29.0280 E_impro  =         0.0000 E_vdwl   =        -0.0338 
E_coul   =         0.0000 E_long   =         0.0000 Press    =        -1.8334
------------ Step           5120 ----- CPU =    0.2395203 (sec) -------------
TotEng   =       188.7350 KinEng   =        88.2263 Temp     =       298.9708 
PotEng   =       100.5087 E_bond   =        38.1956 E_angle  =        32.2484 
E_dihed  =        30.0983 E_impro  =         0.0000 E_vdwl   =        -0.0336 
E_coul   =         0.0000 E_long   =         0.0000 Press    =        -1.2731
------------ Step           5140 ----- CPU =    0.2401931 (sec) -------------
TotEng   =       185.7368 KinEng   =        88.4102 Temp     =       299.5940 
PotEng   =        97.3266 E_bond   =        34.4751 E_angle  =        30.6636 
E_dihed  =        32.2218 E_impro  =         0.0000 E_vdwl   =        -0.0339 
E_coul   =         0.0000 E_long   =         0.0000 Press    =        -3.4260
------------ Step           5160 ----- CPU =    0.2407595 (sec) -------------
TotEng   =       182.1967 KinEng   =        91.7952 Temp     =       311.0646 
PotEng   =        90.4015 E_bond   =        26.3202 E_angle  =        31.5116 
E_dihed  =        32.6043 E_impro  =         0.0000 E_vdwl   =        -0.0346 
E_coul   =         0.0000 E_long   =         0.0000 Press    =        -1.0300
------------ Step           5180 ----- CPU =    0.2413312 (sec) -------------
TotEng   =       178.3733 KinEng   =        83.7620 Temp     =       283.8427 
PotEng   =        94.6113 E_bond   =        39.5112 E_angle  =        23.4097 
E_dihed  =        31.7255 E_impro  =         0.0000 E_vdwl   =        -0.0351 
E_coul   =         0.0000 E_long   =         0.0000 Press    =         0.3304
------------ Step           5200 ----- CPU =    0.2419193 (sec) -------------
TotEng   =       174.3465 KinEng   =        86.7514 Temp     =       293.9727 
PotEng   =        87.5951 E_bond   =        30.4160 E_angle  =        26.4259 
E_dihed  =        30.7887 E_impro  =         0.0000 E_vdwl   =        -0.0354 
E_coul   =         0.0000 E_long   =         0.0000 Press    =        -0.8812
------------ Step           5220 ----- CPU =    0.2427322 (sec) -------------
TotEng   =       170.7745 KinEng   =        84.1641 Temp     =       285.2052 
PotEng   =        86.6104 E_bond   =        33.6308 E_angle  =        21.6670 
E_dihed  =        31.3481 E_impro  =         0.0000 E_vdwl   =        -0.0356 
E_coul   =         0.0000 E_long   =         0.0000 Press    =         1.2472
------------ Step           5240 ----- CPU =    0.2435905 (sec) -------------
TotEng   =       168.3351 KinEng   =        82.3217 Temp     =       278.9617 
PotEng   =        86.0135 E_bond   =        28.6517 E_angle  =        25.5023 
E_dihed  =        31.8953 E_impro  =         0.0000 E_vdwl   =        -0.0358 
E_coul   =         0.0000 E_long   =         0.0000 Press    =         1.1187
------------ Step           5260 ----- CPU =    0.2441645 (sec) -------------
TotEng   =       167.0810 KinEng   =        76.0309 Temp     =       257.6443 
PotEng   =        91.0501 E_bond   =        31.7718 E_angle  =        28.9448 
E_dihed  =        30.3697 E_impro  =         0.0000 E_vdwl   =        -0.0362 
E_coul   =         0.0000 E_long   =         0.0000 Press    =        -0.6875
------------ Step           5280 ----- CPU =    0.2450812 (sec) -------------
TotEng   =       166.7510 KinEng   =        84.1828 Temp     =       285.2684 
PotEng   =        82.5683 E_bond   =        30.0156 E_angle  =        24.0706 
E_dihed  =        28.5180 E_impro  =         0.0000 E_vdwl   =        -0.0359 
E_coul   =         0.0000 E_long   =         0.0000 Press    =        -0.0876
------------ Step           5300 ----- CPU =    0.2458399 (sec) -------------
TotEng   =       166.9371 KinEng   =        81.6139 Temp     =       276.5633 
PotEng   =        85.3233 E_bond   =        28.6396 E_angle  =        27.0738 
E_dihed  =        29.6450 E_impro  =         0.0000 E_vdwl   =        -0.0352 
E_coul   =         0.0000 E_long   =         0.0000 Press    =        -1.1793
------------ Step           5320 ----- CPU =    0.2466426 (sec) -------------
TotEng   =       167.5763 KinEng   =        77.1733 Temp     =       261.5155 
PotEng   =        90.4031 E_bond   =        34.5947 E_angle  =        24.8032 
E_dihed  =        31.0401 E_impro  =         0.0000 E_vdwl   =        -0.0349 
E_coul   =         0.0000 E_long   =         0.0000 Press    =        -1.8574
------------ Step           5340 ----- CPU =    0.2473318 (sec) -------------
TotEng   =       168.3100 KinEng   =        89.9023 Temp     =       304.6500 
PotEng   =        78.4078 E_bond   =        21.5422 E_angle  =        27.8847 
E_dihed  =        29.0159 E_impro  =         0.0000 E_vdwl   =        -0.0349 
E_coul   =         0.0000 E_long   =         0.0000 Press    =        -1.0976
------------ Step           5360 ----- CPU =    0.2478984 (sec) -------------
TotEng   =       169.6502 KinEng   =        76.3107 Temp     =       258.5925 
PotEng   =        93.3395 E_bond   =        38.1358 E_angle  =        27.9640 
E_dihed  =        27.2747 E_impro  =         0.0000 E_vdwl   =        -0.0350 
E_coul   =         0.0000 E_long   =         0.0000 Press    =        -2.7948
------------ Step           5380 ----- CPU =    0.2485668 (sec) -------------
TotEng   =       170.6541 KinEng   =        86.7790 Temp     =       294.0663 
PotEng   =        83.8751 E_bond   =        30.2082 E_angle  =        24.3589 
E_dihed  =        29.3433 E_impro  =         0.0000 E_vdwl   =        -0.0352 
E_coul   =         0.0000 E_long   =         0.0000 Press    =        -2.0662
------------ Step           5400 ----- CPU =    0.2492406 (sec) -------------
TotEng   =       171.9440 KinEng   =        88.4427 Temp     =       299.7041 
PotEng   =        83.5012 E_bond   =        29.9124 E_angle  =        23.3052 
E_dihed  =        30.3194 E_impro  =         0.0000 E_vdwl   =        -0.0358 
E_coul   =         0.0000 E_long   =         0.0000 Press    =         0.5628
------------ Step           5420 ----- CPU =    0.2500014 (sec) -------------
TotEng   =       173.4029 KinEng   =        86.1179 Temp     =       291.8259 
PotEng   =        87.2850 E_bond   =        33.9169 E_angle  =        26.1098 
E_dihed  =        27.2950 E_impro  =         0.0000 E_vdwl   =        -0.0367 
E_coul   =         0.0000 E_long   =         0.0000 Press    =        -0.9845
------------ Step           5440 ----- CPU =    0.2508345 (sec) -------------
TotEng   =       174.9721 KinEng   =        85.9601 Temp     =       291.2914 
PotEng   =        89.0120 E_bond   =        34.8317 E_angle  =        27.4584 
E_dihed  =        26.7588 E_impro  =         0.0000 E_vdwl   =        -0.0370 
E_coul   =         0.0000 E_long   =         0.0000 Press    =        -1.6844
------------ Step           5460 ----- CPU =    0.2514103 (sec) -------------
TotEng   =       176.4613 KinEng   =        88.4208 Temp     =       299.6296 
PotEng   =        88.0406 E_bond   =        31.0406 E_angle  =        27.1108 
E_dihed  =        29.9255 E_impro  =         0.0000 E_vdwl   =        -0.0365 
E_coul   =         0.0000 E_long   =         0.0000 Press    =         1.0813
------------ Step           5480 ----- CPU =     0.252021 (sec) -------------
TotEng   =       178.1178 KinEng   =        91.7366 Temp     =       310.8658 
PotEng   =        86.3812 E_bond   =        30.2874 E_angle  =        26.2136 
E_dihed  =        29.9164 E_impro  =         0.0000 E_vdwl   =        -0.0362 
E_coul   =         0.0000 E_long   =         0.0000 Press    =        -0.6045
------------ Step           5500 ----- CPU =    0.2527391 (sec) -------------
TotEng   =       179.7906 KinEng   =        82.2909 Temp     =       278.8575 
PotEng   =        97.4997 E_bond   =        34.4225 E_angle  =        33.7725 
E_dihed  =        29.3408 E_impro  =         0.0000 E_vdwl   =        -0.0361 
E_coul   =         0.0000 E_long   =         0.0000 Press    =        -3.4050
------------ Step           5520 ----- CPU =      0.25398 (sec) -------------
TotEng   =       181.4629 KinEng   =        93.5419 Temp     =       316.9836 
PotEng   =        87.9209 E_bond   =        30.6435 E_angle  =        27.2535 
E_dihed  =        30.0602 E_impro  =         0.0000 E_vdwl   =        -0.0363 
E_coul   =         0.0000 E_long   =         0.0000 Press    =         1.2879
------------ Step           5540 ----- CPU =    0.2547565 (sec) -------------
TotEng   =       183.4337 KinEng   =        88.1380 Temp     =       298.6713 
PotEng   =        95.2957 E_bond   =        42.4772 E_angle  =        24.8666 
E_dihed  =        27.9885 E_impro  =         0.0000 E_vdwl   =        -0.0364 
E_coul   =         0.0000 E_long   =         0.0000 Press    =         0.9107
------------ Step           5560 ----- CPU =    0.2569022 (sec) -------------
TotEng   =       184.6910 KinEng   =        95.8544 Temp     =       324.8198 
PotEng   =        88.8366 E_bond   =        28.9420 E_angle  =        32.0660 
E_dihed  =        27.8654 E_impro  =         0.0000 E_vdwl   =        -0.0368 
E_coul   =         0.0000 E_long   =         0.0000 Press    =        -2.0391
------------ Step           5580 ----- CPU =    0.2583808 (sec) -------------
TotEng   =       186.1040 KinEng   =        86.7407 Temp     =       293.9365 
PotEng   =        99.3633 E_bond   =        39.6829 E_angle  =        28.3686 
E_dihed  =        31.3490 E_impro  =         0.0000 E_vdwl   =        -0.0373 
E_coul   =         0.0000 E_long   =         0.0000 Press    =         0.8407
------------ Step           5600 ----- CPU =    0.2593431 (sec) -------------
TotEng   =       187.0966 KinEng   =        94.1975 Temp     =       319.2052 
PotEng   =        92.8991 E_bond   =        34.1418 E_angle  =        25.9828 
E_dihed  =        32.8120 E_impro  =         0.0000 E_vdwl   =        -0.0375 
E_coul   =         0.0000 E_long   =         0.0000 Press    =         1.5570
------------ Step           5620 ----- CPU =     0.260252 (sec) -------------
TotEng   =       188.0791 KinEng   =        96.5182 Temp     =       327.0693 
PotEng   =        91.5609 E_bond   =        30.9180 E_angle  =        29.1687 
E_dihed  =        31.5118 E_impro  =         0.0000 E_vdwl   =        -0.0375 
E_coul   =         0.0000 E_long   =         0.0000 Press    =        -1.6183
------------ Step           5640 ----- CPU =    0.2610202 (sec) -------------
TotEng   =       188.9689 KinEng   =        90.4754 Temp     =       306.5920 
PotEng   =        98.4936 E_bond   =        38.1043 E_angle  =        28.7431 
E_dihed  =        31.6836 E_impro  =         0.0000 E_vdwl   =        -0.0374 
E_coul   =         0.0000 E_long   =         0.0000 Press    =         1.9931
------------ Step           5660 ----- CPU =    0.2622421 (sec) -------------
TotEng   =       189.4826 KinEng   =        98.3237 Temp     =       333.1874 
PotEng   =        91.1589 E_bond   =        35.3104 E_angle  =        23.5414 
E_dihed  =        32.3445 E_impro  =         0.0000 E_vdwl   =        -0.0374 
E_coul   =         0.0000 E_long   =         0.0000 Press    =         2.3188
------------ Step           5680 ----- CPU =    0.2630238 (sec) -------------
TotEng   =       189.4568 KinEng   =        95.3708 Temp     =       323.1810 
PotEng   =        94.0861 E_bond   =        31.1380 E_angle  =        30.5533 
E_dihed  =        32.4323 E_impro  =         0.0000 E_vdwl   =        -0.0376 
E_coul   =         0.0000 E_long   =         0.0000 Press    =        -0.5993
------------ Step           5700 ----- CPU =    0.2637334 (sec) -------------
TotEng   =       188.7038 KinEng   =        99.3794 Temp     =       336.7651 
PotEng   =        89.3244 E_bond   =        34.7329 E_angle  =        22.9881 
E_dihed  =        31.6413 E_impro  =         0.0000 E_vdwl   =        -0.0378 
E_coul   =         0.0000 E_long   =         0.0000 Press    =         2.7719
------------ Step           5720 ----- CPU =    0.2646404 (sec) -------------
TotEng   =       186.9904 KinEng   =        90.5379 Temp     =       306.8039 
PotEng   =        96.4525 E_bond   =        37.4735 E_angle  =        27.4348 
E_dihed  =        31.5821 E_impro  =         0.0000 E_vdwl   =        -0.0380 
E_coul   =         0.0000 E_long   =         0.0000 Press    =         1.5556
------------ Step           5740 ----- CPU =    0.2654244 (sec) -------------
TotEng   =       183.9094 KinEng   =        89.8991 Temp     =       304.6394 
PotEng   =        94.0103 E_bond   =        34.5100 E_angle  =        27.8208 
E_dihed  =        31.7176 E_impro  =         0.0000 E_vdwl   =        -0.0380 
E_coul   =         0.0000 E_long   =         0.0000 Press    =        -2.0639
------------ Step           5760 ----- CPU =    0.2661413 (sec) -------------
TotEng   =       179.8445 KinEng   =        90.5615 Temp     =       306.8839 
PotEng   =        89.2830 E_bond   =        29.8195 E_angle  =        28.0036 
E_dihed  =        31.4974 E_impro  =         0.0000 E_vdwl   =        -0.0375 
E_coul   =         0.0000 E_long   =         0.0000 Press    =         2.3544
------------ Step           5780 ----- CPU =    0.2667699 (sec) -------------
TotEng   =       175.5109 KinEng   =        92.2805 Temp     =       312.7091 
PotEng   =        83.2304 E_bond   =        30.5165 E_angle  =        22.7154 
E_dihed  =        30.0350 E_impro  =         0.0000 E_vdwl   =        -0.0366 
E_coul   =         0.0000 E_long   =         0.0000 Press    =         1.0076
------------ Step           5800 ----- CPU =    0.2676839 (sec) -------------
TotEng   =       171.4164 KinEng   =        81.6393 Temp     =       276.6495 
PotEng   =        89.7771 E_bond   =        32.5640 E_angle  =        24.9983 
E_dihed  =        32.2508 E_impro  =         0.0000 E_vdwl   =        -0.0361 
E_coul   =         0.0000 E_long   =         0.0000 Press    =        -1.8888
------------ Step           5820 ----- CPU =    0.2686262 (sec) -------------
TotEng   =       168.6102 KinEng   =        79.6651 Temp     =       269.9595 
PotEng   =        88.9451 E_bond   =        33.2620 E_angle  =        19.7870 
E_dihed  =        35.9321 E_impro  =         0.0000 E_vdwl   =        -0.0360 
E_coul   =         0.0000 E_long   =         0.0000 Press    =         2.0784
------------ Step           5840 ----- CPU =    0.2692114 (sec) -------------
TotEng   =       166.7112 KinEng   =        81.7399 Temp     =       276.9903 
PotEng   =        84.9713 E_bond   =        28.1055 E_angle  =        21.7578 
E_dihed  =        35.1441 E_impro  =         0.0000 E_vdwl   =        -0.0361 
E_coul   =         0.0000 E_long   =         0.0000 Press    =         0.3750
------------ Step           5860 ----- CPU =      0.26978 (sec) -------------
TotEng   =       165.6491 KinEng   =        81.0574 Temp     =       274.6777 
PotEng   =        84.5916 E_bond   =        26.2656 E_angle  =        25.6923 
E_dihed  =        32.6697 E_impro  =         0.0000 E_vdwl   =        -0.0360 
E_coul   =         0.0000 E_long   =         0.0000 Press    =        -2.7141
------------ Step           5880 ----- CPU =    0.2704598 (sec) -------------
TotEng   =       165.3276 KinEng   =        81.4049 Temp     =       275.8550 
PotEng   =        83.9228 E_bond   =        32.5257 E_angle  =        21.0096 
E_dihed  =        30.4235 E_impro  =         0.0000 E_vdwl   =        -0.0361 
E_coul   =         0.0000 E_long   =         0.0000 Press    =        -0.3025
------------ Step           5900 ----- CPU =    0.2714953 (sec) -------------
TotEng   =       165.4839 KinEng   =        84.8013 Temp     =       287.3645 
PotEng   =        80.6826 E_bond   =        30.8006 E_angle  =        20.5573 
E_dihed  =        29.3612 E_impro  =         0.0000 E_vdwl   =        -0.0364 
E_coul   =         0.0000 E_long   =         0.0000 Press    =        -0.8097
------------ Step           5920 ----- CPU =    0.2723542 (sec) -------------
TotEng   =       165.8851 KinEng   =        81.7606 Temp     =       277.0605 
PotEng   =        84.1245 E_bond   =        30.1863 E_angle  =        21.8431 
E_dihed  =        32.1313 E_impro  =         0.0000 E_vdwl   =        -0.0362 
E_coul   =         0.0000 E_long   =         0.0000 Press    =        -3.7504
------------ Step           5940 ----- CPU =    0.2729292 (sec) -------------
TotEng   =       166.7544 KinEng   =        79.1928 Temp     =       268.3591 
PotEng   =        87.5616 E_bond   =        34.8417 E_angle  =        16.7037 
E_dihed  =        36.0522 E_impro  =         0.0000 E_vdwl   =        -0.0360 
E_coul   =         0.0000 E_long   =         0.0000 Press    =        -0.9387
------------ Step           5960 ----- CPU =    0.2735622 (sec) -------------
TotEng   =       168.1530 KinEng   =        85.2436 Temp     =       288.8634 
PotEng   =        82.9093 E_bond   =        27.4168 E_angle  =        20.1725 
E_dihed  =        35.3561 E_impro  =         0.0000 E_vdwl   =        -0.0361 
E_coul   =         0.0000 E_long   =         0.0000 Press    =         1.4557
------------ Step           5980 ----- CPU =    0.2741075 (sec) -------------
TotEng   =       170.3517 KinEng   =        79.1825 Temp     =       268.3242 
PotEng   =        91.1692 E_bond   =        35.0417 E_angle  =        24.4726 
E_dihed  =        31.6913 E_impro  =         0.0000 E_vdwl   =        -0.0364 
E_coul   =         0.0000 E_long   =         0.0000 Press    =        -1.7956
------------ Step           6000 ----- CPU =    0.2746479 (sec) -------------
TotEng   =       172.9900 KinEng   =        89.7741 Temp     =       304.2157 
PotEng   =        83.2159 E_bond   =        31.4946 E_angle  =        21.0979 
E_dihed  =        30.6600 E_impro  =         0.0000 E_vdwl   =        -0.0366 
E_coul   =         0.0000 E_long   =         0.0000 Press    =         0.1055
------------ Step           6020 ----- CPU =    0.2786285 (sec) -------------
TotEng   =       175.8675 KinEng   =        88.5512 Temp     =       300.0717 
PotEng   =        87.3163 E_bond   =        26.9627 E_angle  =        27.8250 
E_dihed  =        32.5652 E_impro  =         0.0000 E_vdwl   =        -0.0366 
E_coul   =         0.0000 E_long   =         0.0000 Press    =         2.6660
------------ Step           6040 ----- CPU =    0.2792513 (sec) -------------
TotEng   =       178.9553 KinEng   =        91.6367 Temp     =       310.5274 
PotEng   =        87.3186 E_bond   =        33.7178 E_angle  =        21.0082 
E_dihed  =        32.6293 E_impro  =         0.0000 E_vdwl   =        -0.0366 
E_coul   =         0.0000 E_long   =         0.0000 Press    =        -0.3669
------------ Step           6060 ----- CPU =    0.2799812 (sec) -------------
TotEng   =       181.8581 KinEng   =        87.6087 Temp     =       296.8779 
PotEng   =        94.2494 E_bond   =        33.9981 E_angle  =        29.5403 
E_dihed  =        30.7474 E_impro  =         0.0000 E_vdwl   =        -0.0365 
E_coul   =         0.0000 E_long   =         0.0000 Press    =         0.2781
------------ Step           6080 ----- CPU =    0.2805827 (sec) -------------
TotEng   =       184.4131 KinEng   =        99.0636 Temp     =       335.6948 
PotEng   =        85.3495 E_bond   =        33.3073 E_angle  =        21.6809 
E_dihed  =        30.3973 E_impro  =         0.0000 E_vdwl   =        -0.0360 
E_coul   =         0.0000 E_long   =         0.0000 Press    =         1.0775
------------ Step           6100 ----- CPU =    0.2811757 (sec) -------------
TotEng   =       186.0569 KinEng   =       101.6066 Temp     =       344.3123 
PotEng   =        84.4503 E_bond   =        29.1979 E_angle  =        24.1063 
E_dihed  =        31.1816 E_impro  =         0.0000 E_vdwl   =        -0.0356 
E_coul   =         0.0000 E_long   =         0.0000 Press    =        -0.5930
------------ Step           6120 ----- CPU =    0.2823317 (sec) -------------
TotEng   =       187.0449 KinEng   =        91.9166 Temp     =       311.4760 
PotEng   =        95.1282 E_bond   =        34.7002 E_angle  =        29.5329 
E_dihed  =        30.9305 E_impro  =         0.0000 E_vdwl   =        -0.0354 
E_coul   =         0.0000 E_long   =         0.0000 Press    =        -1.3246
------------ Step           6140 ----- CPU =    0.2830343 (sec) -------------
TotEng   =       187.4100 KinEng   =        91.5868 Temp     =       310.3584 
PotEng   =        95.8232 E_bond   =        40.9324 E_angle  =        23.0304 
E_dihed  =        31.8958 E_impro  =         0.0000 E_vdwl   =        -0.0353 
E_coul   =         0.0000 E_long   =         0.0000 Press    =        -0.7769
------------ Step           6160 ----- CPU =    0.2836047 (sec) -------------
TotEng   =       186.9793 KinEng   =        99.4136 Temp     =       336.8809 
PotEng   =        87.5656 E_bond   =        32.7545 E_angle  =        23.9278 
E_dihed  =        30.9190 E_impro  =         0.0000 E_vdwl   =        -0.0356 
E_coul   =         0.0000 E_long   =         0.0000 Press    =        -0.2647
------------ Step           6180 ----- CPU =     0.284243 (sec) -------------
TotEng   =       186.1993 KinEng   =        95.2276 Temp     =       322.6957 
PotEng   =        90.9718 E_bond   =        32.1549 E_angle  =        28.3424 
E_dihed  =        30.5104 E_impro  =         0.0000 E_vdwl   =        -0.0360 
E_coul   =         0.0000 E_long   =         0.0000 Press    =        -1.3353
------------ Step           6200 ----- CPU =    0.2847969 (sec) -------------
TotEng   =       185.0308 KinEng   =        89.7408 Temp     =       304.1030 
PotEng   =        95.2900 E_bond   =        37.3460 E_angle  =        26.8836 
E_dihed  =        31.0963 E_impro  =         0.0000 E_vdwl   =        -0.0359 
E_coul   =         0.0000 E_long   =         0.0000 Press    =        -0.1079
------------ Step           6220 ----- CPU =    0.2854598 (sec) -------------
TotEng   =       183.5129 KinEng   =        90.7496 Temp     =       307.5215 
PotEng   =        92.7632 E_bond   =        34.5663 E_angle  =        25.9325 
E_dihed  =        32.3001 E_impro  =         0.0000 E_vdwl   =        -0.0356 
E_coul   =         0.0000 E_long   =         0.0000 Press    =        -0.4498
------------ Step           6240 ----- CPU =    0.2860184 (sec) -------------
TotEng   =       182.2235 KinEng   =        88.1535 Temp     =       298.7241 
PotEng   =        94.0699 E_bond   =        34.3871 E_angle  =        25.9141 
E_dihed  =        33.8040 E_impro  =         0.0000 E_vdwl   =        -0.0353 
E_coul   =         0.0000 E_long   =         0.0000 Press    =        -1.1495
------------ Step           6260 ----- CPU =    0.2865664 (sec) -------------
TotEng   =       181.2018 KinEng   =        91.7201 Temp     =       310.8101 
PotEng   =        89.4817 E_bond   =        28.2219 E_angle  =        27.4850 
E_dihed  =        33.8099 E_impro  =         0.0000 E_vdwl   =        -0.0352 
E_coul   =         0.0000 E_long   =         0.0000 Press    =         0.2867
------------ Step           6280 ----- CPU =    0.2873538 (sec) -------------
TotEng   =       180.4880 KinEng   =        87.3123 Temp     =       295.8735 
PotEng   =        93.1757 E_bond   =        31.5153 E_angle  =        27.5654 
E_dihed  =        34.1301 E_impro  =         0.0000 E_vdwl   =        -0.0351 
E_coul   =         0.0000 E_long   =         0.0000 Press    =        -2.4289
------------ Step           6300 ----- CPU =    0.2881112 (sec) -------------
TotEng   =       180.1364 KinEng   =        86.9819 Temp     =       294.7538 
PotEng   =        93.1545 E_bond   =        32.1199 E_angle  =        28.0820 
E_dihed  =        32.9878 E_impro  =         0.0000 E_vdwl   =        -0.0352 
E_coul   =         0.0000 E_long   =         0.0000 Press    =        -2.2487
------------ Step           6320 ----- CPU =    0.2890998 (sec) -------------
TotEng   =       180.1168 KinEng   =        90.5282 Temp     =       306.7712 
PotEng   =        89.5885 E_bond   =        34.7734 E_angle  =        25.1350 
E_dihed  =        29.7154 E_impro  =         0.0000 E_vdwl   =        -0.0352 
E_coul   =         0.0000 E_long   =         0.0000 Press    =         0.8573
------------ Step           6340 ----- CPU =    0.2896897 (sec) -------------
TotEng   =       179.5799 KinEng   =        97.0637 Temp     =       328.9178 
PotEng   =        82.5162 E_bond   =        24.7123 E_angle  =        29.2276 
E_dihed  =        28.6115 E_impro  =         0.0000 E_vdwl   =        -0.0351 
E_coul   =         0.0000 E_long   =         0.0000 Press    =        -2.0361
------------ Step           6360 ----- CPU =     0.290269 (sec) -------------
TotEng   =       179.1991 KinEng   =        87.0261 Temp     =       294.9037 
PotEng   =        92.1729 E_bond   =        36.3173 E_angle  =        24.5445 
E_dihed  =        31.3462 E_impro  =         0.0000 E_vdwl   =        -0.0351 
E_coul   =         0.0000 E_long   =         0.0000 Press    =        -2.8145
------------ Step           6380 ----- CPU =    0.2912338 (sec) -------------
TotEng   =       178.9945 KinEng   =        78.7401 Temp     =       266.8251 
PotEng   =       100.2544 E_bond   =        36.1458 E_angle  =        30.4077 
E_dihed  =        33.7363 E_impro  =         0.0000 E_vdwl   =        -0.0354 
E_coul   =         0.0000 E_long   =         0.0000 Press    =         0.3262
------------ Step           6400 ----- CPU =    0.2923565 (sec) -------------
TotEng   =       178.8864 KinEng   =        89.8468 Temp     =       304.4620 
PotEng   =        89.0396 E_bond   =        33.0585 E_angle  =        22.4841 
E_dihed  =        33.5327 E_impro  =         0.0000 E_vdwl   =        -0.0357 
E_coul   =         0.0000 E_long   =         0.0000 Press    =        -1.6002
------------ Step           6420 ----- CPU =    0.2934018 (sec) -------------
TotEng   =       178.9921 KinEng   =        86.1907 Temp     =       292.0726 
PotEng   =        92.8015 E_bond   =        30.5979 E_angle  =        27.9243 
E_dihed  =        34.3153 E_impro  =         0.0000 E_vdwl   =        -0.0360 
E_coul   =         0.0000 E_long   =         0.0000 Press    =        -2.8045
------------ Step           6440 ----- CPU =     0.294255 (sec) -------------
TotEng   =       179.3653 KinEng   =        84.3808 Temp     =       285.9397 
PotEng   =        94.9845 E_bond   =        35.6993 E_angle  =        24.3922 
E_dihed  =        34.9293 E_impro  =         0.0000 E_vdwl   =        -0.0363 
E_coul   =         0.0000 E_long   =         0.0000 Press    =         0.4960
------------ Step           6460 ----- CPU =    0.2955022 (sec) -------------
TotEng   =       179.6082 KinEng   =        83.1827 Temp     =       281.8794 
PotEng   =        96.4255 E_bond   =        30.7604 E_angle  =        27.9529 
E_dihed  =        37.7492 E_impro  =         0.0000 E_vdwl   =        -0.0371 
E_coul   =         0.0000 E_long   =         0.0000 Press    =        -0.1387
------------ Step           6480 ----- CPU =    0.2967361 (sec) -------------
TotEng   =       180.4188 KinEng   =        87.1206 Temp     =       295.2236 
PotEng   =        93.2983 E_bond   =        35.4430 E_angle  =        23.8681 
E_dihed  =        34.0252 E_impro  =         0.0000 E_vdwl   =        -0.0380 
E_coul   =         0.0000 E_long   =         0.0000 Press    =        -3.1724
------------ Step           6500 ----- CPU =     0.297351 (sec) -------------
TotEng   =       181.3837 KinEng   =        91.6041 Temp     =       310.4171 
PotEng   =        89.7796 E_bond   =        32.6628 E_angle  =        26.1787 
E_dihed  =        30.9770 E_impro  =         0.0000 E_vdwl   =        -0.0389 
E_coul   =         0.0000 E_long   =         0.0000 Press    =         1.0732
------------ Step           6520 ----- CPU =    0.2980681 (sec) -------------
TotEng   =       182.2155 KinEng   =        91.4609 Temp     =       309.9316 
PotEng   =        90.7546 E_bond   =        30.2360 E_angle  =        22.7697 
E_dihed  =        37.7885 E_impro  =         0.0000 E_vdwl   =        -0.0396 
E_coul   =         0.0000 E_long   =         0.0000 Press    =         0.4657
------------ Step           6540 ----- CPU =    0.2986385 (sec) -------------
TotEng   =       183.2578 KinEng   =        87.3366 Temp     =       295.9558 
PotEng   =        95.9212 E_bond   =        35.5243 E_angle  =        20.5426 
E_dihed  =        39.8943 E_impro  =         0.0000 E_vdwl   =        -0.0399 
E_coul   =         0.0000 E_long   =         0.0000 Press    =        -2.9225
------------ Step           6560 ----- CPU =    0.2991954 (sec) -------------
TotEng   =       184.5741 KinEng   =        86.6494 Temp     =       293.6271 
PotEng   =        97.9247 E_bond   =        33.3793 E_angle  =        28.7257 
E_dihed  =        35.8591 E_impro  =         0.0000 E_vdwl   =        -0.0394 
E_coul   =         0.0000 E_long   =         0.0000 Press    =         2.1756
------------ Step           6580 ----- CPU =    0.2997519 (sec) -------------
TotEng   =       186.2480 KinEng   =        95.1352 Temp     =       322.3828 
PotEng   =        91.1128 E_bond   =        34.4531 E_angle  =        25.3417 
E_dihed  =        31.3564 E_impro  =         0.0000 E_vdwl   =        -0.0384 
E_coul   =         0.0000 E_long   =         0.0000 Press    =         1.2724
------------ Step           6600 ----- CPU =    0.3004614 (sec) -------------
TotEng   =       188.3607 KinEng   =        90.0206 Temp     =       305.0510 
PotEng   =        98.3401 E_bond   =        35.4202 E_angle  =        32.4024 
E_dihed  =        30.5557 E_impro  =         0.0000 E_vdwl   =        -0.0381 
E_coul   =         0.0000 E_long   =         0.0000 Press    =        -1.8154
------------ Step           6620 ----- CPU =    0.3019367 (sec) -------------
TotEng   =       190.7282 KinEng   =        96.6202 Temp     =       327.4148 
PotEng   =        94.1080 E_bond   =        32.8387 E_angle  =        27.3984 
E_dihed  =        33.9092 E_impro  =         0.0000 E_vdwl   =        -0.0382 
E_coul   =         0.0000 E_long   =         0.0000 Press    =         3.5758
------------ Step           6640 ----- CPU =    0.3026317 (sec) -------------
TotEng   =       193.3867 KinEng   =        92.1773 Temp     =       312.3593 
PotEng   =       101.2094 E_bond   =        41.0576 E_angle  =        26.8088 
E_dihed  =        33.3811 E_impro  =         0.0000 E_vdwl   =        -0.0381 
E_coul   =         0.0000 E_long   =         0.0000 Press    =         0.4568
------------ Step           6660 ----- CPU =    0.3033046 (sec) -------------
TotEng   =       196.1458 KinEng   =       104.4445 Temp     =       353.9289 
PotEng   =        91.7013 E_bond   =        33.2211 E_angle  =        29.5149 
E_dihed  =        29.0031 E_impro  =         0.0000 E_vdwl   =        -0.0377 
E_coul   =         0.0000 E_long   =         0.0000 Press    =        -2.1849
------------ Step           6680 ----- CPU =    0.3041907 (sec) -------------
TotEng   =       198.8988 KinEng   =        95.7768 Temp     =       324.5567 
PotEng   =       103.1220 E_bond   =        45.2867 E_angle  =        29.3874 
E_dihed  =        28.4854 E_impro  =         0.0000 E_vdwl   =        -0.0375 
E_coul   =         0.0000 E_long   =         0.0000 Press    =         5.1356
------------ Step           6700 ----- CPU =    0.3052707 (sec) -------------
TotEng   =       200.7095 KinEng   =       101.1115 Temp     =       342.6345 
PotEng   =        99.5980 E_bond   =        35.8730 E_angle  =        27.3084 
E_dihed  =        36.4538 E_impro  =         0.0000 E_vdwl   =        -0.0372 
E_coul   =         0.0000 E_long   =         0.0000 Press    =         1.3898
------------ Step           6720 ----- CPU =    0.3062205 (sec) -------------
TotEng   =       201.8804 KinEng   =       104.7908 Temp     =       355.1024 
PotEng   =        97.0896 E_bond   =        30.6375 E_angle  =        27.3754 
E_dihed  =        39.1137 E_impro  =         0.0000 E_vdwl   =        -0.0369 
E_coul   =         0.0000 E_long   =         0.0000 Press    =        -2.6132
------------ Step           6740 ----- CPU =    0.3068356 (sec) -------------
TotEng   =       202.3596 KinEng   =        96.5595 Temp     =       327.2092 
PotEng   =       105.8001 E_bond   =        45.2352 E_angle  =        24.6391 
E_dihed  =        35.9627 E_impro  =         0.0000 E_vdwl   =        -0.0369 
E_coul   =         0.0000 E_long   =         0.0000 Press    =         5.3454
------------ Step           6760 ----- CPU =    0.3074382 (sec) -------------
TotEng   =       201.3266 KinEng   =       104.1902 Temp     =       353.0673 
PotEng   =        97.1364 E_bond   =        31.0506 E_angle  =        31.2078 
E_dihed  =        34.9153 E_impro  =         0.0000 E_vdwl   =        -0.0373 
E_coul   =         0.0000 E_long   =         0.0000 Press    =        -0.1582
------------ Step           6780 ----- CPU =    0.3083125 (sec) -------------
TotEng   =       199.2142 KinEng   =        93.5579 Temp     =       317.0378 
PotEng   =       105.6563 E_bond   =        39.9850 E_angle  =        25.0931 
E_dihed  =        40.6162 E_impro  =         0.0000 E_vdwl   =        -0.0380 
E_coul   =         0.0000 E_long   =         0.0000 Press    =        -5.6453
------------ Step           6800 ----- CPU =    0.3091306 (sec) -------------
TotEng   =       196.2246 KinEng   =        88.3012 Temp     =       299.2245 
PotEng   =       107.9233 E_bond   =        36.5253 E_angle  =        28.6905 
E_dihed  =        42.7460 E_impro  =         0.0000 E_vdwl   =        -0.0385 
E_coul   =         0.0000 E_long   =         0.0000 Press    =         3.8977
------------ Step           6820 ----- CPU =    0.3098604 (sec) -------------
TotEng   =       192.4075 KinEng   =        98.4201 Temp     =       333.5142 
PotEng   =        93.9874 E_bond   =        36.7055 E_angle  =        21.6808 
E_dihed  =        35.6395 E_impro  =         0.0000 E_vdwl   =        -0.0385 
E_coul   =         0.0000 E_long   =         0.0000 Press    =        -0.7967
------------ Step           6840 ----- CPU =    0.3107073 (sec) -------------
TotEng   =       187.6337 KinEng   =        94.8893 Temp     =       321.5494 
PotEng   =        92.7444 E_bond   =        34.9514 E_angle  =        26.4580 
E_dihed  =        31.3732 E_impro  =         0.0000 E_vdwl   =        -0.0383 
E_coul   =         0.0000 E_long   =         0.0000 Press    =        -4.5957
------------ Step           6860 ----- CPU =    0.3114537 (sec) -------------
TotEng   =       182.9964 KinEng   =        83.7898 Temp     =       283.9369 
PotEng   =        99.2066 E_bond   =        38.7676 E_angle  =        25.6364 
E_dihed  =        34.8409 E_impro  =         0.0000 E_vdwl   =        -0.0383 
E_coul   =         0.0000 E_long   =         0.0000 Press    =         4.8253
------------ Step           6880 ----- CPU =    0.3122135 (sec) -------------
TotEng   =       179.5666 KinEng   =        82.5354 Temp     =       279.6859 
PotEng   =        97.0313 E_bond   =        31.3462 E_angle  =        28.6757 
E_dihed  =        37.0481 E_impro  =         0.0000 E_vdwl   =        -0.0386 
E_coul   =         0.0000 E_long   =         0.0000 Press    =         0.3923
------------ Step           6900 ----- CPU =    0.3127886 (sec) -------------
TotEng   =       177.4704 KinEng   =        87.4618 Temp     =       296.3800 
PotEng   =        90.0086 E_bond   =        33.6348 E_angle  =        26.9051 
E_dihed  =        29.5078 E_impro  =         0.0000 E_vdwl   =        -0.0391 
E_coul   =         0.0000 E_long   =         0.0000 Press    =        -3.7499
------------ Step           6920 ----- CPU =    0.3135558 (sec) -------------
TotEng   =       175.6421 KinEng   =        96.0626 Temp     =       325.5255 
PotEng   =        79.5795 E_bond   =        28.6501 E_angle  =        25.0015 
E_dihed  =        25.9671 E_impro  =         0.0000 E_vdwl   =        -0.0393 
E_coul   =         0.0000 E_long   =         0.0000 Press    =         4.8175
------------ Step           6940 ----- CPU =    0.3141402 (sec) -------------
TotEng   =       174.1272 KinEng   =        79.0889 Temp     =       268.0070 
PotEng   =        95.0382 E_bond   =        35.9652 E_angle  =        27.6701 
E_dihed  =        31.4426 E_impro  =         0.0000 E_vdwl   =        -0.0397 
E_coul   =         0.0000 E_long   =         0.0000 Press    =        -0.2271
------------ Step           6960 ----- CPU =    0.3146513 (sec) -------------
TotEng   =       173.3701 KinEng   =        82.1913 Temp     =       278.5198 
PotEng   =        91.1789 E_bond   =        31.9052 E_angle  =        26.0152 
E_dihed  =        33.2980 E_impro  =         0.0000 E_vdwl   =        -0.0396 
E_coul   =         0.0000 E_long   =         0.0000 Press    =        -3.4570
------------ Step           6980 ----- CPU =    0.3156329 (sec) -------------
TotEng   =       173.1707 KinEng   =        86.3513 Temp     =       292.6170 
PotEng   =        86.8193 E_bond   =        28.1955 E_angle  =        25.2785 
E_dihed  =        33.3847 E_impro  =         0.0000 E_vdwl   =        -0.0393 
E_coul   =         0.0000 E_long   =         0.0000 Press    =         5.1735
------------ Step           7000 ----- CPU =    0.3162251 (sec) -------------
TotEng   =       173.5014 KinEng   =        75.9328 Temp     =       257.3119 
PotEng   =        97.5686 E_bond   =        35.8545 E_angle  =        28.2318 
E_dihed  =        33.5215 E_impro  =         0.0000 E_vdwl   =        -0.0392 
E_coul   =         0.0000 E_long   =         0.0000 Press    =         0.5081
------------ Step           7020 ----- CPU =    0.3170595 (sec) -------------
TotEng   =       174.2178 KinEng   =        87.4692 Temp     =       296.4050 
PotEng   =        86.7487 E_bond   =        31.4037 E_angle  =        21.3463 
E_dihed  =        34.0378 E_impro  =         0.0000 E_vdwl   =        -0.0391 
E_coul   =         0.0000 E_long   =         0.0000 Press    =        -2.6738
------------ Step           7040 ----- CPU =    0.3176276 (sec) -------------
TotEng   =       175.4911 KinEng   =        78.3746 Temp     =       265.5863 
PotEng   =        97.1165 E_bond   =        35.3536 E_angle  =        28.8704 
E_dihed  =        32.9318 E_impro  =         0.0000 E_vdwl   =        -0.0393 
E_coul   =         0.0000 E_long   =         0.0000 Press    =         5.7720
------------ Step           7060 ----- CPU =    0.3181899 (sec) -------------
TotEng   =       177.1487 KinEng   =        85.9118 Temp     =       291.1275 
PotEng   =        91.2369 E_bond   =        35.0465 E_angle  =        25.5204 
E_dihed  =        30.7091 E_impro  =         0.0000 E_vdwl   =        -0.0391 
E_coul   =         0.0000 E_long   =         0.0000 Press    =        -0.3336
------------ Step           7080 ----- CPU =    0.3189714 (sec) -------------
TotEng   =       179.1144 KinEng   =        88.2381 Temp     =       299.0106 
PotEng   =        90.8763 E_bond   =        31.3700 E_angle  =        28.2033 
E_dihed  =        31.3421 E_impro  =         0.0000 E_vdwl   =        -0.0391 
E_coul   =         0.0000 E_long   =         0.0000 Press    =        -2.3814
------------ Step           7100 ----- CPU =    0.3195411 (sec) -------------
TotEng   =       181.2928 KinEng   =        91.9833 Temp     =       311.7021 
PotEng   =        89.3095 E_bond   =        33.6154 E_angle  =        20.5341 
E_dihed  =        35.1992 E_impro  =         0.0000 E_vdwl   =        -0.0393 
E_coul   =         0.0000 E_long   =         0.0000 Press    =         7.0695
------------ Step           7120 ----- CPU =    0.3203598 (sec) -------------
TotEng   =       183.3260 KinEng   =        91.9819 Temp     =       311.6972 
PotEng   =        91.3441 E_bond   =        32.2622 E_angle  =        24.8744 
E_dihed  =        34.2467 E_impro  =         0.0000 E_vdwl   =        -0.0391 
E_coul   =         0.0000 E_long   =         0.0000 Press    =        -0.6883
------------ Step           7140 ----- CPU =    0.3215352 (sec) -------------
TotEng   =       185.3277 KinEng   =        92.7653 Temp     =       314.3520 
PotEng   =        92.5623 E_bond   =        36.7386 E_angle  =        25.4760 
E_dihed  =        30.3866 E_impro  =         0.0000 E_vdwl   =        -0.0389 
E_coul   =         0.0000 E_long   =         0.0000 Press    =        -1.4154
------------ Step           7160 ----- CPU =    0.3221277 (sec) -------------
TotEng   =       187.1886 KinEng   =       101.1467 Temp     =       342.7537 
PotEng   =        86.0419 E_bond   =        30.9894 E_angle  =        23.9417 
E_dihed  =        31.1496 E_impro  =         0.0000 E_vdwl   =        -0.0388 
E_coul   =         0.0000 E_long   =         0.0000 Press    =         7.2972
------------ Step           7180 ----- CPU =    0.3229916 (sec) -------------
TotEng   =       188.7611 KinEng   =        88.3026 Temp     =       299.2292 
PotEng   =       100.4585 E_bond   =        38.1539 E_angle  =        29.5113 
E_dihed  =        32.8322 E_impro  =         0.0000 E_vdwl   =        -0.0389 
E_coul   =         0.0000 E_long   =         0.0000 Press    =        -1.6462
------------ Step           7200 ----- CPU =    0.3237478 (sec) -------------
TotEng   =       190.0421 KinEng   =       105.0044 Temp     =       355.8263 
PotEng   =        85.0377 E_bond   =        29.0901 E_angle  =        23.6586 
E_dihed  =        32.3278 E_impro  =         0.0000 E_vdwl   =        -0.0387 
E_coul   =         0.0000 E_long   =         0.0000 Press    =        -2.5570
------------ Step           7220 ----- CPU =     0.324505 (sec) -------------
TotEng   =       191.1855 KinEng   =        91.2617 Temp     =       309.2567 
PotEng   =        99.9237 E_bond   =        44.3086 E_angle  =        25.3901 
E_dihed  =        30.2632 E_impro  =         0.0000 E_vdwl   =        -0.0382 
E_coul   =         0.0000 E_long   =         0.0000 Press    =         4.4751
------------ Step           7240 ----- CPU =    0.3250766 (sec) -------------
TotEng   =       191.2745 KinEng   =       101.2977 Temp     =       343.2655 
PotEng   =        89.9768 E_bond   =        35.0410 E_angle  =        24.3245 
E_dihed  =        30.6492 E_impro  =         0.0000 E_vdwl   =        -0.0378 
E_coul   =         0.0000 E_long   =         0.0000 Press    =        -2.5465
------------ Step           7260 ----- CPU =    0.3256376 (sec) -------------
TotEng   =       190.5820 KinEng   =        90.1838 Temp     =       305.6041 
PotEng   =       100.3981 E_bond   =        36.9791 E_angle  =        28.7748 
E_dihed  =        34.6820 E_impro  =         0.0000 E_vdwl   =        -0.0377 
E_coul   =         0.0000 E_long   =         0.0000 Press    =        -5.6611
------------ Step           7280 ----- CPU =    0.3271319 (sec) -------------
TotEng   =       189.0202 KinEng   =        93.6350 Temp     =       317.2990 
PotEng   =        95.3852 E_bond   =        34.0627 E_angle  =        26.8562 
E_dihed  =        34.5038 E_impro  =         0.0000 E_vdwl   =        -0.0375 
E_coul   =         0.0000 E_long   =         0.0000 Press    =         1.6248
------------ Step           7300 ----- CPU =    0.3278169 (sec) -------------
TotEng   =       185.8689 KinEng   =        89.7225 Temp     =       304.0409 
PotEng   =        96.1463 E_bond   =        38.3417 E_angle  =        25.1428 
E_dihed  =        32.6994 E_impro  =         0.0000 E_vdwl   =        -0.0375 
E_coul   =         0.0000 E_long   =         0.0000 Press    =        -4.7552
------------ Step           7320 ----- CPU =    0.3286823 (sec) -------------
TotEng   =       182.0323 KinEng   =        82.7190 Temp     =       280.3082 
PotEng   =        99.3133 E_bond   =        41.2550 E_angle  =        25.4853 
E_dihed  =        32.6101 E_impro  =         0.0000 E_vdwl   =        -0.0371 
E_coul   =         0.0000 E_long   =         0.0000 Press    =        -6.9935
------------ Step           7340 ----- CPU =    0.3292565 (sec) -------------
TotEng   =       177.7362 KinEng   =        91.2298 Temp     =       309.1487 
PotEng   =        86.5063 E_bond   =        28.7084 E_angle  =        24.2210 
E_dihed  =        33.6138 E_impro  =         0.0000 E_vdwl   =        -0.0368 
E_coul   =         0.0000 E_long   =         0.0000 Press    =         2.1896
------------ Step           7360 ----- CPU =    0.3298547 (sec) -------------
TotEng   =       173.7277 KinEng   =        91.9912 Temp     =       311.7286 
PotEng   =        81.7366 E_bond   =        28.6909 E_angle  =        20.2794 
E_dihed  =        32.8033 E_impro  =         0.0000 E_vdwl   =        -0.0370 
E_coul   =         0.0000 E_long   =         0.0000 Press    =        -3.9753
------------ Step           7380 ----- CPU =    0.3304296 (sec) -------------
TotEng   =       170.4824 KinEng   =        78.5755 Temp     =       266.2670 
PotEng   =        91.9070 E_bond   =        37.8612 E_angle  =        21.2156 
E_dihed  =        32.8676 E_impro  =         0.0000 E_vdwl   =        -0.0374 
E_coul   =         0.0000 E_long   =         0.0000 Press    =        -5.3172
------------ Step           7400 ----- CPU =     0.331037 (sec) -------------
TotEng   =       168.0830 KinEng   =        84.3078 Temp     =       285.6922 
PotEng   =        83.7752 E_bond   =        23.9603 E_angle  =        25.8814 
E_dihed  =        33.9718 E_impro  =         0.0000 E_vdwl   =        -0.0383 
E_coul   =         0.0000 E_long   =         0.0000 Press    =         2.9924
------------ Step           7420 ----- CPU =    0.3317705 (sec) -------------
TotEng   =       166.4993 KinEng   =        88.5108 Temp     =       299.9348 
PotEng   =        77.9885 E_bond   =        26.5449 E_angle  =        21.4226 
E_dihed  =        30.0602 E_impro  =         0.0000 E_vdwl   =        -0.0392 
E_coul   =         0.0000 E_long   =         0.0000 Press    =        -3.4607
------------ Step           7440 ----- CPU =    0.3324138 (sec) -------------
TotEng   =       165.6173 KinEng   =        81.1352 Temp     =       274.9414 
PotEng   =        84.4821 E_bond   =        33.0877 E_angle  =        24.6013 
E_dihed  =        26.8331 E_impro  =         0.0000 E_vdwl   =        -0.0400 
E_coul   =         0.0000 E_long   =         0.0000 Press    =        -2.3070
------------ Step           7460 ----- CPU =    0.3330084 (sec) -------------
TotEng   =       165.1127 KinEng   =        81.5761 Temp     =       276.4354 
PotEng   =        83.5366 E_bond   =        30.6926 E_angle  =        24.7064 
E_dihed  =        28.1779 E_impro  =         0.0000 E_vdwl   =        -0.0404 
E_coul   =         0.0000 E_long   =         0.0000 Press    =         4.6131
------------ Step           7480 ----- CPU =    0.3337784 (sec) -------------
TotEng   =       165.0439 KinEng   =        83.5376 Temp     =       283.0823 
PotEng   =        81.5062 E_bond   =        26.6742 E_angle  =        25.4151 
E_dihed  =        29.4575 E_impro  =         0.0000 E_vdwl   =        -0.0405 
E_coul   =         0.0000 E_long   =         0.0000 Press    =        -1.4281
------------ Step           7500 ----- CPU =    0.3343556 (sec) -------------
TotEng   =       165.6318 KinEng   =        79.4054 Temp     =       269.0795 
PotEng   =        86.2264 E_bond   =        33.4120 E_angle  =        23.5003 
E_dihed  =        29.3547 E_impro  =         0.0000 E_vdwl   =        -0.0406 
E_coul   =         0.0000 E_long   =         0.0000 Press    =         1.2714
------------ Step           7520 ----- CPU =    0.3350142 (sec) -------------
TotEng   =       166.6947 KinEng   =        78.9455 Temp     =       267.5210 
PotEng   =        87.7492 E_bond   =        34.7016 E_angle  =        24.4854 
E_dihed  =        28.6025 E_impro  =         0.0000 E_vdwl   =        -0.0403 
E_coul   =         0.0000 E_long   =         0.0000 Press    =         5.7715
------------ Step           7540 ----- CPU =    0.3355836 (sec) -------------
TotEng   =       168.4238 KinEng   =        76.2695 Temp     =       258.4529 
PotEng   =        92.1543 E_bond   =        35.2749 E_angle  =        26.3679 
E_dihed  =        30.5517 E_impro  =         0.0000 E_vdwl   =        -0.0402 
E_coul   =         0.0000 E_long   =         0.0000 Press    =        -0.2673
------------ Step           7560 ----- CPU =    0.3361452 (sec) -------------
TotEng   =       170.9871 KinEng   =        83.2973 Temp     =       282.2678 
PotEng   =        87.6898 E_bond   =        30.6532 E_angle  =        26.8876 
E_dihed  =        30.1899 E_impro  =         0.0000 E_vdwl   =        -0.0409 
E_coul   =         0.0000 E_long   =         0.0000 Press    =         1.8389
------------ Step           7580 ----- CPU =    0.3367063 (sec) -------------
TotEng   =       174.3233 KinEng   =        87.6683 Temp     =       297.0796 
PotEng   =        86.6550 E_bond   =        36.8318 E_angle  =        23.1814 
E_dihed  =        26.6832 E_impro  =         0.0000 E_vdwl   =        -0.0415 
E_coul   =         0.0000 E_long   =         0.0000 Press    =         5.4819
------------ Step           7600 ----- CPU =    0.3375046 (sec) -------------
TotEng   =       177.6526 KinEng   =        93.5879 Temp     =       317.1395 
PotEng   =        84.0647 E_bond   =        30.7967 E_angle  =        27.1232 
E_dihed  =        26.1862 E_impro  =         0.0000 E_vdwl   =        -0.0414 
E_coul   =         0.0000 E_long   =         0.0000 Press    =         0.5395
------------ Step           7620 ----- CPU =    0.3385385 (sec) -------------
TotEng   =       180.5935 KinEng   =        89.4369 Temp     =       303.0731 
PotEng   =        91.1566 E_bond   =        34.4436 E_angle  =        27.0520 
E_dihed  =        29.7018 E_impro  =         0.0000 E_vdwl   =        -0.0408 
E_coul   =         0.0000 E_long   =         0.0000 Press    =         1.6488
------------ Step           7640 ----- CPU =    0.3391874 (sec) -------------
TotEng   =       182.8781 KinEng   =        99.1662 Temp     =       336.0426 
PotEng   =        83.7119 E_bond   =        30.8185 E_angle  =        23.0403 
E_dihed  =        29.8937 E_impro  =         0.0000 E_vdwl   =        -0.0407 
E_coul   =         0.0000 E_long   =         0.0000 Press    =         4.5598
------------ Step           7660 ----- CPU =    0.3397682 (sec) -------------
TotEng   =       184.3801 KinEng   =       101.4180 Temp     =       343.6732 
PotEng   =        82.9621 E_bond   =        31.0733 E_angle  =        23.8617 
E_dihed  =        28.0679 E_impro  =         0.0000 E_vdwl   =        -0.0408 
E_coul   =         0.0000 E_long   =         0.0000 Press    =        -1.4583
------------ Step           7680 ----- CPU =    0.3404515 (sec) -------------
TotEng   =       185.1474 KinEng   =        94.9804 Temp     =       321.8581 
PotEng   =        90.1670 E_bond   =        34.8228 E_angle  =        26.4849 
E_dihed  =        28.9000 E_impro  =         0.0000 E_vdwl   =        -0.0407 
E_coul   =         0.0000 E_long   =         0.0000 Press    =        -1.9271
------------ Step           7700 ----- CPU =    0.3410253 (sec) -------------
TotEng   =       185.2126 KinEng   =        83.7595 Temp     =       283.8343 
PotEng   =       101.4530 E_bond   =        39.5601 E_angle  =        27.9238 
E_dihed  =        34.0096 E_impro  =         0.0000 E_vdwl   =        -0.0405 
E_coul   =         0.0000 E_long   =         0.0000 Press    =         1.6062
------------ Step           7720 ----- CPU =    0.3417109 (sec) -------------
TotEng   =       184.9648 KinEng   =        95.6347 Temp     =       324.0755 
PotEng   =        89.3300 E_bond   =        28.6933 E_angle  =        25.5782 
E_dihed  =        35.0990 E_impro  =         0.0000 E_vdwl   =        -0.0405 
E_coul   =         0.0000 E_long   =         0.0000 Press    =        -3.6198
------------ Step           7740 ----- CPU =    0.3422787 (sec) -------------
TotEng   =       185.1627 KinEng   =        90.8760 Temp     =       307.9498 
PotEng   =        94.2867 E_bond   =        37.7240 E_angle  =        24.8998 
E_dihed  =        31.7043 E_impro  =         0.0000 E_vdwl   =        -0.0414 
E_coul   =         0.0000 E_long   =         0.0000 Press    =        -3.6970
------------ Step           7760 ----- CPU =    0.3429385 (sec) -------------
TotEng   =       184.8745 KinEng   =        85.7355 Temp     =       290.5302 
PotEng   =        99.1389 E_bond   =        42.6038 E_angle  =        28.1175 
E_dihed  =        28.4603 E_impro  =         0.0000 E_vdwl   =        -0.0425 
E_coul   =         0.0000 E_long   =         0.0000 Press    =         0.2122
------------ Step           7780 ----- CPU =    0.3435057 (sec) -------------
TotEng   =       184.1169 KinEng   =        88.4795 Temp     =       299.8288 
PotEng   =        95.6374 E_bond   =        41.8099 E_angle  =        25.2347 
E_dihed  =        28.6351 E_impro  =         0.0000 E_vdwl   =        -0.0423 
E_coul   =         0.0000 E_long   =         0.0000 Press    =        -4.6776
------------ Step           7800 ----- CPU =    0.3442155 (sec) -------------
TotEng   =       183.0415 KinEng   =        96.5162 Temp     =       327.0624 
PotEng   =        86.5253 E_bond   =        28.9596 E_angle  =        27.0919 
E_dihed  =        30.5158 E_impro  =         0.0000 E_vdwl   =        -0.0421 
E_coul   =         0.0000 E_long   =         0.0000 Press    =        -3.6507
------------ Step           7820 ----- CPU =    0.3454518 (sec) -------------
TotEng   =       182.0899 KinEng   =        86.5267 Temp     =       293.2114 
PotEng   =        95.5631 E_bond   =        38.3963 E_angle  =        24.8828 
E_dihed  =        32.3256 E_impro  =         0.0000 E_vdwl   =        -0.0417 
E_coul   =         0.0000 E_long   =         0.0000 Press    =         0.9472
------------ Step           7840 ----- CPU =    0.3462016 (sec) -------------
TotEng   =       180.9843 KinEng   =        86.6368 Temp     =       293.5843 
PotEng   =        94.3476 E_bond   =        34.2480 E_angle  =        29.0598 
E_dihed  =        31.0817 E_impro  =         0.0000 E_vdwl   =        -0.0420 
E_coul   =         0.0000 E_long   =         0.0000 Press    =        -2.5111
------------ Step           7860 ----- CPU =    0.3467819 (sec) -------------
TotEng   =       179.9392 KinEng   =        93.3726 Temp     =       316.4099 
PotEng   =        86.5666 E_bond   =        33.0389 E_angle  =        23.9708 
E_dihed  =        29.5995 E_impro  =         0.0000 E_vdwl   =        -0.0426 
E_coul   =         0.0000 E_long   =         0.0000 Press    =        -2.5071
------------ Step           7880 ----- CPU =    0.3473498 (sec) -------------
TotEng   =       179.2153 KinEng   =        91.1987 Temp     =       309.0432 
PotEng   =        88.0166 E_bond   =        30.2426 E_angle  =        28.1605 
E_dihed  =        29.6554 E_impro  =         0.0000 E_vdwl   =        -0.0420 
E_coul   =         0.0000 E_long   =         0.0000 Press    =         2.8977
------------ Step           7900 ----- CPU =    0.3479747 (sec) -------------
TotEng   =       178.3417 KinEng   =        95.1032 Temp     =       322.2743 
PotEng   =        83.2385 E_bond   =        26.1119 E_angle  =        26.8694 
E_dihed  =        30.2991 E_impro  =         0.0000 E_vdwl   =        -0.0420 
E_coul   =         0.0000 E_long   =         0.0000 Press    =         0.3154
------------ Step           7920 ----- CPU =    0.3487118 (sec) -------------
TotEng   =       177.6858 KinEng   =        86.7562 Temp     =       293.9888 
PotEng   =        90.9297 E_bond   =        28.5055 E_angle  =        29.5621 
E_dihed  =        32.9048 E_impro  =         0.0000 E_vdwl   =        -0.0428 
E_coul   =         0.0000 E_long   =         0.0000 Press    =        -0.9694
------------ Step           7940 ----- CPU =    0.3493854 (sec) -------------
TotEng   =       177.5182 KinEng   =        78.4606 Temp     =       265.8777 
PotEng   =        99.0576 E_bond   =        35.8498 E_angle  =        28.5239 
E_dihed  =        34.7271 E_impro  =         0.0000 E_vdwl   =        -0.0432 
E_coul   =         0.0000 E_long   =         0.0000 Press    =         4.0902
------------ Step           7960 ----- CPU =    0.3499942 (sec) -------------
TotEng   =       177.6907 KinEng   =        90.8290 Temp     =       307.7904 
PotEng   =        86.8617 E_bond   =        30.1968 E_angle  =        25.3090 
E_dihed  =        31.3988 E_impro  =         0.0000 E_vdwl   =        -0.0430 
E_coul   =         0.0000 E_long   =         0.0000 Press    =         2.0806
------------ Step           7980 ----- CPU =    0.3505667 (sec) -------------
TotEng   =       178.1465 KinEng   =        85.0713 Temp     =       288.2795 
PotEng   =        93.0752 E_bond   =        35.0282 E_angle  =        32.3644 
E_dihed  =        25.7257 E_impro  =         0.0000 E_vdwl   =        -0.0431 
E_coul   =         0.0000 E_long   =         0.0000 Press    =        -0.3908
------------ Step           8000 ----- CPU =    0.3511352 (sec) -------------
TotEng   =       178.3658 KinEng   =        94.5128 Temp     =       320.2737 
PotEng   =        83.8530 E_bond   =        35.0143 E_angle  =        25.4021 
E_dihed  =        23.4800 E_impro  =         0.0000 E_vdwl   =        -0.0434 
E_coul   =         0.0000 E_long   =         0.0000 Press    =         3.8443
------------ Step           8020 ----- CPU =     0.351879 (sec) -------------
TotEng   =       178.2590 KinEng   =        83.4818 Temp     =       282.8932 
PotEng   =        94.7772 E_bond   =        35.9344 E_angle  =        28.3695 
E_dihed  =        30.5170 E_impro  =         0.0000 E_vdwl   =        -0.0438 
E_coul   =         0.0000 E_long   =         0.0000 Press    =         0.1145
------------ Step           8040 ----- CPU =    0.3524524 (sec) -------------
TotEng   =       178.0464 KinEng   =        91.9541 Temp     =       311.6030 
PotEng   =        86.0923 E_bond   =        30.6624 E_angle  =        19.2210 
E_dihed  =        36.2532 E_impro  =         0.0000 E_vdwl   =        -0.0443 
E_coul   =         0.0000 E_long   =         0.0000 Press    =        -1.4039
------------ Step           8060 ----- CPU =     0.353065 (sec) -------------
TotEng   =       178.0295 KinEng   =        80.8338 Temp     =       273.9197 
PotEng   =        97.1957 E_bond   =        39.0521 E_angle  =        25.1033 
E_dihed  =        33.0855 E_impro  =         0.0000 E_vdwl   =        -0.0452 
E_coul   =         0.0000 E_long   =         0.0000 Press    =         2.8978
------------ Step           8080 ----- CPU =    0.3536338 (sec) -------------
TotEng   =       177.8789 KinEng   =        91.1234 Temp     =       308.7880 
PotEng   =        86.7555 E_bond   =        33.0816 E_angle  =        23.9214 
E_dihed  =        29.7987 E_impro  =         0.0000 E_vdwl   =        -0.0462 
E_coul   =         0.0000 E_long   =         0.0000 Press    =         0.7558
------------ Step           8100 ----- CPU =    0.3542045 (sec) -------------
TotEng   =       177.7157 KinEng   =        92.6480 Temp     =       313.9544 
PotEng   =        85.0677 E_bond   =        33.2707 E_angle  =        23.4375 
E_dihed  =        28.4082 E_impro  =         0.0000 E_vdwl   =        -0.0487 
E_coul   =         0.0000 E_long   =         0.0000 Press    =        -0.7667
------------ Step           8120 ----- CPU =    0.3548802 (sec) -------------
TotEng   =       177.5211 KinEng   =        89.3910 Temp     =       302.9175 
PotEng   =        88.1301 E_bond   =        30.8731 E_angle  =        27.7577 
E_dihed  =        29.5530 E_impro  =         0.0000 E_vdwl   =        -0.0536 
E_coul   =         0.0000 E_long   =         0.0000 Press    =         1.7699
------------ Step           8140 ----- CPU =    0.3567388 (sec) -------------
TotEng   =       177.4086 KinEng   =        84.5900 Temp     =       286.6485 
PotEng   =        92.8185 E_bond   =        28.3564 E_angle  =        33.5875 
E_dihed  =        30.9326 E_impro  =         0.0000 E_vdwl   =        -0.0581 
E_coul   =         0.0000 E_long   =         0.0000 Press    =        -0.5649
------------ Step           8160 ----- CPU =    0.3573249 (sec) -------------
TotEng   =       177.7469 KinEng   =        85.0871 Temp     =       288.3328 
PotEng   =        92.6598 E_bond   =        35.0015 E_angle  =        27.3491 
E_dihed  =        30.3650 E_impro  =         0.0000 E_vdwl   =        -0.0557 
E_coul   =         0.0000 E_long   =         0.0000 Press    =        -1.6055
------------ Step           8180 ----- CPU =      0.35786 (sec) -------------
TotEng   =       178.2827 KinEng   =        92.2973 Temp     =       312.7660 
PotEng   =        85.9854 E_bond   =        26.4124 E_angle  =        31.2727 
E_dihed  =        28.3514 E_impro  =         0.0000 E_vdwl   =        -0.0511 
E_coul   =         0.0000 E_long   =         0.0000 Press    =         0.6321
------------ Step           8200 ----- CPU =    0.3585526 (sec) -------------
TotEng   =       179.3270 KinEng   =        87.8637 Temp     =       297.7418 
PotEng   =        91.4633 E_bond   =        38.2805 E_angle  =        22.9587 
E_dihed  =        30.2740 E_impro  =         0.0000 E_vdwl   =        -0.0498 
E_coul   =         0.0000 E_long   =         0.0000 Press    =        -0.2693
------------ Step           8220 ----- CPU =    0.3595706 (sec) -------------
TotEng   =       180.4081 KinEng   =        87.2898 Temp     =       295.7973 
PotEng   =        93.1183 E_bond   =        31.9740 E_angle  =        26.9560 
E_dihed  =        34.2366 E_impro  =         0.0000 E_vdwl   =        -0.0484 
E_coul   =         0.0000 E_long   =         0.0000 Press    =        -1.7654
------------ Step           8240 ----- CPU =    0.3603946 (sec) -------------
TotEng   =       182.3667 KinEng   =        73.3718 Temp     =       248.6337 
PotEng   =       108.9948 E_bond   =        43.4495 E_angle  =        31.2147 
E_dihed  =        34.3780 E_impro  =         0.0000 E_vdwl   =        -0.0473 
E_coul   =         0.0000 E_long   =         0.0000 Press    =         0.5629
------------ Step           8260 ----- CPU =    0.3621648 (sec) -------------
TotEng   =       185.4922 KinEng   =        96.7354 Temp     =       327.8052 
PotEng   =        88.7568 E_bond   =        30.9267 E_angle  =        25.5026 
E_dihed  =        32.3752 E_impro  =         0.0000 E_vdwl   =        -0.0478 
E_coul   =         0.0000 E_long   =         0.0000 Press    =         0.6973
------------ Step           8280 ----- CPU =    0.3628968 (sec) -------------
TotEng   =       190.2536 KinEng   =       101.1836 Temp     =       342.8788 
PotEng   =        89.0700 E_bond   =        35.9919 E_angle  =        23.2547 
E_dihed  =        29.8733 E_impro  =         0.0000 E_vdwl   =        -0.0499 
E_coul   =         0.0000 E_long   =         0.0000 Press    =        -0.0409
------------ Step           8300 ----- CPU =    0.3636056 (sec) -------------
TotEng   =       194.7323 KinEng   =        96.7656 Temp     =       327.9076 
PotEng   =        97.9667 E_bond   =        40.2775 E_angle  =        24.7399 
E_dihed  =        33.0040 E_impro  =         0.0000 E_vdwl   =        -0.0547 
E_coul   =         0.0000 E_long   =         0.0000 Press    =         2.3337
------------ Step           8320 ----- CPU =    0.3645902 (sec) -------------
TotEng   =       198.5039 KinEng   =        97.8203 Temp     =       331.4815 
PotEng   =       100.6836 E_bond   =        37.9898 E_angle  =        27.7938 
E_dihed  =        34.9613 E_impro  =         0.0000 E_vdwl   =        -0.0613 
E_coul   =         0.0000 E_long   =         0.0000 Press    =         0.9790
------------ Step           8340 ----- CPU =    0.3656584 (sec) -------------
TotEng   =       201.2196 KinEng   =        99.6130 Temp     =       337.5565 
PotEng   =       101.6066 E_bond   =        34.7278 E_angle  =        30.3337 
E_dihed  =        36.6051 E_impro  =         0.0000 E_vdwl   =        -0.0600 
E_coul   =         0.0000 E_long   =         0.0000 Press    =         0.0934
------------ Step           8360 ----- CPU =    0.3662884 (sec) -------------
TotEng   =       203.2345 KinEng   =       104.0632 Temp     =       352.6367 
PotEng   =        99.1713 E_bond   =        30.6765 E_angle  =        29.3236 
E_dihed  =        39.2264 E_impro  =         0.0000 E_vdwl   =        -0.0552 
E_coul   =         0.0000 E_long   =         0.0000 Press    =         1.9217
------------ Step           8380 ----- CPU =    0.3668584 (sec) -------------
TotEng   =       204.4316 KinEng   =        99.3700 Temp     =       336.7330 
PotEng   =       105.0616 E_bond   =        36.2568 E_angle  =        28.7987 
E_dihed  =        40.0595 E_impro  =         0.0000 E_vdwl   =        -0.0534 
E_coul   =         0.0000 E_long   =         0.0000 Press    =        -1.4227
------------ Step           8400 ----- CPU =    0.3679657 (sec) -------------
TotEng   =       204.8381 KinEng   =       104.2417 Temp     =       353.2418 
PotEng   =       100.5963 E_bond   =        36.5592 E_angle  =        25.2894 
E_dihed  =        38.8004 E_impro  =         0.0000 E_vdwl   =        -0.0527 
E_coul   =         0.0000 E_long   =         0.0000 Press    =        -1.6659
------------ Step           8420 ----- CPU =    0.3690253 (sec) -------------
TotEng   =       204.0002 KinEng   =       101.5407 Temp     =       344.0887 
PotEng   =       102.4595 E_bond   =        39.4019 E_angle  =        23.7288 
E_dihed  =        39.3809 E_impro  =         0.0000 E_vdwl   =        -0.0521 
E_coul   =         0.0000 E_long   =         0.0000 Press    =         0.9459
------------ Step           8440 ----- CPU =    0.3697041 (sec) -------------
TotEng   =       201.9755 KinEng   =        96.7292 Temp     =       327.7843 
PotEng   =       105.2462 E_bond   =        40.8783 E_angle  =        23.6767 
E_dihed  =        40.7440 E_impro  =         0.0000 E_vdwl   =        -0.0527 
E_coul   =         0.0000 E_long   =         0.0000 Press    =        -3.3176
------------ Step           8460 ----- CPU =    0.3703586 (sec) -------------
TotEng   =       198.9214 KinEng   =        95.1288 Temp     =       322.3610 
PotEng   =       103.7926 E_bond   =        37.5787 E_angle  =        27.8669 
E_dihed  =        38.4008 E_impro  =         0.0000 E_vdwl   =        -0.0539 
E_coul   =         0.0000 E_long   =         0.0000 Press    =        -2.0215
------------ Step           8480 ----- CPU =    0.3716425 (sec) -------------
TotEng   =       194.7005 KinEng   =        90.9171 Temp     =       308.0891 
PotEng   =       103.7833 E_bond   =        39.5486 E_angle  =        28.5861 
E_dihed  =        35.7029 E_impro  =         0.0000 E_vdwl   =        -0.0542 
E_coul   =         0.0000 E_long   =         0.0000 Press    =         1.5714
------------ Step           8500 ----- CPU =    0.3732088 (sec) -------------
TotEng   =       189.8128 KinEng   =        93.2543 Temp     =       316.0088 
PotEng   =        96.5585 E_bond   =        31.8917 E_angle  =        30.1004 
E_dihed  =        34.6215 E_impro  =         0.0000 E_vdwl   =        -0.0551 
E_coul   =         0.0000 E_long   =         0.0000 Press    =        -2.9456
------------ Step           8520 ----- CPU =    0.3752739 (sec) -------------
TotEng   =       185.3919 KinEng   =        82.7260 Temp     =       280.3317 
PotEng   =       102.6660 E_bond   =        38.4573 E_angle  =        28.8768 
E_dihed  =        35.3901 E_impro  =         0.0000 E_vdwl   =        -0.0582 
E_coul   =         0.0000 E_long   =         0.0000 Press    =        -0.7026
------------ Step           8540 ----- CPU =    0.3761922 (sec) -------------
TotEng   =       182.5839 KinEng   =        86.0477 Temp     =       291.5879 
PotEng   =        96.5362 E_bond   =        35.5508 E_angle  =        24.0206 
E_dihed  =        37.0278 E_impro  =         0.0000 E_vdwl   =        -0.0629 
E_coul   =         0.0000 E_long   =         0.0000 Press    =         3.1221
------------ Step           8560 ----- CPU =    0.3770346 (sec) -------------
TotEng   =       180.7594 KinEng   =        92.4103 Temp     =       313.1488 
PotEng   =        88.3491 E_bond   =        31.5559 E_angle  =        23.1270 
E_dihed  =        33.7316 E_impro  =         0.0000 E_vdwl   =        -0.0653 
E_coul   =         0.0000 E_long   =         0.0000 Press    =        -2.3169
------------ Step           8580 ----- CPU =    0.3797709 (sec) -------------
TotEng   =       179.4242 KinEng   =        97.5587 Temp     =       330.5951 
PotEng   =        81.8655 E_bond   =        27.6953 E_angle  =        22.2749 
E_dihed  =        31.9584 E_impro  =         0.0000 E_vdwl   =        -0.0631 
E_coul   =         0.0000 E_long   =         0.0000 Press    =         1.6010
------------ Step           8600 ----- CPU =    0.3805839 (sec) -------------
TotEng   =       178.6195 KinEng   =        82.5007 Temp     =       279.5686 
PotEng   =        96.1188 E_bond   =        35.7835 E_angle  =        26.4064 
E_dihed  =        33.9900 E_impro  =         0.0000 E_vdwl   =        -0.0612 
E_coul   =         0.0000 E_long   =         0.0000 Press    =         3.9920
------------ Step           8620 ----- CPU =    0.3816495 (sec) -------------
TotEng   =       178.1363 KinEng   =        89.7062 Temp     =       303.9856 
PotEng   =        88.4301 E_bond   =        32.8507 E_angle  =        22.3196 
E_dihed  =        33.3194 E_impro  =         0.0000 E_vdwl   =        -0.0596 
E_coul   =         0.0000 E_long   =         0.0000 Press    =        -1.4176
------------ Step           8640 ----- CPU =      0.38235 (sec) -------------
TotEng   =       177.5386 KinEng   =        95.4536 Temp     =       323.4617 
PotEng   =        82.0850 E_bond   =        28.6539 E_angle  =        21.3264 
E_dihed  =        32.1626 E_impro  =         0.0000 E_vdwl   =        -0.0580 
E_coul   =         0.0000 E_long   =         0.0000 Press    =         1.9712
------------ Step           8660 ----- CPU =     0.382982 (sec) -------------
TotEng   =       177.1116 KinEng   =        86.7672 Temp     =       294.0262 
PotEng   =        90.3445 E_bond   =        35.2606 E_angle  =        22.9867 
E_dihed  =        32.1522 E_impro  =         0.0000 E_vdwl   =        -0.0551 
E_coul   =         0.0000 E_long   =         0.0000 Press    =         2.0166
------------ Step           8680 ----- CPU =    0.3836281 (sec) -------------
TotEng   =       176.5344 KinEng   =        85.5033 Temp     =       289.7433 
PotEng   =        91.0311 E_bond   =        36.8961 E_angle  =        22.0305 
E_dihed  =        32.1555 E_impro  =         0.0000 E_vdwl   =        -0.0510 
E_coul   =         0.0000 E_long   =         0.0000 Press    =        -2.0202
------------ Step           8700 ----- CPU =    0.3842044 (sec) -------------
TotEng   =       175.9524 KinEng   =        87.5154 Temp     =       296.5616 
PotEng   =        88.4370 E_bond   =        35.2801 E_angle  =        21.2204 
E_dihed  =        31.9859 E_impro  =         0.0000 E_vdwl   =        -0.0494 
E_coul   =         0.0000 E_long   =         0.0000 Press    =         0.6218
------------ Step           8720 ----- CPU =    0.3856902 (sec) -------------
TotEng   =       175.1100 KinEng   =        89.6538 Temp     =       303.8080 
PotEng   =        85.4562 E_bond   =        27.8217 E_angle  =        23.8898 
E_dihed  =        33.7949 E_impro  =         0.0000 E_vdwl   =        -0.0503 
E_coul   =         0.0000 E_long   =         0.0000 Press    =         1.3533
------------ Step           8740 ----- CPU =    0.3862699 (sec) -------------
TotEng   =       174.4344 KinEng   =        81.0829 Temp     =       274.7641 
PotEng   =        93.3515 E_bond   =        37.5791 E_angle  =        19.6083 
E_dihed  =        36.2150 E_impro  =         0.0000 E_vdwl   =        -0.0509 
E_coul   =         0.0000 E_long   =         0.0000 Press    =        -1.3940
------------ Step           8760 ----- CPU =    0.3869483 (sec) -------------
TotEng   =       173.8469 KinEng   =        86.8761 Temp     =       294.3953 
PotEng   =        86.9708 E_bond   =        28.8877 E_angle  =        23.2102 
E_dihed  =        34.9234 E_impro  =         0.0000 E_vdwl   =        -0.0505 
E_coul   =         0.0000 E_long   =         0.0000 Press    =         0.7484
------------ Step           8780 ----- CPU =    0.3879132 (sec) -------------
TotEng   =       173.7518 KinEng   =        80.7765 Temp     =       273.7258 
PotEng   =        92.9753 E_bond   =        33.9212 E_angle  =        25.3597 
E_dihed  =        33.7451 E_impro  =         0.0000 E_vdwl   =        -0.0507 
E_coul   =         0.0000 E_long   =         0.0000 Press    =         1.5928
------------ Step           8800 ----- CPU =    0.3890376 (sec) -------------
TotEng   =       173.7620 KinEng   =        90.4789 Temp     =       306.6041 
PotEng   =        83.2831 E_bond   =        29.4082 E_angle  =        19.3487 
E_dihed  =        34.5754 E_impro  =         0.0000 E_vdwl   =        -0.0491 
E_coul   =         0.0000 E_long   =         0.0000 Press    =        -0.9646
------------ Step           8820 ----- CPU =    0.3901503 (sec) -------------
TotEng   =       174.0094 KinEng   =        84.5998 Temp     =       286.6817 
PotEng   =        89.4096 E_bond   =        25.3330 E_angle  =        25.9667 
E_dihed  =        38.1576 E_impro  =         0.0000 E_vdwl   =        -0.0478 
E_coul   =         0.0000 E_long   =         0.0000 Press    =         1.7805
------------ Step           8840 ----- CPU =    0.3909788 (sec) -------------
TotEng   =       175.0120 KinEng   =        87.1587 Temp     =       295.3527 
PotEng   =        87.8534 E_bond   =        32.1566 E_angle  =        16.9213 
E_dihed  =        38.8228 E_impro  =         0.0000 E_vdwl   =        -0.0474 
E_coul   =         0.0000 E_long   =         0.0000 Press    =         0.9945
------------ Step           8860 ----- CPU =     0.391843 (sec) -------------
TotEng   =       176.6952 KinEng   =        81.2804 Temp     =       275.4331 
PotEng   =        95.4149 E_bond   =        33.2926 E_angle  =        29.3012 
E_dihed  =        32.8685 E_impro  =         0.0000 E_vdwl   =        -0.0474 
E_coul   =         0.0000 E_long   =         0.0000 Press    =        -1.7091
------------ Step           8880 ----- CPU =    0.3931646 (sec) -------------
TotEng   =       178.8984 KinEng   =        94.1698 Temp     =       319.1114 
PotEng   =        84.7286 E_bond   =        31.3228 E_angle  =        22.7873 
E_dihed  =        30.6667 E_impro  =         0.0000 E_vdwl   =        -0.0482 
E_coul   =         0.0000 E_long   =         0.0000 Press    =         1.7091
------------ Step           8900 ----- CPU =    0.3938279 (sec) -------------
TotEng   =       181.4863 KinEng   =        92.8708 Temp     =       314.7095 
PotEng   =        88.6154 E_bond   =        31.6691 E_angle  =        24.9124 
E_dihed  =        32.0837 E_impro  =         0.0000 E_vdwl   =        -0.0498 
E_coul   =         0.0000 E_long   =         0.0000 Press    =         0.0977
------------ Step           8920 ----- CPU =    0.3945817 (sec) -------------
TotEng   =       184.5255 KinEng   =        87.5805 Temp     =       296.7824 
PotEng   =        96.9449 E_bond   =        40.0803 E_angle  =        24.7896 
E_dihed  =        32.1265 E_impro  =         0.0000 E_vdwl   =        -0.0514 
E_coul   =         0.0000 E_long   =         0.0000 Press    =        -1.3232
------------ Step           8940 ----- CPU =    0.3964627 (sec) -------------
TotEng   =       187.2503 KinEng   =        93.8982 Temp     =       318.1910 
PotEng   =        93.3521 E_bond   =        34.0511 E_angle  =        24.8279 
E_dihed  =        34.5249 E_impro  =         0.0000 E_vdwl   =        -0.0518 
E_coul   =         0.0000 E_long   =         0.0000 Press    =         1.1963
------------ Step           8960 ----- CPU =    0.3970869 (sec) -------------
TotEng   =       189.8520 KinEng   =        98.0420 Temp     =       332.2330 
PotEng   =        91.8099 E_bond   =        33.3984 E_angle  =        23.0770 
E_dihed  =        35.3871 E_impro  =         0.0000 E_vdwl   =        -0.0526 
E_coul   =         0.0000 E_long   =         0.0000 Press    =         1.9030
------------ Step           8980 ----- CPU =    0.3980147 (sec) -------------
TotEng   =       191.9889 KinEng   =        91.6831 Temp     =       310.6845 
PotEng   =       100.3058 E_bond   =        38.9838 E_angle  =        28.3022 
E_dihed  =        33.0725 E_impro  =         0.0000 E_vdwl   =        -0.0527 
E_coul   =         0.0000 E_long   =         0.0000 Press    =        -1.3099
------------ Step           9000 ----- CPU =    0.3990228 (sec) -------------
TotEng   =       193.8312 KinEng   =        93.0079 Temp     =       315.1741 
PotEng   =       100.8233 E_bond   =        41.5133 E_angle  =        26.3249 
E_dihed  =        33.0352 E_impro  =         0.0000 E_vdwl   =        -0.0501 
E_coul   =         0.0000 E_long   =         0.0000 Press    =        -0.4731
------------ Step           9020 ----- CPU =    0.4000706 (sec) -------------
TotEng   =       194.8707 KinEng   =       108.9303 Temp     =       369.1299 
PotEng   =        85.9403 E_bond   =        27.4506 E_angle  =        25.3357 
E_dihed  =        33.2026 E_impro  =         0.0000 E_vdwl   =        -0.0485 
E_coul   =         0.0000 E_long   =         0.0000 Press    =         1.8408
------------ Step           9040 ----- CPU =    0.4009885 (sec) -------------
TotEng   =       195.4622 KinEng   =        94.9322 Temp     =       321.6948 
PotEng   =       100.5300 E_bond   =        36.1885 E_angle  =        30.2648 
E_dihed  =        34.1244 E_impro  =         0.0000 E_vdwl   =        -0.0477 
E_coul   =         0.0000 E_long   =         0.0000 Press    =        -3.8689
------------ Step           9060 ----- CPU =    0.4045609 (sec) -------------
TotEng   =       195.0543 KinEng   =        98.4878 Temp     =       333.7434 
PotEng   =        96.5666 E_bond   =        33.7123 E_angle  =        27.4263 
E_dihed  =        35.4744 E_impro  =         0.0000 E_vdwl   =        -0.0464 
E_coul   =         0.0000 E_long   =         0.0000 Press    =        -1.3788
------------ Step           9080 ----- CPU =    0.4051433 (sec) -------------
TotEng   =       193.9100 KinEng   =        93.3182 Temp     =       316.2255 
PotEng   =       100.5917 E_bond   =        33.0458 E_angle  =        32.1356 
E_dihed  =        35.4566 E_impro  =         0.0000 E_vdwl   =        -0.0462 
E_coul   =         0.0000 E_long   =         0.0000 Press    =         1.3319
------------ Step           9100 ----- CPU =    0.4060424 (sec) -------------
TotEng   =       191.8510 KinEng   =        91.6412 Temp     =       310.5425 
PotEng   =       100.2098 E_bond   =        38.9804 E_angle  =        24.0276 
E_dihed  =        37.2480 E_impro  =         0.0000 E_vdwl   =        -0.0462 
E_coul   =         0.0000 E_long   =         0.0000 Press    =        -4.9791
------------ Step           9120 ----- CPU =    0.4072996 (sec) -------------
TotEng   =       188.7234 KinEng   =        86.3219 Temp     =       292.5173 
PotEng   =       102.4015 E_bond   =        31.4121 E_angle  =        35.1991 
E_dihed  =        35.8365 E_impro  =         0.0000 E_vdwl   =        -0.0462 
E_coul   =         0.0000 E_long   =         0.0000 Press    =        -0.7812
------------ Step           9140 ----- CPU =       0.4079 (sec) -------------
TotEng   =       184.8951 KinEng   =        91.4471 Temp     =       309.8848 
PotEng   =        93.4481 E_bond   =        33.9603 E_angle  =        25.6709 
E_dihed  =        33.8626 E_impro  =         0.0000 E_vdwl   =        -0.0458 
E_coul   =         0.0000 E_long   =         0.0000 Press    =        -0.7614
------------ Step           9160 ----- CPU =    0.4084794 (sec) -------------
TotEng   =       180.3767 KinEng   =        83.1116 Temp     =       281.6384 
PotEng   =        97.2652 E_bond   =        34.0123 E_angle  =        27.5063 
E_dihed  =        35.7929 E_impro  =         0.0000 E_vdwl   =        -0.0464 
E_coul   =         0.0000 E_long   =         0.0000 Press    =        -2.3661
------------ Step           9180 ----- CPU =    0.4096759 (sec) -------------
TotEng   =       176.6593 KinEng   =        76.7322 Temp     =       260.0208 
PotEng   =        99.9271 E_bond   =        39.1935 E_angle  =        24.1113 
E_dihed  =        36.6690 E_impro  =         0.0000 E_vdwl   =        -0.0467 
E_coul   =         0.0000 E_long   =         0.0000 Press    =         2.5989
------------ Step           9200 ----- CPU =    0.4104776 (sec) -------------
TotEng   =       173.6399 KinEng   =        84.6327 Temp     =       286.7932 
PotEng   =        89.0071 E_bond   =        31.1224 E_angle  =        23.3682 
E_dihed  =        34.5625 E_impro  =         0.0000 E_vdwl   =        -0.0460 
E_coul   =         0.0000 E_long   =         0.0000 Press    =        -0.8107
------------ Step           9220 ----- CPU =    0.4113521 (sec) -------------
TotEng   =       171.4832 KinEng   =        86.7790 Temp     =       294.0662 
PotEng   =        84.7042 E_bond   =        25.8632 E_angle  =        25.7963 
E_dihed  =        33.0922 E_impro  =         0.0000 E_vdwl   =        -0.0474 
E_coul   =         0.0000 E_long   =         0.0000 Press    =         0.6980
------------ Step           9240 ----- CPU =    0.4121025 (sec) -------------
TotEng   =       170.4323 KinEng   =        76.3347 Temp     =       258.6737 
PotEng   =        94.0976 E_bond   =        35.2265 E_angle  =        25.6033 
E_dihed  =        33.3171 E_impro  =         0.0000 E_vdwl   =        -0.0493 
E_coul   =         0.0000 E_long   =         0.0000 Press    =         2.5001
------------ Step           9260 ----- CPU =    0.4130539 (sec) -------------
TotEng   =       169.8703 KinEng   =        85.1282 Temp     =       288.4721 
PotEng   =        84.7421 E_bond   =        26.2251 E_angle  =        25.1237 
E_dihed  =        33.4438 E_impro  =         0.0000 E_vdwl   =        -0.0506 
E_coul   =         0.0000 E_long   =         0.0000 Press    =        -0.3765
------------ Step           9280 ----- CPU =    0.4137851 (sec) -------------
TotEng   =       169.9687 KinEng   =        85.4417 Temp     =       289.5346 
PotEng   =        84.5270 E_bond   =        28.7039 E_angle  =        22.1828 
E_dihed  =        33.6926 E_impro  =         0.0000 E_vdwl   =        -0.0523 
E_coul   =         0.0000 E_long   =         0.0000 Press    =         1.3048
------------ Step           9300 ----- CPU =    0.4144798 (sec) -------------
TotEng   =       170.5821 KinEng   =        80.5703 Temp     =       273.0269 
PotEng   =        90.0118 E_bond   =        29.9610 E_angle  =        28.6255 
E_dihed  =        31.4778 E_impro  =         0.0000 E_vdwl   =        -0.0525 
E_coul   =         0.0000 E_long   =         0.0000 Press    =         2.5208
------------ Step           9320 ----- CPU =    0.4157456 (sec) -------------
TotEng   =       171.5391 KinEng   =        85.6225 Temp     =       290.1471 
PotEng   =        85.9166 E_bond   =        29.5130 E_angle  =        26.4298 
E_dihed  =        30.0256 E_impro  =         0.0000 E_vdwl   =        -0.0518 
E_coul   =         0.0000 E_long   =         0.0000 Press    =         1.0770
------------ Step           9340 ----- CPU =    0.4167578 (sec) -------------
TotEng   =       172.7594 KinEng   =        83.0116 Temp     =       281.2998 
PotEng   =        89.7478 E_bond   =        28.7947 E_angle  =        29.0932 
E_dihed  =        31.9119 E_impro  =         0.0000 E_vdwl   =        -0.0521 
E_coul   =         0.0000 E_long   =         0.0000 Press    =        -0.3210
------------ Step           9360 ----- CPU =     0.417563 (sec) -------------
TotEng   =       174.5090 KinEng   =        79.3400 Temp     =       268.8577 
PotEng   =        95.1691 E_bond   =        36.6862 E_angle  =        28.0969 
E_dihed  =        30.4393 E_impro  =         0.0000 E_vdwl   =        -0.0533 
E_coul   =         0.0000 E_long   =         0.0000 Press    =         0.7823
------------ Step           9380 ----- CPU =    0.4183779 (sec) -------------
TotEng   =       176.6811 KinEng   =        91.0282 Temp     =       308.4654 
PotEng   =        85.6529 E_bond   =        37.5504 E_angle  =        20.5338 
E_dihed  =        27.6201 E_impro  =         0.0000 E_vdwl   =        -0.0515 
E_coul   =         0.0000 E_long   =         0.0000 Press    =         0.3630
------------ Step           9400 ----- CPU =    0.4198997 (sec) -------------
TotEng   =       178.4969 KinEng   =        94.2182 Temp     =       319.2754 
PotEng   =        84.2787 E_bond   =        30.5834 E_angle  =        24.4363 
E_dihed  =        29.3075 E_impro  =         0.0000 E_vdwl   =        -0.0485 
E_coul   =         0.0000 E_long   =         0.0000 Press    =        -1.1896
------------ Step           9420 ----- CPU =    0.4227303 (sec) -------------
TotEng   =       180.0979 KinEng   =        85.1045 Temp     =       288.3920 
PotEng   =        94.9933 E_bond   =        30.6782 E_angle  =        31.9289 
E_dihed  =        32.4333 E_impro  =         0.0000 E_vdwl   =        -0.0471 
E_coul   =         0.0000 E_long   =         0.0000 Press    =         1.4302
------------ Step           9440 ----- CPU =    0.4239313 (sec) -------------
TotEng   =       181.7313 KinEng   =        88.0151 Temp     =       298.2551 
PotEng   =        93.7162 E_bond   =        34.1094 E_angle  =        24.2226 
E_dihed  =        35.4299 E_impro  =         0.0000 E_vdwl   =        -0.0457 
E_coul   =         0.0000 E_long   =         0.0000 Press    =        -1.6450
------------ Step           9460 ----- CPU =    0.4245571 (sec) -------------
TotEng   =       183.3467 KinEng   =        88.0720 Temp     =       298.4477 
PotEng   =        95.2747 E_bond   =        33.1116 E_angle  =        30.8755 
E_dihed  =        31.3326 E_impro  =         0.0000 E_vdwl   =        -0.0449 
E_coul   =         0.0000 E_long   =         0.0000 Press    =        -2.5043
------------ Step           9480 ----- CPU =    0.4251847 (sec) -------------
TotEng   =       184.8234 KinEng   =        97.9739 Temp     =       332.0020 
PotEng   =        86.8495 E_bond   =        32.9704 E_angle  =        24.5993 
E_dihed  =        29.3249 E_impro  =         0.0000 E_vdwl   =        -0.0451 
E_coul   =         0.0000 E_long   =         0.0000 Press    =         0.2175
------------ Step           9500 ----- CPU =    0.4259008 (sec) -------------
TotEng   =       185.7967 KinEng   =        94.3426 Temp     =       319.6970 
PotEng   =        91.4541 E_bond   =        33.6186 E_angle  =        23.9900 
E_dihed  =        33.8908 E_impro  =         0.0000 E_vdwl   =        -0.0454 
E_coul   =         0.0000 E_long   =         0.0000 Press    =        -3.2268
------------ Step           9520 ----- CPU =    0.4269322 (sec) -------------
TotEng   =       186.2912 KinEng   =        93.0695 Temp     =       315.3826 
PotEng   =        93.2218 E_bond   =        29.0952 E_angle  =        27.2094 
E_dihed  =        36.9636 E_impro  =         0.0000 E_vdwl   =        -0.0465 
E_coul   =         0.0000 E_long   =         0.0000 Press    =        -1.6038
------------ Step           9540 ----- CPU =    0.4276293 (sec) -------------
TotEng   =       186.6306 KinEng   =        88.4375 Temp     =       299.6864 
PotEng   =        98.1931 E_bond   =        36.0355 E_angle  =        25.1194 
E_dihed  =        37.0858 E_impro  =         0.0000 E_vdwl   =        -0.0476 
E_coul   =         0.0000 E_long   =         0.0000 Press    =         1.7241
------------ Step           9560 ----- CPU =    0.4283789 (sec) -------------
TotEng   =       186.6785 KinEng   =        92.5234 Temp     =       313.5323 
PotEng   =        94.1551 E_bond   =        34.4024 E_angle  =        23.9349 
E_dihed  =        35.8671 E_impro  =         0.0000 E_vdwl   =        -0.0493 
E_coul   =         0.0000 E_long   =         0.0000 Press    =        -0.7956
------------ Step           9580 ----- CPU =     0.429132 (sec) -------------
TotEng   =       186.5060 KinEng   =        90.2268 Temp     =       305.7498 
PotEng   =        96.2792 E_bond   =        32.5706 E_angle  =        27.9812 
E_dihed  =        35.7801 E_impro  =         0.0000 E_vdwl   =        -0.0528 
E_coul   =         0.0000 E_long   =         0.0000 Press    =        -1.1802
------------ Step           9600 ----- CPU =    0.4301804 (sec) -------------
TotEng   =       186.2561 KinEng   =        90.4368 Temp     =       306.4615 
PotEng   =        95.8192 E_bond   =        29.9333 E_angle  =        27.7248 
E_dihed  =        38.2224 E_impro  =         0.0000 E_vdwl   =        -0.0613 
E_coul   =         0.0000 E_long   =         0.0000 Press    =         1.2643
------------ Step           9620 ----- CPU =    0.4309966 (sec) -------------
TotEng   =       186.0045 KinEng   =        84.6533 Temp     =       286.8628 
PotEng   =       101.3512 E_bond   =        34.8909 E_angle  =        27.8568 
E_dihed  =        38.6762 E_impro  =         0.0000 E_vdwl   =        -0.0727 
E_coul   =         0.0000 E_long   =         0.0000 Press    =        -0.3915
------------ Step           9640 ----- CPU =    0.4316163 (sec) -------------
TotEng   =       185.7721 KinEng   =        83.3571 Temp     =       282.4705 
PotEng   =       102.4150 E_bond   =        36.8974 E_angle  =        27.2900 
E_dihed  =        38.2991 E_impro  =         0.0000 E_vdwl   =        -0.0714 
E_coul   =         0.0000 E_long   =         0.0000 Press    =        -1.4526
------------ Step           9660 ----- CPU =    0.4322502 (sec) -------------
TotEng   =       185.1798 KinEng   =        90.4925 Temp     =       306.6499 
PotEng   =        94.6873 E_bond   =        29.8900 E_angle  =        26.6579 
E_dihed  =        38.2084 E_impro  =         0.0000 E_vdwl   =        -0.0690 
E_coul   =         0.0000 E_long   =         0.0000 Press    =         2.4700
------------ Step           9680 ----- CPU =    0.4328826 (sec) -------------
TotEng   =       184.5283 KinEng   =        81.4689 Temp     =       276.0721 
PotEng   =       103.0594 E_bond   =        34.7302 E_angle  =        28.4243 
E_dihed  =        39.9765 E_impro  =         0.0000 E_vdwl   =        -0.0716 
E_coul   =         0.0000 E_long   =         0.0000 Press    =         3.1617
------------ Step           9700 ----- CPU =    0.4335239 (sec) -------------
TotEng   =       184.0560 KinEng   =        81.2091 Temp     =       275.1915 
PotEng   =       102.8470 E_bond   =        38.3633 E_angle  =        25.0317 
E_dihed  =        39.5286 E_impro  =         0.0000 E_vdwl   =        -0.0767 
E_coul   =         0.0000 E_long   =         0.0000 Press    =         0.6273
------------ Step           9720 ----- CPU =    0.4342885 (sec) -------------
TotEng   =       183.7522 KinEng   =        82.2259 Temp     =       278.6373 
PotEng   =       101.5263 E_bond   =        30.6469 E_angle  =        32.5942 
E_dihed  =        38.3671 E_impro  =         0.0000 E_vdwl   =        -0.0819 
E_coul   =         0.0000 E_long   =         0.0000 Press    =         1.4013
------------ Step           9740 ----- CPU =    0.4350559 (sec) -------------
TotEng   =       184.0337 KinEng   =        88.0265 Temp     =       298.2937 
PotEng   =        96.0072 E_bond   =        31.8629 E_angle  =        23.0874 
E_dihed  =        41.1415 E_impro  =         0.0000 E_vdwl   =        -0.0846 
E_coul   =         0.0000 E_long   =         0.0000 Press    =         4.2397
------------ Step           9760 ----- CPU =    0.4366576 (sec) -------------
TotEng   =       184.7029 KinEng   =        81.1466 Temp     =       274.9800 
PotEng   =       103.5563 E_bond   =        36.0656 E_angle  =        24.7481 
E_dihed  =        42.8241 E_impro  =         0.0000 E_vdwl   =        -0.0815 
E_coul   =         0.0000 E_long   =         0.0000 Press    =         1.0357
------------ Step           9780 ----- CPU =    0.4379686 (sec) -------------
TotEng   =       185.5032 KinEng   =        91.4607 Temp     =       309.9311 
PotEng   =        94.0425 E_bond   =        33.7836 E_angle  =        24.3992 
E_dihed  =        35.9331 E_impro  =         0.0000 E_vdwl   =        -0.0735 
E_coul   =         0.0000 E_long   =         0.0000 Press    =        -0.8747
------------ Step           9800 ----- CPU =    0.4386623 (sec) -------------
TotEng   =       186.3589 KinEng   =        95.1575 Temp     =       322.4583 
PotEng   =        91.2014 E_bond   =        30.1058 E_angle  =        29.3712 
E_dihed  =        31.7919 E_impro  =         0.0000 E_vdwl   =        -0.0675 
E_coul   =         0.0000 E_long   =         0.0000 Press    =         3.2341
------------ Step           9820 ----- CPU =    0.4395961 (sec) -------------
TotEng   =       186.9828 KinEng   =        95.4375 Temp     =       323.4071 
PotEng   =        91.5453 E_bond   =        32.6280 E_angle  =        23.7598 
E_dihed  =        35.2234 E_impro  =         0.0000 E_vdwl   =        -0.0660 
E_coul   =         0.0000 E_long   =         0.0000 Press    =        -1.7268
------------ Step           9840 ----- CPU =     0.440275 (sec) -------------
TotEng   =       187.2270 KinEng   =        82.6022 Temp     =       279.9124 
PotEng   =       104.6248 E_bond   =        39.6991 E_angle  =        27.0043 
E_dihed  =        37.9849 E_impro  =         0.0000 E_vdwl   =        -0.0635 
E_coul   =         0.0000 E_long   =         0.0000 Press    =        -4.1265
------------ Step           9860 ----- CPU =    0.4409477 (sec) -------------
TotEng   =       187.0737 KinEng   =        98.5119 Temp     =       333.8253 
PotEng   =        88.5618 E_bond   =        30.3650 E_angle  =        22.1437 
E_dihed  =        36.1159 E_impro  =         0.0000 E_vdwl   =        -0.0627 
E_coul   =         0.0000 E_long   =         0.0000 Press    =         0.5378
------------ Step           9880 ----- CPU =    0.4416874 (sec) -------------
TotEng   =       186.7376 KinEng   =        90.3731 Temp     =       306.2454 
PotEng   =        96.3645 E_bond   =        36.6252 E_angle  =        27.6957 
E_dihed  =        32.1119 E_impro  =         0.0000 E_vdwl   =        -0.0682 
E_coul   =         0.0000 E_long   =         0.0000 Press    =        -2.1455
------------ Step           9900 ----- CPU =    0.4423629 (sec) -------------
TotEng   =       185.6753 KinEng   =        93.9426 Temp     =       318.3415 
PotEng   =        91.7327 E_bond   =        32.6467 E_angle  =        26.5689 
E_dihed  =        32.5904 E_impro  =         0.0000 E_vdwl   =        -0.0734 
E_coul   =         0.0000 E_long   =         0.0000 Press    =        -0.7020
------------ Step           9920 ----- CPU =    0.4432449 (sec) -------------
TotEng   =       184.1651 KinEng   =        88.2489 Temp     =       299.0472 
PotEng   =        95.9163 E_bond   =        36.0330 E_angle  =        25.0728 
E_dihed  =        34.8791 E_impro  =         0.0000 E_vdwl   =        -0.0687 
E_coul   =         0.0000 E_long   =         0.0000 Press    =         0.0897
------------ Step           9940 ----- CPU =     0.443894 (sec) -------------
TotEng   =       182.4813 KinEng   =        83.8301 Temp     =       284.0735 
PotEng   =        98.6511 E_bond   =        34.9182 E_angle  =        27.7474 
E_dihed  =        36.0511 E_impro  =         0.0000 E_vdwl   =        -0.0656 
E_coul   =         0.0000 E_long   =         0.0000 Press    =        -0.1938
------------ Step           9960 ----- CPU =    0.4451193 (sec) -------------
TotEng   =       180.8832 KinEng   =        90.5946 Temp     =       306.9960 
PotEng   =        90.2886 E_bond   =        31.5718 E_angle  =        24.4150 
E_dihed  =        34.3645 E_impro  =         0.0000 E_vdwl   =        -0.0626 
E_coul   =         0.0000 E_long   =         0.0000 Press    =         0.8810
------------ Step           9980 ----- CPU =    0.4459272 (sec) -------------
TotEng   =       179.3210 KinEng   =        84.4362 Temp     =       286.1271 
PotEng   =        94.8849 E_bond   =        35.5414 E_angle  =        26.3917 
E_dihed  =        33.0125 E_impro  =         0.0000 E_vdwl   =        -0.0607 
E_coul   =         0.0000 E_long   =         0.0000 Press    =        -0.7203
------------ Step          10000 ----- CPU =    0.4465581 (sec) -------------
TotEng   =       177.9161 KinEng   =        80.0412 Temp     =       271.2340 
PotEng   =        97.8749 E_bond   =        31.8434 E_angle  =        30.3629 
E_dihed  =        35.7295 E_impro  =         0.0000 E_vdwl   =        -0.0609 
E_coul   =         0.0000 E_long   =         0.0000 Press    =        -0.4867
------------ Step          10020 ----- CPU =    0.4473327 (sec) -------------
TotEng   =       176.8730 KinEng   =        89.2155 Temp     =       302.3227 
PotEng   =        87.6575 E_bond   =        30.1685 E_angle  =        21.2797 
E_dihed  =        36.2712 E_impro  =         0.0000 E_vdwl   =        -0.0619 
E_coul   =         0.0000 E_long   =         0.0000 Press    =         0.0816
------------ Step          10040 ----- CPU =    0.4482507 (sec) -------------
TotEng   =       175.9126 KinEng   =        85.2123 Temp     =       288.7570 
PotEng   =        90.7003 E_bond   =        27.9609 E_angle  =        30.3310 
E_dihed  =        32.4701 E_impro  =         0.0000 E_vdwl   =        -0.0616 
E_coul   =         0.0000 E_long   =         0.0000 Press    =         1.2024
------------ Step          10060 ----- CPU =    0.4490197 (sec) -------------
TotEng   =       175.1722 KinEng   =        83.9725 Temp     =       284.5558 
PotEng   =        91.1997 E_bond   =        38.1069 E_angle  =        21.3777 
E_dihed  =        31.7793 E_impro  =         0.0000 E_vdwl   =        -0.0643 
E_coul   =         0.0000 E_long   =         0.0000 Press    =        -0.4229
------------ Step          10080 ----- CPU =    0.4496609 (sec) -------------
TotEng   =       174.4605 KinEng   =        83.5965 Temp     =       283.2817 
PotEng   =        90.8640 E_bond   =        31.8234 E_angle  =        25.8524 
E_dihed  =        33.2543 E_impro  =         0.0000 E_vdwl   =        -0.0661 
E_coul   =         0.0000 E_long   =         0.0000 Press    =        -0.4433
------------ Step          10100 ----- CPU =    0.4506712 (sec) -------------
TotEng   =       174.0446 KinEng   =        81.9609 Temp     =       277.7391 
PotEng   =        92.0838 E_bond   =        28.5679 E_angle  =        27.1299 
E_dihed  =        36.4522 E_impro  =         0.0000 E_vdwl   =        -0.0662 
E_coul   =         0.0000 E_long   =         0.0000 Press    =         4.0203
------------ Step          10120 ----- CPU =    0.4515066 (sec) -------------
TotEng   =       174.3791 KinEng   =        75.9637 Temp     =       257.4167 
PotEng   =        98.4153 E_bond   =        32.5159 E_angle  =        27.1857 
E_dihed  =        38.7840 E_impro  =         0.0000 E_vdwl   =        -0.0703 
E_coul   =         0.0000 E_long   =         0.0000 Press    =        -1.1847
------------ Step          10140 ----- CPU =    0.4521945 (sec) -------------
TotEng   =       175.4379 KinEng   =        86.5395 Temp     =       293.2545 
PotEng   =        88.8984 E_bond   =        27.1013 E_angle  =        24.5714 
E_dihed  =        37.2951 E_impro  =         0.0000 E_vdwl   =        -0.0693 
E_coul   =         0.0000 E_long   =         0.0000 Press    =        -0.9440
------------ Step          10160 ----- CPU =    0.4528395 (sec) -------------
TotEng   =       177.3462 KinEng   =        81.1284 Temp     =       274.9182 
PotEng   =        96.2178 E_bond   =        32.2001 E_angle  =        25.8024 
E_dihed  =        38.2784 E_impro  =         0.0000 E_vdwl   =        -0.0631 
E_coul   =         0.0000 E_long   =         0.0000 Press    =         3.2166
------------ Step          10180 ----- CPU =    0.4538703 (sec) -------------
TotEng   =       179.8872 KinEng   =        86.5541 Temp     =       293.3040 
PotEng   =        93.3331 E_bond   =        33.5414 E_angle  =        22.5932 
E_dihed  =        37.2547 E_impro  =         0.0000 E_vdwl   =        -0.0562 
E_coul   =         0.0000 E_long   =         0.0000 Press    =        -2.7856
------------ Step          10200 ----- CPU =    0.4548647 (sec) -------------
TotEng   =       183.2283 KinEng   =        91.5358 Temp     =       310.1855 
PotEng   =        91.6925 E_bond   =        31.7006 E_angle  =        23.3042 
E_dihed  =        36.7391 E_impro  =         0.0000 E_vdwl   =        -0.0514 
E_coul   =         0.0000 E_long   =         0.0000 Press    =        -0.2588
------------ Step          10220 ----- CPU =    0.4563686 (sec) -------------
TotEng   =       186.7279 KinEng   =        90.8808 Temp     =       307.9657 
PotEng   =        95.8472 E_bond   =        30.2834 E_angle  =        27.2851 
E_dihed  =        38.3272 E_impro  =         0.0000 E_vdwl   =        -0.0486 
E_coul   =         0.0000 E_long   =         0.0000 Press    =         0.4394
------------ Step          10240 ----- CPU =    0.4571685 (sec) -------------
TotEng   =       190.1358 KinEng   =        95.3634 Temp     =       323.1558 
PotEng   =        94.7724 E_bond   =        33.1722 E_angle  =        23.2902 
E_dihed  =        38.3586 E_impro  =         0.0000 E_vdwl   =        -0.0485 
E_coul   =         0.0000 E_long   =         0.0000 Press    =        -0.7146
------------ Step          10260 ----- CPU =    0.4578123 (sec) -------------
TotEng   =       192.9333 KinEng   =        97.9199 Temp     =       331.8191 
PotEng   =        95.0134 E_bond   =        35.1374 E_angle  =        24.1038 
E_dihed  =        35.8223 E_impro  =         0.0000 E_vdwl   =        -0.0501 
E_coul   =         0.0000 E_long   =         0.0000 Press    =         1.2979
------------ Step          10280 ----- CPU =    0.4584525 (sec) -------------
TotEng   =       194.8082 KinEng   =       101.8305 Temp     =       345.0710 
PotEng   =        92.9777 E_bond   =        38.3695 E_angle  =        20.5563 
E_dihed  =        34.1022 E_impro  =         0.0000 E_vdwl   =        -0.0503 
E_coul   =         0.0000 E_long   =         0.0000 Press    =        -1.5026
------------ Step          10300 ----- CPU =    0.4591835 (sec) -------------
TotEng   =       195.4477 KinEng   =        98.9133 Temp     =       335.1855 
PotEng   =        96.5344 E_bond   =        33.8111 E_angle  =        29.0886 
E_dihed  =        33.6858 E_impro  =         0.0000 E_vdwl   =        -0.0511 
E_coul   =         0.0000 E_long   =         0.0000 Press    =         1.5136
------------ Step          10320 ----- CPU =    0.4599972 (sec) -------------
TotEng   =       194.8476 KinEng   =       103.0032 Temp     =       349.0450 
PotEng   =        91.8444 E_bond   =        31.2784 E_angle  =        24.2157 
E_dihed  =        36.4018 E_impro  =         0.0000 E_vdwl   =        -0.0516 
E_coul   =         0.0000 E_long   =         0.0000 Press    =        -0.3229
------------ Step          10340 ----- CPU =    0.4615864 (sec) -------------
TotEng   =       193.7543 KinEng   =        87.2532 Temp     =       295.6733 
PotEng   =       106.5010 E_bond   =        37.2379 E_angle  =        28.1280 
E_dihed  =        41.1873 E_impro  =         0.0000 E_vdwl   =        -0.0522 
E_coul   =         0.0000 E_long   =         0.0000 Press    =        -2.4851
------------ Step          10360 ----- CPU =    0.4977603 (sec) -------------
TotEng   =       192.4610 KinEng   =        90.6768 Temp     =       307.2745 
PotEng   =       101.7842 E_bond   =        30.9139 E_angle  =        28.1595 
E_dihed  =        42.7645 E_impro  =         0.0000 E_vdwl   =        -0.0538 
E_coul   =         0.0000 E_long   =         0.0000 Press    =         2.2002
------------ Step          10380 ----- CPU =    0.5013313 (sec) -------------
TotEng   =       191.0610 KinEng   =        91.0078 Temp     =       308.3963 
PotEng   =       100.0532 E_bond   =        34.3170 E_angle  =        25.8548 
E_dihed  =        39.9381 E_impro  =         0.0000 E_vdwl   =        -0.0567 
E_coul   =         0.0000 E_long   =         0.0000 Press    =        -2.3374
------------ Step          10400 ----- CPU =    0.5021721 (sec) -------------
TotEng   =       189.4210 KinEng   =        89.6647 Temp     =       303.8450 
PotEng   =        99.7563 E_bond   =        34.3485 E_angle  =        27.2818 
E_dihed  =        38.1847 E_impro  =         0.0000 E_vdwl   =        -0.0588 
E_coul   =         0.0000 E_long   =         0.0000 Press    =         0.0518
------------ Step          10420 ----- CPU =    0.5103074 (sec) -------------
TotEng   =       187.3836 KinEng   =        97.8266 Temp     =       331.5032 
PotEng   =        89.5569 E_bond   =        32.7100 E_angle  =        20.0892 
E_dihed  =        36.8150 E_impro  =         0.0000 E_vdwl   =        -0.0573 
E_coul   =         0.0000 E_long   =         0.0000 Press    =         2.8011
------------ Step          10440 ----- CPU =    0.5111884 (sec) -------------
TotEng   =       184.8831 KinEng   =        85.2475 Temp     =       288.8765 
PotEng   =        99.6356 E_bond   =        33.2835 E_angle  =        26.2241 
E_dihed  =        40.1833 E_impro  =         0.0000 E_vdwl   =        -0.0553 
E_coul   =         0.0000 E_long   =         0.0000 Press    =        -0.9172
------------ Step          10460 ----- CPU =     0.512045 (sec) -------------
TotEng   =       182.1146 KinEng   =        90.0851 Temp     =       305.2695 
PotEng   =        92.0295 E_bond   =        29.4028 E_angle  =        23.1472 
E_dihed  =        39.5346 E_impro  =         0.0000 E_vdwl   =        -0.0550 
E_coul   =         0.0000 E_long   =         0.0000 Press    =         2.6623
------------ Step          10480 ----- CPU =    0.5218165 (sec) -------------
TotEng   =       178.8799 KinEng   =        83.6562 Temp     =       283.4841 
PotEng   =        95.2236 E_bond   =        32.5345 E_angle  =        26.5887 
E_dihed  =        36.1545 E_impro  =         0.0000 E_vdwl   =        -0.0541 
E_coul   =         0.0000 E_long   =         0.0000 Press    =         1.4527
------------ Step          10500 ----- CPU =    0.5225818 (sec) -------------
TotEng   =       175.1613 KinEng   =        91.3639 Temp     =       309.6030 
PotEng   =        83.7974 E_bond   =        23.3182 E_angle  =        25.2843 
E_dihed  =        35.2485 E_impro  =         0.0000 E_vdwl   =        -0.0535 
E_coul   =         0.0000 E_long   =         0.0000 Press    =        -0.1325
------------ Step          10520 ----- CPU =    0.5234557 (sec) -------------
TotEng   =       171.6928 KinEng   =        78.2537 Temp     =       265.1767 
PotEng   =        93.4391 E_bond   =        36.1217 E_angle  =        21.7009 
E_dihed  =        35.6704 E_impro  =         0.0000 E_vdwl   =        -0.0539 
E_coul   =         0.0000 E_long   =         0.0000 Press    =         0.5326
------------ Step          10540 ----- CPU =    0.5240379 (sec) -------------
TotEng   =       168.2923 KinEng   =        79.8781 Temp     =       270.6813 
PotEng   =        88.4142 E_bond   =        33.1965 E_angle  =        21.8541 
E_dihed  =        33.4151 E_impro  =         0.0000 E_vdwl   =        -0.0515 
E_coul   =         0.0000 E_long   =         0.0000 Press    =         0.8290
------------ Step          10560 ----- CPU =    0.5246544 (sec) -------------
TotEng   =       165.0687 KinEng   =        82.9256 Temp     =       281.0083 
PotEng   =        82.1431 E_bond   =        25.5339 E_angle  =        25.5538 
E_dihed  =        31.1056 E_impro  =         0.0000 E_vdwl   =        -0.0502 
E_coul   =         0.0000 E_long   =         0.0000 Press    =         0.9071
------------ Step          10580 ----- CPU =    0.5254454 (sec) -------------
TotEng   =       162.8129 KinEng   =        80.8834 Temp     =       274.0879 
PotEng   =        81.9295 E_bond   =        25.0717 E_angle  =        24.8170 
E_dihed  =        32.0927 E_impro  =         0.0000 E_vdwl   =        -0.0520 
E_coul   =         0.0000 E_long   =         0.0000 Press    =        -1.6503
------------ Step          10600 ----- CPU =    0.5262095 (sec) -------------
TotEng   =       161.3009 KinEng   =        76.9101 Temp     =       260.6238 
PotEng   =        84.3907 E_bond   =        27.0214 E_angle  =        25.3409 
E_dihed  =        32.0814 E_impro  =         0.0000 E_vdwl   =        -0.0530 
E_coul   =         0.0000 E_long   =         0.0000 Press    =         0.8917
------------ Step          10620 ----- CPU =    0.5271986 (sec) -------------
TotEng   =       160.8236 KinEng   =        72.2146 Temp     =       244.7121 
PotEng   =        88.6090 E_bond   =        34.4440 E_angle  =        21.3135 
E_dihed  =        32.9039 E_impro  =         0.0000 E_vdwl   =        -0.0524 
E_coul   =         0.0000 E_long   =         0.0000 Press    =        -2.4040
------------ Step          10640 ----- CPU =     0.532736 (sec) -------------
TotEng   =       161.0644 KinEng   =        81.6243 Temp     =       276.5985 
PotEng   =        79.4401 E_bond   =        24.8539 E_angle  =        24.6475 
E_dihed  =        29.9894 E_impro  =         0.0000 E_vdwl   =        -0.0506 
E_coul   =         0.0000 E_long   =         0.0000 Press    =        -3.6328
------------ Step          10660 ----- CPU =    0.5355675 (sec) -------------
TotEng   =       161.9468 KinEng   =        79.1675 Temp     =       268.2733 
PotEng   =        82.7793 E_bond   =        29.2747 E_angle  =        23.5729 
E_dihed  =        29.9800 E_impro  =         0.0000 E_vdwl   =        -0.0483 
E_coul   =         0.0000 E_long   =         0.0000 Press    =         3.6934
------------ Step          10680 ----- CPU =     0.536722 (sec) -------------
TotEng   =       162.9692 KinEng   =        75.2766 Temp     =       255.0883 
PotEng   =        87.6926 E_bond   =        26.9192 E_angle  =        25.6566 
E_dihed  =        35.1648 E_impro  =         0.0000 E_vdwl   =        -0.0481 
E_coul   =         0.0000 E_long   =         0.0000 Press    =        -3.7319
------------ Step          10700 ----- CPU =    0.5374899 (sec) -------------
TotEng   =       164.2286 KinEng   =        75.4004 Temp     =       255.5078 
PotEng   =        88.8282 E_bond   =        31.3224 E_angle  =        21.5836 
E_dihed  =        35.9717 E_impro  =         0.0000 E_vdwl   =        -0.0495 
E_coul   =         0.0000 E_long   =         0.0000 Press    =        -2.0507
------------ Step          10720 ----- CPU =    0.5385631 (sec) -------------
TotEng   =       165.5203 KinEng   =        83.6494 Temp     =       283.4609 
PotEng   =        81.8710 E_bond   =        29.9094 E_angle  =        20.0580 
E_dihed  =        31.9522 E_impro  =         0.0000 E_vdwl   =        -0.0486 
E_coul   =         0.0000 E_long   =         0.0000 Press    =         5.1817
------------ Step          10740 ----- CPU =    0.5392523 (sec) -------------
TotEng   =       166.8939 KinEng   =        82.0013 Temp     =       277.8760 
PotEng   =        84.8927 E_bond   =        32.0837 E_angle  =        23.9809 
E_dihed  =        28.8761 E_impro  =         0.0000 E_vdwl   =        -0.0480 
E_coul   =         0.0000 E_long   =         0.0000 Press    =        -3.3754
------------ Step          10760 ----- CPU =     0.540606 (sec) -------------
TotEng   =       168.4416 KinEng   =        81.9685 Temp     =       277.7651 
PotEng   =        86.4730 E_bond   =        33.5533 E_angle  =        23.9236 
E_dihed  =        29.0455 E_impro  =         0.0000 E_vdwl   =        -0.0494 
E_coul   =         0.0000 E_long   =         0.0000 Press    =         0.7622
------------ Step          10780 ----- CPU =    0.5413125 (sec) -------------
TotEng   =       170.1366 KinEng   =        79.7429 Temp     =       270.2230 
PotEng   =        90.3937 E_bond   =        29.3313 E_angle  =        27.6463 
E_dihed  =        33.4675 E_impro  =         0.0000 E_vdwl   =        -0.0513 
E_coul   =         0.0000 E_long   =         0.0000 Press    =         3.3065
------------ Step          10800 ----- CPU =    0.5837074 (sec) -------------
TotEng   =       172.3586 KinEng   =        83.0922 Temp     =       281.5727 
PotEng   =        89.2664 E_bond   =        30.5421 E_angle  =        24.8257 
E_dihed  =        33.9549 E_impro  =         0.0000 E_vdwl   =        -0.0564 
E_coul   =         0.0000 E_long   =         0.0000 Press    =        -5.1486
------------ Step          10820 ----- CPU =    0.5849965 (sec) -------------
TotEng   =       174.7986 KinEng   =        87.7426 Temp     =       297.3314 
PotEng   =        87.0560 E_bond   =        33.8577 E_angle  =        21.7509 
E_dihed  =        31.5146 E_impro  =         0.0000 E_vdwl   =        -0.0671 
E_coul   =         0.0000 E_long   =         0.0000 Press    =        -0.5885
------------ Step          10840 ----- CPU =    0.5868542 (sec) -------------
TotEng   =       177.2196 KinEng   =        85.1542 Temp     =       288.5604 
PotEng   =        92.0653 E_bond   =        28.3877 E_angle  =        30.7173 
E_dihed  =        33.0315 E_impro  =         0.0000 E_vdwl   =        -0.0712 
E_coul   =         0.0000 E_long   =         0.0000 Press    =         0.1378
------------ Step          10860 ----- CPU =    0.5875861 (sec) -------------
TotEng   =       179.9148 KinEng   =        78.5872 Temp     =       266.3069 
PotEng   =       101.3276 E_bond   =        39.2785 E_angle  =        27.1922 
E_dihed  =        34.9346 E_impro  =         0.0000 E_vdwl   =        -0.0777 
E_coul   =         0.0000 E_long   =         0.0000 Press    =        -6.4915
------------ Step          10880 ----- CPU =    0.5881816 (sec) -------------
TotEng   =       182.7525 KinEng   =        84.6577 Temp     =       286.8779 
PotEng   =        98.0948 E_bond   =        34.4030 E_angle  =        28.0671 
E_dihed  =        35.7067 E_impro  =         0.0000 E_vdwl   =        -0.0821 
E_coul   =         0.0000 E_long   =         0.0000 Press    =         0.2215
------------ Step          10900 ----- CPU =    0.5887655 (sec) -------------
TotEng   =       185.6085 KinEng   =        94.3520 Temp     =       319.7288 
PotEng   =        91.2565 E_bond   =        31.0702 E_angle  =        27.0574 
E_dihed  =        33.2041 E_impro  =         0.0000 E_vdwl   =        -0.0752 
E_coul   =         0.0000 E_long   =         0.0000 Press    =         3.7019
------------ Step          10920 ----- CPU =     0.590322 (sec) -------------
TotEng   =       188.1436 KinEng   =       103.1744 Temp     =       349.6251 
PotEng   =        84.9692 E_bond   =        31.4991 E_angle  =        22.6268 
E_dihed  =        30.9105 E_impro  =         0.0000 E_vdwl   =        -0.0673 
E_coul   =         0.0000 E_long   =         0.0000 Press    =        -2.4691
------------ Step          10940 ----- CPU =    0.5911309 (sec) -------------
TotEng   =       189.7000 KinEng   =        91.5636 Temp     =       310.2797 
PotEng   =        98.1364 E_bond   =        38.2430 E_angle  =        26.6120 
E_dihed  =        33.3449 E_impro  =         0.0000 E_vdwl   =        -0.0635 
E_coul   =         0.0000 E_long   =         0.0000 Press    =         3.1722
------------ Step          10960 ----- CPU =    0.6051064 (sec) -------------
TotEng   =       190.4377 KinEng   =        92.5683 Temp     =       313.6844 
PotEng   =        97.8693 E_bond   =        32.2715 E_angle  =        30.3843 
E_dihed  =        35.2744 E_impro  =         0.0000 E_vdwl   =        -0.0609 
E_coul   =         0.0000 E_long   =         0.0000 Press    =         5.3955
------------ Step          10980 ----- CPU =    0.6088262 (sec) -------------
TotEng   =       191.0255 KinEng   =        99.0830 Temp     =       335.7604 
PotEng   =        91.9425 E_bond   =        36.4788 E_angle  =        20.9339 
E_dihed  =        34.5873 E_impro  =         0.0000 E_vdwl   =        -0.0575 
E_coul   =         0.0000 E_long   =         0.0000 Press    =        -2.5900
------------ Step          11000 ----- CPU =    0.6181126 (sec) -------------
TotEng   =       190.8089 KinEng   =        90.6882 Temp     =       307.3132 
PotEng   =       100.1207 E_bond   =        35.2706 E_angle  =        28.5194 
E_dihed  =        36.3847 E_impro  =         0.0000 E_vdwl   =        -0.0541 
E_coul   =         0.0000 E_long   =         0.0000 Press    =         2.7879
------------ Step          11020 ----- CPU =    0.6191988 (sec) -------------
TotEng   =       190.0332 KinEng   =        98.6985 Temp     =       334.4577 
PotEng   =        91.3347 E_bond   =        31.2809 E_angle  =        22.0926 
E_dihed  =        38.0132 E_impro  =         0.0000 E_vdwl   =        -0.0520 
E_coul   =         0.0000 E_long   =         0.0000 Press    =         3.8554
------------ Step          11040 ----- CPU =    0.6251771 (sec) -------------
TotEng   =       188.9149 KinEng   =        80.4305 Temp     =       272.5533 
PotEng   =       108.4844 E_bond   =        33.3057 E_angle  =        32.8596 
E_dihed  =        42.3713 E_impro  =         0.0000 E_vdwl   =        -0.0522 
E_coul   =         0.0000 E_long   =         0.0000 Press    =        -3.1975
------------ Step          11060 ----- CPU =    0.6259271 (sec) -------------
TotEng   =       187.9641 KinEng   =        85.0245 Temp     =       288.1208 
PotEng   =       102.9395 E_bond   =        36.8460 E_angle  =        24.5313 
E_dihed  =        41.6161 E_impro  =         0.0000 E_vdwl   =        -0.0539 
E_coul   =         0.0000 E_long   =         0.0000 Press    =         1.2675
------------ Step          11080 ----- CPU =    0.6273748 (sec) -------------
TotEng   =       186.7489 KinEng   =        94.3825 Temp     =       319.8322 
PotEng   =        92.3664 E_bond   =        36.8759 E_angle  =        17.6235 
E_dihed  =        37.9226 E_impro  =         0.0000 E_vdwl   =        -0.0557 
E_coul   =         0.0000 E_long   =         0.0000 Press    =         4.3913
------------ Step          11100 ----- CPU =    0.6285472 (sec) -------------
TotEng   =       184.9118 KinEng   =        90.1983 Temp     =       305.6532 
PotEng   =        94.7135 E_bond   =        31.5188 E_angle  =        24.8865 
E_dihed  =        38.3651 E_impro  =         0.0000 E_vdwl   =        -0.0569 
E_coul   =         0.0000 E_long   =         0.0000 Press    =        -1.0678
------------ Step          11120 ----- CPU =    0.6293358 (sec) -------------
TotEng   =       182.8429 KinEng   =        81.0650 Temp     =       274.7034 
PotEng   =       101.7779 E_bond   =        37.3490 E_angle  =        22.0783 
E_dihed  =        42.4073 E_impro  =         0.0000 E_vdwl   =        -0.0567 
E_coul   =         0.0000 E_long   =         0.0000 Press    =         1.4994
------------ Step          11140 ----- CPU =    0.6299861 (sec) -------------
TotEng   =       180.7449 KinEng   =        82.7504 Temp     =       280.4148 
PotEng   =        97.9944 E_bond   =        36.0194 E_angle  =        20.2261 
E_dihed  =        41.8076 E_impro  =         0.0000 E_vdwl   =        -0.0586 
E_coul   =         0.0000 E_long   =         0.0000 Press    =         3.9490
------------ Step          11160 ----- CPU =    0.6309051 (sec) -------------
TotEng   =       178.5191 KinEng   =        83.6019 Temp     =       283.3001 
PotEng   =        94.9172 E_bond   =        31.4456 E_angle  =        27.3470 
E_dihed  =        36.1845 E_impro  =         0.0000 E_vdwl   =        -0.0599 
E_coul   =         0.0000 E_long   =         0.0000 Press    =        -2.1767
------------ Step          11180 ----- CPU =     0.631749 (sec) -------------
TotEng   =       176.1386 KinEng   =        93.2384 Temp     =       315.9550 
PotEng   =        82.9003 E_bond   =        28.5288 E_angle  =        18.2821 
E_dihed  =        36.1491 E_impro  =         0.0000 E_vdwl   =        -0.0597 
E_coul   =         0.0000 E_long   =         0.0000 Press    =         2.3569
------------ Step          11200 ----- CPU =    0.6323964 (sec) -------------
TotEng   =       173.5526 KinEng   =        82.2119 Temp     =       278.5898 
PotEng   =        91.3407 E_bond   =        30.4609 E_angle  =        25.0703 
E_dihed  =        35.8710 E_impro  =         0.0000 E_vdwl   =        -0.0615 
E_coul   =         0.0000 E_long   =         0.0000 Press    =         1.6021
------------ Step          11220 ----- CPU =    0.6331335 (sec) -------------
TotEng   =       170.9989 KinEng   =        82.2044 Temp     =       278.5644 
PotEng   =        88.7945 E_bond   =        31.0030 E_angle  =        22.4635 
E_dihed  =        35.3873 E_impro  =         0.0000 E_vdwl   =        -0.0593 
E_coul   =         0.0000 E_long   =         0.0000 Press    =        -4.2906
------------ Step          11240 ----- CPU =    0.6337833 (sec) -------------
TotEng   =       169.0081 KinEng   =        75.0003 Temp     =       254.1521 
PotEng   =        94.0077 E_bond   =        34.8359 E_angle  =        24.8330 
E_dihed  =        34.3951 E_impro  =         0.0000 E_vdwl   =        -0.0562 
E_coul   =         0.0000 E_long   =         0.0000 Press    =         0.9172
------------ Step          11260 ----- CPU =    0.6345625 (sec) -------------
TotEng   =       167.5276 KinEng   =        78.5819 Temp     =       266.2887 
PotEng   =        88.9457 E_bond   =        32.7025 E_angle  =        23.0816 
E_dihed  =        33.2155 E_impro  =         0.0000 E_vdwl   =        -0.0538 
E_coul   =         0.0000 E_long   =         0.0000 Press    =        -2.0308
------------ Step          11280 ----- CPU =    0.6352985 (sec) -------------
TotEng   =       166.2557 KinEng   =        89.0107 Temp     =       301.6288 
PotEng   =        77.2450 E_bond   =        24.0086 E_angle  =        21.0955 
E_dihed  =        32.1929 E_impro  =         0.0000 E_vdwl   =        -0.0520 
E_coul   =         0.0000 E_long   =         0.0000 Press    =        -2.7092
------------ Step          11300 ----- CPU =    0.6379604 (sec) -------------
TotEng   =       165.6220 KinEng   =        72.6811 Temp     =       246.2931 
PotEng   =        92.9408 E_bond   =        37.3993 E_angle  =        23.1221 
E_dihed  =        32.4706 E_impro  =         0.0000 E_vdwl   =        -0.0511 
E_coul   =         0.0000 E_long   =         0.0000 Press    =         0.7961
------------ Step          11320 ----- CPU =    0.6389763 (sec) -------------
TotEng   =       165.3068 KinEng   =        78.3378 Temp     =       265.4616 
PotEng   =        86.9690 E_bond   =        31.9100 E_angle  =        23.5415 
E_dihed  =        31.5680 E_impro  =         0.0000 E_vdwl   =        -0.0505 
E_coul   =         0.0000 E_long   =         0.0000 Press    =        -3.5735
------------ Step          11340 ----- CPU =    0.6398379 (sec) -------------
TotEng   =       165.6366 KinEng   =        81.3594 Temp     =       275.7010 
PotEng   =        84.2772 E_bond   =        32.9222 E_angle  =        18.6241 
E_dihed  =        32.7825 E_impro  =         0.0000 E_vdwl   =        -0.0517 
E_coul   =         0.0000 E_long   =         0.0000 Press    =        -0.1656
------------ Step          11360 ----- CPU =    0.6406463 (sec) -------------
TotEng   =       166.7993 KinEng   =        80.0082 Temp     =       271.1220 
PotEng   =        86.7912 E_bond   =        27.0714 E_angle  =        25.7694 
E_dihed  =        34.0046 E_impro  =         0.0000 E_vdwl   =        -0.0542 
E_coul   =         0.0000 E_long   =         0.0000 Press    =        -0.0804
------------ Step          11380 ----- CPU =    0.6415424 (sec) -------------
TotEng   =       169.4391 KinEng   =        81.2099 Temp     =       275.1942 
PotEng   =        88.2292 E_bond   =        33.7727 E_angle  =        21.3799 
E_dihed  =        33.1354 E_impro  =         0.0000 E_vdwl   =        -0.0587 
E_coul   =         0.0000 E_long   =         0.0000 Press    =        -1.1031
------------ Step          11400 ----- CPU =    0.6424577 (sec) -------------
TotEng   =       173.5081 KinEng   =        89.5534 Temp     =       303.4678 
PotEng   =        83.9546 E_bond   =        27.4776 E_angle  =        26.1212 
E_dihed  =        30.4203 E_impro  =         0.0000 E_vdwl   =        -0.0645 
E_coul   =         0.0000 E_long   =         0.0000 Press    =         2.0288
------------ Step          11420 ----- CPU =    0.6432526 (sec) -------------
TotEng   =       178.4434 KinEng   =        91.2314 Temp     =       309.1541 
PotEng   =        87.2120 E_bond   =        31.7696 E_angle  =        25.6673 
E_dihed  =        29.8431 E_impro  =         0.0000 E_vdwl   =        -0.0680 
E_coul   =         0.0000 E_long   =         0.0000 Press    =        -0.0725
------------ Step          11440 ----- CPU =    0.6439155 (sec) -------------
TotEng   =       182.8185 KinEng   =        85.3848 Temp     =       289.3419 
PotEng   =        97.4337 E_bond   =        36.0061 E_angle  =        28.7685 
E_dihed  =        32.7305 E_impro  =         0.0000 E_vdwl   =        -0.0714 
E_coul   =         0.0000 E_long   =         0.0000 Press    =         1.8487
------------ Step          11460 ----- CPU =    0.6448133 (sec) -------------
TotEng   =       186.5159 KinEng   =        93.7842 Temp     =       317.8047 
PotEng   =        92.7317 E_bond   =        30.9476 E_angle  =        25.0040 
E_dihed  =        36.8538 E_impro  =         0.0000 E_vdwl   =        -0.0737 
E_coul   =         0.0000 E_long   =         0.0000 Press    =         0.2292
------------ Step          11480 ----- CPU =    0.6457236 (sec) -------------
TotEng   =       189.2669 KinEng   =        97.2041 Temp     =       329.3936 
PotEng   =        92.0628 E_bond   =        31.2615 E_angle  =        23.7678 
E_dihed  =        37.1088 E_impro  =         0.0000 E_vdwl   =        -0.0754 
E_coul   =         0.0000 E_long   =         0.0000 Press    =        -0.8586
------------ Step          11500 ----- CPU =    0.6464745 (sec) -------------
TotEng   =       191.1154 KinEng   =        99.7249 Temp     =       337.9357 
PotEng   =        91.3905 E_bond   =        31.3525 E_angle  =        23.7022 
E_dihed  =        36.4062 E_impro  =         0.0000 E_vdwl   =        -0.0704 
E_coul   =         0.0000 E_long   =         0.0000 Press    =         1.4217
------------ Step          11520 ----- CPU =    0.6472307 (sec) -------------
TotEng   =       191.9309 KinEng   =        92.8416 Temp     =       314.6105 
PotEng   =        99.0893 E_bond   =        39.7284 E_angle  =        24.8671 
E_dihed  =        34.5589 E_impro  =         0.0000 E_vdwl   =        -0.0652 
E_coul   =         0.0000 E_long   =         0.0000 Press    =        -1.2339
------------ Step          11540 ----- CPU =    0.6479415 (sec) -------------
TotEng   =       191.9861 KinEng   =        91.9821 Temp     =       311.6980 
PotEng   =       100.0040 E_bond   =        33.9576 E_angle  =        30.6959 
E_dihed  =        35.4133 E_impro  =         0.0000 E_vdwl   =        -0.0628 
E_coul   =         0.0000 E_long   =         0.0000 Press    =        -0.2105
------------ Step          11560 ----- CPU =    0.6486232 (sec) -------------
TotEng   =       191.6899 KinEng   =        96.3341 Temp     =       326.4455 
PotEng   =        95.3557 E_bond   =        37.6232 E_angle  =        25.0470 
E_dihed  =        32.7475 E_impro  =         0.0000 E_vdwl   =        -0.0619 
E_coul   =         0.0000 E_long   =         0.0000 Press    =         1.9129
------------ Step          11580 ----- CPU =    0.6492956 (sec) -------------
TotEng   =       190.7097 KinEng   =       103.8657 Temp     =       351.9677 
PotEng   =        86.8440 E_bond   =        34.6162 E_angle  =        21.6954 
E_dihed  =        30.5964 E_impro  =         0.0000 E_vdwl   =        -0.0640 
E_coul   =         0.0000 E_long   =         0.0000 Press    =         2.1435
------------ Step          11600 ----- CPU =    0.6499946 (sec) -------------
TotEng   =       188.7303 KinEng   =        94.4293 Temp     =       319.9907 
PotEng   =        94.3010 E_bond   =        33.1043 E_angle  =        27.7953 
E_dihed  =        33.4677 E_impro  =         0.0000 E_vdwl   =        -0.0663 
E_coul   =         0.0000 E_long   =         0.0000 Press    =        -0.6356
------------ Step          11620 ----- CPU =    0.6511177 (sec) -------------
TotEng   =       186.3582 KinEng   =        83.5553 Temp     =       283.1421 
PotEng   =       102.8029 E_bond   =        38.3577 E_angle  =        27.6807 
E_dihed  =        36.8300 E_impro  =         0.0000 E_vdwl   =        -0.0655 
E_coul   =         0.0000 E_long   =         0.0000 Press    =        -0.1774
------------ Step          11640 ----- CPU =    0.6517844 (sec) -------------
TotEng   =       183.9783 KinEng   =        92.8253 Temp     =       314.5551 
PotEng   =        91.1530 E_bond   =        29.3572 E_angle  =        26.4241 
E_dihed  =        35.4352 E_impro  =         0.0000 E_vdwl   =        -0.0635 
E_coul   =         0.0000 E_long   =         0.0000 Press    =         3.8125
------------ Step          11660 ----- CPU =     0.652451 (sec) -------------
TotEng   =       181.5544 KinEng   =        91.2844 Temp     =       309.3335 
PotEng   =        90.2700 E_bond   =        30.7667 E_angle  =        28.2751 
E_dihed  =        31.2914 E_impro  =         0.0000 E_vdwl   =        -0.0631 
E_coul   =         0.0000 E_long   =         0.0000 Press    =        -2.8236
------------ Step          11680 ----- CPU =    0.6550768 (sec) -------------
TotEng   =       178.9294 KinEng   =        90.3852 Temp     =       306.2866 
PotEng   =        88.5442 E_bond   =        29.7932 E_angle  =        26.0778 
E_dihed  =        32.7385 E_impro  =         0.0000 E_vdwl   =        -0.0653 
E_coul   =         0.0000 E_long   =         0.0000 Press    =        -0.4273
------------ Step          11700 ----- CPU =    0.6561775 (sec) -------------
TotEng   =       176.5851 KinEng   =        80.8710 Temp     =       274.0460 
PotEng   =        95.7140 E_bond   =        36.0125 E_angle  =        24.0967 
E_dihed  =        35.6678 E_impro  =         0.0000 E_vdwl   =        -0.0630 
E_coul   =         0.0000 E_long   =         0.0000 Press    =         4.2580
------------ Step          11720 ----- CPU =    0.6574086 (sec) -------------
TotEng   =       174.5969 KinEng   =        88.4830 Temp     =       299.8404 
PotEng   =        86.1140 E_bond   =        28.6225 E_angle  =        23.3579 
E_dihed  =        34.1944 E_impro  =         0.0000 E_vdwl   =        -0.0609 
E_coul   =         0.0000 E_long   =         0.0000 Press    =        -1.7685
------------ Step          11740 ----- CPU =    0.6581097 (sec) -------------
TotEng   =       173.3096 KinEng   =        80.2322 Temp     =       271.8813 
PotEng   =        93.0774 E_bond   =        34.1756 E_angle  =        25.0493 
E_dihed  =        33.9126 E_impro  =         0.0000 E_vdwl   =        -0.0601 
E_coul   =         0.0000 E_long   =         0.0000 Press    =         0.4810
------------ Step          11760 ----- CPU =    0.6587666 (sec) -------------
TotEng   =       172.6025 KinEng   =        78.7246 Temp     =       266.7726 
PotEng   =        93.8779 E_bond   =        31.7419 E_angle  =        28.1383 
E_dihed  =        34.0577 E_impro  =         0.0000 E_vdwl   =        -0.0600 
E_coul   =         0.0000 E_long   =         0.0000 Press    =         2.8187
------------ Step          11780 ----- CPU =    0.6595269 (sec) -------------
TotEng   =       172.3622 KinEng   =        85.3332 Temp     =       289.1669 
PotEng   =        87.0289 E_bond   =        32.9257 E_angle  =        20.5847 
E_dihed  =        33.5840 E_impro  =         0.0000 E_vdwl   =        -0.0655 
E_coul   =         0.0000 E_long   =         0.0000 Press    =        -0.2749
------------ Step          11800 ----- CPU =    0.6620948 (sec) -------------
TotEng   =       172.2695 KinEng   =        86.9285 Temp     =       294.5729 
PotEng   =        85.3410 E_bond   =        29.9248 E_angle  =        22.5750 
E_dihed  =        32.9120 E_impro  =         0.0000 E_vdwl   =        -0.0708 
E_coul   =         0.0000 E_long   =         0.0000 Press    =        -0.1167
------------ Step          11820 ----- CPU =    0.6639498 (sec) -------------
TotEng   =       172.4432 KinEng   =        87.9142 Temp     =       297.9131 
PotEng   =        84.5290 E_bond   =        26.4669 E_angle  =        25.8694 
E_dihed  =        32.2608 E_impro  =         0.0000 E_vdwl   =        -0.0682 
E_coul   =         0.0000 E_long   =         0.0000 Press    =         0.3766
------------ Step          11840 ----- CPU =    0.6647317 (sec) -------------
TotEng   =       173.2010 KinEng   =        76.0103 Temp     =       257.5744 
PotEng   =        97.1907 E_bond   =        40.1799 E_angle  =        23.1366 
E_dihed  =        33.9388 E_impro  =         0.0000 E_vdwl   =        -0.0646 
E_coul   =         0.0000 E_long   =         0.0000 Press    =        -1.4379
------------ Step          11860 ----- CPU =    0.6654185 (sec) -------------
TotEng   =       174.4471 KinEng   =        80.2830 Temp     =       272.0532 
PotEng   =        94.1642 E_bond   =        32.5285 E_angle  =        27.2350 
E_dihed  =        34.4631 E_impro  =         0.0000 E_vdwl   =        -0.0624 
E_coul   =         0.0000 E_long   =         0.0000 Press    =        -3.1236
------------ Step          11880 ----- CPU =    0.6661122 (sec) -------------
TotEng   =       176.6418 KinEng   =        93.0391 Temp     =       315.2798 
PotEng   =        83.6027 E_bond   =        31.1163 E_angle  =        18.9257 
E_dihed  =        33.6220 E_impro  =         0.0000 E_vdwl   =        -0.0613 
E_coul   =         0.0000 E_long   =         0.0000 Press    =        -0.8131
------------ Step          11900 ----- CPU =    0.6667729 (sec) -------------
TotEng   =       179.7351 KinEng   =        88.7958 Temp     =       300.9006 
PotEng   =        90.9393 E_bond   =        33.6170 E_angle  =        24.3703 
E_dihed  =        33.0153 E_impro  =         0.0000 E_vdwl   =        -0.0632 
E_coul   =         0.0000 E_long   =         0.0000 Press    =        -2.6559
------------ Step          11920 ----- CPU =    0.6678511 (sec) -------------
TotEng   =       183.9495 KinEng   =        92.7490 Temp     =       314.2965 
PotEng   =        91.2005 E_bond   =        30.4202 E_angle  =        24.9505 
E_dihed  =        35.8949 E_impro  =         0.0000 E_vdwl   =        -0.0651 
E_coul   =         0.0000 E_long   =         0.0000 Press    =        -1.1571
------------ Step          11940 ----- CPU =    0.6685485 (sec) -------------
TotEng   =       189.6820 KinEng   =        89.8801 Temp     =       304.5749 
PotEng   =        99.8019 E_bond   =        38.3142 E_angle  =        25.3328 
E_dihed  =        36.2207 E_impro  =         0.0000 E_vdwl   =        -0.0658 
E_coul   =         0.0000 E_long   =         0.0000 Press    =         2.6456
------------ Step          11960 ----- CPU =    0.6692273 (sec) -------------
TotEng   =       196.1831 KinEng   =        98.8409 Temp     =       334.9402 
PotEng   =        97.3422 E_bond   =        32.8931 E_angle  =        30.8371 
E_dihed  =        33.6798 E_impro  =         0.0000 E_vdwl   =        -0.0678 
E_coul   =         0.0000 E_long   =         0.0000 Press    =        -0.6947
------------ Step          11980 ----- CPU =     0.670286 (sec) -------------
TotEng   =       201.5803 KinEng   =       101.5531 Temp     =       344.1310 
PotEng   =       100.0272 E_bond   =        39.7270 E_angle  =        26.9348 
E_dihed  =        33.4400 E_impro  =         0.0000 E_vdwl   =        -0.0746 
E_coul   =         0.0000 E_long   =         0.0000 Press    =         3.9818
------------ Step          12000 ----- CPU =    0.6712796 (sec) -------------
TotEng   =       204.2919 KinEng   =        92.7437 Temp     =       314.2788 
PotEng   =       111.5481 E_bond   =        42.9828 E_angle  =        30.7353 
E_dihed  =        37.9145 E_impro  =         0.0000 E_vdwl   =        -0.0844 
E_coul   =         0.0000 E_long   =         0.0000 Press    =         3.4632
------------ Step          12020 ----- CPU =    0.6723186 (sec) -------------
TotEng   =       205.0725 KinEng   =       109.5279 Temp     =       371.1548 
PotEng   =        95.5446 E_bond   =        31.8141 E_angle  =        24.0136 
E_dihed  =        39.8033 E_impro  =         0.0000 E_vdwl   =        -0.0863 
E_coul   =         0.0000 E_long   =         0.0000 Press    =        -1.9779
------------ Step          12040 ----- CPU =      0.67326 (sec) -------------
TotEng   =       204.7121 KinEng   =        94.0562 Temp     =       318.7263 
PotEng   =       110.6560 E_bond   =        40.2394 E_angle  =        30.3601 
E_dihed  =        40.1336 E_impro  =         0.0000 E_vdwl   =        -0.0772 
E_coul   =         0.0000 E_long   =         0.0000 Press    =         2.0394
------------ Step          12060 ----- CPU =    0.6738827 (sec) -------------
TotEng   =       203.7015 KinEng   =        94.3904 Temp     =       319.8589 
PotEng   =       109.3110 E_bond   =        42.0380 E_angle  =        26.8699 
E_dihed  =        40.4813 E_impro  =         0.0000 E_vdwl   =        -0.0782 
E_coul   =         0.0000 E_long   =         0.0000 Press    =        -2.2265
------------ Step          12080 ----- CPU =    0.6744912 (sec) -------------
TotEng   =       202.3068 KinEng   =        93.8795 Temp     =       318.1275 
PotEng   =       108.4273 E_bond   =        39.6307 E_angle  =        30.8578 
E_dihed  =        38.0183 E_impro  =         0.0000 E_vdwl   =        -0.0795 
E_coul   =         0.0000 E_long   =         0.0000 Press    =        -2.9051
------------ Step          12100 ----- CPU =    0.6764081 (sec) -------------
TotEng   =       200.2887 KinEng   =       105.0501 Temp     =       355.9812 
PotEng   =        95.2386 E_bond   =        32.8925 E_angle  =        29.1885 
E_dihed  =        33.2318 E_impro  =         0.0000 E_vdwl   =        -0.0742 
E_coul   =         0.0000 E_long   =         0.0000 Press    =         1.4241
------------ Step          12120 ----- CPU =    0.6781927 (sec) -------------
TotEng   =       197.2371 KinEng   =       104.2371 Temp     =       353.2261 
PotEng   =        93.0000 E_bond   =        33.2873 E_angle  =        26.0632 
E_dihed  =        33.7195 E_impro  =         0.0000 E_vdwl   =        -0.0700 
E_coul   =         0.0000 E_long   =         0.0000 Press    =        -0.9541
------------ Step          12140 ----- CPU =    0.6798566 (sec) -------------
TotEng   =       193.7387 KinEng   =        92.2700 Temp     =       312.6734 
PotEng   =       101.4687 E_bond   =        32.4218 E_angle  =        32.7264 
E_dihed  =        36.3857 E_impro  =         0.0000 E_vdwl   =        -0.0651 
E_coul   =         0.0000 E_long   =         0.0000 Press    =         0.6281
------------ Step          12160 ----- CPU =      0.68057 (sec) -------------
TotEng   =       190.7426 KinEng   =        88.5843 Temp     =       300.1838 
PotEng   =       102.1584 E_bond   =        34.9652 E_angle  =        31.6247 
E_dihed  =        35.6317 E_impro  =         0.0000 E_vdwl   =        -0.0632 
E_coul   =         0.0000 E_long   =         0.0000 Press    =         2.2549
------------ Step          12180 ----- CPU =    0.6812571 (sec) -------------
TotEng   =       188.1523 KinEng   =        88.0382 Temp     =       298.3331 
PotEng   =       100.1141 E_bond   =        39.5081 E_angle  =        26.1102 
E_dihed  =        34.5596 E_impro  =         0.0000 E_vdwl   =        -0.0637 
E_coul   =         0.0000 E_long   =         0.0000 Press    =         1.8248
------------ Step          12200 ----- CPU =    0.6819541 (sec) -------------
TotEng   =       185.9750 KinEng   =        88.7724 Temp     =       300.8212 
PotEng   =        97.2026 E_bond   =        31.4670 E_angle  =        32.9523 
E_dihed  =        32.8457 E_impro  =         0.0000 E_vdwl   =        -0.0623 
E_coul   =         0.0000 E_long   =         0.0000 Press    =         1.1784
------------ Step          12220 ----- CPU =    0.6830547 (sec) -------------
TotEng   =       184.0048 KinEng   =       100.0324 Temp     =       338.9777 
PotEng   =        83.9724 E_bond   =        31.3051 E_angle  =        20.6373 
E_dihed  =        32.0926 E_impro  =         0.0000 E_vdwl   =        -0.0626 
E_coul   =         0.0000 E_long   =         0.0000 Press    =         0.8791
------------ Step          12240 ----- CPU =    0.6840086 (sec) -------------
TotEng   =       181.7910 KinEng   =        86.0607 Temp     =       291.6322 
PotEng   =        95.7303 E_bond   =        38.1044 E_angle  =        26.1072 
E_dihed  =        31.5840 E_impro  =         0.0000 E_vdwl   =        -0.0652 
E_coul   =         0.0000 E_long   =         0.0000 Press    =        -1.4526
------------ Step          12260 ----- CPU =    0.6858266 (sec) -------------
TotEng   =       179.7358 KinEng   =        79.6007 Temp     =       269.7414 
PotEng   =       100.1351 E_bond   =        37.2824 E_angle  =        29.0641 
E_dihed  =        33.8575 E_impro  =         0.0000 E_vdwl   =        -0.0690 
E_coul   =         0.0000 E_long   =         0.0000 Press    =        -3.2325
------------ Step          12280 ----- CPU =    0.6871116 (sec) -------------
TotEng   =       178.4185 KinEng   =        85.0617 Temp     =       288.2469 
PotEng   =        93.3568 E_bond   =        33.4765 E_angle  =        24.7281 
E_dihed  =        35.2301 E_impro  =         0.0000 E_vdwl   =        -0.0778 
E_coul   =         0.0000 E_long   =         0.0000 Press    =        -0.1079
------------ Step          12300 ----- CPU =    0.6880623 (sec) -------------
TotEng   =       177.5145 KinEng   =        81.4628 Temp     =       276.0512 
PotEng   =        96.0517 E_bond   =        33.0893 E_angle  =        28.6794 
E_dihed  =        34.3683 E_impro  =         0.0000 E_vdwl   =        -0.0853 
E_coul   =         0.0000 E_long   =         0.0000 Press    =         0.5599
------------ Step          12320 ----- CPU =    0.6892148 (sec) -------------
TotEng   =       177.0072 KinEng   =        86.3369 Temp     =       292.5681 
PotEng   =        90.6703 E_bond   =        36.1311 E_angle  =        23.0329 
E_dihed  =        31.5918 E_impro  =         0.0000 E_vdwl   =        -0.0855 
E_coul   =         0.0000 E_long   =         0.0000 Press    =         0.7387
------------ Step          12340 ----- CPU =    0.6901381 (sec) -------------
TotEng   =       176.2036 KinEng   =        90.9843 Temp     =       308.3167 
PotEng   =        85.2193 E_bond   =        30.1515 E_angle  =        24.4403 
E_dihed  =        30.7094 E_impro  =         0.0000 E_vdwl   =        -0.0819 
E_coul   =         0.0000 E_long   =         0.0000 Press    =         3.0985
------------ Step          12360 ----- CPU =    0.6908127 (sec) -------------
TotEng   =       175.4678 KinEng   =        87.5067 Temp     =       296.5320 
PotEng   =        87.9611 E_bond   =        32.6677 E_angle  =        25.9018 
E_dihed  =        29.4691 E_impro  =         0.0000 E_vdwl   =        -0.0774 
E_coul   =         0.0000 E_long   =         0.0000 Press    =         1.1998
------------ Step          12380 ----- CPU =    0.6915024 (sec) -------------
TotEng   =       174.7782 KinEng   =        88.1785 Temp     =       298.8088 
PotEng   =        86.5996 E_bond   =        32.1695 E_angle  =        24.7739 
E_dihed  =        29.7291 E_impro  =         0.0000 E_vdwl   =        -0.0729 
E_coul   =         0.0000 E_long   =         0.0000 Press    =         1.2369
------------ Step          12400 ----- CPU =     0.692213 (sec) -------------
TotEng   =       174.3594 KinEng   =        82.4435 Temp     =       279.3745 
PotEng   =        91.9159 E_bond   =        31.4105 E_angle  =        28.7947 
E_dihed  =        31.7807 E_impro  =         0.0000 E_vdwl   =        -0.0700 
E_coul   =         0.0000 E_long   =         0.0000 Press    =         1.2200
------------ Step          12420 ----- CPU =    0.6934507 (sec) -------------
TotEng   =       174.0313 KinEng   =        89.1751 Temp     =       302.1859 
PotEng   =        84.8561 E_bond   =        31.4873 E_angle  =        18.9792 
E_dihed  =        34.4580 E_impro  =         0.0000 E_vdwl   =        -0.0684 
E_coul   =         0.0000 E_long   =         0.0000 Press    =        -0.2860
------------ Step          12440 ----- CPU =    0.6942746 (sec) -------------
TotEng   =       173.8656 KinEng   =        92.0231 Temp     =       311.8366 
PotEng   =        81.8425 E_bond   =        26.6292 E_angle  =        21.5424 
E_dihed  =        33.7386 E_impro  =         0.0000 E_vdwl   =        -0.0677 
E_coul   =         0.0000 E_long   =         0.0000 Press    =        -0.1819
------------ Step          12460 ----- CPU =    0.6958906 (sec) -------------
TotEng   =       173.9881 KinEng   =        81.2645 Temp     =       275.3794 
PotEng   =        92.7236 E_bond   =        34.4462 E_angle  =        26.3432 
E_dihed  =        32.0031 E_impro  =         0.0000 E_vdwl   =        -0.0690 
E_coul   =         0.0000 E_long   =         0.0000 Press    =        -2.2948
------------ Step          12480 ----- CPU =     0.697077 (sec) -------------
TotEng   =       174.2615 KinEng   =        92.8360 Temp     =       314.5916 
PotEng   =        81.4254 E_bond   =        31.4718 E_angle  =        21.1216 
E_dihed  =        28.9047 E_impro  =         0.0000 E_vdwl   =        -0.0727 
E_coul   =         0.0000 E_long   =         0.0000 Press    =        -0.4254
------------ Step          12500 ----- CPU =    0.6977938 (sec) -------------
TotEng   =       174.8126 KinEng   =        81.4773 Temp     =       276.1005 
PotEng   =        93.3353 E_bond   =        37.4476 E_angle  =        25.9062 
E_dihed  =        30.0633 E_impro  =         0.0000 E_vdwl   =        -0.0818 
E_coul   =         0.0000 E_long   =         0.0000 Press    =        -0.3973
------------ Step          12520 ----- CPU =    0.6986004 (sec) -------------
TotEng   =       175.5011 KinEng   =        89.7555 Temp     =       304.1527 
PotEng   =        85.7456 E_bond   =        29.2486 E_angle  =        23.9663 
E_dihed  =        32.6216 E_impro  =         0.0000 E_vdwl   =        -0.0909 
E_coul   =         0.0000 E_long   =         0.0000 Press    =        -0.6806
------------ Step          12540 ----- CPU =    0.6993105 (sec) -------------
TotEng   =       176.6825 KinEng   =        80.2132 Temp     =       271.8167 
PotEng   =        96.4693 E_bond   =        37.6308 E_angle  =        24.5140 
E_dihed  =        34.4121 E_impro  =         0.0000 E_vdwl   =        -0.0876 
E_coul   =         0.0000 E_long   =         0.0000 Press    =         1.9729
------------ Step          12560 ----- CPU =    0.7000961 (sec) -------------
TotEng   =       178.1797 KinEng   =        89.5150 Temp     =       303.3375 
PotEng   =        88.6647 E_bond   =        28.7309 E_angle  =        25.2209 
E_dihed  =        34.7988 E_impro  =         0.0000 E_vdwl   =        -0.0859 
E_coul   =         0.0000 E_long   =         0.0000 Press    =         0.1893
------------ Step          12580 ----- CPU =    0.7009984 (sec) -------------
TotEng   =       180.4062 KinEng   =        88.9374 Temp     =       301.3803 
PotEng   =        91.4688 E_bond   =        36.7940 E_angle  =        27.8383 
E_dihed  =        26.9201 E_impro  =         0.0000 E_vdwl   =        -0.0835 
E_coul   =         0.0000 E_long   =         0.0000 Press    =         0.6771
------------ Step          12600 ----- CPU =    0.7017095 (sec) -------------
TotEng   =       182.8641 KinEng   =        89.6267 Temp     =       303.7161 
PotEng   =        93.2374 E_bond   =        39.9514 E_angle  =        27.8322 
E_dihed  =        25.5334 E_impro  =         0.0000 E_vdwl   =        -0.0797 
E_coul   =         0.0000 E_long   =         0.0000 Press    =         0.6199
------------ Step          12620 ----- CPU =    0.7025146 (sec) -------------
TotEng   =       184.9552 KinEng   =        96.1713 Temp     =       325.8937 
PotEng   =        88.7839 E_bond   =        26.0247 E_angle  =        31.2498 
E_dihed  =        31.5910 E_impro  =         0.0000 E_vdwl   =        -0.0816 
E_coul   =         0.0000 E_long   =         0.0000 Press    =        -2.5457
------------ Step          12640 ----- CPU =      0.70328 (sec) -------------
TotEng   =       187.1358 KinEng   =        99.5944 Temp     =       337.4936 
PotEng   =        87.5414 E_bond   =        34.8956 E_angle  =        20.5748 
E_dihed  =        32.1570 E_impro  =         0.0000 E_vdwl   =        -0.0860 
E_coul   =         0.0000 E_long   =         0.0000 Press    =        -0.5595
------------ Step          12660 ----- CPU =    0.7048221 (sec) -------------
TotEng   =       188.7960 KinEng   =        90.3565 Temp     =       306.1891 
PotEng   =        98.4395 E_bond   =        33.9098 E_angle  =        36.8932 
E_dihed  =        27.7293 E_impro  =         0.0000 E_vdwl   =        -0.0927 
E_coul   =         0.0000 E_long   =         0.0000 Press    =        -1.7561
------------ Step          12680 ----- CPU =    0.7058695 (sec) -------------
TotEng   =       190.0795 KinEng   =        99.5728 Temp     =       337.4202 
PotEng   =        90.5067 E_bond   =        38.1615 E_angle  =        23.5522 
E_dihed  =        28.8914 E_impro  =         0.0000 E_vdwl   =        -0.0984 
E_coul   =         0.0000 E_long   =         0.0000 Press    =        -3.2589
------------ Step          12700 ----- CPU =    0.7075939 (sec) -------------
TotEng   =       190.8907 KinEng   =        98.2400 Temp     =       332.9039 
PotEng   =        92.6507 E_bond   =        30.7455 E_angle  =        29.3958 
E_dihed  =        32.6182 E_impro  =         0.0000 E_vdwl   =        -0.1089 
E_coul   =         0.0000 E_long   =         0.0000 Press    =        -1.2118
------------ Step          12720 ----- CPU =    0.7086431 (sec) -------------
TotEng   =       191.5751 KinEng   =        84.4542 Temp     =       286.1884 
PotEng   =       107.1209 E_bond   =        42.5120 E_angle  =        29.8125 
E_dihed  =        34.9240 E_impro  =         0.0000 E_vdwl   =        -0.1277 
E_coul   =         0.0000 E_long   =         0.0000 Press    =        -1.8069
------------ Step          12740 ----- CPU =    0.7095057 (sec) -------------
TotEng   =       191.8241 KinEng   =        95.4464 Temp     =       323.4374 
PotEng   =        96.3776 E_bond   =        40.5426 E_angle  =        21.7987 
E_dihed  =        34.1569 E_impro  =         0.0000 E_vdwl   =        -0.1206 
E_coul   =         0.0000 E_long   =         0.0000 Press    =        -0.7379
------------ Step          12760 ----- CPU =    0.7102377 (sec) -------------
TotEng   =       191.4229 KinEng   =       102.1348 Temp     =       346.1023 
PotEng   =        89.2880 E_bond   =        28.2153 E_angle  =        31.5383 
E_dihed  =        29.6402 E_impro  =         0.0000 E_vdwl   =        -0.1058 
E_coul   =         0.0000 E_long   =         0.0000 Press    =         2.4297
------------ Step          12780 ----- CPU =     0.711501 (sec) -------------
TotEng   =       190.1977 KinEng   =        95.8181 Temp     =       324.6968 
PotEng   =        94.3796 E_bond   =        39.3598 E_angle  =        24.4436 
E_dihed  =        30.6685 E_impro  =         0.0000 E_vdwl   =        -0.0922 
E_coul   =         0.0000 E_long   =         0.0000 Press    =         1.1640
------------ Step          12800 ----- CPU =    0.7126697 (sec) -------------
TotEng   =       188.0820 KinEng   =        84.8276 Temp     =       287.4537 
PotEng   =       103.2544 E_bond   =        36.3747 E_angle  =        32.5548 
E_dihed  =        34.4087 E_impro  =         0.0000 E_vdwl   =        -0.0837 
E_coul   =         0.0000 E_long   =         0.0000 Press    =         2.2037
------------ Step          12820 ----- CPU =    0.7135521 (sec) -------------
TotEng   =       185.5847 KinEng   =        84.7374 Temp     =       287.1478 
PotEng   =       100.8473 E_bond   =        37.6703 E_angle  =        25.2020 
E_dihed  =        38.0592 E_impro  =         0.0000 E_vdwl   =        -0.0842 
E_coul   =         0.0000 E_long   =         0.0000 Press    =         3.5474
------------ Step          12840 ----- CPU =    0.7147023 (sec) -------------
TotEng   =       182.9998 KinEng   =        88.8382 Temp     =       301.0443 
PotEng   =        94.1615 E_bond   =        30.8177 E_angle  =        27.2732 
E_dihed  =        36.1659 E_impro  =         0.0000 E_vdwl   =        -0.0953 
E_coul   =         0.0000 E_long   =         0.0000 Press    =         1.5779
------------ Step          12860 ----- CPU =    0.7157206 (sec) -------------
TotEng   =       180.2551 KinEng   =        88.4048 Temp     =       299.5754 
PotEng   =        91.8503 E_bond   =        38.7168 E_angle  =        22.6957 
E_dihed  =        30.5467 E_impro  =         0.0000 E_vdwl   =        -0.1089 
E_coul   =         0.0000 E_long   =         0.0000 Press    =         2.1959
------------ Step          12880 ----- CPU =    0.7165465 (sec) -------------
TotEng   =       177.0889 KinEng   =        90.3200 Temp     =       306.0654 
PotEng   =        86.7689 E_bond   =        33.4410 E_angle  =        25.1700 
E_dihed  =        28.2670 E_impro  =         0.0000 E_vdwl   =        -0.1091 
E_coul   =         0.0000 E_long   =         0.0000 Press    =         2.1689
------------ Step          12900 ----- CPU =    0.7172805 (sec) -------------
TotEng   =       173.8516 KinEng   =        89.3760 Temp     =       302.8666 
PotEng   =        84.4756 E_bond   =        26.9674 E_angle  =        27.4654 
E_dihed  =        30.1476 E_impro  =         0.0000 E_vdwl   =        -0.1049 
E_coul   =         0.0000 E_long   =         0.0000 Press    =        -0.3075
------------ Step          12920 ----- CPU =    0.7182389 (sec) -------------
TotEng   =       171.4403 KinEng   =        75.9816 Temp     =       257.4771 
PotEng   =        95.4588 E_bond   =        36.1358 E_angle  =        29.2092 
E_dihed  =        30.2169 E_impro  =         0.0000 E_vdwl   =        -0.1030 
E_coul   =         0.0000 E_long   =         0.0000 Press    =         0.0823
------------ Step          12940 ----- CPU =    0.7189413 (sec) -------------
TotEng   =       169.5464 KinEng   =        83.0461 Temp     =       281.4167 
PotEng   =        86.5003 E_bond   =        24.9054 E_angle  =        31.7598 
E_dihed  =        29.9213 E_impro  =         0.0000 E_vdwl   =        -0.0862 
E_coul   =         0.0000 E_long   =         0.0000 Press    =         1.0510
------------ Step          12960 ----- CPU =     0.720025 (sec) -------------
TotEng   =       168.4427 KinEng   =        89.1463 Temp     =       302.0882 
PotEng   =        79.2965 E_bond   =        32.4168 E_angle  =        18.3834 
E_dihed  =        28.5729 E_impro  =         0.0000 E_vdwl   =        -0.0766 
E_coul   =         0.0000 E_long   =         0.0000 Press    =        -1.9329
------------ Step          12980 ----- CPU =    0.7211172 (sec) -------------
TotEng   =       167.3651 KinEng   =        81.2540 Temp     =       275.3439 
PotEng   =        86.1110 E_bond   =        27.7854 E_angle  =        28.6559 
E_dihed  =        29.7394 E_impro  =         0.0000 E_vdwl   =        -0.0696 
E_coul   =         0.0000 E_long   =         0.0000 Press    =        -1.6217
------------ Step          13000 ----- CPU =    0.7223608 (sec) -------------
TotEng   =       166.9198 KinEng   =        81.6846 Temp     =       276.8029 
PotEng   =        85.2352 E_bond   =        33.6463 E_angle  =        25.3041 
E_dihed  =        26.3515 E_impro  =         0.0000 E_vdwl   =        -0.0667 
E_coul   =         0.0000 E_long   =         0.0000 Press    =        -1.6837
------------ Step          13020 ----- CPU =    0.7234037 (sec) -------------
TotEng   =       166.9379 KinEng   =        82.8388 Temp     =       280.7140 
PotEng   =        84.0992 E_bond   =        33.7241 E_angle  =        25.2768 
E_dihed  =        25.1682 E_impro  =         0.0000 E_vdwl   =        -0.0699 
E_coul   =         0.0000 E_long   =         0.0000 Press    =        -1.6427
------------ Step          13040 ----- CPU =    0.7241102 (sec) -------------
TotEng   =       167.3555 KinEng   =        78.2341 Temp     =       265.1101 
PotEng   =        89.1215 E_bond   =        34.6250 E_angle  =        26.7758 
E_dihed  =        27.7952 E_impro  =         0.0000 E_vdwl   =        -0.0746 
E_coul   =         0.0000 E_long   =         0.0000 Press    =        -0.3096
------------ Step          13060 ----- CPU =    0.7248767 (sec) -------------
TotEng   =       168.2780 KinEng   =        83.1656 Temp     =       281.8215 
PotEng   =        85.1124 E_bond   =        27.7515 E_angle  =        28.2459 
E_dihed  =        29.1911 E_impro  =         0.0000 E_vdwl   =        -0.0761 
E_coul   =         0.0000 E_long   =         0.0000 Press    =        -2.6103
------------ Step          13080 ----- CPU =    0.7255883 (sec) -------------
TotEng   =       169.8903 KinEng   =        82.4536 Temp     =       279.4087 
PotEng   =        87.4367 E_bond   =        31.4908 E_angle  =        23.4469 
E_dihed  =        32.5780 E_impro  =         0.0000 E_vdwl   =        -0.0789 
E_coul   =         0.0000 E_long   =         0.0000 Press    =        -2.0961
------------ Step          13100 ----- CPU =    0.7264561 (sec) -------------
TotEng   =       172.3423 KinEng   =        85.6088 Temp     =       290.1009 
PotEng   =        86.7335 E_bond   =        26.3645 E_angle  =        27.1666 
E_dihed  =        33.2840 E_impro  =         0.0000 E_vdwl   =        -0.0816 
E_coul   =         0.0000 E_long   =         0.0000 Press    =        -0.9272
------------ Step          13120 ----- CPU =    0.7282505 (sec) -------------
TotEng   =       176.6018 KinEng   =        84.4467 Temp     =       286.1627 
PotEng   =        92.1551 E_bond   =        36.7025 E_angle  =        24.7647 
E_dihed  =        30.7666 E_impro  =         0.0000 E_vdwl   =        -0.0787 
E_coul   =         0.0000 E_long   =         0.0000 Press    =        -2.1797
------------ Step          13140 ----- CPU =    0.7290442 (sec) -------------
TotEng   =       182.2562 KinEng   =        85.4947 Temp     =       289.7143 
PotEng   =        96.7614 E_bond   =        34.8871 E_angle  =        32.6665 
E_dihed  =        29.2804 E_impro  =         0.0000 E_vdwl   =        -0.0725 
E_coul   =         0.0000 E_long   =         0.0000 Press    =        -2.0651
------------ Step          13160 ----- CPU =    0.7299023 (sec) -------------
TotEng   =       188.3574 KinEng   =       105.0598 Temp     =       356.0138 
PotEng   =        83.2977 E_bond   =        28.0203 E_angle  =        25.7700 
E_dihed  =        29.5746 E_impro  =         0.0000 E_vdwl   =        -0.0673 
E_coul   =         0.0000 E_long   =         0.0000 Press    =         1.2582
------------ Step          13180 ----- CPU =    0.7306228 (sec) -------------
TotEng   =       192.6862 KinEng   =        99.2660 Temp     =       336.3807 
PotEng   =        93.4202 E_bond   =        33.9688 E_angle  =        28.6225 
E_dihed  =        30.8939 E_impro  =         0.0000 E_vdwl   =        -0.0650 
E_coul   =         0.0000 E_long   =         0.0000 Press    =        -0.0242
------------ Step          13200 ----- CPU =    0.7314386 (sec) -------------
TotEng   =       194.7209 KinEng   =        90.1948 Temp     =       305.6414 
PotEng   =       104.5261 E_bond   =        41.5735 E_angle  =        29.6581 
E_dihed  =        33.3624 E_impro  =         0.0000 E_vdwl   =        -0.0679 
E_coul   =         0.0000 E_long   =         0.0000 Press    =        -2.7749
------------ Step          13220 ----- CPU =    0.7322589 (sec) -------------
TotEng   =       195.3346 KinEng   =        94.5765 Temp     =       320.4895 
PotEng   =       100.7581 E_bond   =        33.1986 E_angle  =        33.0995 
E_dihed  =        34.5324 E_impro  =         0.0000 E_vdwl   =        -0.0724 
E_coul   =         0.0000 E_long   =         0.0000 Press    =         1.5856
------------ Step          13240 ----- CPU =    0.7331487 (sec) -------------
TotEng   =       195.5574 KinEng   =        91.4255 Temp     =       309.8117 
PotEng   =       104.1319 E_bond   =        38.3427 E_angle  =        32.8163 
E_dihed  =        33.0429 E_impro  =         0.0000 E_vdwl   =        -0.0700 
E_coul   =         0.0000 E_long   =         0.0000 Press    =         2.6135
------------ Step          13260 ----- CPU =    0.7339903 (sec) -------------
TotEng   =       195.3329 KinEng   =        91.5776 Temp     =       310.3271 
PotEng   =       103.7553 E_bond   =        42.9807 E_angle  =        28.4578 
E_dihed  =        32.3843 E_impro  =         0.0000 E_vdwl   =        -0.0676 
E_coul   =         0.0000 E_long   =         0.0000 Press    =        -0.6025
------------ Step          13280 ----- CPU =    0.7348585 (sec) -------------
TotEng   =       194.5009 KinEng   =       104.8060 Temp     =       355.1541 
PotEng   =        89.6949 E_bond   =        34.3327 E_angle  =        23.5891 
E_dihed  =        31.8423 E_impro  =         0.0000 E_vdwl   =        -0.0693 
E_coul   =         0.0000 E_long   =         0.0000 Press    =         3.5472
------------ Step          13300 ----- CPU =    0.7356811 (sec) -------------
TotEng   =       192.8782 KinEng   =        95.8549 Temp     =       324.8217 
PotEng   =        97.0233 E_bond   =        39.0837 E_angle  =        27.3270 
E_dihed  =        30.6832 E_impro  =         0.0000 E_vdwl   =        -0.0706 
E_coul   =         0.0000 E_long   =         0.0000 Press    =         3.0030
------------ Step          13320 ----- CPU =    0.7368958 (sec) -------------
TotEng   =       190.5161 KinEng   =        91.4633 Temp     =       309.9397 
PotEng   =        99.0528 E_bond   =        36.7652 E_angle  =        30.8683 
E_dihed  =        31.4866 E_impro  =         0.0000 E_vdwl   =        -0.0673 
E_coul   =         0.0000 E_long   =         0.0000 Press    =         1.0744
------------ Step          13340 ----- CPU =    0.7380429 (sec) -------------
TotEng   =       187.9350 KinEng   =        96.0159 Temp     =       325.3672 
PotEng   =        91.9191 E_bond   =        29.9240 E_angle  =        27.9542 
E_dihed  =        34.1047 E_impro  =         0.0000 E_vdwl   =        -0.0639 
E_coul   =         0.0000 E_long   =         0.0000 Press    =         2.3282
------------ Step          13360 ----- CPU =    0.7388526 (sec) -------------
TotEng   =       185.0869 KinEng   =        87.4366 Temp     =       296.2945 
PotEng   =        97.6503 E_bond   =        32.5207 E_angle  =        31.1788 
E_dihed  =        34.0141 E_impro  =         0.0000 E_vdwl   =        -0.0634 
E_coul   =         0.0000 E_long   =         0.0000 Press    =         2.3514
------------ Step          13380 ----- CPU =    0.7401012 (sec) -------------
TotEng   =       182.5028 KinEng   =        92.0167 Temp     =       311.8153 
PotEng   =        90.4860 E_bond   =        32.4613 E_angle  =        22.5771 
E_dihed  =        35.5095 E_impro  =         0.0000 E_vdwl   =        -0.0618 
E_coul   =         0.0000 E_long   =         0.0000 Press    =         2.0300
------------ Step          13400 ----- CPU =    0.7408634 (sec) -------------
TotEng   =       179.9632 KinEng   =        88.2757 Temp     =       299.1381 
PotEng   =        91.6875 E_bond   =        31.9970 E_angle  =        24.5698 
E_dihed  =        35.1814 E_impro  =         0.0000 E_vdwl   =        -0.0608 
E_coul   =         0.0000 E_long   =         0.0000 Press    =         1.2721
------------ Step          13420 ----- CPU =    0.7416803 (sec) -------------
TotEng   =       177.4234 KinEng   =        89.3978 Temp     =       302.9404 
PotEng   =        88.0257 E_bond   =        33.8170 E_angle  =        21.3239 
E_dihed  =        32.9462 E_impro  =         0.0000 E_vdwl   =        -0.0614 
E_coul   =         0.0000 E_long   =         0.0000 Press    =         2.1500
------------ Step          13440 ----- CPU =    0.7426038 (sec) -------------
TotEng   =       175.2695 KinEng   =        83.6451 Temp     =       283.4466 
PotEng   =        91.6244 E_bond   =        35.1832 E_angle  =        27.2572 
E_dihed  =        29.2440 E_impro  =         0.0000 E_vdwl   =        -0.0600 
E_coul   =         0.0000 E_long   =         0.0000 Press    =         1.6320
------------ Step          13460 ----- CPU =    0.7435504 (sec) -------------
TotEng   =       173.2077 KinEng   =        88.2271 Temp     =       298.9733 
PotEng   =        84.9806 E_bond   =        31.9309 E_angle  =        22.1588 
E_dihed  =        30.9504 E_impro  =         0.0000 E_vdwl   =        -0.0596 
E_coul   =         0.0000 E_long   =         0.0000 Press    =        -0.3153
------------ Step          13480 ----- CPU =     0.744611 (sec) -------------
TotEng   =       171.5994 KinEng   =        84.5282 Temp     =       286.4390 
PotEng   =        87.0712 E_bond   =        29.2291 E_angle  =        24.4913 
E_dihed  =        33.4126 E_impro  =         0.0000 E_vdwl   =        -0.0617 
E_coul   =         0.0000 E_long   =         0.0000 Press    =         0.3336
------------ Step          13500 ----- CPU =    0.7454324 (sec) -------------
TotEng   =       170.5110 KinEng   =        84.9993 Temp     =       288.0354 
PotEng   =        85.5118 E_bond   =        32.7923 E_angle  =        22.6940 
E_dihed  =        30.0872 E_impro  =         0.0000 E_vdwl   =        -0.0618 
E_coul   =         0.0000 E_long   =         0.0000 Press    =        -1.7863
------------ Step          13520 ----- CPU =    0.7462653 (sec) -------------
TotEng   =       169.6943 KinEng   =        81.0104 Temp     =       274.5182 
PotEng   =        88.6839 E_bond   =        31.6432 E_angle  =        23.6626 
E_dihed  =        33.4404 E_impro  =         0.0000 E_vdwl   =        -0.0624 
E_coul   =         0.0000 E_long   =         0.0000 Press    =        -2.0746
------------ Step          13540 ----- CPU =    0.7469501 (sec) -------------
TotEng   =       169.2427 KinEng   =        86.3573 Temp     =       292.6371 
PotEng   =        82.8855 E_bond   =        28.7921 E_angle  =        21.3575 
E_dihed  =        32.8034 E_impro  =         0.0000 E_vdwl   =        -0.0675 
E_coul   =         0.0000 E_long   =         0.0000 Press    =        -3.2635
------------ Step          13560 ----- CPU =     0.748018 (sec) -------------
TotEng   =       169.2261 KinEng   =        85.7285 Temp     =       290.5063 
PotEng   =        83.4976 E_bond   =        27.3579 E_angle  =        23.5765 
E_dihed  =        32.6342 E_impro  =         0.0000 E_vdwl   =        -0.0711 
E_coul   =         0.0000 E_long   =         0.0000 Press    =        -3.0463
------------ Step          13580 ----- CPU =    0.7487154 (sec) -------------
TotEng   =       169.7149 KinEng   =        87.0864 Temp     =       295.1077 
PotEng   =        82.6285 E_bond   =        29.7258 E_angle  =        24.4635 
E_dihed  =        28.5114 E_impro  =         0.0000 E_vdwl   =        -0.0723 
E_coul   =         0.0000 E_long   =         0.0000 Press    =         0.3888
------------ Step          13600 ----- CPU =    0.7494429 (sec) -------------
TotEng   =       170.1403 KinEng   =        90.4183 Temp     =       306.3985 
PotEng   =        79.7221 E_bond   =        30.5234 E_angle  =        19.0033 
E_dihed  =        30.2728 E_impro  =         0.0000 E_vdwl   =        -0.0775 
E_coul   =         0.0000 E_long   =         0.0000 Press    =        -1.4129
------------ Step          13620 ----- CPU =    0.7502209 (sec) -------------
TotEng   =       170.6707 KinEng   =        85.0205 Temp     =       288.1072 
PotEng   =        85.6502 E_bond   =        31.4246 E_angle  =        22.2213 
E_dihed  =        32.0801 E_impro  =         0.0000 E_vdwl   =        -0.0759 
E_coul   =         0.0000 E_long   =         0.0000 Press    =        -1.1533
------------ Step          13640 ----- CPU =    0.7509325 (sec) -------------
TotEng   =       171.6169 KinEng   =        76.9831 Temp     =       260.8710 
PotEng   =        94.6338 E_bond   =        33.4180 E_angle  =        27.9500 
E_dihed  =        33.3401 E_impro  =         0.0000 E_vdwl   =        -0.0742 
E_coul   =         0.0000 E_long   =         0.0000 Press    =         0.0419
------------ Step          13660 ----- CPU =    0.7516565 (sec) -------------
TotEng   =       173.6498 KinEng   =        88.6154 Temp     =       300.2892 
PotEng   =        85.0344 E_bond   =        31.6520 E_angle  =        21.0081 
E_dihed  =        32.4507 E_impro  =         0.0000 E_vdwl   =        -0.0764 
E_coul   =         0.0000 E_long   =         0.0000 Press    =        -1.9037
------------ Step          13680 ----- CPU =    0.7536775 (sec) -------------
TotEng   =       177.0688 KinEng   =        77.5834 Temp     =       262.9054 
PotEng   =        99.4854 E_bond   =        39.2078 E_angle  =        29.4214 
E_dihed  =        30.9272 E_impro  =         0.0000 E_vdwl   =        -0.0710 
E_coul   =         0.0000 E_long   =         0.0000 Press    =        -1.7029
------------ Step          13700 ----- CPU =    0.7549432 (sec) -------------
TotEng   =       181.6212 KinEng   =        99.2707 Temp     =       336.3967 
PotEng   =        82.3504 E_bond   =        29.6771 E_angle  =        22.9884 
E_dihed  =        29.7496 E_impro  =         0.0000 E_vdwl   =        -0.0647 
E_coul   =         0.0000 E_long   =         0.0000 Press    =        -1.9926
------------ Step          13720 ----- CPU =    0.7558541 (sec) -------------
TotEng   =       187.2628 KinEng   =       101.6046 Temp     =       344.3055 
PotEng   =        85.6582 E_bond   =        32.4099 E_angle  =        20.8637 
E_dihed  =        32.4464 E_impro  =         0.0000 E_vdwl   =        -0.0618 
E_coul   =         0.0000 E_long   =         0.0000 Press    =        -2.3362
------------ Step          13740 ----- CPU =    0.7565516 (sec) -------------
TotEng   =       191.6263 KinEng   =        89.5104 Temp     =       303.3219 
PotEng   =       102.1160 E_bond   =        37.3298 E_angle  =        26.7987 
E_dihed  =        38.0481 E_impro  =         0.0000 E_vdwl   =        -0.0606 
E_coul   =         0.0000 E_long   =         0.0000 Press    =        -2.4842
------------ Step          13760 ----- CPU =    0.7572498 (sec) -------------
TotEng   =       194.9355 KinEng   =        98.1037 Temp     =       332.4419 
PotEng   =        96.8319 E_bond   =        35.8353 E_angle  =        22.2608 
E_dihed  =        38.7961 E_impro  =         0.0000 E_vdwl   =        -0.0603 
E_coul   =         0.0000 E_long   =         0.0000 Press    =        -2.1353
------------ Step          13780 ----- CPU =    0.7579525 (sec) -------------
TotEng   =       197.0121 KinEng   =        97.1138 Temp     =       329.0875 
PotEng   =        99.8983 E_bond   =        32.8130 E_angle  =        28.0246 
E_dihed  =        39.1217 E_impro  =         0.0000 E_vdwl   =        -0.0610 
E_coul   =         0.0000 E_long   =         0.0000 Press    =         3.1363
------------ Step          13800 ----- CPU =    0.7589996 (sec) -------------
TotEng   =       198.0187 KinEng   =       102.6955 Temp     =       348.0022 
PotEng   =        95.3232 E_bond   =        29.3549 E_angle  =        24.6155 
E_dihed  =        41.4153 E_impro  =         0.0000 E_vdwl   =        -0.0624 
E_coul   =         0.0000 E_long   =         0.0000 Press    =         2.2936
------------ Step          13820 ----- CPU =    0.7599337 (sec) -------------
TotEng   =       198.4198 KinEng   =        94.0009 Temp     =       318.5388 
PotEng   =       104.4190 E_bond   =        35.3883 E_angle  =        26.3799 
E_dihed  =        42.7131 E_impro  =         0.0000 E_vdwl   =        -0.0623 
E_coul   =         0.0000 E_long   =         0.0000 Press    =         1.7442
------------ Step          13840 ----- CPU =    0.7606497 (sec) -------------
TotEng   =       198.2566 KinEng   =        93.3226 Temp     =       316.2405 
PotEng   =       104.9339 E_bond   =        37.5462 E_angle  =        25.0833 
E_dihed  =        42.3656 E_impro  =         0.0000 E_vdwl   =        -0.0612 
E_coul   =         0.0000 E_long   =         0.0000 Press    =         3.0698
------------ Step          13860 ----- CPU =    0.7615949 (sec) -------------
TotEng   =       197.6392 KinEng   =        99.0865 Temp     =       335.7725 
PotEng   =        98.5526 E_bond   =        37.1478 E_angle  =        22.7463 
E_dihed  =        38.7202 E_impro  =         0.0000 E_vdwl   =        -0.0616 
E_coul   =         0.0000 E_long   =         0.0000 Press    =        -0.5154
------------ Step          13880 ----- CPU =    0.7623672 (sec) -------------
TotEng   =       196.2049 KinEng   =        98.3899 Temp     =       333.4117 
PotEng   =        97.8150 E_bond   =        36.4605 E_angle  =        23.4654 
E_dihed  =        37.9529 E_impro  =         0.0000 E_vdwl   =        -0.0637 
E_coul   =         0.0000 E_long   =         0.0000 Press    =         1.6477
------------ Step          13900 ----- CPU =    0.7630938 (sec) -------------
TotEng   =       194.0110 KinEng   =        89.7530 Temp     =       304.1440 
PotEng   =       104.2581 E_bond   =        43.3159 E_angle  =        21.9416 
E_dihed  =        39.0661 E_impro  =         0.0000 E_vdwl   =        -0.0655 
E_coul   =         0.0000 E_long   =         0.0000 Press    =         0.9026
------------ Step          13920 ----- CPU =    0.7640488 (sec) -------------
TotEng   =       191.2851 KinEng   =        93.5199 Temp     =       316.9090 
PotEng   =        97.7652 E_bond   =        37.8996 E_angle  =        23.1127 
E_dihed  =        36.8219 E_impro  =         0.0000 E_vdwl   =        -0.0690 
E_coul   =         0.0000 E_long   =         0.0000 Press    =        -1.1565
------------ Step          13940 ----- CPU =    0.7647466 (sec) -------------
TotEng   =       188.3904 KinEng   =        96.6527 Temp     =       327.5250 
PotEng   =        91.7377 E_bond   =        33.0838 E_angle  =        24.5059 
E_dihed  =        34.2232 E_impro  =         0.0000 E_vdwl   =        -0.0752 
E_coul   =         0.0000 E_long   =         0.0000 Press    =         2.3689
------------ Step          13960 ----- CPU =    0.7655434 (sec) -------------
TotEng   =       185.3157 KinEng   =        89.4729 Temp     =       303.1949 
PotEng   =        95.8428 E_bond   =        33.0012 E_angle  =        25.7001 
E_dihed  =        37.2157 E_impro  =         0.0000 E_vdwl   =        -0.0741 
E_coul   =         0.0000 E_long   =         0.0000 Press    =         0.9611
------------ Step          13980 ----- CPU =    0.7662472 (sec) -------------
TotEng   =       182.9493 KinEng   =        85.3851 Temp     =       289.3427 
PotEng   =        97.5642 E_bond   =        32.5529 E_angle  =        27.0269 
E_dihed  =        38.0598 E_impro  =         0.0000 E_vdwl   =        -0.0754 
E_coul   =         0.0000 E_long   =         0.0000 Press    =         0.9781
------------ Step          14000 ----- CPU =    0.7669601 (sec) -------------
TotEng   =       181.0722 KinEng   =        88.1517 Temp     =       298.7179 
PotEng   =        92.9205 E_bond   =        28.4876 E_angle  =        25.5742 
E_dihed  =        38.9389 E_impro  =         0.0000 E_vdwl   =        -0.0802 
E_coul   =         0.0000 E_long   =         0.0000 Press    =         2.7903
------------ Step          14020 ----- CPU =    0.7678098 (sec) -------------
TotEng   =       179.9690 KinEng   =        88.1905 Temp     =       298.8492 
PotEng   =        91.7785 E_bond   =        28.1515 E_angle  =        23.8357 
E_dihed  =        39.8636 E_impro  =         0.0000 E_vdwl   =        -0.0723 
E_coul   =         0.0000 E_long   =         0.0000 Press    =         2.7991
------------ Step          14040 ----- CPU =    0.7688701 (sec) -------------
TotEng   =       179.5198 KinEng   =        83.6378 Temp     =       283.4217 
PotEng   =        95.8820 E_bond   =        32.2374 E_angle  =        23.3517 
E_dihed  =        40.3635 E_impro  =         0.0000 E_vdwl   =        -0.0706 
E_coul   =         0.0000 E_long   =         0.0000 Press    =        -0.3176
------------ Step          14060 ----- CPU =     0.771789 (sec) -------------
TotEng   =       179.4772 KinEng   =        81.4874 Temp     =       276.1348 
PotEng   =        97.9897 E_bond   =        36.6102 E_angle  =        23.0676 
E_dihed  =        38.3838 E_impro  =         0.0000 E_vdwl   =        -0.0719 
E_coul   =         0.0000 E_long   =         0.0000 Press    =        -1.1156
------------ Step          14080 ----- CPU =    0.7728162 (sec) -------------
TotEng   =       179.7165 KinEng   =        93.4355 Temp     =       316.6231 
PotEng   =        86.2809 E_bond   =        28.1783 E_angle  =        21.6208 
E_dihed  =        36.5546 E_impro  =         0.0000 E_vdwl   =        -0.0728 
E_coul   =         0.0000 E_long   =         0.0000 Press    =         2.1192
------------ Step          14100 ----- CPU =    0.7744775 (sec) -------------
TotEng   =       180.0855 KinEng   =        85.7500 Temp     =       290.5794 
PotEng   =        94.3354 E_bond   =        36.0180 E_angle  =        24.3454 
E_dihed  =        34.0522 E_impro  =         0.0000 E_vdwl   =        -0.0802 
E_coul   =         0.0000 E_long   =         0.0000 Press    =        -4.2426
------------ Step          14120 ----- CPU =    0.7753384 (sec) -------------
TotEng   =       180.0043 KinEng   =        94.7235 Temp     =       320.9875 
PotEng   =        85.2808 E_bond   =        31.2411 E_angle  =        19.6180 
E_dihed  =        34.5079 E_impro  =         0.0000 E_vdwl   =        -0.0862 
E_coul   =         0.0000 E_long   =         0.0000 Press    =        -0.8345
------------ Step          14140 ----- CPU =    0.7761385 (sec) -------------
TotEng   =       179.9786 KinEng   =        85.9724 Temp     =       291.3328 
PotEng   =        94.0063 E_bond   =        38.1485 E_angle  =        17.4283 
E_dihed  =        38.5145 E_impro  =         0.0000 E_vdwl   =        -0.0851 
E_coul   =         0.0000 E_long   =         0.0000 Press    =         1.9025
------------ Step          14160 ----- CPU =     0.776869 (sec) -------------
TotEng   =       179.7016 KinEng   =        80.0626 Temp     =       271.3064 
PotEng   =        99.6390 E_bond   =        36.4266 E_angle  =        24.4233 
E_dihed  =        38.8699 E_impro  =         0.0000 E_vdwl   =        -0.0808 
E_coul   =         0.0000 E_long   =         0.0000 Press    =        -7.5108
------------ Step          14180 ----- CPU =    0.7776655 (sec) -------------
TotEng   =       179.6243 KinEng   =        95.6171 Temp     =       324.0159 
PotEng   =        84.0071 E_bond   =        30.4930 E_angle  =        20.5420 
E_dihed  =        33.0467 E_impro  =         0.0000 E_vdwl   =        -0.0745 
E_coul   =         0.0000 E_long   =         0.0000 Press    =         1.6574
------------ Step          14200 ----- CPU =    0.7789961 (sec) -------------
TotEng   =       179.3810 KinEng   =        93.6516 Temp     =       317.3553 
PotEng   =        85.7294 E_bond   =        26.9599 E_angle  =        28.0206 
E_dihed  =        30.8194 E_impro  =         0.0000 E_vdwl   =        -0.0706 
E_coul   =         0.0000 E_long   =         0.0000 Press    =         0.3210
------------ Step          14220 ----- CPU =    0.7800633 (sec) -------------
TotEng   =       179.1958 KinEng   =        77.9303 Temp     =       264.0809 
PotEng   =       101.2654 E_bond   =        41.5207 E_angle  =        26.9012 
E_dihed  =        32.9101 E_impro  =         0.0000 E_vdwl   =        -0.0666 
E_coul   =         0.0000 E_long   =         0.0000 Press    =        -7.2766
------------ Step          14240 ----- CPU =    0.7807858 (sec) -------------
TotEng   =       179.1874 KinEng   =        86.2993 Temp     =       292.4407 
PotEng   =        92.8880 E_bond   =        33.0013 E_angle  =        23.7328 
E_dihed  =        36.2187 E_impro  =         0.0000 E_vdwl   =        -0.0649 
E_coul   =         0.0000 E_long   =         0.0000 Press    =         2.8663
------------ Step          14260 ----- CPU =    0.7816976 (sec) -------------
TotEng   =       179.4791 KinEng   =        89.9833 Temp     =       304.9247 
PotEng   =        89.4957 E_bond   =        29.6343 E_angle  =        24.9187 
E_dihed  =        35.0092 E_impro  =         0.0000 E_vdwl   =        -0.0664 
E_coul   =         0.0000 E_long   =         0.0000 Press    =        -0.7931
------------ Step          14280 ----- CPU =    0.7824119 (sec) -------------
TotEng   =       180.2128 KinEng   =        88.3552 Temp     =       299.4075 
PotEng   =        91.8576 E_bond   =        33.7225 E_angle  =        24.0281 
E_dihed  =        34.1771 E_impro  =         0.0000 E_vdwl   =        -0.0701 
E_coul   =         0.0000 E_long   =         0.0000 Press    =        -3.0789
------------ Step          14300 ----- CPU =    0.7831851 (sec) -------------
TotEng   =       181.1865 KinEng   =        87.6820 Temp     =       297.1261 
PotEng   =        93.5045 E_bond   =        30.8811 E_angle  =        26.1353 
E_dihed  =        36.5617 E_impro  =         0.0000 E_vdwl   =        -0.0737 
E_coul   =         0.0000 E_long   =         0.0000 Press    =         2.7004
------------ Step          14320 ----- CPU =    0.7841374 (sec) -------------
TotEng   =       182.8807 KinEng   =        84.5300 Temp     =       286.4449 
PotEng   =        98.3508 E_bond   =        37.1444 E_angle  =        22.9781 
E_dihed  =        38.3074 E_impro  =         0.0000 E_vdwl   =        -0.0791 
E_coul   =         0.0000 E_long   =         0.0000 Press    =        -0.5955
------------ Step          14340 ----- CPU =    0.7849143 (sec) -------------
TotEng   =       185.5666 KinEng   =        89.9944 Temp     =       304.9622 
PotEng   =        95.5722 E_bond   =        36.3609 E_angle  =        21.1932 
E_dihed  =        38.0998 E_impro  =         0.0000 E_vdwl   =        -0.0817 
E_coul   =         0.0000 E_long   =         0.0000 Press    =        -0.0367
------------ Step          14360 ----- CPU =    0.7856329 (sec) -------------
TotEng   =       189.0606 KinEng   =        97.3625 Temp     =       329.9305 
PotEng   =        91.6981 E_bond   =        31.9815 E_angle  =        24.5817 
E_dihed  =        35.2147 E_impro  =         0.0000 E_vdwl   =        -0.0798 
E_coul   =         0.0000 E_long   =         0.0000 Press    =         1.2208
------------ Step          14380 ----- CPU =    0.7874042 (sec) -------------
TotEng   =       193.0801 KinEng   =        97.5529 Temp     =       330.5756 
PotEng   =        95.5272 E_bond   =        37.4124 E_angle  =        25.0299 
E_dihed  =        33.1685 E_impro  =         0.0000 E_vdwl   =        -0.0836 
E_coul   =         0.0000 E_long   =         0.0000 Press    =         0.9293
------------ Step          14400 ----- CPU =      0.78838 (sec) -------------
TotEng   =       196.6186 KinEng   =       101.5547 Temp     =       344.1363 
PotEng   =        95.0639 E_bond   =        38.1579 E_angle  =        22.3028 
E_dihed  =        34.6881 E_impro  =         0.0000 E_vdwl   =        -0.0849 
E_coul   =         0.0000 E_long   =         0.0000 Press    =        -0.6222
------------ Step          14420 ----- CPU =    0.7896998 (sec) -------------
TotEng   =       199.2209 KinEng   =        93.7548 Temp     =       317.7051 
PotEng   =       105.4660 E_bond   =        37.9372 E_angle  =        28.2133 
E_dihed  =        39.3959 E_impro  =         0.0000 E_vdwl   =        -0.0803 
E_coul   =         0.0000 E_long   =         0.0000 Press    =         0.1522
------------ Step          14440 ----- CPU =    0.7904281 (sec) -------------
TotEng   =       201.0051 KinEng   =        98.9402 Temp     =       335.2767 
PotEng   =       102.0648 E_bond   =        36.6919 E_angle  =        23.1755 
E_dihed  =        42.2820 E_impro  =         0.0000 E_vdwl   =        -0.0846 
E_coul   =         0.0000 E_long   =         0.0000 Press    =         2.6534
------------ Step          14460 ----- CPU =    0.7911551 (sec) -------------
TotEng   =       202.3638 KinEng   =        97.4820 Temp     =       330.3353 
PotEng   =       104.8818 E_bond   =        36.6776 E_angle  =        28.6420 
E_dihed  =        39.6472 E_impro  =         0.0000 E_vdwl   =        -0.0851 
E_coul   =         0.0000 E_long   =         0.0000 Press    =        -1.3872
------------ Step          14480 ----- CPU =    0.7918913 (sec) -------------
TotEng   =       202.8732 KinEng   =       100.2617 Temp     =       339.7548 
PotEng   =       102.6115 E_bond   =        34.2537 E_angle  =        33.0451 
E_dihed  =        35.3959 E_impro  =         0.0000 E_vdwl   =        -0.0833 
E_coul   =         0.0000 E_long   =         0.0000 Press    =         1.6770
------------ Step          14500 ----- CPU =    0.7928168 (sec) -------------
TotEng   =       202.1161 KinEng   =       110.1800 Temp     =       373.3648 
PotEng   =        91.9360 E_bond   =        29.6874 E_angle  =        28.2158 
E_dihed  =        34.1185 E_impro  =         0.0000 E_vdwl   =        -0.0856 
E_coul   =         0.0000 E_long   =         0.0000 Press    =         3.3393
------------ Step          14520 ----- CPU =    0.7947034 (sec) -------------
TotEng   =       200.4442 KinEng   =        92.1068 Temp     =       312.1204 
PotEng   =       108.3374 E_bond   =        35.4038 E_angle  =        34.7764 
E_dihed  =        38.2426 E_impro  =         0.0000 E_vdwl   =        -0.0854 
E_coul   =         0.0000 E_long   =         0.0000 Press    =        -1.0865
------------ Step          14540 ----- CPU =    0.7958281 (sec) -------------
TotEng   =       197.8893 KinEng   =        86.8752 Temp     =       294.3923 
PotEng   =       111.0141 E_bond   =        43.1578 E_angle  =        27.0457 
E_dihed  =        40.8956 E_impro  =         0.0000 E_vdwl   =        -0.0851 
E_coul   =         0.0000 E_long   =         0.0000 Press    =         1.6673
------------ Step          14560 ----- CPU =    0.7965738 (sec) -------------
TotEng   =       194.6508 KinEng   =        89.8737 Temp     =       304.5531 
PotEng   =       104.7771 E_bond   =        40.2970 E_angle  =        26.1029 
E_dihed  =        38.4648 E_impro  =         0.0000 E_vdwl   =        -0.0876 
E_coul   =         0.0000 E_long   =         0.0000 Press    =         0.3279
------------ Step          14580 ----- CPU =    0.7973193 (sec) -------------
TotEng   =       190.9626 KinEng   =        94.8686 Temp     =       321.4794 
PotEng   =        96.0940 E_bond   =        31.0422 E_angle  =        32.0169 
E_dihed  =        33.1240 E_impro  =         0.0000 E_vdwl   =        -0.0892 
E_coul   =         0.0000 E_long   =         0.0000 Press    =         0.2542
------------ Step          14600 ----- CPU =    0.7980449 (sec) -------------
TotEng   =       186.6199 KinEng   =        92.3305 Temp     =       312.8784 
PotEng   =        94.2894 E_bond   =        33.2072 E_angle  =        26.5842 
E_dihed  =        34.5806 E_impro  =         0.0000 E_vdwl   =        -0.0827 
E_coul   =         0.0000 E_long   =         0.0000 Press    =         0.9219
------------ Step          14620 ----- CPU =    0.7992054 (sec) -------------
TotEng   =       183.2429 KinEng   =        72.5390 Temp     =       245.8113 
PotEng   =       110.7040 E_bond   =        36.4026 E_angle  =        34.7771 
E_dihed  =        39.6058 E_impro  =         0.0000 E_vdwl   =        -0.0815 
E_coul   =         0.0000 E_long   =         0.0000 Press    =        -0.0256
------------ Step          14640 ----- CPU =    0.7999234 (sec) -------------
TotEng   =       180.7810 KinEng   =        90.5397 Temp     =       306.8101 
PotEng   =        90.2413 E_bond   =        26.9790 E_angle  =        21.7870 
E_dihed  =        41.5638 E_impro  =         0.0000 E_vdwl   =        -0.0885 
E_coul   =         0.0000 E_long   =         0.0000 Press    =         0.5543
------------ Step          14660 ----- CPU =    0.8006916 (sec) -------------
TotEng   =       179.3185 KinEng   =        79.3054 Temp     =       268.7405 
PotEng   =       100.0131 E_bond   =        31.4883 E_angle  =        26.6745 
E_dihed  =        41.9427 E_impro  =         0.0000 E_vdwl   =        -0.0923 
E_coul   =         0.0000 E_long   =         0.0000 Press    =        -1.2360
------------ Step          14680 ----- CPU =    0.8015614 (sec) -------------
TotEng   =       178.5124 KinEng   =        86.7707 Temp     =       294.0382 
PotEng   =        91.7417 E_bond   =        31.5812 E_angle  =        20.9207 
E_dihed  =        39.3309 E_impro  =         0.0000 E_vdwl   =        -0.0911 
E_coul   =         0.0000 E_long   =         0.0000 Press    =        -0.1798
------------ Step          14700 ----- CPU =    0.8022994 (sec) -------------
TotEng   =       178.1710 KinEng   =        83.9634 Temp     =       284.5251 
PotEng   =        94.2076 E_bond   =        31.6092 E_angle  =        23.7912 
E_dihed  =        38.8901 E_impro  =         0.0000 E_vdwl   =        -0.0829 
E_coul   =         0.0000 E_long   =         0.0000 Press    =         0.7211
------------ Step          14720 ----- CPU =    0.8043069 (sec) -------------
TotEng   =       178.2693 KinEng   =        88.0425 Temp     =       298.3478 
PotEng   =        90.2268 E_bond   =        32.0218 E_angle  =        20.0400 
E_dihed  =        38.2405 E_impro  =         0.0000 E_vdwl   =        -0.0755 
E_coul   =         0.0000 E_long   =         0.0000 Press    =         1.3250
------------ Step          14740 ----- CPU =    0.8056271 (sec) -------------
TotEng   =       178.6074 KinEng   =        86.3406 Temp     =       292.5807 
PotEng   =        92.2668 E_bond   =        29.6048 E_angle  =        22.4887 
E_dihed  =        40.2454 E_impro  =         0.0000 E_vdwl   =        -0.0721 
E_coul   =         0.0000 E_long   =         0.0000 Press    =         0.4681
------------ Step          14760 ----- CPU =    0.8065265 (sec) -------------
TotEng   =       179.2663 KinEng   =        84.4321 Temp     =       286.1135 
PotEng   =        94.8342 E_bond   =        34.6236 E_angle  =        20.2537 
E_dihed  =        40.0270 E_impro  =         0.0000 E_vdwl   =        -0.0700 
E_coul   =         0.0000 E_long   =         0.0000 Press    =        -0.7652
------------ Step          14780 ----- CPU =    0.8072694 (sec) -------------
TotEng   =       179.9195 KinEng   =        85.7201 Temp     =       290.4781 
PotEng   =        94.1993 E_bond   =        29.0980 E_angle  =        29.0761 
E_dihed  =        36.0949 E_impro  =         0.0000 E_vdwl   =        -0.0697 
E_coul   =         0.0000 E_long   =         0.0000 Press    =         1.9525
------------ Step          14800 ----- CPU =    0.8080251 (sec) -------------
TotEng   =       180.6849 KinEng   =        86.3098 Temp     =       292.4764 
PotEng   =        94.3750 E_bond   =        30.8563 E_angle  =        26.9559 
E_dihed  =        36.6329 E_impro  =         0.0000 E_vdwl   =        -0.0700 
E_coul   =         0.0000 E_long   =         0.0000 Press    =        -1.7920
------------ Step          14820 ----- CPU =     0.808874 (sec) -------------
TotEng   =       181.6210 KinEng   =        85.2733 Temp     =       288.9638 
PotEng   =        96.3477 E_bond   =        37.3815 E_angle  =        20.0452 
E_dihed  =        38.9937 E_impro  =         0.0000 E_vdwl   =        -0.0728 
E_coul   =         0.0000 E_long   =         0.0000 Press    =        -0.8684
------------ Step          14840 ----- CPU =    0.8100304 (sec) -------------
TotEng   =       182.5382 KinEng   =        93.0579 Temp     =       315.3433 
PotEng   =        89.4803 E_bond   =        29.4544 E_angle  =        21.9957 
E_dihed  =        38.1112 E_impro  =         0.0000 E_vdwl   =        -0.0810 
E_coul   =         0.0000 E_long   =         0.0000 Press    =         3.6371
------------ Step          14860 ----- CPU =    0.8111165 (sec) -------------
TotEng   =       183.5364 KinEng   =        85.5134 Temp     =       289.7774 
PotEng   =        98.0231 E_bond   =        37.9029 E_angle  =        25.9806 
E_dihed  =        34.2344 E_impro  =         0.0000 E_vdwl   =        -0.0948 
E_coul   =         0.0000 E_long   =         0.0000 Press    =        -1.5937
------------ Step          14880 ----- CPU =    0.8122368 (sec) -------------
TotEng   =       184.2622 KinEng   =        88.1573 Temp     =       298.7368 
PotEng   =        96.1049 E_bond   =        35.5485 E_angle  =        23.8616 
E_dihed  =        36.8011 E_impro  =         0.0000 E_vdwl   =        -0.1062 
E_coul   =         0.0000 E_long   =         0.0000 Press    =         0.4142
------------ Step          14900 ----- CPU =    0.8130135 (sec) -------------
TotEng   =       184.8541 KinEng   =        90.6306 Temp     =       307.1181 
PotEng   =        94.2235 E_bond   =        33.8654 E_angle  =        21.0775 
E_dihed  =        39.3910 E_impro  =         0.0000 E_vdwl   =        -0.1104 
E_coul   =         0.0000 E_long   =         0.0000 Press    =         2.7803
------------ Step          14920 ----- CPU =     0.813878 (sec) -------------
TotEng   =       185.3946 KinEng   =        98.2146 Temp     =       332.8177 
PotEng   =        87.1800 E_bond   =        28.4200 E_angle  =        22.8140 
E_dihed  =        36.0475 E_impro  =         0.0000 E_vdwl   =        -0.1014 
E_coul   =         0.0000 E_long   =         0.0000 Press    =        -1.4568
------------ Step          14940 ----- CPU =    0.8152334 (sec) -------------
TotEng   =       185.9157 KinEng   =        82.0425 Temp     =       278.0156 
PotEng   =       103.8733 E_bond   =        41.5732 E_angle  =        28.5434 
E_dihed  =        33.8427 E_impro  =         0.0000 E_vdwl   =        -0.0861 
E_coul   =         0.0000 E_long   =         0.0000 Press    =        -0.8667
------------ Step          14960 ----- CPU =    0.8160261 (sec) -------------
TotEng   =       186.1945 KinEng   =        94.5225 Temp     =       320.3066 
PotEng   =        91.6720 E_bond   =        27.3568 E_angle  =        27.9678 
E_dihed  =        36.4301 E_impro  =         0.0000 E_vdwl   =        -0.0828 
E_coul   =         0.0000 E_long   =         0.0000 Press    =         0.2101
------------ Step          14980 ----- CPU =    0.8168497 (sec) -------------
TotEng   =       186.9793 KinEng   =        89.7678 Temp     =       304.1943 
PotEng   =        97.2115 E_bond   =        35.4728 E_angle  =        23.8468 
E_dihed  =        37.9736 E_impro  =         0.0000 E_vdwl   =        -0.0817 
E_coul   =         0.0000 E_long   =         0.0000 Press    =        -0.7742
------------ Step          15000 ----- CPU =     0.817616 (sec) -------------
TotEng   =       187.9851 KinEng   =        94.8894 Temp     =       321.5499 
PotEng   =        93.0956 E_bond   =        34.2527 E_angle  =        24.6689 
E_dihed  =        34.2522 E_impro  =         0.0000 E_vdwl   =        -0.0782 
E_coul   =         0.0000 E_long   =         0.0000 Press    =        -1.1653
------------ Step          15020 ----- CPU =    0.8185196 (sec) -------------
TotEng   =       188.9808 KinEng   =        96.7144 Temp     =       327.7340 
PotEng   =        92.2664 E_bond   =        33.3968 E_angle  =        23.1069 
E_dihed  =        35.8412 E_impro  =         0.0000 E_vdwl   =        -0.0785 
E_coul   =         0.0000 E_long   =         0.0000 Press    =         0.1654
------------ Step          15040 ----- CPU =    0.8192899 (sec) -------------
TotEng   =       189.6325 KinEng   =        99.6182 Temp     =       337.5743 
PotEng   =        90.0143 E_bond   =        30.5320 E_angle  =        20.9242 
E_dihed  =        38.6351 E_impro  =         0.0000 E_vdwl   =        -0.0770 
E_coul   =         0.0000 E_long   =         0.0000 Press    =        -1.6075
------------ Step          15060 ----- CPU =    0.8231629 (sec) -------------
TotEng   =       190.0209 KinEng   =        87.2463 Temp     =       295.6497 
PotEng   =       102.7746 E_bond   =        34.5685 E_angle  =        27.9074 
E_dihed  =        40.3746 E_impro  =         0.0000 E_vdwl   =        -0.0759 
E_coul   =         0.0000 E_long   =         0.0000 Press    =        -3.1182
------------ Step          15080 ----- CPU =     0.824002 (sec) -------------
TotEng   =       190.4888 KinEng   =        92.6619 Temp     =       314.0014 
PotEng   =        97.8269 E_bond   =        38.4406 E_angle  =        20.7629 
E_dihed  =        38.7012 E_impro  =         0.0000 E_vdwl   =        -0.0779 
E_coul   =         0.0000 E_long   =         0.0000 Press    =        -0.9277
------------ Step          15100 ----- CPU =    0.8253126 (sec) -------------
TotEng   =       190.1726 KinEng   =        97.7427 Temp     =       331.2187 
PotEng   =        92.4299 E_bond   =        32.5722 E_angle  =        21.3178 
E_dihed  =        38.6182 E_impro  =         0.0000 E_vdwl   =        -0.0782 
E_coul   =         0.0000 E_long   =         0.0000 Press    =        -1.9534
------------ Step          15120 ----- CPU =    0.8265828 (sec) -------------
TotEng   =       189.2745 KinEng   =        91.6991 Temp     =       310.7389 
PotEng   =        97.5754 E_bond   =        35.8744 E_angle  =        24.5636 
E_dihed  =        37.2139 E_impro  =         0.0000 E_vdwl   =        -0.0766 
E_coul   =         0.0000 E_long   =         0.0000 Press    =        -0.7579
------------ Step          15140 ----- CPU =    0.8275962 (sec) -------------
TotEng   =       187.5568 KinEng   =        93.2984 Temp     =       316.1584 
PotEng   =        94.2584 E_bond   =        33.7953 E_angle  =        24.4674 
E_dihed  =        36.0708 E_impro  =         0.0000 E_vdwl   =        -0.0750 
E_coul   =         0.0000 E_long   =         0.0000 Press    =         1.4504
------------ Step          15160 ----- CPU =    0.8287471 (sec) -------------
TotEng   =       185.2788 KinEng   =        92.0780 Temp     =       312.0227 
PotEng   =        93.2009 E_bond   =        29.2671 E_angle  =        26.4282 
E_dihed  =        37.5791 E_impro  =         0.0000 E_vdwl   =        -0.0735 
E_coul   =         0.0000 E_long   =         0.0000 Press    =         1.5314
------------ Step          15180 ----- CPU =    0.8301841 (sec) -------------
TotEng   =       183.1982 KinEng   =        83.8003 Temp     =       283.9725 
PotEng   =        99.3979 E_bond   =        38.9512 E_angle  =        23.1340 
E_dihed  =        37.3866 E_impro  =         0.0000 E_vdwl   =        -0.0739 
E_coul   =         0.0000 E_long   =         0.0000 Press    =         1.5359
------------ Step          15200 ----- CPU =    0.8315602 (sec) -------------
TotEng   =       180.7535 KinEng   =        91.9540 Temp     =       311.6028 
PotEng   =        88.7995 E_bond   =        32.0952 E_angle  =        19.5619 
E_dihed  =        37.2189 E_impro  =         0.0000 E_vdwl   =        -0.0765 
E_coul   =         0.0000 E_long   =         0.0000 Press    =         2.6668
------------ Step          15220 ----- CPU =    0.8339703 (sec) -------------
TotEng   =       178.1891 KinEng   =        89.7886 Temp     =       304.2650 
PotEng   =        88.4004 E_bond   =        27.8096 E_angle  =        25.0236 
E_dihed  =        35.6449 E_impro  =         0.0000 E_vdwl   =        -0.0777 
E_coul   =         0.0000 E_long   =         0.0000 Press    =         1.9490
------------ Step          15240 ----- CPU =    0.8349022 (sec) -------------
TotEng   =       175.7528 KinEng   =        85.6228 Temp     =       290.1483 
PotEng   =        90.1300 E_bond   =        30.4525 E_angle  =        25.7484 
E_dihed  =        34.0061 E_impro  =         0.0000 E_vdwl   =        -0.0771 
E_coul   =         0.0000 E_long   =         0.0000 Press    =         0.3803
------------ Step          15260 ----- CPU =    0.8371934 (sec) -------------
TotEng   =       173.8458 KinEng   =        80.1582 Temp     =       271.6304 
PotEng   =        93.6876 E_bond   =        31.9706 E_angle  =        25.8175 
E_dihed  =        35.9763 E_impro  =         0.0000 E_vdwl   =        -0.0767 
E_coul   =         0.0000 E_long   =         0.0000 Press    =         1.6355
------------ Step          15280 ----- CPU =     0.838345 (sec) -------------
TotEng   =       172.4465 KinEng   =        83.5420 Temp     =       283.0972 
PotEng   =        88.9045 E_bond   =        27.7788 E_angle  =        25.4824 
E_dihed  =        35.7189 E_impro  =         0.0000 E_vdwl   =        -0.0756 
E_coul   =         0.0000 E_long   =         0.0000 Press    =        -0.0596
------------ Step          15300 ----- CPU =    0.8395906 (sec) -------------
TotEng   =       171.4237 KinEng   =        88.4723 Temp     =       299.8041 
PotEng   =        82.9514 E_bond   =        28.1107 E_angle  =        20.8413 
E_dihed  =        34.0746 E_impro  =         0.0000 E_vdwl   =        -0.0752 
E_coul   =         0.0000 E_long   =         0.0000 Press    =        -1.5699
------------ Step          15320 ----- CPU =    0.8404925 (sec) -------------
TotEng   =       170.8423 KinEng   =        76.5681 Temp     =       259.4648 
PotEng   =        94.2742 E_bond   =        35.0702 E_angle  =        26.5458 
E_dihed  =        32.7333 E_impro  =         0.0000 E_vdwl   =        -0.0752 
E_coul   =         0.0000 E_long   =         0.0000 Press    =         2.1438
------------ Step          15340 ----- CPU =    0.8418022 (sec) -------------
TotEng   =       170.4323 KinEng   =        84.7117 Temp     =       287.0609 
PotEng   =        85.7206 E_bond   =        29.1009 E_angle  =        24.2358 
E_dihed  =        32.4595 E_impro  =         0.0000 E_vdwl   =        -0.0756 
E_coul   =         0.0000 E_long   =         0.0000 Press    =        -0.4596
------------ Step          15360 ----- CPU =    0.8426853 (sec) -------------
TotEng   =       170.4469 KinEng   =        84.2698 Temp     =       285.5634 
PotEng   =        86.1771 E_bond   =        31.0582 E_angle  =        22.8887 
E_dihed  =        32.3078 E_impro  =         0.0000 E_vdwl   =        -0.0777 
E_coul   =         0.0000 E_long   =         0.0000 Press    =        -1.5358
------------ Step          15380 ----- CPU =    0.8435362 (sec) -------------
TotEng   =       170.7661 KinEng   =        83.6916 Temp     =       283.6040 
PotEng   =        87.0745 E_bond   =        29.4889 E_angle  =        22.9917 
E_dihed  =        34.6738 E_impro  =         0.0000 E_vdwl   =        -0.0798 
E_coul   =         0.0000 E_long   =         0.0000 Press    =         0.6092
------------ Step          15400 ----- CPU =    0.8445803 (sec) -------------
TotEng   =       171.8316 KinEng   =        79.4313 Temp     =       269.1673 
PotEng   =        92.4003 E_bond   =        32.2289 E_angle  =        24.9063 
E_dihed  =        35.3457 E_impro  =         0.0000 E_vdwl   =        -0.0806 
E_coul   =         0.0000 E_long   =         0.0000 Press    =        -0.1778
------------ Step          15420 ----- CPU =    0.8454846 (sec) -------------
TotEng   =       173.4703 KinEng   =        78.8324 Temp     =       267.1377 
PotEng   =        94.6379 E_bond   =        30.8391 E_angle  =        28.8750 
E_dihed  =        35.0059 E_impro  =         0.0000 E_vdwl   =        -0.0822 
E_coul   =         0.0000 E_long   =         0.0000 Press    =         0.4218
------------ Step          15440 ----- CPU =    0.8462207 (sec) -------------
TotEng   =       176.3548 KinEng   =        85.0670 Temp     =       288.2648 
PotEng   =        91.2878 E_bond   =        30.8994 E_angle  =        26.1617 
E_dihed  =        34.3082 E_impro  =         0.0000 E_vdwl   =        -0.0815 
E_coul   =         0.0000 E_long   =         0.0000 Press    =         0.7264
------------ Step          15460 ----- CPU =    0.8472343 (sec) -------------
TotEng   =       180.5858 KinEng   =        89.2548 Temp     =       302.4560 
PotEng   =        91.3309 E_bond   =        35.7477 E_angle  =        24.1673 
E_dihed  =        31.4980 E_impro  =         0.0000 E_vdwl   =        -0.0820 
E_coul   =         0.0000 E_long   =         0.0000 Press    =         3.0296
------------ Step          15480 ----- CPU =    0.8481015 (sec) -------------
TotEng   =       184.9513 KinEng   =        91.2570 Temp     =       309.2408 
PotEng   =        93.6943 E_bond   =        29.7436 E_angle  =        32.3858 
E_dihed  =        31.6465 E_impro  =         0.0000 E_vdwl   =        -0.0816 
E_coul   =         0.0000 E_long   =         0.0000 Press    =         1.0810
------------ Step          15500 ----- CPU =    0.8489277 (sec) -------------
TotEng   =       188.9259 KinEng   =        95.5423 Temp     =       323.7622 
PotEng   =        93.3836 E_bond   =        32.5478 E_angle  =        25.0012 
E_dihed  =        35.9125 E_impro  =         0.0000 E_vdwl   =        -0.0779 
E_coul   =         0.0000 E_long   =         0.0000 Press    =        -0.0743
------------ Step          15520 ----- CPU =    0.8498237 (sec) -------------
TotEng   =       191.7647 KinEng   =        95.0520 Temp     =       322.1006 
PotEng   =        96.7128 E_bond   =        36.7754 E_angle  =        24.0340 
E_dihed  =        35.9792 E_impro  =         0.0000 E_vdwl   =        -0.0758 
E_coul   =         0.0000 E_long   =         0.0000 Press    =         0.3787
------------ Step          15540 ----- CPU =    0.8506118 (sec) -------------
TotEng   =       193.2687 KinEng   =        94.1158 Temp     =       318.9283 
PotEng   =        99.1529 E_bond   =        40.2509 E_angle  =        26.9441 
E_dihed  =        32.0326 E_impro  =         0.0000 E_vdwl   =        -0.0747 
E_coul   =         0.0000 E_long   =         0.0000 Press    =        -3.0322
------------ Step          15560 ----- CPU =    0.8514385 (sec) -------------
TotEng   =       193.5668 KinEng   =        97.6724 Temp     =       330.9806 
PotEng   =        95.8943 E_bond   =        32.2926 E_angle  =        29.1364 
E_dihed  =        34.5391 E_impro  =         0.0000 E_vdwl   =        -0.0737 
E_coul   =         0.0000 E_long   =         0.0000 Press    =        -0.0452
------------ Step          15580 ----- CPU =    0.8531448 (sec) -------------
TotEng   =       193.2549 KinEng   =        97.0360 Temp     =       328.8238 
PotEng   =        96.2190 E_bond   =        34.7940 E_angle  =        26.0194 
E_dihed  =        35.4783 E_impro  =         0.0000 E_vdwl   =        -0.0727 
E_coul   =         0.0000 E_long   =         0.0000 Press    =        -4.2299
------------ Step          15600 ----- CPU =    0.8545804 (sec) -------------
TotEng   =       192.2568 KinEng   =       100.8785 Temp     =       341.8448 
PotEng   =        91.3783 E_bond   =        37.4347 E_angle  =        21.2463 
E_dihed  =        32.7696 E_impro  =         0.0000 E_vdwl   =        -0.0722 
E_coul   =         0.0000 E_long   =         0.0000 Press    =        -3.3588
------------ Step          15620 ----- CPU =    0.8556439 (sec) -------------
TotEng   =       190.6884 KinEng   =        96.1964 Temp     =       325.9786 
PotEng   =        94.4920 E_bond   =        32.7142 E_angle  =        30.1243 
E_dihed  =        31.7259 E_impro  =         0.0000 E_vdwl   =        -0.0725 
E_coul   =         0.0000 E_long   =         0.0000 Press    =         3.3540
------------ Step          15640 ----- CPU =    0.8566075 (sec) -------------
TotEng   =       188.7558 KinEng   =        91.9642 Temp     =       311.6371 
PotEng   =        96.7916 E_bond   =        35.8166 E_angle  =        25.2003 
E_dihed  =        35.8483 E_impro  =         0.0000 E_vdwl   =        -0.0736 
E_coul   =         0.0000 E_long   =         0.0000 Press    =        -3.4763
------------ Step          15660 ----- CPU =     0.857508 (sec) -------------
TotEng   =       186.8871 KinEng   =        83.8093 Temp     =       284.0030 
PotEng   =       103.0778 E_bond   =        32.9069 E_angle  =        31.5364 
E_dihed  =        38.7091 E_impro  =         0.0000 E_vdwl   =        -0.0746 
E_coul   =         0.0000 E_long   =         0.0000 Press    =         0.0973
------------ Step          15680 ----- CPU =     0.858317 (sec) -------------
TotEng   =       185.5454 KinEng   =        95.9581 Temp     =       325.1712 
PotEng   =        89.5874 E_bond   =        30.4778 E_angle  =        25.2636 
E_dihed  =        33.9192 E_impro  =         0.0000 E_vdwl   =        -0.0733 
E_coul   =         0.0000 E_long   =         0.0000 Press    =         3.0619
------------ Step          15700 ----- CPU =    0.8592423 (sec) -------------
TotEng   =       184.0222 KinEng   =        97.9937 Temp     =       332.0692 
PotEng   =        86.0286 E_bond   =        29.0475 E_angle  =        26.9091 
E_dihed  =        30.1462 E_impro  =         0.0000 E_vdwl   =        -0.0742 
E_coul   =         0.0000 E_long   =         0.0000 Press    =        -2.7389
------------ Step          15720 ----- CPU =    0.8601249 (sec) -------------
TotEng   =       182.5684 KinEng   =        83.0429 Temp     =       281.4056 
PotEng   =        99.5255 E_bond   =        40.5829 E_angle  =        25.2436 
E_dihed  =        33.7761 E_impro  =         0.0000 E_vdwl   =        -0.0771 
E_coul   =         0.0000 E_long   =         0.0000 Press    =         0.5881
------------ Step          15740 ----- CPU =    0.8611098 (sec) -------------
TotEng   =       181.2051 KinEng   =        85.2454 Temp     =       288.8694 
PotEng   =        95.9596 E_bond   =        36.5325 E_angle  =        25.2951 
E_dihed  =        34.2109 E_impro  =         0.0000 E_vdwl   =        -0.0789 
E_coul   =         0.0000 E_long   =         0.0000 Press    =         0.5326
------------ Step          15760 ----- CPU =    0.8626326 (sec) -------------
TotEng   =       179.9542 KinEng   =        85.3025 Temp     =       289.0629 
PotEng   =        94.6517 E_bond   =        31.3734 E_angle  =        27.5032 
E_dihed  =        35.8558 E_impro  =         0.0000 E_vdwl   =        -0.0807 
E_coul   =         0.0000 E_long   =         0.0000 Press    =        -2.0597
------------ Step          15780 ----- CPU =    0.8634314 (sec) -------------
TotEng   =       179.3256 KinEng   =        88.0325 Temp     =       298.3139 
PotEng   =        91.2931 E_bond   =        34.2942 E_angle  =        22.4607 
E_dihed  =        34.6209 E_impro  =         0.0000 E_vdwl   =        -0.0827 
E_coul   =         0.0000 E_long   =         0.0000 Press    =        -0.8006
------------ Step          15800 ----- CPU =    0.8643029 (sec) -------------
TotEng   =       178.6937 KinEng   =        88.6023 Temp     =       300.2448 
PotEng   =        90.0914 E_bond   =        33.2962 E_angle  =        21.2140 
E_dihed  =        35.6666 E_impro  =         0.0000 E_vdwl   =        -0.0853 
E_coul   =         0.0000 E_long   =         0.0000 Press    =         2.4703
------------ Step          15820 ----- CPU =    0.8652251 (sec) -------------
TotEng   =       178.2111 KinEng   =        86.0843 Temp     =       291.7119 
PotEng   =        92.1269 E_bond   =        36.4113 E_angle  =        21.0449 
E_dihed  =        34.7599 E_impro  =         0.0000 E_vdwl   =        -0.0891 
E_coul   =         0.0000 E_long   =         0.0000 Press    =        -0.6397
------------ Step          15840 ----- CPU =    0.8660291 (sec) -------------
TotEng   =       177.7671 KinEng   =        86.7191 Temp     =       293.8633 
PotEng   =        91.0480 E_bond   =        27.4684 E_angle  =        31.7867 
E_dihed  =        31.8825 E_impro  =         0.0000 E_vdwl   =        -0.0896 
E_coul   =         0.0000 E_long   =         0.0000 Press    =         0.5343
------------ Step          15860 ----- CPU =    0.8669615 (sec) -------------
TotEng   =       177.8375 KinEng   =        87.5127 Temp     =       296.5524 
PotEng   =        90.3249 E_bond   =        34.8184 E_angle  =        24.3713 
E_dihed  =        31.2235 E_impro  =         0.0000 E_vdwl   =        -0.0884 
E_coul   =         0.0000 E_long   =         0.0000 Press    =         5.4967
------------ Step          15880 ----- CPU =    0.8677508 (sec) -------------
TotEng   =       177.7808 KinEng   =        90.3821 Temp     =       306.2759 
PotEng   =        87.3987 E_bond   =        26.7495 E_angle  =        28.7939 
E_dihed  =        31.9431 E_impro  =         0.0000 E_vdwl   =        -0.0877 
E_coul   =         0.0000 E_long   =         0.0000 Press    =         0.2048
------------ Step          15900 ----- CPU =    0.8685706 (sec) -------------
TotEng   =       177.8122 KinEng   =        92.9482 Temp     =       314.9717 
PotEng   =        84.8640 E_bond   =        29.3789 E_angle  =        23.4788 
E_dihed  =        32.0956 E_impro  =         0.0000 E_vdwl   =        -0.0893 
E_coul   =         0.0000 E_long   =         0.0000 Press    =         1.2393
------------ Step          15920 ----- CPU =     0.870234 (sec) -------------
TotEng   =       177.7383 KinEng   =        87.6829 Temp     =       297.1294 
PotEng   =        90.0553 E_bond   =        32.3125 E_angle  =        26.5774 
E_dihed  =        31.2584 E_impro  =         0.0000 E_vdwl   =        -0.0930 
E_coul   =         0.0000 E_long   =         0.0000 Press    =         3.2918
------------ Step          15940 ----- CPU =    0.8713749 (sec) -------------
TotEng   =       177.6845 KinEng   =        91.7588 Temp     =       310.9413 
PotEng   =        85.9257 E_bond   =        32.1299 E_angle  =        22.8664 
E_dihed  =        31.0243 E_impro  =         0.0000 E_vdwl   =        -0.0948 
E_coul   =         0.0000 E_long   =         0.0000 Press    =        -2.4089
------------ Step          15960 ----- CPU =    0.8730504 (sec) -------------
TotEng   =       177.6370 KinEng   =        87.8042 Temp     =       297.5402 
PotEng   =        89.8329 E_bond   =        29.8046 E_angle  =        25.5585 
E_dihed  =        34.5634 E_impro  =         0.0000 E_vdwl   =        -0.0935 
E_coul   =         0.0000 E_long   =         0.0000 Press    =         1.1650
------------ Step          15980 ----- CPU =    0.8739754 (sec) -------------
TotEng   =       177.7001 KinEng   =        87.5198 Temp     =       296.5767 
PotEng   =        90.1802 E_bond   =        34.5041 E_angle  =        22.4061 
E_dihed  =        33.3624 E_impro  =         0.0000 E_vdwl   =        -0.0924 
E_coul   =         0.0000 E_long   =         0.0000 Press    =         1.2300
------------ Step          16000 ----- CPU =    0.8748005 (sec) -------------
TotEng   =       177.6467 KinEng   =        90.3078 Temp     =       306.0242 
PotEng   =        87.3389 E_bond   =        32.3663 E_angle  =        28.7275 
E_dihed  =        26.3400 E_impro  =         0.0000 E_vdwl   =        -0.0949 
E_coul   =         0.0000 E_long   =         0.0000 Press    =        -2.2831
------------ Step          16020 ----- CPU =    0.8758295 (sec) -------------
TotEng   =       177.3978 KinEng   =        91.5018 Temp     =       310.0702 
PotEng   =        85.8960 E_bond   =        32.0768 E_angle  =        27.3232 
E_dihed  =        26.5920 E_impro  =         0.0000 E_vdwl   =        -0.0960 
E_coul   =         0.0000 E_long   =         0.0000 Press    =         2.1224
------------ Step          16040 ----- CPU =    0.8771047 (sec) -------------
TotEng   =       177.1777 KinEng   =        85.9475 Temp     =       291.2486 
PotEng   =        91.2302 E_bond   =        33.2402 E_angle  =        25.5164 
E_dihed  =        32.5672 E_impro  =         0.0000 E_vdwl   =        -0.0935 
E_coul   =         0.0000 E_long   =         0.0000 Press    =         1.1512
------------ Step          16060 ----- CPU =    0.8781784 (sec) -------------
TotEng   =       177.0875 KinEng   =        78.8905 Temp     =       267.3345 
PotEng   =        98.1970 E_bond   =        32.6285 E_angle  =        32.8167 
E_dihed  =        32.8429 E_impro  =         0.0000 E_vdwl   =        -0.0911 
E_coul   =         0.0000 E_long   =         0.0000 Press    =        -1.8692
------------ Step          16080 ----- CPU =    0.8790398 (sec) -------------
TotEng   =       177.3287 KinEng   =        90.9340 Temp     =       308.1462 
PotEng   =        86.3947 E_bond   =        30.2568 E_angle  =        27.6920 
E_dihed  =        28.5411 E_impro  =         0.0000 E_vdwl   =        -0.0952 
E_coul   =         0.0000 E_long   =         0.0000 Press    =         0.1255
------------ Step          16100 ----- CPU =    0.8798556 (sec) -------------
TotEng   =       177.6873 KinEng   =        86.4459 Temp     =       292.9374 
PotEng   =        91.2414 E_bond   =        32.1279 E_angle  =        28.2231 
E_dihed  =        30.9940 E_impro  =         0.0000 E_vdwl   =        -0.1036 
E_coul   =         0.0000 E_long   =         0.0000 Press    =         2.0854
------------ Step          16120 ----- CPU =    0.8808634 (sec) -------------
TotEng   =       178.3941 KinEng   =        87.2897 Temp     =       295.7968 
PotEng   =        91.1045 E_bond   =        32.0309 E_angle  =        24.2150 
E_dihed  =        34.9671 E_impro  =         0.0000 E_vdwl   =        -0.1084 
E_coul   =         0.0000 E_long   =         0.0000 Press    =        -1.1207
------------ Step          16140 ----- CPU =    0.8821769 (sec) -------------
TotEng   =       179.9958 KinEng   =        83.9015 Temp     =       284.3152 
PotEng   =        96.0943 E_bond   =        34.3958 E_angle  =        26.9738 
E_dihed  =        34.8396 E_impro  =         0.0000 E_vdwl   =        -0.1149 
E_coul   =         0.0000 E_long   =         0.0000 Press    =        -2.9962
------------ Step          16160 ----- CPU =      0.88299 (sec) -------------
TotEng   =       183.6618 KinEng   =        88.0038 Temp     =       298.2167 
PotEng   =        95.6580 E_bond   =        36.2664 E_angle  =        29.5080 
E_dihed  =        29.9991 E_impro  =         0.0000 E_vdwl   =        -0.1155 
E_coul   =         0.0000 E_long   =         0.0000 Press    =         1.3295
------------ Step          16180 ----- CPU =     0.883886 (sec) -------------
TotEng   =       189.2263 KinEng   =       103.1449 Temp     =       349.5252 
PotEng   =        86.0814 E_bond   =        28.1813 E_angle  =        27.5882 
E_dihed  =        30.4249 E_impro  =         0.0000 E_vdwl   =        -0.1130 
E_coul   =         0.0000 E_long   =         0.0000 Press    =        -1.0208
------------ Step          16200 ----- CPU =    0.8847236 (sec) -------------
TotEng   =       194.7714 KinEng   =        86.8184 Temp     =       294.1996 
PotEng   =       107.9531 E_bond   =        36.5182 E_angle  =        34.8726 
E_dihed  =        36.6676 E_impro  =         0.0000 E_vdwl   =        -0.1053 
E_coul   =         0.0000 E_long   =         0.0000 Press    =        -2.5221
------------ Step          16220 ----- CPU =    0.8857024 (sec) -------------
TotEng   =       198.9889 KinEng   =        98.5798 Temp     =       334.0554 
PotEng   =       100.4091 E_bond   =        33.2706 E_angle  =        29.2573 
E_dihed  =        37.9771 E_impro  =         0.0000 E_vdwl   =        -0.0959 
E_coul   =         0.0000 E_long   =         0.0000 Press    =         3.1362
------------ Step          16240 ----- CPU =    0.8872503 (sec) -------------
TotEng   =       202.3511 KinEng   =       103.3279 Temp     =       350.1453 
PotEng   =        99.0232 E_bond   =        35.7358 E_angle  =        30.9461 
E_dihed  =        32.4358 E_impro  =         0.0000 E_vdwl   =        -0.0944 
E_coul   =         0.0000 E_long   =         0.0000 Press    =        -1.7331
------------ Step          16260 ----- CPU =    0.8884221 (sec) -------------
TotEng   =       204.2230 KinEng   =        99.7787 Temp     =       338.1180 
PotEng   =       104.4443 E_bond   =        39.0934 E_angle  =        34.7541 
E_dihed  =        30.6930 E_impro  =         0.0000 E_vdwl   =        -0.0962 
E_coul   =         0.0000 E_long   =         0.0000 Press    =        -1.8822
------------ Step          16280 ----- CPU =    0.8894744 (sec) -------------
TotEng   =       204.6199 KinEng   =       109.3957 Temp     =       370.7069 
PotEng   =        95.2242 E_bond   =        33.3998 E_angle  =        26.8737 
E_dihed  =        35.0489 E_impro  =         0.0000 E_vdwl   =        -0.0982 
E_coul   =         0.0000 E_long   =         0.0000 Press    =        -0.2200
------------ Step          16300 ----- CPU =    0.8903616 (sec) -------------
TotEng   =       203.6076 KinEng   =        99.7221 Temp     =       337.9262 
PotEng   =       103.8855 E_bond   =        38.1813 E_angle  =        30.0476 
E_dihed  =        35.7575 E_impro  =         0.0000 E_vdwl   =        -0.1009 
E_coul   =         0.0000 E_long   =         0.0000 Press    =        -3.7650
------------ Step          16320 ----- CPU =    0.8912561 (sec) -------------
TotEng   =       200.9583 KinEng   =       108.9661 Temp     =       369.2512 
PotEng   =        91.9922 E_bond   =        31.5897 E_angle  =        29.4961 
E_dihed  =        31.0071 E_impro  =         0.0000 E_vdwl   =        -0.1008 
E_coul   =         0.0000 E_long   =         0.0000 Press    =        -0.3567
------------ Step          16340 ----- CPU =    0.8920835 (sec) -------------
TotEng   =       196.5992 KinEng   =       105.3625 Temp     =       357.0397 
PotEng   =        91.2368 E_bond   =        35.6988 E_angle  =        26.9431 
E_dihed  =        28.6958 E_impro  =         0.0000 E_vdwl   =        -0.1009 
E_coul   =         0.0000 E_long   =         0.0000 Press    =        -0.3667
------------ Step          16360 ----- CPU =    0.8955671 (sec) -------------
TotEng   =       191.5818 KinEng   =        93.5342 Temp     =       316.9573 
PotEng   =        98.0477 E_bond   =        40.4867 E_angle  =        25.6780 
E_dihed  =        31.9888 E_impro  =         0.0000 E_vdwl   =        -0.1058 
E_coul   =         0.0000 E_long   =         0.0000 Press    =        -0.7860
------------ Step          16380 ----- CPU =    0.8964733 (sec) -------------
TotEng   =       186.5551 KinEng   =        96.5341 Temp     =       327.1231 
PotEng   =        90.0210 E_bond   =        34.9837 E_angle  =        23.3991 
E_dihed  =        31.7461 E_impro  =         0.0000 E_vdwl   =        -0.1080 
E_coul   =         0.0000 E_long   =         0.0000 Press    =         1.0405
------------ Step          16400 ----- CPU =    0.8983526 (sec) -------------
TotEng   =       182.2510 KinEng   =        92.0678 Temp     =       311.9882 
PotEng   =        90.1833 E_bond   =        28.5267 E_angle  =        26.4941 
E_dihed  =        35.2713 E_impro  =         0.0000 E_vdwl   =        -0.1089 
E_coul   =         0.0000 E_long   =         0.0000 Press    =         1.0629
------------ Step          16420 ----- CPU =    0.8997913 (sec) -------------
TotEng   =       179.0530 KinEng   =        86.2846 Temp     =       292.3908 
PotEng   =        92.7684 E_bond   =        32.0619 E_angle  =        27.5624 
E_dihed  =        33.2547 E_impro  =         0.0000 E_vdwl   =        -0.1106 
E_coul   =         0.0000 E_long   =         0.0000 Press    =         1.7206
------------ Step          16440 ----- CPU =    0.9008135 (sec) -------------
TotEng   =       176.6041 KinEng   =        83.0223 Temp     =       281.3361 
PotEng   =        93.5818 E_bond   =        36.0687 E_angle  =        28.3870 
E_dihed  =        29.2356 E_impro  =         0.0000 E_vdwl   =        -0.1095 
E_coul   =         0.0000 E_long   =         0.0000 Press    =         0.9731
------------ Step          16460 ----- CPU =     0.901731 (sec) -------------
TotEng   =       174.6365 KinEng   =        88.1753 Temp     =       298.7978 
PotEng   =        86.4612 E_bond   =        32.0685 E_angle  =        24.9413 
E_dihed  =        29.5609 E_impro  =         0.0000 E_vdwl   =        -0.1095 
E_coul   =         0.0000 E_long   =         0.0000 Press    =         1.5851
------------ Step          16480 ----- CPU =      0.90259 (sec) -------------
TotEng   =       172.9693 KinEng   =        85.3505 Temp     =       289.2256 
PotEng   =        87.6187 E_bond   =        31.3790 E_angle  =        25.5961 
E_dihed  =        30.7520 E_impro  =         0.0000 E_vdwl   =        -0.1084 
E_coul   =         0.0000 E_long   =         0.0000 Press    =         0.7211
------------ Step          16500 ----- CPU =    0.9034424 (sec) -------------
TotEng   =       171.7272 KinEng   =        79.9234 Temp     =       270.8347 
PotEng   =        91.8038 E_bond   =        34.7836 E_angle  =        24.4369 
E_dihed  =        32.6891 E_impro  =         0.0000 E_vdwl   =        -0.1059 
E_coul   =         0.0000 E_long   =         0.0000 Press    =        -1.4016
------------ Step          16520 ----- CPU =    0.9056119 (sec) -------------
TotEng   =       171.0172 KinEng   =        82.7564 Temp     =       280.4351 
PotEng   =        88.2607 E_bond   =        30.3078 E_angle  =        26.0856 
E_dihed  =        31.9704 E_impro  =         0.0000 E_vdwl   =        -0.1031 
E_coul   =         0.0000 E_long   =         0.0000 Press    =         1.3498
------------ Step          16540 ----- CPU =    0.9070765 (sec) -------------
TotEng   =       170.8236 KinEng   =        88.0272 Temp     =       298.2961 
PotEng   =        82.7964 E_bond   =        30.4245 E_angle  =        18.9184 
E_dihed  =        33.5545 E_impro  =         0.0000 E_vdwl   =        -0.1010 
E_coul   =         0.0000 E_long   =         0.0000 Press    =         0.5258
------------ Step          16560 ----- CPU =    0.9081486 (sec) -------------
TotEng   =       170.9721 KinEng   =        72.8901 Temp     =       247.0012 
PotEng   =        98.0820 E_bond   =        30.7159 E_angle  =        31.8555 
E_dihed  =        35.6095 E_impro  =         0.0000 E_vdwl   =        -0.0989 
E_coul   =         0.0000 E_long   =         0.0000 Press    =        -0.3915
------------ Step          16580 ----- CPU =    0.9092738 (sec) -------------
TotEng   =       171.8234 KinEng   =        81.7927 Temp     =       277.1692 
PotEng   =        90.0308 E_bond   =        28.8943 E_angle  =        26.1712 
E_dihed  =        35.0657 E_impro  =         0.0000 E_vdwl   =        -0.1004 
E_coul   =         0.0000 E_long   =         0.0000 Press    =         1.1404
------------ Step          16600 ----- CPU =    0.9102234 (sec) -------------
TotEng   =       173.3570 KinEng   =        85.4852 Temp     =       289.6821 
PotEng   =        87.8718 E_bond   =        29.2611 E_angle  =        25.6725 
E_dihed  =        33.0396 E_impro  =         0.0000 E_vdwl   =        -0.1014 
E_coul   =         0.0000 E_long   =         0.0000 Press    =         1.1686
------------ Step          16620 ----- CPU =    0.9115396 (sec) -------------
TotEng   =       175.7237 KinEng   =        89.6912 Temp     =       303.9347 
PotEng   =        86.0326 E_bond   =        36.9988 E_angle  =        18.9650 
E_dihed  =        30.1720 E_impro  =         0.0000 E_vdwl   =        -0.1032 
E_coul   =         0.0000 E_long   =         0.0000 Press    =        -0.7396
------------ Step          16640 ----- CPU =    0.9124194 (sec) -------------
TotEng   =       177.9893 KinEng   =        87.5701 Temp     =       296.7471 
PotEng   =        90.4191 E_bond   =        36.2843 E_angle  =        24.5108 
E_dihed  =        29.7302 E_impro  =         0.0000 E_vdwl   =        -0.1061 
E_coul   =         0.0000 E_long   =         0.0000 Press    =        -1.5639
------------ Step          16660 ----- CPU =    0.9132821 (sec) -------------
TotEng   =       180.0278 KinEng   =        96.2053 Temp     =       326.0088 
PotEng   =        83.8226 E_bond   =        25.5644 E_angle  =        26.1957 
E_dihed  =        32.1669 E_impro  =         0.0000 E_vdwl   =        -0.1045 
E_coul   =         0.0000 E_long   =         0.0000 Press    =         0.9601
------------ Step          16680 ----- CPU =    0.9146818 (sec) -------------
TotEng   =       182.0842 KinEng   =        93.0055 Temp     =       315.1660 
PotEng   =        89.0787 E_bond   =        33.2594 E_angle  =        23.8604 
E_dihed  =        32.0636 E_impro  =         0.0000 E_vdwl   =        -0.1048 
E_coul   =         0.0000 E_long   =         0.0000 Press    =        -2.3487
------------ Step          16700 ----- CPU =    0.9160479 (sec) -------------
TotEng   =       183.8920 KinEng   =        90.4057 Temp     =       306.3559 
PotEng   =        93.4864 E_bond   =        35.5815 E_angle  =        27.0068 
E_dihed  =        31.0075 E_impro  =         0.0000 E_vdwl   =        -0.1095 
E_coul   =         0.0000 E_long   =         0.0000 Press    =        -2.3783
------------ Step          16720 ----- CPU =    0.9170133 (sec) -------------
TotEng   =       185.1737 KinEng   =       106.9730 Temp     =       362.4971 
PotEng   =        78.2008 E_bond   =        27.0238 E_angle  =        20.3569 
E_dihed  =        30.9280 E_impro  =         0.0000 E_vdwl   =        -0.1079 
E_coul   =         0.0000 E_long   =         0.0000 Press    =         1.4348
------------ Step          16740 ----- CPU =    0.9178811 (sec) -------------
TotEng   =       185.7591 KinEng   =        94.8072 Temp     =       321.2713 
PotEng   =        90.9519 E_bond   =        32.6066 E_angle  =        27.4031 
E_dihed  =        31.0477 E_impro  =         0.0000 E_vdwl   =        -0.1056 
E_coul   =         0.0000 E_long   =         0.0000 Press    =        -1.9470
------------ Step          16760 ----- CPU =    0.9188103 (sec) -------------
TotEng   =       185.9301 KinEng   =        92.6551 Temp     =       313.9786 
PotEng   =        93.2750 E_bond   =        35.4136 E_angle  =        27.9066 
E_dihed  =        30.0555 E_impro  =         0.0000 E_vdwl   =        -0.1008 
E_coul   =         0.0000 E_long   =         0.0000 Press    =        -0.9859
------------ Step          16780 ----- CPU =    0.9196321 (sec) -------------
TotEng   =       185.4484 KinEng   =        99.9049 Temp     =       338.5455 
PotEng   =        85.5436 E_bond   =        29.1189 E_angle  =        25.5580 
E_dihed  =        30.9616 E_impro  =         0.0000 E_vdwl   =        -0.0950 
E_coul   =         0.0000 E_long   =         0.0000 Press    =         0.8447
------------ Step          16800 ----- CPU =    0.9205862 (sec) -------------
TotEng   =       184.2477 KinEng   =        90.4968 Temp     =       306.6646 
PotEng   =        93.7509 E_bond   =        36.9171 E_angle  =        24.3244 
E_dihed  =        32.6056 E_impro  =         0.0000 E_vdwl   =        -0.0962 
E_coul   =         0.0000 E_long   =         0.0000 Press    =        -1.0377
------------ Step          16820 ----- CPU =    0.9220626 (sec) -------------
TotEng   =       182.0734 KinEng   =        85.6401 Temp     =       290.2067 
PotEng   =        96.4333 E_bond   =        31.3657 E_angle  =        29.8028 
E_dihed  =        35.3664 E_impro  =         0.0000 E_vdwl   =        -0.1016 
E_coul   =         0.0000 E_long   =         0.0000 Press    =         2.1094
------------ Step          16840 ----- CPU =    0.9233104 (sec) -------------
TotEng   =       179.3956 KinEng   =        89.2347 Temp     =       302.3877 
PotEng   =        90.1610 E_bond   =        31.2044 E_angle  =        23.8036 
E_dihed  =        35.2535 E_impro  =         0.0000 E_vdwl   =        -0.1005 
E_coul   =         0.0000 E_long   =         0.0000 Press    =         0.3716
------------ Step          16860 ----- CPU =    0.9241418 (sec) -------------
TotEng   =       175.9590 KinEng   =        84.3666 Temp     =       285.8915 
PotEng   =        91.5924 E_bond   =        34.0223 E_angle  =        23.4717 
E_dihed  =        34.1970 E_impro  =         0.0000 E_vdwl   =        -0.0986 
E_coul   =         0.0000 E_long   =         0.0000 Press    =         1.1484
------------ Step          16880 ----- CPU =    0.9249427 (sec) -------------
TotEng   =       171.9867 KinEng   =        85.7169 Temp     =       290.4672 
PotEng   =        86.2697 E_bond   =        32.3088 E_angle  =        21.2085 
E_dihed  =        32.8528 E_impro  =         0.0000 E_vdwl   =        -0.1003 
E_coul   =         0.0000 E_long   =         0.0000 Press    =         1.3486
------------ Step          16900 ----- CPU =    0.9258109 (sec) -------------
TotEng   =       168.1670 KinEng   =        79.4344 Temp     =       269.1778 
PotEng   =        88.7326 E_bond   =        31.4711 E_angle  =        21.5008 
E_dihed  =        35.8661 E_impro  =         0.0000 E_vdwl   =        -0.1053 
E_coul   =         0.0000 E_long   =         0.0000 Press    =         0.2808
------------ Step          16920 ----- CPU =    0.9269846 (sec) -------------
TotEng   =       165.4410 KinEng   =        78.6301 Temp     =       266.4521 
PotEng   =        86.8109 E_bond   =        24.4843 E_angle  =        26.5005 
E_dihed  =        35.9401 E_impro  =         0.0000 E_vdwl   =        -0.1140 
E_coul   =         0.0000 E_long   =         0.0000 Press    =         0.8905
------------ Step          16940 ----- CPU =    0.9279155 (sec) -------------
TotEng   =       164.0380 KinEng   =        74.2986 Temp     =       251.7740 
PotEng   =        89.7395 E_bond   =        30.4376 E_angle  =        26.1815 
E_dihed  =        33.2421 E_impro  =         0.0000 E_vdwl   =        -0.1217 
E_coul   =         0.0000 E_long   =         0.0000 Press    =        -0.7388
------------ Step          16960 ----- CPU =    0.9290029 (sec) -------------
TotEng   =       163.5812 KinEng   =        76.4934 Temp     =       259.2117 
PotEng   =        87.0878 E_bond   =        31.0485 E_angle  =        22.3938 
E_dihed  =        33.7633 E_impro  =         0.0000 E_vdwl   =        -0.1177 
E_coul   =         0.0000 E_long   =         0.0000 Press    =         1.3249
------------ Step          16980 ----- CPU =    0.9298855 (sec) -------------
TotEng   =       163.8079 KinEng   =        84.6385 Temp     =       286.8129 
PotEng   =        79.1694 E_bond   =        23.5393 E_angle  =        22.0662 
E_dihed  =        33.6690 E_impro  =         0.0000 E_vdwl   =        -0.1051 
E_coul   =         0.0000 E_long   =         0.0000 Press    =        -0.0466
------------ Step          17000 ----- CPU =    0.9306873 (sec) -------------
TotEng   =       164.8553 KinEng   =        73.2785 Temp     =       248.3175 
PotEng   =        91.5768 E_bond   =        29.4210 E_angle  =        28.1654 
E_dihed  =        34.0836 E_impro  =         0.0000 E_vdwl   =        -0.0933 
E_coul   =         0.0000 E_long   =         0.0000 Press    =         0.8354
------------ Step          17020 ----- CPU =     0.931772 (sec) -------------
TotEng   =       166.4993 KinEng   =        83.3078 Temp     =       282.3036 
PotEng   =        83.1915 E_bond   =        26.1906 E_angle  =        23.6805 
E_dihed  =        33.4091 E_impro  =         0.0000 E_vdwl   =        -0.0888 
E_coul   =         0.0000 E_long   =         0.0000 Press    =         4.7006
------------ Step          17040 ----- CPU =    0.9326926 (sec) -------------
TotEng   =       169.0708 KinEng   =        77.8884 Temp     =       263.9387 
PotEng   =        91.1824 E_bond   =        33.4501 E_angle  =        26.0576 
E_dihed  =        31.7625 E_impro  =         0.0000 E_vdwl   =        -0.0878 
E_coul   =         0.0000 E_long   =         0.0000 Press    =        -2.3820
------------ Step          17060 ----- CPU =    0.9342125 (sec) -------------
TotEng   =       171.7903 KinEng   =        88.5437 Temp     =       300.0461 
PotEng   =        83.2466 E_bond   =        28.5346 E_angle  =        24.5349 
E_dihed  =        30.2645 E_impro  =         0.0000 E_vdwl   =        -0.0875 
E_coul   =         0.0000 E_long   =         0.0000 Press    =        -1.1988
------------ Step          17080 ----- CPU =    0.9350323 (sec) -------------
TotEng   =       174.8084 KinEng   =        77.5270 Temp     =       262.7143 
PotEng   =        97.2814 E_bond   =        34.1922 E_angle  =        29.8964 
E_dihed  =        33.2797 E_impro  =         0.0000 E_vdwl   =        -0.0870 
E_coul   =         0.0000 E_long   =         0.0000 Press    =         1.3376
------------ Step          17100 ----- CPU =    0.9358304 (sec) -------------
TotEng   =       177.4409 KinEng   =        86.4653 Temp     =       293.0031 
PotEng   =        90.9756 E_bond   =        28.6488 E_angle  =        26.7050 
E_dihed  =        35.7085 E_impro  =         0.0000 E_vdwl   =        -0.0867 
E_coul   =         0.0000 E_long   =         0.0000 Press    =        -4.5723
------------ Step          17120 ----- CPU =    0.9367587 (sec) -------------
TotEng   =       179.8131 KinEng   =        93.8712 Temp     =       318.0996 
PotEng   =        85.9419 E_bond   =        27.0301 E_angle  =        25.3217 
E_dihed  =        33.6783 E_impro  =         0.0000 E_vdwl   =        -0.0882 
E_coul   =         0.0000 E_long   =         0.0000 Press    =        -1.9019
------------ Step          17140 ----- CPU =     0.937567 (sec) -------------
TotEng   =       181.3612 KinEng   =        90.6764 Temp     =       307.2734 
PotEng   =        90.6847 E_bond   =        30.2728 E_angle  =        28.0928 
E_dihed  =        32.4114 E_impro  =         0.0000 E_vdwl   =        -0.0922 
E_coul   =         0.0000 E_long   =         0.0000 Press    =         2.4691
------------ Step          17160 ----- CPU =    0.9383639 (sec) -------------
TotEng   =       182.3218 KinEng   =        87.5217 Temp     =       296.5829 
PotEng   =        94.8001 E_bond   =        33.6743 E_angle  =        27.6548 
E_dihed  =        33.5671 E_impro  =         0.0000 E_vdwl   =        -0.0961 
E_coul   =         0.0000 E_long   =         0.0000 Press    =        -2.7303
------------ Step          17180 ----- CPU =    0.9392514 (sec) -------------
TotEng   =       182.7953 KinEng   =        96.3252 Temp     =       326.4152 
PotEng   =        86.4701 E_bond   =        27.2806 E_angle  =        22.2450 
E_dihed  =        37.0424 E_impro  =         0.0000 E_vdwl   =        -0.0979 
E_coul   =         0.0000 E_long   =         0.0000 Press    =        -1.0640
------------ Step          17200 ----- CPU =    0.9400639 (sec) -------------
TotEng   =       183.0072 KinEng   =        90.0652 Temp     =       305.2021 
PotEng   =        92.9420 E_bond   =        35.6091 E_angle  =        20.2636 
E_dihed  =        37.1684 E_impro  =         0.0000 E_vdwl   =        -0.0991 
E_coul   =         0.0000 E_long   =         0.0000 Press    =         4.3492
------------ Step          17220 ----- CPU =    0.9414391 (sec) -------------
TotEng   =       182.8630 KinEng   =        88.8230 Temp     =       300.9927 
PotEng   =        94.0400 E_bond   =        32.7491 E_angle  =        25.0921 
E_dihed  =        36.2999 E_impro  =         0.0000 E_vdwl   =        -0.1011 
E_coul   =         0.0000 E_long   =         0.0000 Press    =        -1.6086
------------ Step          17240 ----- CPU =    0.9429182 (sec) -------------
TotEng   =       183.1025 KinEng   =        89.4827 Temp     =       303.2282 
PotEng   =        93.6198 E_bond   =        36.6078 E_angle  =        20.0588 
E_dihed  =        37.0571 E_impro  =         0.0000 E_vdwl   =        -0.1039 
E_coul   =         0.0000 E_long   =         0.0000 Press    =        -0.1274
------------ Step          17260 ----- CPU =    0.9437335 (sec) -------------
TotEng   =       183.0224 KinEng   =        82.7026 Temp     =       280.2527 
PotEng   =       100.3198 E_bond   =        31.3771 E_angle  =        27.8640 
E_dihed  =        41.1835 E_impro  =         0.0000 E_vdwl   =        -0.1050 
E_coul   =         0.0000 E_long   =         0.0000 Press    =         5.1994
------------ Step          17280 ----- CPU =    0.9446648 (sec) -------------
TotEng   =       183.2580 KinEng   =        84.6896 Temp     =       286.9861 
PotEng   =        98.5684 E_bond   =        33.1654 E_angle  =        24.5812 
E_dihed  =        40.9264 E_impro  =         0.0000 E_vdwl   =        -0.1046 
E_coul   =         0.0000 E_long   =         0.0000 Press    =        -1.0947
------------ Step          17300 ----- CPU =    0.9455689 (sec) -------------
TotEng   =       183.6125 KinEng   =        92.5671 Temp     =       313.6804 
PotEng   =        91.0454 E_bond   =        27.5246 E_angle  =        27.0346 
E_dihed  =        36.5899 E_impro  =         0.0000 E_vdwl   =        -0.1037 
E_coul   =         0.0000 E_long   =         0.0000 Press    =         1.7650
------------ Step          17320 ----- CPU =    0.9465968 (sec) -------------
TotEng   =       184.0607 KinEng   =        88.8942 Temp     =       301.2341 
PotEng   =        95.1665 E_bond   =        37.6018 E_angle  =        23.9411 
E_dihed  =        33.7326 E_impro  =         0.0000 E_vdwl   =        -0.1090 
E_coul   =         0.0000 E_long   =         0.0000 Press    =         3.8301
------------ Step          17340 ----- CPU =    0.9474298 (sec) -------------
TotEng   =       183.9301 KinEng   =        93.8141 Temp     =       317.9060 
PotEng   =        90.1160 E_bond   =        31.6981 E_angle  =        21.6723 
E_dihed  =        36.8667 E_impro  =         0.0000 E_vdwl   =        -0.1211 
E_coul   =         0.0000 E_long   =         0.0000 Press    =        -1.3425
------------ Step          17360 ----- CPU =    0.9483136 (sec) -------------
TotEng   =       183.6923 KinEng   =        89.1428 Temp     =       302.0765 
PotEng   =        94.5495 E_bond   =        33.5000 E_angle  =        21.1950 
E_dihed  =        39.9869 E_impro  =         0.0000 E_vdwl   =        -0.1323 
E_coul   =         0.0000 E_long   =         0.0000 Press    =        -0.1948
------------ Step          17380 ----- CPU =    0.9491245 (sec) -------------
TotEng   =       183.5402 KinEng   =        89.1757 Temp     =       302.1880 
PotEng   =        94.3644 E_bond   =        34.0305 E_angle  =        19.9973 
E_dihed  =        40.4719 E_impro  =         0.0000 E_vdwl   =        -0.1353 
E_coul   =         0.0000 E_long   =         0.0000 Press    =         1.0080
------------ Step          17400 ----- CPU =    0.9499285 (sec) -------------
TotEng   =       183.4304 KinEng   =        83.9549 Temp     =       284.4962 
PotEng   =        99.4755 E_bond   =        37.2028 E_angle  =        25.0724 
E_dihed  =        37.3299 E_impro  =         0.0000 E_vdwl   =        -0.1296 
E_coul   =         0.0000 E_long   =         0.0000 Press    =        -0.4985
------------ Step          17420 ----- CPU =    0.9510126 (sec) -------------
TotEng   =       183.0647 KinEng   =        98.2737 Temp     =       333.0180 
PotEng   =        84.7910 E_bond   =        29.4049 E_angle  =        17.9388 
E_dihed  =        37.5784 E_impro  =         0.0000 E_vdwl   =        -0.1310 
E_coul   =         0.0000 E_long   =         0.0000 Press    =         0.3111
------------ Step          17440 ----- CPU =     0.951962 (sec) -------------
TotEng   =       182.4429 KinEng   =        85.5991 Temp     =       290.0679 
PotEng   =        96.8438 E_bond   =        31.9897 E_angle  =        24.7863 
E_dihed  =        40.2064 E_impro  =         0.0000 E_vdwl   =        -0.1386 
E_coul   =         0.0000 E_long   =         0.0000 Press    =         4.5604
------------ Step          17460 ----- CPU =    0.9527762 (sec) -------------
TotEng   =       181.4585 KinEng   =        88.2354 Temp     =       299.0016 
PotEng   =        93.2231 E_bond   =        32.5929 E_angle  =        20.4656 
E_dihed  =        40.3123 E_impro  =         0.0000 E_vdwl   =        -0.1477 
E_coul   =         0.0000 E_long   =         0.0000 Press    =        -0.4985
------------ Step          17480 ----- CPU =    0.9536258 (sec) -------------
TotEng   =       180.3553 KinEng   =        84.0244 Temp     =       284.7317 
PotEng   =        96.3309 E_bond   =        31.7174 E_angle  =        24.5934 
E_dihed  =        40.1724 E_impro  =         0.0000 E_vdwl   =        -0.1522 
E_coul   =         0.0000 E_long   =         0.0000 Press    =        -1.3400
------------ Step          17500 ----- CPU =    0.9545881 (sec) -------------
TotEng   =       178.9087 KinEng   =        86.4072 Temp     =       292.8062 
PotEng   =        92.5015 E_bond   =        30.6895 E_angle  =        27.5355 
E_dihed  =        34.4424 E_impro  =         0.0000 E_vdwl   =        -0.1659 
E_coul   =         0.0000 E_long   =         0.0000 Press    =         4.1074
------------ Step          17520 ----- CPU =    0.9561134 (sec) -------------
TotEng   =       177.1752 KinEng   =        86.6561 Temp     =       293.6498 
PotEng   =        90.5191 E_bond   =        32.9905 E_angle  =        28.2778 
E_dihed  =        29.4537 E_impro  =         0.0000 E_vdwl   =        -0.2028 
E_coul   =         0.0000 E_long   =         0.0000 Press    =        -5.1214
------------ Step          17540 ----- CPU =    0.9569731 (sec) -------------
TotEng   =       175.0479 KinEng   =        91.8390 Temp     =       311.2130 
PotEng   =        83.2089 E_bond   =        29.1832 E_angle  =        23.2287 
E_dihed  =        31.0524 E_impro  =         0.0000 E_vdwl   =        -0.2553 
E_coul   =         0.0000 E_long   =         0.0000 Press    =        -2.1622
------------ Step          17560 ----- CPU =    0.9577842 (sec) -------------
TotEng   =       172.4742 KinEng   =        80.2930 Temp     =       272.0874 
PotEng   =        92.1812 E_bond   =        30.9967 E_angle  =        27.4957 
E_dihed  =        34.0332 E_impro  =         0.0000 E_vdwl   =        -0.3444 
E_coul   =         0.0000 E_long   =         0.0000 Press    =         1.7238
------------ Step          17580 ----- CPU =    0.9585846 (sec) -------------
TotEng   =       170.1253 KinEng   =        83.6023 Temp     =       283.3014 
PotEng   =        86.5230 E_bond   =        28.7447 E_angle  =        21.6672 
E_dihed  =        36.5535 E_impro  =         0.0000 E_vdwl   =        -0.4424 
E_coul   =         0.0000 E_long   =         0.0000 Press    =        -6.4402
------------ Step          17600 ----- CPU =    0.9594801 (sec) -------------
TotEng   =       168.5773 KinEng   =        74.8204 Temp     =       253.5422 
PotEng   =        93.7569 E_bond   =        32.6645 E_angle  =        25.7365 
E_dihed  =        35.8811 E_impro  =         0.0000 E_vdwl   =        -0.5251 
E_coul   =         0.0000 E_long   =         0.0000 Press    =        -1.3025
------------ Step          17620 ----- CPU =    0.9604001 (sec) -------------
TotEng   =       167.5722 KinEng   =        81.0536 Temp     =       274.6648 
PotEng   =        86.5186 E_bond   =        29.5835 E_angle  =        26.1661 
E_dihed  =        31.3221 E_impro  =         0.0000 E_vdwl   =        -0.5532 
E_coul   =         0.0000 E_long   =         0.0000 Press    =         0.8808
------------ Step          17640 ----- CPU =    0.9616124 (sec) -------------
TotEng   =       166.8178 KinEng   =        86.4015 Temp     =       292.7872 
PotEng   =        80.4162 E_bond   =        30.7550 E_angle  =        18.6145 
E_dihed  =        31.6471 E_impro  =         0.0000 E_vdwl   =        -0.6003 
E_coul   =         0.0000 E_long   =         0.0000 Press    =        -1.7261
------------ Step          17660 ----- CPU =    0.9624612 (sec) -------------
TotEng   =       166.1555 KinEng   =        88.0708 Temp     =       298.4438 
PotEng   =        78.0847 E_bond   =        23.9218 E_angle  =        23.0628 
E_dihed  =        31.8245 E_impro  =         0.0000 E_vdwl   =        -0.7244 
E_coul   =         0.0000 E_long   =         0.0000 Press    =         0.6010
------------ Step          17680 ----- CPU =    0.9633011 (sec) -------------
TotEng   =       165.8166 KinEng   =        83.4668 Temp     =       282.8423 
PotEng   =        82.3497 E_bond   =        30.9753 E_angle  =        23.1555 
E_dihed  =        29.0132 E_impro  =         0.0000 E_vdwl   =        -0.7942 
E_coul   =         0.0000 E_long   =         0.0000 Press    =         0.8201
------------ Step          17700 ----- CPU =    0.9641625 (sec) -------------
TotEng   =       165.6596 KinEng   =        90.5906 Temp     =       306.9825 
PotEng   =        75.0690 E_bond   =        30.7045 E_angle  =        21.6217 
E_dihed  =        23.6911 E_impro  =         0.0000 E_vdwl   =        -0.9483 
E_coul   =         0.0000 E_long   =         0.0000 Press    =         1.2575
------------ Step          17720 ----- CPU =    0.9651274 (sec) -------------
TotEng   =       165.0587 KinEng   =        86.2159 Temp     =       292.1582 
PotEng   =        78.8428 E_bond   =        29.4478 E_angle  =        22.1861 
E_dihed  =        28.5307 E_impro  =         0.0000 E_vdwl   =        -1.3218 
E_coul   =         0.0000 E_long   =         0.0000 Press    =        -1.1419
------------ Step          17740 ----- CPU =    0.9659451 (sec) -------------
TotEng   =       164.5540 KinEng   =        74.7257 Temp     =       253.2215 
PotEng   =        89.8283 E_bond   =        32.1912 E_angle  =        23.1040 
E_dihed  =        36.0682 E_impro  =         0.0000 E_vdwl   =        -1.5351 
E_coul   =         0.0000 E_long   =         0.0000 Press    =         0.1419
------------ Step          17760 ----- CPU =     0.966862 (sec) -------------
TotEng   =       164.7718 KinEng   =        86.1340 Temp     =       291.8806 
PotEng   =        78.6378 E_bond   =        23.8083 E_angle  =        22.0391 
E_dihed  =        35.0156 E_impro  =         0.0000 E_vdwl   =        -2.2253 
E_coul   =         0.0000 E_long   =         0.0000 Press    =         0.1812
------------ Step          17780 ----- CPU =    0.9677678 (sec) -------------
TotEng   =       165.7634 KinEng   =        91.9802 Temp     =       311.6913 
PotEng   =        73.7832 E_bond   =        32.1358 E_angle  =        16.0365 
E_dihed  =        28.2595 E_impro  =         0.0000 E_vdwl   =        -2.6486 
E_coul   =         0.0000 E_long   =         0.0000 Press    =        -3.0806
------------ Step          17800 ----- CPU =     0.968583 (sec) -------------
TotEng   =       166.8188 KinEng   =        83.6378 Temp     =       283.4216 
PotEng   =        83.1810 E_bond   =        30.6692 E_angle  =        24.2297 
E_dihed  =        30.9787 E_impro  =         0.0000 E_vdwl   =        -2.6966 
E_coul   =         0.0000 E_long   =         0.0000 Press    =         0.4898
------------ Step          17820 ----- CPU =    0.9695076 (sec) -------------
TotEng   =       168.0745 KinEng   =        83.1741 Temp     =       281.8503 
PotEng   =        84.9005 E_bond   =        29.4651 E_angle  =        19.5294 
E_dihed  =        37.3450 E_impro  =         0.0000 E_vdwl   =        -1.4390 
E_coul   =         0.0000 E_long   =         0.0000 Press    =        -0.4557
------------ Step          17840 ----- CPU =    0.9703066 (sec) -------------
TotEng   =       170.3316 KinEng   =        87.3573 Temp     =       296.0258 
PotEng   =        82.9744 E_bond   =        28.7178 E_angle  =        19.3227 
E_dihed  =        37.7638 E_impro  =         0.0000 E_vdwl   =        -2.8300 
E_coul   =         0.0000 E_long   =         0.0000 Press    =        -0.7710
------------ Step          17860 ----- CPU =    0.9711486 (sec) -------------
TotEng   =       173.6498 KinEng   =        86.0162 Temp     =       291.4814 
PotEng   =        87.6336 E_bond   =        29.3801 E_angle  =        28.4983 
E_dihed  =        32.6729 E_impro  =         0.0000 E_vdwl   =        -2.9177 
E_coul   =         0.0000 E_long   =         0.0000 Press    =         2.2712
------------ Step          17880 ----- CPU =     0.972229 (sec) -------------
TotEng   =       177.4323 KinEng   =        94.0523 Temp     =       318.7131 
PotEng   =        83.3799 E_bond   =        30.7040 E_angle  =        24.5210 
E_dihed  =        31.0577 E_impro  =         0.0000 E_vdwl   =        -2.9028 
E_coul   =         0.0000 E_long   =         0.0000 Press    =         2.1021
------------ Step          17900 ----- CPU =     0.973059 (sec) -------------
TotEng   =       180.7940 KinEng   =        90.7996 Temp     =       307.6906 
PotEng   =        89.9944 E_bond   =        29.9305 E_angle  =        28.5298 
E_dihed  =        34.3182 E_impro  =         0.0000 E_vdwl   =        -2.7841 
E_coul   =         0.0000 E_long   =         0.0000 Press    =        -0.3119
------------ Step          17920 ----- CPU =    0.9740974 (sec) -------------
TotEng   =       183.8361 KinEng   =        97.9443 Temp     =       331.9018 
PotEng   =        85.8918 E_bond   =        29.1542 E_angle  =        25.5236 
E_dihed  =        34.1012 E_impro  =         0.0000 E_vdwl   =        -2.8872 
E_coul   =         0.0000 E_long   =         0.0000 Press    =         1.0377
------------ Step          17940 ----- CPU =    0.9751766 (sec) -------------
TotEng   =       186.1984 KinEng   =        92.8569 Temp     =       314.6623 
PotEng   =        93.3415 E_bond   =        37.6476 E_angle  =        24.3180 
E_dihed  =        34.4005 E_impro  =         0.0000 E_vdwl   =        -3.0247 
E_coul   =         0.0000 E_long   =         0.0000 Press    =         1.7371
------------ Step          17960 ----- CPU =    0.9760675 (sec) -------------
TotEng   =       187.6350 KinEng   =        97.1535 Temp     =       329.2219 
PotEng   =        90.4815 E_bond   =        28.8538 E_angle  =        31.2261 
E_dihed  =        33.0496 E_impro  =         0.0000 E_vdwl   =        -2.6480 
E_coul   =         0.0000 E_long   =         0.0000 Press    =        -1.4461
------------ Step          17980 ----- CPU =    0.9774125 (sec) -------------
TotEng   =       188.4208 KinEng   =        99.4796 Temp     =       337.1045 
PotEng   =        88.9412 E_bond   =        36.2399 E_angle  =        22.9065 
E_dihed  =        32.9292 E_impro  =         0.0000 E_vdwl   =        -3.1344 
E_coul   =         0.0000 E_long   =         0.0000 Press    =         2.0576
------------ Step          18000 ----- CPU =    0.9782744 (sec) -------------
TotEng   =       188.1592 KinEng   =        94.0173 Temp     =       318.5943 
PotEng   =        94.1419 E_bond   =        31.4319 E_angle  =        28.7725 
E_dihed  =        35.4585 E_impro  =         0.0000 E_vdwl   =        -1.5210 
E_coul   =         0.0000 E_long   =         0.0000 Press    =         2.4554
------------ Step          18020 ----- CPU =    0.9797515 (sec) -------------
TotEng   =       187.5329 KinEng   =        92.1855 Temp     =       312.3871 
PotEng   =        95.3474 E_bond   =        31.7887 E_angle  =        27.8387 
E_dihed  =        38.7631 E_impro  =         0.0000 E_vdwl   =        -3.0432 
E_coul   =         0.0000 E_long   =         0.0000 Press    =        -1.1071
------------ Step          18040 ----- CPU =    0.9806526 (sec) -------------
TotEng   =       186.6182 KinEng   =        87.2686 Temp     =       295.7254 
PotEng   =        99.3496 E_bond   =        32.4307 E_angle  =        23.9515 
E_dihed  =        45.4528 E_impro  =         0.0000 E_vdwl   =        -2.4854 
E_coul   =         0.0000 E_long   =         0.0000 Press    =         4.3572
------------ Step          18060 ----- CPU =    0.9818572 (sec) -------------
TotEng   =       185.7315 KinEng   =        86.6382 Temp     =       293.5891 
PotEng   =        99.0933 E_bond   =        31.4774 E_angle  =        25.1418 
E_dihed  =        45.2945 E_impro  =         0.0000 E_vdwl   =        -2.8204 
E_coul   =         0.0000 E_long   =         0.0000 Press    =         1.0706
------------ Step          18080 ----- CPU =    0.9833332 (sec) -------------
TotEng   =       185.0352 KinEng   =        85.3120 Temp     =       289.0950 
PotEng   =        99.7232 E_bond   =        32.0352 E_angle  =        32.2107 
E_dihed  =        38.4291 E_impro  =         0.0000 E_vdwl   =        -2.9518 
E_coul   =         0.0000 E_long   =         0.0000 Press    =        -0.3934
------------ Step          18100 ----- CPU =    0.9844659 (sec) -------------
TotEng   =       184.1565 KinEng   =        96.9317 Temp     =       328.4704 
PotEng   =        87.2248 E_bond   =        28.3898 E_angle  =        29.4100 
E_dihed  =        32.2858 E_impro  =         0.0000 E_vdwl   =        -2.8607 
E_coul   =         0.0000 E_long   =         0.0000 Press    =         3.8921
------------ Step          18120 ----- CPU =    0.9856623 (sec) -------------
TotEng   =       182.3980 KinEng   =        92.7066 Temp     =       314.1529 
PotEng   =        89.6914 E_bond   =        30.1510 E_angle  =        26.9694 
E_dihed  =        35.7074 E_impro  =         0.0000 E_vdwl   =        -3.1364 
E_coul   =         0.0000 E_long   =         0.0000 Press    =        -2.2295
------------ Step          18140 ----- CPU =    0.9865322 (sec) -------------
TotEng   =       179.5251 KinEng   =        90.1830 Temp     =       305.6014 
PotEng   =        89.3421 E_bond   =        28.4883 E_angle  =        23.9968 
E_dihed  =        40.1821 E_impro  =         0.0000 E_vdwl   =        -3.3252 
E_coul   =         0.0000 E_long   =         0.0000 Press    =        -0.5127
------------ Step          18160 ----- CPU =    0.9873782 (sec) -------------
TotEng   =       175.7811 KinEng   =        90.2525 Temp     =       305.8370 
PotEng   =        85.5286 E_bond   =        28.8982 E_angle  =        20.7125 
E_dihed  =        39.3291 E_impro  =         0.0000 E_vdwl   =        -3.4111 
E_coul   =         0.0000 E_long   =         0.0000 Press    =         0.8023
------------ Step          18180 ----- CPU =    0.9884055 (sec) -------------
TotEng   =       171.2025 KinEng   =        80.9259 Temp     =       274.2319 
PotEng   =        90.2766 E_bond   =        35.8913 E_angle  =        21.9082 
E_dihed  =        36.1209 E_impro  =         0.0000 E_vdwl   =        -3.6438 
E_coul   =         0.0000 E_long   =         0.0000 Press    =        -3.3145
------------ Step          18200 ----- CPU =    0.9898695 (sec) -------------
TotEng   =       166.4104 KinEng   =        85.9974 Temp     =       291.4176 
PotEng   =        80.4130 E_bond   =        27.7635 E_angle  =        18.8299 
E_dihed  =        37.2026 E_impro  =         0.0000 E_vdwl   =        -3.3829 
E_coul   =         0.0000 E_long   =         0.0000 Press    =         1.6871
------------ Step          18220 ----- CPU =    0.9908695 (sec) -------------
TotEng   =       162.6895 KinEng   =        83.1706 Temp     =       281.8385 
PotEng   =        79.5189 E_bond   =        23.6680 E_angle  =        22.5252 
E_dihed  =        36.6889 E_impro  =         0.0000 E_vdwl   =        -3.3633 
E_coul   =         0.0000 E_long   =         0.0000 Press    =         0.5076
------------ Step          18240 ----- CPU =    0.9916704 (sec) -------------
TotEng   =       160.4191 KinEng   =        79.4760 Temp     =       269.3187 
PotEng   =        80.9431 E_bond   =        31.2983 E_angle  =        17.5121 
E_dihed  =        36.1217 E_impro  =         0.0000 E_vdwl   =        -3.9890 
E_coul   =         0.0000 E_long   =         0.0000 Press    =        -1.5564
------------ Step          18260 ----- CPU =    0.9926075 (sec) -------------
TotEng   =       159.2264 KinEng   =        70.5981 Temp     =       239.2342 
PotEng   =        88.6283 E_bond   =        24.9284 E_angle  =        30.0601 
E_dihed  =        37.2178 E_impro  =         0.0000 E_vdwl   =        -3.5780 
E_coul   =         0.0000 E_long   =         0.0000 Press    =         0.3627
------------ Step          18280 ----- CPU =    0.9934469 (sec) -------------
TotEng   =       159.1222 KinEng   =        80.2791 Temp     =       272.0402 
PotEng   =        78.8431 E_bond   =        28.5767 E_angle  =        14.7015 
E_dihed  =        39.2841 E_impro  =         0.0000 E_vdwl   =        -3.7193 
E_coul   =         0.0000 E_long   =         0.0000 Press    =        -1.2720
------------ Step          18300 ----- CPU =    0.9942504 (sec) -------------
TotEng   =       159.7816 KinEng   =        73.6495 Temp     =       249.5746 
PotEng   =        86.1321 E_bond   =        26.2184 E_angle  =        23.1887 
E_dihed  =        40.4459 E_impro  =         0.0000 E_vdwl   =        -3.7208 
E_coul   =         0.0000 E_long   =         0.0000 Press    =        -1.1606
------------ Step          18320 ----- CPU =    0.9954507 (sec) -------------
TotEng   =       161.2469 KinEng   =        74.6145 Temp     =       252.8447 
PotEng   =        86.6323 E_bond   =        31.0089 E_angle  =        23.6107 
E_dihed  =        36.1442 E_impro  =         0.0000 E_vdwl   =        -4.1315 
E_coul   =         0.0000 E_long   =         0.0000 Press    =        -0.7869
------------ Step          18340 ----- CPU =    0.9965192 (sec) -------------
TotEng   =       163.1964 KinEng   =        85.5811 Temp     =       290.0069 
PotEng   =        77.6153 E_bond   =        29.5827 E_angle  =        16.6320 
E_dihed  =        35.8750 E_impro  =         0.0000 E_vdwl   =        -4.4744 
E_coul   =         0.0000 E_long   =         0.0000 Press    =         1.3701
------------ Step          18360 ----- CPU =    0.9973983 (sec) -------------
TotEng   =       165.4478 KinEng   =        80.3664 Temp     =       272.3360 
PotEng   =        85.0814 E_bond   =        23.1154 E_angle  =        28.6473 
E_dihed  =        37.4356 E_impro  =         0.0000 E_vdwl   =        -4.1169 
E_coul   =         0.0000 E_long   =         0.0000 Press    =        -0.1070
------------ Step          18380 ----- CPU =    0.9985208 (sec) -------------
TotEng   =       167.9408 KinEng   =        86.6141 Temp     =       293.5075 
PotEng   =        81.3266 E_bond   =        27.7124 E_angle  =        23.9676 
E_dihed  =        33.7538 E_impro  =         0.0000 E_vdwl   =        -4.1072 
E_coul   =         0.0000 E_long   =         0.0000 Press    =        -0.6582
------------ Step          18400 ----- CPU =    0.9993661 (sec) -------------
TotEng   =       170.3289 KinEng   =        85.4148 Temp     =       289.4432 
PotEng   =        84.9141 E_bond   =        30.5310 E_angle  =        23.7430 
E_dihed  =        34.5040 E_impro  =         0.0000 E_vdwl   =        -3.8639 
E_coul   =         0.0000 E_long   =         0.0000 Press    =         1.2961
------------ Step          18420 ----- CPU =      1.00031 (sec) -------------
TotEng   =       172.2899 KinEng   =        83.0940 Temp     =       281.5788 
PotEng   =        89.1959 E_bond   =        33.7000 E_angle  =        21.1071 
E_dihed  =        38.2346 E_impro  =         0.0000 E_vdwl   =        -3.8458 
E_coul   =         0.0000 E_long   =         0.0000 Press    =        -1.3158
------------ Step          18440 ----- CPU =     1.001131 (sec) -------------
TotEng   =       174.1010 KinEng   =        84.9218 Temp     =       287.7729 
PotEng   =        89.1792 E_bond   =        34.2036 E_angle  =        21.5125 
E_dihed  =        36.9513 E_impro  =         0.0000 E_vdwl   =        -3.4882 
E_coul   =         0.0000 E_long   =         0.0000 Press    =        -1.2438
------------ Step          18460 ----- CPU =     1.001983 (sec) -------------
TotEng   =       175.7823 KinEng   =        89.4728 Temp     =       303.1947 
PotEng   =        86.3095 E_bond   =        28.0560 E_angle  =        25.0933 
E_dihed  =        36.3527 E_impro  =         0.0000 E_vdwl   =        -3.1926 
E_coul   =         0.0000 E_long   =         0.0000 Press    =         0.2276
------------ Step          18480 ----- CPU =     1.004871 (sec) -------------
TotEng   =       177.4273 KinEng   =        92.6228 Temp     =       313.8689 
PotEng   =        84.8045 E_bond   =        33.0097 E_angle  =        20.3227 
E_dihed  =        34.9631 E_impro  =         0.0000 E_vdwl   =        -3.4910 
E_coul   =         0.0000 E_long   =         0.0000 Press    =        -0.5392
------------ Step          18500 ----- CPU =     1.005719 (sec) -------------
TotEng   =       178.4332 KinEng   =        82.5739 Temp     =       279.8166 
PotEng   =        95.8592 E_bond   =        34.0896 E_angle  =        31.3831 
E_dihed  =        33.8301 E_impro  =         0.0000 E_vdwl   =        -3.4435 
E_coul   =         0.0000 E_long   =         0.0000 Press    =         0.5354
------------ Step          18520 ----- CPU =     1.006674 (sec) -------------
TotEng   =       179.2459 KinEng   =        92.1751 Temp     =       312.3518 
PotEng   =        87.0708 E_bond   =        32.2897 E_angle  =        24.9032 
E_dihed  =        32.2161 E_impro  =         0.0000 E_vdwl   =        -2.3382 
E_coul   =         0.0000 E_long   =         0.0000 Press    =        -0.0285
------------ Step          18540 ----- CPU =     1.007565 (sec) -------------
TotEng   =       179.9513 KinEng   =        88.1105 Temp     =       298.5783 
PotEng   =        91.8408 E_bond   =        28.7439 E_angle  =        31.6323 
E_dihed  =        34.5899 E_impro  =         0.0000 E_vdwl   =        -3.1253 
E_coul   =         0.0000 E_long   =         0.0000 Press    =         0.0160
------------ Step          18560 ----- CPU =     1.008399 (sec) -------------
TotEng   =       180.5765 KinEng   =        88.1382 Temp     =       298.6723 
PotEng   =        92.4383 E_bond   =        33.8543 E_angle  =        25.3773 
E_dihed  =        36.9584 E_impro  =         0.0000 E_vdwl   =        -3.7518 
E_coul   =         0.0000 E_long   =         0.0000 Press    =        -0.5546
------------ Step          18580 ----- CPU =     1.009449 (sec) -------------
TotEng   =       181.3003 KinEng   =        83.0015 Temp     =       281.2654 
PotEng   =        98.2989 E_bond   =        39.1197 E_angle  =        28.0022 
E_dihed  =        34.8394 E_impro  =         0.0000 E_vdwl   =        -3.6624 
E_coul   =         0.0000 E_long   =         0.0000 Press    =        -1.8292
------------ Step          18600 ----- CPU =     1.010277 (sec) -------------
TotEng   =       181.9882 KinEng   =        84.2986 Temp     =       285.6609 
PotEng   =        97.6896 E_bond   =        31.9363 E_angle  =        35.8762 
E_dihed  =        33.4989 E_impro  =         0.0000 E_vdwl   =        -3.6218 
E_coul   =         0.0000 E_long   =         0.0000 Press    =        -1.5977
------------ Step          18620 ----- CPU =     1.011418 (sec) -------------
TotEng   =       183.0396 KinEng   =        90.6208 Temp     =       307.0849 
PotEng   =        92.4188 E_bond   =        32.3042 E_angle  =        30.1899 
E_dihed  =        33.6340 E_impro  =         0.0000 E_vdwl   =        -3.7093 
E_coul   =         0.0000 E_long   =         0.0000 Press    =         1.1044
------------ Step          18640 ----- CPU =     1.012252 (sec) -------------
TotEng   =       183.9869 KinEng   =        89.9636 Temp     =       304.8578 
PotEng   =        94.0233 E_bond   =        29.3030 E_angle  =        32.5758 
E_dihed  =        36.1303 E_impro  =         0.0000 E_vdwl   =        -3.9858 
E_coul   =         0.0000 E_long   =         0.0000 Press    =         1.7266
------------ Step          18660 ----- CPU =     1.013181 (sec) -------------
TotEng   =       185.1241 KinEng   =        89.6910 Temp     =       303.9340 
PotEng   =        95.4331 E_bond   =        35.2846 E_angle  =        29.0703 
E_dihed  =        35.4435 E_impro  =         0.0000 E_vdwl   =        -4.3652 
E_coul   =         0.0000 E_long   =         0.0000 Press    =        -0.1595
------------ Step          18680 ----- CPU =     1.014632 (sec) -------------
TotEng   =       186.0724 KinEng   =       101.8965 Temp     =       345.2945 
PotEng   =        84.1760 E_bond   =        28.5370 E_angle  =        26.1725 
E_dihed  =        33.7895 E_impro  =         0.0000 E_vdwl   =        -4.3230 
E_coul   =         0.0000 E_long   =         0.0000 Press    =         3.1481
------------ Step          18700 ----- CPU =     1.015617 (sec) -------------
TotEng   =       186.5134 KinEng   =        92.6695 Temp     =       314.0273 
PotEng   =        93.8439 E_bond   =        35.7526 E_angle  =        28.1322 
E_dihed  =        34.5898 E_impro  =         0.0000 E_vdwl   =        -4.6307 
E_coul   =         0.0000 E_long   =         0.0000 Press    =         0.3550
------------ Step          18720 ----- CPU =     1.016549 (sec) -------------
TotEng   =       186.4797 KinEng   =        95.2969 Temp     =       322.9307 
PotEng   =        91.1828 E_bond   =        29.1098 E_angle  =        32.8251 
E_dihed  =        34.1148 E_impro  =         0.0000 E_vdwl   =        -4.8669 
E_coul   =         0.0000 E_long   =         0.0000 Press    =        -1.5857
------------ Step          18740 ----- CPU =     1.017344 (sec) -------------
TotEng   =       186.1940 KinEng   =        88.7084 Temp     =       300.6044 
PotEng   =        97.4856 E_bond   =        40.7640 E_angle  =        29.7086 
E_dihed  =        31.5305 E_impro  =         0.0000 E_vdwl   =        -4.5174 
E_coul   =         0.0000 E_long   =         0.0000 Press    =         3.3518
------------ Step          18760 ----- CPU =     1.018142 (sec) -------------
TotEng   =       184.5865 KinEng   =        99.6598 Temp     =       337.7152 
PotEng   =        84.9266 E_bond   =        28.3989 E_angle  =        26.8308 
E_dihed  =        34.0553 E_impro  =         0.0000 E_vdwl   =        -4.3584 
E_coul   =         0.0000 E_long   =         0.0000 Press    =        -1.3125
------------ Step          18780 ----- CPU =     1.019029 (sec) -------------
TotEng   =       181.8350 KinEng   =        87.7719 Temp     =       297.4308 
PotEng   =        94.0631 E_bond   =        34.0323 E_angle  =        30.5244 
E_dihed  =        33.5336 E_impro  =         0.0000 E_vdwl   =        -4.0271 
E_coul   =         0.0000 E_long   =         0.0000 Press    =        -1.7065
------------ Step          18800 ----- CPU =     1.019872 (sec) -------------
TotEng   =       177.9126 KinEng   =        84.4868 Temp     =       286.2985 
PotEng   =        93.4259 E_bond   =        32.0633 E_angle  =        29.2930 
E_dihed  =        35.9008 E_impro  =         0.0000 E_vdwl   =        -3.8313 
E_coul   =         0.0000 E_long   =         0.0000 Press    =         3.0665
------------ Step          18820 ----- CPU =     1.020798 (sec) -------------
TotEng   =       173.6929 KinEng   =        82.7502 Temp     =       280.4139 
PotEng   =        90.9427 E_bond   =        33.3674 E_angle  =        25.7059 
E_dihed  =        35.4728 E_impro  =         0.0000 E_vdwl   =        -3.6034 
E_coul   =         0.0000 E_long   =         0.0000 Press    =        -2.6555
------------ Step          18840 ----- CPU =     1.021649 (sec) -------------
TotEng   =       169.7653 KinEng   =        83.3393 Temp     =       282.4101 
PotEng   =        86.4260 E_bond   =        27.9373 E_angle  =        29.4615 
E_dihed  =        32.7159 E_impro  =         0.0000 E_vdwl   =        -3.6887 
E_coul   =         0.0000 E_long   =         0.0000 Press    =        -0.2538
------------ Step          18860 ----- CPU =     1.022623 (sec) -------------
TotEng   =       166.8467 KinEng   =        80.2627 Temp     =       271.9845 
PotEng   =        86.5840 E_bond   =        31.4911 E_angle  =        25.9501 
E_dihed  =        32.9786 E_impro  =         0.0000 E_vdwl   =        -3.8358 
E_coul   =         0.0000 E_long   =         0.0000 Press    =         0.9269
------------ Step          18880 ----- CPU =     1.023843 (sec) -------------
TotEng   =       164.5653 KinEng   =        87.6802 Temp     =       297.1202 
PotEng   =        76.8851 E_bond   =        24.9160 E_angle  =        20.0673 
E_dihed  =        36.3121 E_impro  =         0.0000 E_vdwl   =        -4.4103 
E_coul   =         0.0000 E_long   =         0.0000 Press    =        -1.7727
------------ Step          18900 ----- CPU =     1.024709 (sec) -------------
TotEng   =       163.0981 KinEng   =        80.7841 Temp     =       273.7515 
PotEng   =        82.3139 E_bond   =        32.2780 E_angle  =        19.3005 
E_dihed  =        35.4067 E_impro  =         0.0000 E_vdwl   =        -4.6712 
E_coul   =         0.0000 E_long   =         0.0000 Press    =        -0.9870
------------ Step          18920 ----- CPU =     1.025594 (sec) -------------
TotEng   =       161.9632 KinEng   =        83.9730 Temp     =       284.5575 
PotEng   =        77.9902 E_bond   =        26.6323 E_angle  =        23.5401 
E_dihed  =        32.0249 E_impro  =         0.0000 E_vdwl   =        -4.2071 
E_coul   =         0.0000 E_long   =         0.0000 Press    =         0.0584
------------ Step          18940 ----- CPU =     1.026679 (sec) -------------
TotEng   =       161.3963 KinEng   =        78.6691 Temp     =       266.5844 
PotEng   =        82.7272 E_bond   =        25.1273 E_angle  =        28.2817 
E_dihed  =        34.0030 E_impro  =         0.0000 E_vdwl   =        -4.6847 
E_coul   =         0.0000 E_long   =         0.0000 Press    =        -0.3285
------------ Step          18960 ----- CPU =      1.02752 (sec) -------------
TotEng   =       161.5920 KinEng   =        80.2895 Temp     =       272.0752 
PotEng   =        81.3025 E_bond   =        25.7773 E_angle  =        23.5355 
E_dihed  =        36.0669 E_impro  =         0.0000 E_vdwl   =        -4.0771 
E_coul   =         0.0000 E_long   =         0.0000 Press    =        -1.6238
------------ Step          18980 ----- CPU =     1.028498 (sec) -------------
TotEng   =       162.6455 KinEng   =        77.0670 Temp     =       261.1555 
PotEng   =        85.5785 E_bond   =        32.3493 E_angle  =        22.3713 
E_dihed  =        34.8020 E_impro  =         0.0000 E_vdwl   =        -3.9441 
E_coul   =         0.0000 E_long   =         0.0000 Press    =         1.2668
------------ Step          19000 ----- CPU =      1.02935 (sec) -------------
TotEng   =       164.1705 KinEng   =        90.2655 Temp     =       305.8810 
PotEng   =        73.9050 E_bond   =        23.1201 E_angle  =        22.4129 
E_dihed  =        31.8319 E_impro  =         0.0000 E_vdwl   =        -3.4600 
E_coul   =         0.0000 E_long   =         0.0000 Press    =        -0.8945
------------ Step          19020 ----- CPU =     1.031206 (sec) -------------
TotEng   =       166.4752 KinEng   =        81.7389 Temp     =       276.9868 
PotEng   =        84.7364 E_bond   =        30.2985 E_angle  =        22.8189 
E_dihed  =        34.6670 E_impro  =         0.0000 E_vdwl   =        -3.0481 
E_coul   =         0.0000 E_long   =         0.0000 Press    =        -1.5487
------------ Step          19040 ----- CPU =     1.032088 (sec) -------------
TotEng   =       169.1182 KinEng   =        85.7322 Temp     =       290.5191 
PotEng   =        83.3859 E_bond   =        33.6547 E_angle  =        20.0979 
E_dihed  =        33.0341 E_impro  =         0.0000 E_vdwl   =        -3.4008 
E_coul   =         0.0000 E_long   =         0.0000 Press    =         3.2886
------------ Step          19060 ----- CPU =     1.032877 (sec) -------------
TotEng   =       172.0519 KinEng   =        82.9644 Temp     =       281.1399 
PotEng   =        89.0874 E_bond   =        29.5085 E_angle  =        30.0391 
E_dihed  =        31.6151 E_impro  =         0.0000 E_vdwl   =        -2.0753 
E_coul   =         0.0000 E_long   =         0.0000 Press    =        -2.5415
------------ Step          19080 ----- CPU =     1.033668 (sec) -------------
TotEng   =       174.8510 KinEng   =        91.5066 Temp     =       310.0866 
PotEng   =        83.3444 E_bond   =        26.6964 E_angle  =        27.7844 
E_dihed  =        32.1448 E_impro  =         0.0000 E_vdwl   =        -3.2812 
E_coul   =         0.0000 E_long   =         0.0000 Press    =        -1.0406
------------ Step          19100 ----- CPU =     1.034668 (sec) -------------
TotEng   =       177.8052 KinEng   =        79.9873 Temp     =       271.0514 
PotEng   =        97.8178 E_bond   =        31.5579 E_angle  =        34.1485 
E_dihed  =        35.3020 E_impro  =         0.0000 E_vdwl   =        -3.1906 
E_coul   =         0.0000 E_long   =         0.0000 Press    =         3.8158
------------ Step          19120 ----- CPU =     1.035605 (sec) -------------
TotEng   =       180.8352 KinEng   =        87.7438 Temp     =       297.3356 
PotEng   =        93.0914 E_bond   =        32.0362 E_angle  =        26.1601 
E_dihed  =        37.6362 E_impro  =         0.0000 E_vdwl   =        -2.7411 
E_coul   =         0.0000 E_long   =         0.0000 Press    =        -3.5323
------------ Step          19140 ----- CPU =     1.036421 (sec) -------------
TotEng   =       183.3460 KinEng   =        89.6155 Temp     =       303.6782 
PotEng   =        93.7305 E_bond   =        29.9891 E_angle  =        29.2401 
E_dihed  =        37.7680 E_impro  =         0.0000 E_vdwl   =        -3.2667 
E_coul   =         0.0000 E_long   =         0.0000 Press    =        -0.3619
------------ Step          19160 ----- CPU =     1.037295 (sec) -------------
TotEng   =       185.4106 KinEng   =        97.8465 Temp     =       331.5703 
PotEng   =        87.5641 E_bond   =        36.1619 E_angle  =        19.5125 
E_dihed  =        35.5960 E_impro  =         0.0000 E_vdwl   =        -3.7062 
E_coul   =         0.0000 E_long   =         0.0000 Press    =         5.1986
------------ Step          19180 ----- CPU =     1.038109 (sec) -------------
TotEng   =       186.2281 KinEng   =       100.8293 Temp     =       341.6782 
PotEng   =        85.3988 E_bond   =        25.7674 E_angle  =        29.6828 
E_dihed  =        34.4549 E_impro  =         0.0000 E_vdwl   =        -4.5063 
E_coul   =         0.0000 E_long   =         0.0000 Press    =        -0.2681
------------ Step          19200 ----- CPU =     1.038953 (sec) -------------
TotEng   =       186.3228 KinEng   =        89.6873 Temp     =       303.9216 
PotEng   =        96.6355 E_bond   =        35.9395 E_angle  =        26.7418 
E_dihed  =        38.6023 E_impro  =         0.0000 E_vdwl   =        -4.6480 
E_coul   =         0.0000 E_long   =         0.0000 Press    =        -0.3498
------------ Step          19220 ----- CPU =     1.040312 (sec) -------------
TotEng   =       185.9611 KinEng   =        97.8397 Temp     =       331.5474 
PotEng   =        88.1214 E_bond   =        32.4645 E_angle  =        22.5987 
E_dihed  =        37.3609 E_impro  =         0.0000 E_vdwl   =        -4.3027 
E_coul   =         0.0000 E_long   =         0.0000 Press    =         4.2264
------------ Step          19240 ----- CPU =     1.041239 (sec) -------------
TotEng   =       185.3562 KinEng   =        86.1678 Temp     =       291.9950 
PotEng   =        99.1885 E_bond   =        34.5810 E_angle  =        28.2754 
E_dihed  =        41.1298 E_impro  =         0.0000 E_vdwl   =        -4.7977 
E_coul   =         0.0000 E_long   =         0.0000 Press    =        -1.7880
------------ Step          19260 ----- CPU =     1.042056 (sec) -------------
TotEng   =       184.7718 KinEng   =        93.7012 Temp     =       317.5233 
PotEng   =        91.0706 E_bond   =        29.0973 E_angle  =        23.5537 
E_dihed  =        42.6112 E_impro  =         0.0000 E_vdwl   =        -4.1916 
E_coul   =         0.0000 E_long   =         0.0000 Press    =        -1.8828
------------ Step          19280 ----- CPU =     1.042988 (sec) -------------
TotEng   =       184.3689 KinEng   =        81.0826 Temp     =       274.7629 
PotEng   =       103.2863 E_bond   =        39.8982 E_angle  =        26.0185 
E_dihed  =        41.7634 E_impro  =         0.0000 E_vdwl   =        -4.3939 
E_coul   =         0.0000 E_long   =         0.0000 Press    =         3.0104
------------ Step          19300 ----- CPU =     1.043867 (sec) -------------
TotEng   =       183.6783 KinEng   =        92.8395 Temp     =       314.6032 
PotEng   =        90.8389 E_bond   =        28.5420 E_angle  =        22.8938 
E_dihed  =        43.3086 E_impro  =         0.0000 E_vdwl   =        -3.9055 
E_coul   =         0.0000 E_long   =         0.0000 Press    =        -1.9445
------------ Step          19320 ----- CPU =     1.045066 (sec) -------------
TotEng   =       183.1859 KinEng   =        89.7895 Temp     =       304.2679 
PotEng   =        93.3964 E_bond   =        35.7662 E_angle  =        24.4310 
E_dihed  =        37.6500 E_impro  =         0.0000 E_vdwl   =        -4.4508 
E_coul   =         0.0000 E_long   =         0.0000 Press    =         0.7081
------------ Step          19340 ----- CPU =     1.046592 (sec) -------------
TotEng   =       182.5135 KinEng   =        89.4918 Temp     =       303.2589 
PotEng   =        93.0217 E_bond   =        28.5362 E_angle  =        33.4810 
E_dihed  =        35.0174 E_impro  =         0.0000 E_vdwl   =        -4.0129 
E_coul   =         0.0000 E_long   =         0.0000 Press    =         3.6724
------------ Step          19360 ----- CPU =     1.047458 (sec) -------------
TotEng   =       181.8038 KinEng   =        87.3169 Temp     =       295.8891 
PotEng   =        94.4868 E_bond   =        34.0313 E_angle  =        25.7682 
E_dihed  =        38.5794 E_impro  =         0.0000 E_vdwl   =        -3.8921 
E_coul   =         0.0000 E_long   =         0.0000 Press    =        -4.9808
------------ Step          19380 ----- CPU =     1.048254 (sec) -------------
TotEng   =       180.9456 KinEng   =        82.5068 Temp     =       279.5891 
PotEng   =        98.4389 E_bond   =        32.7527 E_angle  =        28.4233 
E_dihed  =        41.7613 E_impro  =         0.0000 E_vdwl   =        -4.4984 
E_coul   =         0.0000 E_long   =         0.0000 Press    =         0.3332
------------ Step          19400 ----- CPU =     1.049034 (sec) -------------
TotEng   =       180.4260 KinEng   =        91.1437 Temp     =       308.8567 
PotEng   =        89.2823 E_bond   =        28.6023 E_angle  =        25.7300 
E_dihed  =        39.4077 E_impro  =         0.0000 E_vdwl   =        -4.4576 
E_coul   =         0.0000 E_long   =         0.0000 Press    =         1.6228
------------ Step          19420 ----- CPU =     1.049936 (sec) -------------
TotEng   =       179.9669 KinEng   =        84.8627 Temp     =       287.5725 
PotEng   =        95.1042 E_bond   =        32.5815 E_angle  =        28.7982 
E_dihed  =        37.3141 E_impro  =         0.0000 E_vdwl   =        -3.5896 
E_coul   =         0.0000 E_long   =         0.0000 Press    =        -6.0757
------------ Step          19440 ----- CPU =     1.050812 (sec) -------------
TotEng   =       179.5521 KinEng   =        91.3259 Temp     =       309.4744 
PotEng   =        88.2262 E_bond   =        32.7041 E_angle  =        21.4372 
E_dihed  =        38.7502 E_impro  =         0.0000 E_vdwl   =        -4.6653 
E_coul   =         0.0000 E_long   =         0.0000 Press    =         1.9643
------------ Step          19460 ----- CPU =     1.051594 (sec) -------------
TotEng   =       178.8490 KinEng   =        90.1079 Temp     =       305.3467 
PotEng   =        88.7411 E_bond   =        27.6352 E_angle  =        26.5312 
E_dihed  =        37.9200 E_impro  =         0.0000 E_vdwl   =        -3.3453 
E_coul   =         0.0000 E_long   =         0.0000 Press    =         1.3198
------------ Step          19480 ----- CPU =     1.052376 (sec) -------------
TotEng   =       177.8869 KinEng   =        89.6526 Temp     =       303.8039 
PotEng   =        88.2343 E_bond   =        33.4328 E_angle  =        26.0662 
E_dihed  =        32.6331 E_impro  =         0.0000 E_vdwl   =        -3.8978 
E_coul   =         0.0000 E_long   =         0.0000 Press    =        -5.0054
------------ Step          19500 ----- CPU =     1.053243 (sec) -------------
TotEng   =       175.6512 KinEng   =        99.0324 Temp     =       335.5891 
PotEng   =        76.6188 E_bond   =        23.5310 E_angle  =        25.4363 
E_dihed  =        31.5134 E_impro  =         0.0000 E_vdwl   =        -3.8620 
E_coul   =         0.0000 E_long   =         0.0000 Press    =         3.7216
------------ Step          19520 ----- CPU =     1.055479 (sec) -------------
TotEng   =       171.6411 KinEng   =        90.7665 Temp     =       307.5785 
PotEng   =        80.8746 E_bond   =        29.9845 E_angle  =        21.6686 
E_dihed  =        33.5598 E_impro  =         0.0000 E_vdwl   =        -4.3383 
E_coul   =         0.0000 E_long   =         0.0000 Press    =        -0.1196
------------ Step          19540 ----- CPU =     1.056397 (sec) -------------
TotEng   =       166.4569 KinEng   =        84.6804 Temp     =       286.9548 
PotEng   =        81.7765 E_bond   =        28.1768 E_angle  =        22.4078 
E_dihed  =        35.5869 E_impro  =         0.0000 E_vdwl   =        -4.3950 
E_coul   =         0.0000 E_long   =         0.0000 Press    =        -2.2969
------------ Step          19560 ----- CPU =     1.057425 (sec) -------------
TotEng   =       161.8659 KinEng   =        77.7591 Temp     =       263.5008 
PotEng   =        84.1068 E_bond   =        29.0695 E_angle  =        23.3098 
E_dihed  =        35.9529 E_impro  =         0.0000 E_vdwl   =        -4.2254 
E_coul   =         0.0000 E_long   =         0.0000 Press    =         4.2362
------------ Step          19580 ----- CPU =     1.058281 (sec) -------------
TotEng   =       158.6182 KinEng   =        77.9756 Temp     =       264.2344 
PotEng   =        80.6425 E_bond   =        26.8522 E_angle  =        22.9188 
E_dihed  =        35.2766 E_impro  =         0.0000 E_vdwl   =        -4.4051 
E_coul   =         0.0000 E_long   =         0.0000 Press    =        -0.2325
------------ Step          19600 ----- CPU =     1.059139 (sec) -------------
TotEng   =       156.6164 KinEng   =        81.6386 Temp     =       276.6469 
PotEng   =        74.9779 E_bond   =        25.2345 E_angle  =        22.9211 
E_dihed  =        31.6715 E_impro  =         0.0000 E_vdwl   =        -4.8492 
E_coul   =         0.0000 E_long   =         0.0000 Press    =         0.0282
------------ Step          19620 ----- CPU =     1.060119 (sec) -------------
TotEng   =       155.5644 KinEng   =        76.0409 Temp     =       257.6782 
PotEng   =        79.5235 E_bond   =        31.2372 E_angle  =        21.2873 
E_dihed  =        31.3134 E_impro  =         0.0000 E_vdwl   =        -4.3144 
E_coul   =         0.0000 E_long   =         0.0000 Press    =         4.5528
------------ Step          19640 ----- CPU =     1.061407 (sec) -------------
TotEng   =       155.2474 KinEng   =        76.5084 Temp     =       259.2626 
PotEng   =        78.7390 E_bond   =        24.2715 E_angle  =        26.2558 
E_dihed  =        31.4016 E_impro  =         0.0000 E_vdwl   =        -3.1900 
E_coul   =         0.0000 E_long   =         0.0000 Press    =         0.7171
------------ Step          19660 ----- CPU =     1.062324 (sec) -------------
TotEng   =       155.9461 KinEng   =        79.2123 Temp     =       268.4251 
PotEng   =        76.7338 E_bond   =        28.1725 E_angle  =        23.2956 
E_dihed  =        30.0942 E_impro  =         0.0000 E_vdwl   =        -4.8286 
E_coul   =         0.0000 E_long   =         0.0000 Press    =        -0.0837
------------ Step          19680 ----- CPU =     1.063122 (sec) -------------
TotEng   =       157.3443 KinEng   =        83.7724 Temp     =       283.8778 
PotEng   =        73.5719 E_bond   =        24.4369 E_angle  =        23.5775 
E_dihed  =        30.4891 E_impro  =         0.0000 E_vdwl   =        -4.9317 
E_coul   =         0.0000 E_long   =         0.0000 Press    =         3.1638
------------ Step          19700 ----- CPU =     1.063896 (sec) -------------
TotEng   =       159.4086 KinEng   =        82.9279 Temp     =       281.0159 
PotEng   =        76.4808 E_bond   =        30.0415 E_angle  =        24.1743 
E_dihed  =        26.5542 E_impro  =         0.0000 E_vdwl   =        -4.2892 
E_coul   =         0.0000 E_long   =         0.0000 Press    =         1.0091
------------ Step          19720 ----- CPU =     1.064916 (sec) -------------
TotEng   =       161.5063 KinEng   =        88.7137 Temp     =       300.6223 
PotEng   =        72.7926 E_bond   =        28.0684 E_angle  =        23.1501 
E_dihed  =        25.7378 E_impro  =         0.0000 E_vdwl   =        -4.1637 
E_coul   =         0.0000 E_long   =         0.0000 Press    =        -0.9058
------------ Step          19740 ----- CPU =     1.065698 (sec) -------------
TotEng   =       163.7504 KinEng   =        88.5098 Temp     =       299.9315 
PotEng   =        75.2406 E_bond   =        28.2528 E_angle  =        22.6830 
E_dihed  =        28.5952 E_impro  =         0.0000 E_vdwl   =        -4.2904 
E_coul   =         0.0000 E_long   =         0.0000 Press    =         1.4933
------------ Step          19760 ----- CPU =     1.066549 (sec) -------------
TotEng   =       165.8064 KinEng   =        85.4121 Temp     =       289.4341 
PotEng   =        80.3943 E_bond   =        29.4310 E_angle  =        21.1140 
E_dihed  =        33.4523 E_impro  =         0.0000 E_vdwl   =        -3.6030 
E_coul   =         0.0000 E_long   =         0.0000 Press    =        -1.7333
------------ Step          19780 ----- CPU =     1.067628 (sec) -------------
TotEng   =       168.0242 KinEng   =        79.3174 Temp     =       268.7813 
PotEng   =        88.7068 E_bond   =        33.4981 E_angle  =        23.4430 
E_dihed  =        35.0265 E_impro  =         0.0000 E_vdwl   =        -3.2607 
E_coul   =         0.0000 E_long   =         0.0000 Press    =        -2.2758
------------ Step          19800 ----- CPU =      1.06844 (sec) -------------
TotEng   =       170.5105 KinEng   =        87.9056 Temp     =       297.8839 
PotEng   =        82.6049 E_bond   =        29.7303 E_angle  =        24.0177 
E_dihed  =        31.3851 E_impro  =         0.0000 E_vdwl   =        -2.5282 
E_coul   =         0.0000 E_long   =         0.0000 Press    =         0.3427
------------ Step          19820 ----- CPU =     1.069295 (sec) -------------
TotEng   =       172.8941 KinEng   =        82.8824 Temp     =       280.8620 
PotEng   =        90.0116 E_bond   =        30.1705 E_angle  =        29.1649 
E_dihed  =        33.1921 E_impro  =         0.0000 E_vdwl   =        -2.5159 
E_coul   =         0.0000 E_long   =         0.0000 Press    =        -2.0375
------------ Step          19840 ----- CPU =     1.070124 (sec) -------------
TotEng   =       175.1793 KinEng   =        87.0900 Temp     =       295.1201 
PotEng   =        88.0893 E_bond   =        27.2444 E_angle  =        27.2078 
E_dihed  =        36.5216 E_impro  =         0.0000 E_vdwl   =        -2.8846 
E_coul   =         0.0000 E_long   =         0.0000 Press    =        -0.7453
------------ Step          19860 ----- CPU =     1.070876 (sec) -------------
TotEng   =       177.4824 KinEng   =        84.2718 Temp     =       285.5702 
PotEng   =        93.2106 E_bond   =        32.1042 E_angle  =        27.6950 
E_dihed  =        35.7527 E_impro  =         0.0000 E_vdwl   =        -2.3413 
E_coul   =         0.0000 E_long   =         0.0000 Press    =        -0.9274
------------ Step          19880 ----- CPU =     1.072083 (sec) -------------
TotEng   =       179.3150 KinEng   =        94.9522 Temp     =       321.7625 
PotEng   =        84.3628 E_bond   =        28.6489 E_angle  =        26.7788 
E_dihed  =        31.8809 E_impro  =         0.0000 E_vdwl   =        -2.9458 
E_coul   =         0.0000 E_long   =         0.0000 Press    =        -2.5859
------------ Step          19900 ----- CPU =     1.073238 (sec) -------------
TotEng   =       180.5672 KinEng   =        95.8336 Temp     =       324.7493 
PotEng   =        84.7336 E_bond   =        28.1864 E_angle  =        26.2524 
E_dihed  =        33.5018 E_impro  =         0.0000 E_vdwl   =        -3.2070 
E_coul   =         0.0000 E_long   =         0.0000 Press    =        -1.1470
------------ Step          19920 ----- CPU =     1.074514 (sec) -------------
TotEng   =       181.1643 KinEng   =        91.6853 Temp     =       310.6922 
PotEng   =        89.4790 E_bond   =        29.8828 E_angle  =        28.3187 
E_dihed  =        34.8397 E_impro  =         0.0000 E_vdwl   =        -3.5622 
E_coul   =         0.0000 E_long   =         0.0000 Press    =        -0.3476
------------ Step          19940 ----- CPU =     1.076168 (sec) -------------
TotEng   =       181.2730 KinEng   =        92.2519 Temp     =       312.6123 
PotEng   =        89.0211 E_bond   =        34.5581 E_angle  =        21.6836 
E_dihed  =        36.8436 E_impro  =         0.0000 E_vdwl   =        -4.0642 
E_coul   =         0.0000 E_long   =         0.0000 Press    =        -0.5231
------------ Step          19960 ----- CPU =     1.077407 (sec) -------------
TotEng   =       181.2545 KinEng   =        85.4072 Temp     =       289.4178 
PotEng   =        95.8472 E_bond   =        31.3022 E_angle  =        30.2312 
E_dihed  =        38.4526 E_impro  =         0.0000 E_vdwl   =        -4.1388 
E_coul   =         0.0000 E_long   =         0.0000 Press    =         0.3752
------------ Step          19980 ----- CPU =     1.078915 (sec) -------------
TotEng   =       181.1612 KinEng   =        92.6729 Temp     =       314.0386 
PotEng   =        88.4884 E_bond   =        33.2073 E_angle  =        23.8323 
E_dihed  =        35.6052 E_impro  =         0.0000 E_vdwl   =        -4.1564 
E_coul   =         0.0000 E_long   =         0.0000 Press    =        -0.4110
------------ Step          20000 ----- CPU =     1.080062 (sec) -------------
TotEng   =       180.8289 KinEng   =        95.3710 Temp     =       323.1819 
PotEng   =        85.4578 E_bond   =        26.2663 E_angle  =        25.8890 
E_dihed  =        37.6577 E_impro  =         0.0000 E_vdwl   =        -4.3551 
E_coul   =         0.0000 E_long   =         0.0000 Press    =        -0.7242
------------ Step          20020 ----- CPU =     1.081478 (sec) -------------
TotEng   =       180.3519 KinEng   =        88.9747 Temp     =       301.5067 
PotEng   =        91.3772 E_bond   =        36.6728 E_angle  =        22.6280 
E_dihed  =        36.7607 E_impro  =         0.0000 E_vdwl   =        -4.6843 
E_coul   =         0.0000 E_long   =         0.0000 Press    =         1.1692
------------ Step          20040 ----- CPU =     1.082857 (sec) -------------
TotEng   =       179.5341 KinEng   =        93.2010 Temp     =       315.8283 
PotEng   =        86.3331 E_bond   =        30.0076 E_angle  =        26.3944 
E_dihed  =        34.9727 E_impro  =         0.0000 E_vdwl   =        -5.0416 
E_coul   =         0.0000 E_long   =         0.0000 Press    =         1.4641
------------ Step          20060 ----- CPU =     1.083651 (sec) -------------
TotEng   =       178.6019 KinEng   =        86.8703 Temp     =       294.3757 
PotEng   =        91.7316 E_bond   =        27.8093 E_angle  =        32.2267 
E_dihed  =        36.6280 E_impro  =         0.0000 E_vdwl   =        -4.9323 
E_coul   =         0.0000 E_long   =         0.0000 Press    =        -1.9096
------------ Step          20080 ----- CPU =     1.084414 (sec) -------------
TotEng   =       177.9063 KinEng   =        88.6873 Temp     =       300.5328 
PotEng   =        89.2191 E_bond   =        28.4692 E_angle  =        26.2468 
E_dihed  =        38.4263 E_impro  =         0.0000 E_vdwl   =        -3.9233 
E_coul   =         0.0000 E_long   =         0.0000 Press    =         2.4690
------------ Step          20100 ----- CPU =     1.085179 (sec) -------------
TotEng   =       177.4037 KinEng   =        83.9243 Temp     =       284.3925 
PotEng   =        93.4795 E_bond   =        29.2158 E_angle  =        29.1269 
E_dihed  =        40.2209 E_impro  =         0.0000 E_vdwl   =        -5.0841 
E_coul   =         0.0000 E_long   =         0.0000 Press    =         2.8378
------------ Step          20120 ----- CPU =     1.086474 (sec) -------------
TotEng   =       177.0799 KinEng   =        83.3612 Temp     =       282.4844 
PotEng   =        93.7187 E_bond   =        33.2417 E_angle  =        25.5584 
E_dihed  =        39.7597 E_impro  =         0.0000 E_vdwl   =        -4.8411 
E_coul   =         0.0000 E_long   =         0.0000 Press    =        -2.2446
------------ Step          20140 ----- CPU =     1.087387 (sec) -------------
TotEng   =       177.0388 KinEng   =        83.1389 Temp     =       281.7311 
PotEng   =        93.8999 E_bond   =        27.4427 E_angle  =        34.7305 
E_dihed  =        36.1992 E_impro  =         0.0000 E_vdwl   =        -4.4725 
E_coul   =         0.0000 E_long   =         0.0000 Press    =         2.4317
------------ Step          20160 ----- CPU =     1.088403 (sec) -------------
TotEng   =       177.5049 KinEng   =        79.9075 Temp     =       270.7810 
PotEng   =        97.5974 E_bond   =        38.0238 E_angle  =        28.0461 
E_dihed  =        36.1844 E_impro  =         0.0000 E_vdwl   =        -4.6568 
E_coul   =         0.0000 E_long   =         0.0000 Press    =         2.0021
------------ Step          20180 ----- CPU =     1.089326 (sec) -------------
TotEng   =       178.3462 KinEng   =        90.6358 Temp     =       307.1358 
PotEng   =        87.7104 E_bond   =        28.5328 E_angle  =        27.3424 
E_dihed  =        36.2705 E_impro  =         0.0000 E_vdwl   =        -4.4352 
E_coul   =         0.0000 E_long   =         0.0000 Press    =        -0.5319
------------ Step          20200 ----- CPU =     1.090538 (sec) -------------
TotEng   =       179.8006 KinEng   =        83.4099 Temp     =       282.6493 
PotEng   =        96.3907 E_bond   =        33.5228 E_angle  =        28.1646 
E_dihed  =        38.4134 E_impro  =         0.0000 E_vdwl   =        -3.7101 
E_coul   =         0.0000 E_long   =         0.0000 Press    =         1.6003
------------ Step          20220 ----- CPU =     1.091772 (sec) -------------
TotEng   =       182.0421 KinEng   =        88.4677 Temp     =       299.7888 
PotEng   =        93.5744 E_bond   =        25.3276 E_angle  =        35.5529 
E_dihed  =        35.9906 E_impro  =         0.0000 E_vdwl   =        -3.2966 
E_coul   =         0.0000 E_long   =         0.0000 Press    =         1.2159
------------ Step          20240 ----- CPU =     1.092537 (sec) -------------
TotEng   =       185.9658 KinEng   =        96.9364 Temp     =       328.4864 
PotEng   =        89.0293 E_bond   =        36.8041 E_angle  =        23.3530 
E_dihed  =        32.4016 E_impro  =         0.0000 E_vdwl   =        -3.5294 
E_coul   =         0.0000 E_long   =         0.0000 Press    =        -0.4402
------------ Step          20260 ----- CPU =     1.093309 (sec) -------------
TotEng   =       190.4614 KinEng   =        99.7862 Temp     =       338.1435 
PotEng   =        90.6752 E_bond   =        30.2775 E_angle  =        28.1870 
E_dihed  =        35.9180 E_impro  =         0.0000 E_vdwl   =        -3.7073 
E_coul   =         0.0000 E_long   =         0.0000 Press    =        -0.2410
------------ Step          20280 ----- CPU =     1.094069 (sec) -------------
TotEng   =       194.9149 KinEng   =       103.0525 Temp     =       349.2120 
PotEng   =        91.8624 E_bond   =        33.2130 E_angle  =        25.7318 
E_dihed  =        36.7826 E_impro  =         0.0000 E_vdwl   =        -3.8650 
E_coul   =         0.0000 E_long   =         0.0000 Press    =         1.9520
------------ Step          20300 ----- CPU =     1.095261 (sec) -------------
TotEng   =       198.3683 KinEng   =       103.6399 Temp     =       351.2024 
PotEng   =        94.7284 E_bond   =        27.2840 E_angle  =        34.2972 
E_dihed  =        37.0566 E_impro  =         0.0000 E_vdwl   =        -3.9095 
E_coul   =         0.0000 E_long   =         0.0000 Press    =        -0.9477
------------ Step          20320 ----- CPU =     1.096307 (sec) -------------
TotEng   =       201.1750 KinEng   =        99.9761 Temp     =       338.7869 
PotEng   =       101.1989 E_bond   =        36.8337 E_angle  =        35.0333 
E_dihed  =        33.3663 E_impro  =         0.0000 E_vdwl   =        -4.0344 
E_coul   =         0.0000 E_long   =         0.0000 Press    =        -0.8507
------------ Step          20340 ----- CPU =     1.097203 (sec) -------------
TotEng   =       202.3737 KinEng   =       104.6470 Temp     =       354.6151 
PotEng   =        97.7267 E_bond   =        34.6398 E_angle  =        32.2504 
E_dihed  =        34.1512 E_impro  =         0.0000 E_vdwl   =        -3.3146 
E_coul   =         0.0000 E_long   =         0.0000 Press    =         2.1806
------------ Step          20360 ----- CPU =     1.098443 (sec) -------------
TotEng   =       202.2871 KinEng   =       100.1513 Temp     =       339.3806 
PotEng   =       102.1358 E_bond   =        41.2450 E_angle  =        30.5219 
E_dihed  =        33.8511 E_impro  =         0.0000 E_vdwl   =        -3.4822 
E_coul   =         0.0000 E_long   =         0.0000 Press    =        -4.0356
------------ Step          20380 ----- CPU =     1.099207 (sec) -------------
TotEng   =       200.3940 KinEng   =       109.1820 Temp     =       369.9826 
PotEng   =        91.2121 E_bond   =        32.5556 E_angle  =        25.7231 
E_dihed  =        36.6863 E_impro  =         0.0000 E_vdwl   =        -3.7529 
E_coul   =         0.0000 E_long   =         0.0000 Press    =        -0.7410
------------ Step          20400 ----- CPU =     1.099958 (sec) -------------
TotEng   =       197.2028 KinEng   =        94.9035 Temp     =       321.5976 
PotEng   =       102.2993 E_bond   =        35.2176 E_angle  =        30.8655 
E_dihed  =        39.8157 E_impro  =         0.0000 E_vdwl   =        -3.5995 
E_coul   =         0.0000 E_long   =         0.0000 Press    =         1.6131
------------ Step          20420 ----- CPU =     1.100964 (sec) -------------
TotEng   =       192.9080 KinEng   =        94.3328 Temp     =       319.6636 
PotEng   =        98.5752 E_bond   =        38.2283 E_angle  =        22.5052 
E_dihed  =        41.3616 E_impro  =         0.0000 E_vdwl   =        -3.5199 
E_coul   =         0.0000 E_long   =         0.0000 Press    =        -3.6137
------------ Step          20440 ----- CPU =     1.101805 (sec) -------------
TotEng   =       188.1712 KinEng   =        90.9152 Temp     =       308.0824 
PotEng   =        97.2560 E_bond   =        31.5268 E_angle  =        30.2264 
E_dihed  =        38.4184 E_impro  =         0.0000 E_vdwl   =        -2.9156 
E_coul   =         0.0000 E_long   =         0.0000 Press    =        -1.7938
------------ Step          20460 ----- CPU =     1.102572 (sec) -------------
TotEng   =       184.2954 KinEng   =        92.8628 Temp     =       314.6823 
PotEng   =        91.4326 E_bond   =        32.0886 E_angle  =        26.2541 
E_dihed  =        35.9582 E_impro  =         0.0000 E_vdwl   =        -2.8683 
E_coul   =         0.0000 E_long   =         0.0000 Press    =        -1.4084
------------ Step          20480 ----- CPU =     1.103328 (sec) -------------
TotEng   =       181.2675 KinEng   =        83.7178 Temp     =       283.6928 
PotEng   =        97.5497 E_bond   =        34.1282 E_angle  =        31.5798 
E_dihed  =        34.6676 E_impro  =         0.0000 E_vdwl   =        -2.8258 
E_coul   =         0.0000 E_long   =         0.0000 Press    =        -3.3071
------------ Step          20500 ----- CPU =     1.104101 (sec) -------------
TotEng   =       179.4068 KinEng   =        94.2901 Temp     =       319.5190 
PotEng   =        85.1167 E_bond   =        24.9741 E_angle  =        29.9298 
E_dihed  =        32.8838 E_impro  =         0.0000 E_vdwl   =        -2.6709 
E_coul   =         0.0000 E_long   =         0.0000 Press    =        -1.2189
------------ Step          20520 ----- CPU =      1.10631 (sec) -------------
TotEng   =       178.0765 KinEng   =        92.7070 Temp     =       314.1543 
PotEng   =        85.3695 E_bond   =        31.5394 E_angle  =        25.9017 
E_dihed  =        31.0742 E_impro  =         0.0000 E_vdwl   =        -3.1458 
E_coul   =         0.0000 E_long   =         0.0000 Press    =        -0.2816
------------ Step          20540 ----- CPU =      1.10717 (sec) -------------
TotEng   =       176.8940 KinEng   =        89.1772 Temp     =       302.1928 
PotEng   =        87.7169 E_bond   =        31.6658 E_angle  =        28.0904 
E_dihed  =        31.2543 E_impro  =         0.0000 E_vdwl   =        -3.2936 
E_coul   =         0.0000 E_long   =         0.0000 Press    =        -0.5016
------------ Step          20560 ----- CPU =     1.108069 (sec) -------------
TotEng   =       175.9644 KinEng   =        86.4678 Temp     =       293.0117 
PotEng   =        89.4966 E_bond   =        35.4362 E_angle  =        22.6462 
E_dihed  =        34.5355 E_impro  =         0.0000 E_vdwl   =        -3.1213 
E_coul   =         0.0000 E_long   =         0.0000 Press    =         0.5552
------------ Step          20580 ----- CPU =     1.108824 (sec) -------------
TotEng   =       174.9145 KinEng   =        87.8014 Temp     =       297.5309 
PotEng   =        87.1130 E_bond   =        27.2421 E_angle  =        27.1594 
E_dihed  =        36.1330 E_impro  =         0.0000 E_vdwl   =        -3.4215 
E_coul   =         0.0000 E_long   =         0.0000 Press    =         2.1158
------------ Step          20600 ----- CPU =      1.10969 (sec) -------------
TotEng   =       174.4227 KinEng   =        84.7232 Temp     =       287.0997 
PotEng   =        89.6995 E_bond   =        27.5413 E_angle  =        29.3529 
E_dihed  =        35.8092 E_impro  =         0.0000 E_vdwl   =        -3.0039 
E_coul   =         0.0000 E_long   =         0.0000 Press    =        -0.3561
------------ Step          20620 ----- CPU =     1.110577 (sec) -------------
TotEng   =       174.2692 KinEng   =        76.5438 Temp     =       259.3826 
PotEng   =        97.7253 E_bond   =        34.5697 E_angle  =        29.8892 
E_dihed  =        35.9166 E_impro  =         0.0000 E_vdwl   =        -2.6501 
E_coul   =         0.0000 E_long   =         0.0000 Press    =         3.0654
------------ Step          20640 ----- CPU =     1.111781 (sec) -------------
TotEng   =       174.5359 KinEng   =        84.4674 Temp     =       286.2330 
PotEng   =        90.0685 E_bond   =        30.1880 E_angle  =        27.4201 
E_dihed  =        35.6390 E_impro  =         0.0000 E_vdwl   =        -3.1787 
E_coul   =         0.0000 E_long   =         0.0000 Press    =         2.9600
------------ Step          20660 ----- CPU =     1.112589 (sec) -------------
TotEng   =       175.3405 KinEng   =        88.6062 Temp     =       300.2579 
PotEng   =        86.7344 E_bond   =        28.8020 E_angle  =        26.7608 
E_dihed  =        33.4473 E_impro  =         0.0000 E_vdwl   =        -2.2757 
E_coul   =         0.0000 E_long   =         0.0000 Press    =         0.7276
------------ Step          20680 ----- CPU =     1.113368 (sec) -------------
TotEng   =       176.2848 KinEng   =        88.4581 Temp     =       299.7563 
PotEng   =        87.8266 E_bond   =        31.0952 E_angle  =        27.9126 
E_dihed  =        31.4316 E_impro  =         0.0000 E_vdwl   =        -2.6127 
E_coul   =         0.0000 E_long   =         0.0000 Press    =         4.3930
------------ Step          20700 ----- CPU =     1.114124 (sec) -------------
TotEng   =       177.3792 KinEng   =        82.1010 Temp     =       278.2140 
PotEng   =        95.2782 E_bond   =        32.5348 E_angle  =        31.1208 
E_dihed  =        34.0172 E_impro  =         0.0000 E_vdwl   =        -2.3947 
E_coul   =         0.0000 E_long   =         0.0000 Press    =         2.0016
------------ Step          20720 ----- CPU =     1.115222 (sec) -------------
TotEng   =       179.0592 KinEng   =        88.4981 Temp     =       299.8917 
PotEng   =        90.5611 E_bond   =        29.1549 E_angle  =        26.6864 
E_dihed  =        37.3896 E_impro  =         0.0000 E_vdwl   =        -2.6698 
E_coul   =         0.0000 E_long   =         0.0000 Press    =        -0.2503
------------ Step          20740 ----- CPU =     1.115981 (sec) -------------
TotEng   =       181.0980 KinEng   =        89.4448 Temp     =       303.0998 
PotEng   =        91.6532 E_bond   =        28.2106 E_angle  =        26.4230 
E_dihed  =        39.6158 E_impro  =         0.0000 E_vdwl   =        -2.5961 
E_coul   =         0.0000 E_long   =         0.0000 Press    =         1.2470
------------ Step          20760 ----- CPU =     1.116918 (sec) -------------
TotEng   =       183.4913 KinEng   =        91.5681 Temp     =       310.2949 
PotEng   =        91.9232 E_bond   =        27.8123 E_angle  =        25.4812 
E_dihed  =        40.8150 E_impro  =         0.0000 E_vdwl   =        -2.1854 
E_coul   =         0.0000 E_long   =         0.0000 Press    =         0.1500
------------ Step          20780 ----- CPU =     1.117686 (sec) -------------
TotEng   =       186.0739 KinEng   =        85.8398 Temp     =       290.8835 
PotEng   =       100.2341 E_bond   =        30.9824 E_angle  =        31.6950 
E_dihed  =        39.9334 E_impro  =         0.0000 E_vdwl   =        -2.3766 
E_coul   =         0.0000 E_long   =         0.0000 Press    =         0.0366
------------ Step          20800 ----- CPU =     1.118434 (sec) -------------
TotEng   =       189.1855 KinEng   =        90.8105 Temp     =       307.7276 
PotEng   =        98.3750 E_bond   =        33.0766 E_angle  =        27.7336 
E_dihed  =        40.7977 E_impro  =         0.0000 E_vdwl   =        -3.2328 
E_coul   =         0.0000 E_long   =         0.0000 Press    =        -2.1345
------------ Step          20820 ----- CPU =     1.119296 (sec) -------------
TotEng   =       192.4891 KinEng   =        94.2258 Temp     =       319.3012 
PotEng   =        98.2633 E_bond   =        37.6651 E_angle  =        24.5195 
E_dihed  =        39.6736 E_impro  =         0.0000 E_vdwl   =        -3.5949 
E_coul   =         0.0000 E_long   =         0.0000 Press    =         0.1195
------------ Step          20840 ----- CPU =     1.120032 (sec) -------------
TotEng   =       195.0675 KinEng   =        99.4073 Temp     =       336.8594 
PotEng   =        95.6602 E_bond   =        29.2156 E_angle  =        28.2251 
E_dihed  =        41.9355 E_impro  =         0.0000 E_vdwl   =        -3.7160 
E_coul   =         0.0000 E_long   =         0.0000 Press    =         0.9202
------------ Step          20860 ----- CPU =     1.120862 (sec) -------------
TotEng   =       197.1937 KinEng   =        94.8051 Temp     =       321.2639 
PotEng   =       102.3886 E_bond   =        35.4447 E_angle  =        29.4609 
E_dihed  =        41.3232 E_impro  =         0.0000 E_vdwl   =        -3.8402 
E_coul   =         0.0000 E_long   =         0.0000 Press    =        -2.0791
------------ Step          20880 ----- CPU =     1.121954 (sec) -------------
TotEng   =       198.3832 KinEng   =       102.7266 Temp     =       348.1076 
PotEng   =        95.6566 E_bond   =        30.3275 E_angle  =        27.7519 
E_dihed  =        40.7219 E_impro  =         0.0000 E_vdwl   =        -3.1447 
E_coul   =         0.0000 E_long   =         0.0000 Press    =         1.3233
------------ Step          20900 ----- CPU =      1.12271 (sec) -------------
TotEng   =       198.6503 KinEng   =        95.1023 Temp     =       322.2712 
PotEng   =       103.5480 E_bond   =        36.9851 E_angle  =        27.1312 
E_dihed  =        43.2335 E_impro  =         0.0000 E_vdwl   =        -3.8018 
E_coul   =         0.0000 E_long   =         0.0000 Press    =        -1.5834
------------ Step          20920 ----- CPU =     1.124134 (sec) -------------
TotEng   =       198.1561 KinEng   =        88.5934 Temp     =       300.2147 
PotEng   =       109.5626 E_bond   =        37.5458 E_angle  =        29.2144 
E_dihed  =        46.6798 E_impro  =         0.0000 E_vdwl   =        -3.8773 
E_coul   =         0.0000 E_long   =         0.0000 Press    =        -3.2912
------------ Step          20940 ----- CPU =      1.12537 (sec) -------------
TotEng   =       197.2190 KinEng   =       105.3558 Temp     =       357.0170 
PotEng   =        91.8633 E_bond   =        24.6391 E_angle  =        26.1104 
E_dihed  =        45.9694 E_impro  =         0.0000 E_vdwl   =        -4.8557 
E_coul   =         0.0000 E_long   =         0.0000 Press    =        -0.4919
------------ Step          20960 ----- CPU =     1.126361 (sec) -------------
TotEng   =       195.2658 KinEng   =        97.8490 Temp     =       331.5788 
PotEng   =        97.4168 E_bond   =        33.7382 E_angle  =        25.8704 
E_dihed  =        40.8701 E_impro  =         0.0000 E_vdwl   =        -3.0618 
E_coul   =         0.0000 E_long   =         0.0000 Press    =        -1.0990
------------ Step          20980 ----- CPU =      1.12748 (sec) -------------
TotEng   =       191.7339 KinEng   =        94.1819 Temp     =       319.1524 
PotEng   =        97.5519 E_bond   =        38.6970 E_angle  =        27.2119 
E_dihed  =        35.8188 E_impro  =         0.0000 E_vdwl   =        -4.1758 
E_coul   =         0.0000 E_long   =         0.0000 Press    =        -1.4584
------------ Step          21000 ----- CPU =     1.128613 (sec) -------------
TotEng   =       185.4994 KinEng   =        98.9107 Temp     =       335.1765 
PotEng   =        86.5887 E_bond   =        28.3827 E_angle  =        26.0889 
E_dihed  =        35.9393 E_impro  =         0.0000 E_vdwl   =        -3.8221 
E_coul   =         0.0000 E_long   =         0.0000 Press    =         0.7131
------------ Step          21020 ----- CPU =     1.129542 (sec) -------------
TotEng   =       178.7544 KinEng   =        83.5168 Temp     =       283.0118 
PotEng   =        95.2376 E_bond   =        31.4413 E_angle  =        29.9416 
E_dihed  =        37.5276 E_impro  =         0.0000 E_vdwl   =        -3.6730 
E_coul   =         0.0000 E_long   =         0.0000 Press    =         0.2947
------------ Step          21040 ----- CPU =     1.130342 (sec) -------------
TotEng   =       174.2321 KinEng   =        75.7342 Temp     =       256.6390 
PotEng   =        98.4978 E_bond   =        29.6629 E_angle  =        35.4778 
E_dihed  =        38.5941 E_impro  =         0.0000 E_vdwl   =        -5.2370 
E_coul   =         0.0000 E_long   =         0.0000 Press    =        -0.1140
------------ Step          21060 ----- CPU =     1.131138 (sec) -------------
TotEng   =       171.9966 KinEng   =        81.3827 Temp     =       275.7799 
PotEng   =        90.6139 E_bond   =        30.8841 E_angle  =        26.7258 
E_dihed  =        37.8464 E_impro  =         0.0000 E_vdwl   =        -4.8424 
E_coul   =         0.0000 E_long   =         0.0000 Press    =        -0.7590
------------ Step          21080 ----- CPU =     1.131901 (sec) -------------
TotEng   =       170.7829 KinEng   =        89.7300 Temp     =       304.0661 
PotEng   =        81.0530 E_bond   =        24.8195 E_angle  =        25.3264 
E_dihed  =        35.7937 E_impro  =         0.0000 E_vdwl   =        -4.8866 
E_coul   =         0.0000 E_long   =         0.0000 Press    =        -1.2165
------------ Step          21100 ----- CPU =     1.132747 (sec) -------------
TotEng   =       170.3529 KinEng   =        80.9624 Temp     =       274.3557 
PotEng   =        89.3905 E_bond   =        31.5873 E_angle  =        24.3874 
E_dihed  =        38.1378 E_impro  =         0.0000 E_vdwl   =        -4.7220 
E_coul   =         0.0000 E_long   =         0.0000 Press    =         0.3630
------------ Step          21120 ----- CPU =     1.133637 (sec) -------------
TotEng   =       170.3290 KinEng   =        75.6209 Temp     =       256.2549 
PotEng   =        94.7081 E_bond   =        30.8381 E_angle  =        28.3407 
E_dihed  =        39.8000 E_impro  =         0.0000 E_vdwl   =        -4.2707 
E_coul   =         0.0000 E_long   =         0.0000 Press    =        -1.3237
------------ Step          21140 ----- CPU =     1.134467 (sec) -------------
TotEng   =       171.0145 KinEng   =        82.2563 Temp     =       278.7403 
PotEng   =        88.7581 E_bond   =        29.0244 E_angle  =        25.9648 
E_dihed  =        38.2765 E_impro  =         0.0000 E_vdwl   =        -4.5076 
E_coul   =         0.0000 E_long   =         0.0000 Press    =         0.0213
------------ Step          21160 ----- CPU =     1.135253 (sec) -------------
TotEng   =       172.4571 KinEng   =        81.8935 Temp     =       277.5107 
PotEng   =        90.5637 E_bond   =        28.4300 E_angle  =        29.2740 
E_dihed  =        37.2778 E_impro  =         0.0000 E_vdwl   =        -4.4181 
E_coul   =         0.0000 E_long   =         0.0000 Press    =         3.7470
------------ Step          21180 ----- CPU =     1.136071 (sec) -------------
TotEng   =       174.4394 KinEng   =        83.8016 Temp     =       283.9767 
PotEng   =        90.6378 E_bond   =        30.4377 E_angle  =        25.1939 
E_dihed  =        40.0290 E_impro  =         0.0000 E_vdwl   =        -5.0228 
E_coul   =         0.0000 E_long   =         0.0000 Press    =         0.1461
------------ Step          21200 ----- CPU =     1.136834 (sec) -------------
TotEng   =       176.5973 KinEng   =        86.6859 Temp     =       293.7506 
PotEng   =        89.9114 E_bond   =        27.5747 E_angle  =        24.9640 
E_dihed  =        41.8127 E_impro  =         0.0000 E_vdwl   =        -4.4400 
E_coul   =         0.0000 E_long   =         0.0000 Press    =         2.3411
------------ Step          21220 ----- CPU =      1.13857 (sec) -------------
TotEng   =       179.0471 KinEng   =        84.7203 Temp     =       287.0899 
PotEng   =        94.3269 E_bond   =        32.7956 E_angle  =        27.6012 
E_dihed  =        38.4988 E_impro  =         0.0000 E_vdwl   =        -4.5687 
E_coul   =         0.0000 E_long   =         0.0000 Press    =         4.5297
------------ Step          21240 ----- CPU =     1.140018 (sec) -------------
TotEng   =       181.7599 KinEng   =        80.8632 Temp     =       274.0195 
PotEng   =       100.8967 E_bond   =        29.6855 E_angle  =        38.7884 
E_dihed  =        37.3399 E_impro  =         0.0000 E_vdwl   =        -4.9171 
E_coul   =         0.0000 E_long   =         0.0000 Press    =        -0.9300
------------ Step          21260 ----- CPU =     1.141455 (sec) -------------
TotEng   =       184.4774 KinEng   =        92.3681 Temp     =       313.0059 
PotEng   =        92.1093 E_bond   =        29.9490 E_angle  =        29.4815 
E_dihed  =        37.7408 E_impro  =         0.0000 E_vdwl   =        -5.0620 
E_coul   =         0.0000 E_long   =         0.0000 Press    =         2.1368
------------ Step          21280 ----- CPU =     1.142412 (sec) -------------
TotEng   =       187.3239 KinEng   =        90.8222 Temp     =       307.7672 
PotEng   =        96.5018 E_bond   =        35.2252 E_angle  =        26.1424 
E_dihed  =        39.7882 E_impro  =         0.0000 E_vdwl   =        -4.6540 
E_coul   =         0.0000 E_long   =         0.0000 Press    =         1.2915
------------ Step          21300 ----- CPU =     1.143799 (sec) -------------
TotEng   =       189.2627 KinEng   =        84.4938 Temp     =       286.3225 
PotEng   =       104.7689 E_bond   =        39.7356 E_angle  =        28.8257 
E_dihed  =        41.1880 E_impro  =         0.0000 E_vdwl   =        -4.9804 
E_coul   =         0.0000 E_long   =         0.0000 Press    =        -2.0643
------------ Step          21320 ----- CPU =     1.145094 (sec) -------------
TotEng   =       191.1589 KinEng   =        96.0624 Temp     =       325.5248 
PotEng   =        95.0965 E_bond   =        31.3606 E_angle  =        31.8268 
E_dihed  =        36.7771 E_impro  =         0.0000 E_vdwl   =        -4.8680 
E_coul   =         0.0000 E_long   =         0.0000 Press    =         2.0387
------------ Step          21340 ----- CPU =     1.146536 (sec) -------------
TotEng   =       192.5025 KinEng   =        93.4071 Temp     =       316.5267 
PotEng   =        99.0954 E_bond   =        30.6511 E_angle  =        36.8145 
E_dihed  =        35.7271 E_impro  =         0.0000 E_vdwl   =        -4.0974 
E_coul   =         0.0000 E_long   =         0.0000 Press    =         0.4339
------------ Step          21360 ----- CPU =      1.14731 (sec) -------------
TotEng   =       193.4458 KinEng   =        92.5299 Temp     =       313.5541 
PotEng   =       100.9159 E_bond   =        35.2652 E_angle  =        31.5926 
E_dihed  =        38.0494 E_impro  =         0.0000 E_vdwl   =        -3.9912 
E_coul   =         0.0000 E_long   =         0.0000 Press    =        -1.9081
------------ Step          21380 ----- CPU =     1.148141 (sec) -------------
TotEng   =       193.4843 KinEng   =        95.0539 Temp     =       322.1073 
PotEng   =        98.4304 E_bond   =        26.9298 E_angle  =        34.7323 
E_dihed  =        40.3719 E_impro  =         0.0000 E_vdwl   =        -3.6036 
E_coul   =         0.0000 E_long   =         0.0000 Press    =        -0.7286
------------ Step          21400 ----- CPU =     1.149047 (sec) -------------
TotEng   =       193.3483 KinEng   =        90.0599 Temp     =       305.1841 
PotEng   =       103.2884 E_bond   =        31.8500 E_angle  =        31.5260 
E_dihed  =        42.8186 E_impro  =         0.0000 E_vdwl   =        -2.9061 
E_coul   =         0.0000 E_long   =         0.0000 Press    =        -0.2747
------------ Step          21420 ----- CPU =     1.149919 (sec) -------------
TotEng   =       192.9432 KinEng   =        95.4979 Temp     =       323.6117 
PotEng   =        97.4453 E_bond   =        29.7899 E_angle  =        29.9305 
E_dihed  =        40.6485 E_impro  =         0.0000 E_vdwl   =        -2.9237 
E_coul   =         0.0000 E_long   =         0.0000 Press    =        -2.9615
------------ Step          21440 ----- CPU =     1.150783 (sec) -------------
TotEng   =       192.1455 KinEng   =        96.0213 Temp     =       325.3855 
PotEng   =        96.1241 E_bond   =        36.5503 E_angle  =        29.1987 
E_dihed  =        33.7062 E_impro  =         0.0000 E_vdwl   =        -3.3310 
E_coul   =         0.0000 E_long   =         0.0000 Press    =         0.4762
------------ Step          21460 ----- CPU =     1.151554 (sec) -------------
TotEng   =       190.1439 KinEng   =        95.1036 Temp     =       322.2757 
PotEng   =        95.0403 E_bond   =        36.1016 E_angle  =        29.1228 
E_dihed  =        33.5268 E_impro  =         0.0000 E_vdwl   =        -3.7109 
E_coul   =         0.0000 E_long   =         0.0000 Press    =         1.8875
------------ Step          21480 ----- CPU =     1.152359 (sec) -------------
TotEng   =       186.8992 KinEng   =        96.0838 Temp     =       325.5972 
PotEng   =        90.8154 E_bond   =        30.7316 E_angle  =        26.1137 
E_dihed  =        38.1239 E_impro  =         0.0000 E_vdwl   =        -4.1538 
E_coul   =         0.0000 E_long   =         0.0000 Press    =        -2.8518
------------ Step          21500 ----- CPU =     1.153137 (sec) -------------
TotEng   =       182.6278 KinEng   =        86.8417 Temp     =       294.2786 
PotEng   =        95.7862 E_bond   =        32.4183 E_angle  =        30.1194 
E_dihed  =        36.8411 E_impro  =         0.0000 E_vdwl   =        -3.5926 
E_coul   =         0.0000 E_long   =         0.0000 Press    =         1.2627
------------ Step          21520 ----- CPU =     1.154145 (sec) -------------
TotEng   =       178.2533 KinEng   =        86.0951 Temp     =       291.7487 
PotEng   =        92.1582 E_bond   =        31.8939 E_angle  =        26.5097 
E_dihed  =        37.4526 E_impro  =         0.0000 E_vdwl   =        -3.6980 
E_coul   =         0.0000 E_long   =         0.0000 Press    =         0.2671
------------ Step          21540 ----- CPU =      1.15544 (sec) -------------
TotEng   =       174.2889 KinEng   =        79.0254 Temp     =       267.7918 
PotEng   =        95.2634 E_bond   =        27.1560 E_angle  =        31.0958 
E_dihed  =        41.3734 E_impro  =         0.0000 E_vdwl   =        -4.3618 
E_coul   =         0.0000 E_long   =         0.0000 Press    =        -1.7465
------------ Step          21560 ----- CPU =     1.156511 (sec) -------------
TotEng   =       171.7334 KinEng   =        76.9608 Temp     =       260.7956 
PotEng   =        94.7725 E_bond   =        33.6778 E_angle  =        24.9947 
E_dihed  =        40.4354 E_impro  =         0.0000 E_vdwl   =        -4.3354 
E_coul   =         0.0000 E_long   =         0.0000 Press    =         2.4509
------------ Step          21580 ----- CPU =     1.157418 (sec) -------------
TotEng   =       170.5071 KinEng   =        72.5160 Temp     =       245.7335 
PotEng   =        97.9911 E_bond   =        30.1233 E_angle  =        34.1241 
E_dihed  =        38.2869 E_impro  =         0.0000 E_vdwl   =        -4.5432 
E_coul   =         0.0000 E_long   =         0.0000 Press    =         0.3555
------------ Step          21600 ----- CPU =     1.158258 (sec) -------------
TotEng   =       170.3323 KinEng   =        82.1861 Temp     =       278.5024 
PotEng   =        88.1462 E_bond   =        25.9707 E_angle  =        27.5163 
E_dihed  =        38.6966 E_impro  =         0.0000 E_vdwl   =        -4.0373 
E_coul   =         0.0000 E_long   =         0.0000 Press    =         0.1461
------------ Step          21620 ----- CPU =     1.159172 (sec) -------------
TotEng   =       170.8262 KinEng   =        79.1821 Temp     =       268.3227 
PotEng   =        91.6441 E_bond   =        27.8278 E_angle  =        28.3285 
E_dihed  =        39.5385 E_impro  =         0.0000 E_vdwl   =        -4.0507 
E_coul   =         0.0000 E_long   =         0.0000 Press    =         0.5449
------------ Step          21640 ----- CPU =     1.159991 (sec) -------------
TotEng   =       171.6843 KinEng   =        84.2793 Temp     =       285.5955 
PotEng   =        87.4050 E_bond   =        26.0346 E_angle  =        25.7000 
E_dihed  =        39.8284 E_impro  =         0.0000 E_vdwl   =        -4.1579 
E_coul   =         0.0000 E_long   =         0.0000 Press    =        -0.7945
------------ Step          21660 ----- CPU =     1.161231 (sec) -------------
TotEng   =       172.7257 KinEng   =        74.3875 Temp     =       252.0755 
PotEng   =        98.3381 E_bond   =        33.4405 E_angle  =        30.6190 
E_dihed  =        38.1038 E_impro  =         0.0000 E_vdwl   =        -3.8252 
E_coul   =         0.0000 E_long   =         0.0000 Press    =        -3.7694
------------ Step          21680 ----- CPU =     1.162257 (sec) -------------
TotEng   =       174.0550 KinEng   =        85.0959 Temp     =       288.3626 
PotEng   =        88.9592 E_bond   =        27.4161 E_angle  =        26.9641 
E_dihed  =        37.9298 E_impro  =         0.0000 E_vdwl   =        -3.3509 
E_coul   =         0.0000 E_long   =         0.0000 Press    =        -2.7993
------------ Step          21700 ----- CPU =     1.163053 (sec) -------------
TotEng   =       175.6697 KinEng   =        78.4847 Temp     =       265.9595 
PotEng   =        97.1850 E_bond   =        30.4348 E_angle  =        32.7292 
E_dihed  =        37.0596 E_impro  =         0.0000 E_vdwl   =        -3.0387 
E_coul   =         0.0000 E_long   =         0.0000 Press    =         1.2293
------------ Step          21720 ----- CPU =     1.163954 (sec) -------------
TotEng   =       177.5020 KinEng   =        89.9582 Temp     =       304.8396 
PotEng   =        87.5437 E_bond   =        27.6883 E_angle  =        30.4133 
E_dihed  =        32.6762 E_impro  =         0.0000 E_vdwl   =        -3.2341 
E_coul   =         0.0000 E_long   =         0.0000 Press    =        -3.1758
------------ Step          21740 ----- CPU =     1.164886 (sec) -------------
TotEng   =       179.4438 KinEng   =        83.9298 Temp     =       284.4113 
PotEng   =        95.5139 E_bond   =        34.5718 E_angle  =        30.3729 
E_dihed  =        34.2062 E_impro  =         0.0000 E_vdwl   =        -3.6369 
E_coul   =         0.0000 E_long   =         0.0000 Press    =         1.0439
------------ Step          21760 ----- CPU =     1.165772 (sec) -------------
TotEng   =       181.1768 KinEng   =        95.5185 Temp     =       323.6816 
PotEng   =        85.6583 E_bond   =        27.4988 E_angle  =        26.3783 
E_dihed  =        34.9885 E_impro  =         0.0000 E_vdwl   =        -3.2074 
E_coul   =         0.0000 E_long   =         0.0000 Press    =         4.2383
------------ Step          21780 ----- CPU =     1.166583 (sec) -------------
TotEng   =       182.6751 KinEng   =        88.1270 Temp     =       298.6341 
PotEng   =        94.5481 E_bond   =        34.0494 E_angle  =        31.2601 
E_dihed  =        33.1234 E_impro  =         0.0000 E_vdwl   =        -3.8849 
E_coul   =         0.0000 E_long   =         0.0000 Press    =        -2.8618
------------ Step          21800 ----- CPU =     1.167388 (sec) -------------
TotEng   =       183.5895 KinEng   =        95.6997 Temp     =       324.2956 
PotEng   =        87.8898 E_bond   =        32.0508 E_angle  =        27.5375 
E_dihed  =        32.3041 E_impro  =         0.0000 E_vdwl   =        -4.0026 
E_coul   =         0.0000 E_long   =         0.0000 Press    =         3.0350
------------ Step          21820 ----- CPU =     1.168394 (sec) -------------
TotEng   =       184.0674 KinEng   =        91.0848 Temp     =       308.6572 
PotEng   =        92.9826 E_bond   =        33.0134 E_angle  =        30.8850 
E_dihed  =        33.3383 E_impro  =         0.0000 E_vdwl   =        -4.2541 
E_coul   =         0.0000 E_long   =         0.0000 Press    =         0.2912
------------ Step          21840 ----- CPU =      1.16928 (sec) -------------
TotEng   =       184.0568 KinEng   =        98.9772 Temp     =       335.4021 
PotEng   =        85.0795 E_bond   =        26.5630 E_angle  =        31.3829 
E_dihed  =        31.1346 E_impro  =         0.0000 E_vdwl   =        -4.0009 
E_coul   =         0.0000 E_long   =         0.0000 Press    =        -3.8205
------------ Step          21860 ----- CPU =     1.170136 (sec) -------------
TotEng   =       183.7632 KinEng   =        87.6909 Temp     =       297.1564 
PotEng   =        96.0723 E_bond   =        30.1446 E_angle  =        38.6963 
E_dihed  =        31.9748 E_impro  =         0.0000 E_vdwl   =        -4.7433 
E_coul   =         0.0000 E_long   =         0.0000 Press    =         1.5394
------------ Step          21880 ----- CPU =     1.172549 (sec) -------------
TotEng   =       183.1768 KinEng   =        96.9799 Temp     =       328.6339 
PotEng   =        86.1968 E_bond   =        29.9621 E_angle  =        24.6389 
E_dihed  =        36.1767 E_impro  =         0.0000 E_vdwl   =        -4.5809 
E_coul   =         0.0000 E_long   =         0.0000 Press    =        -1.8189
------------ Step          21900 ----- CPU =     1.173923 (sec) -------------
TotEng   =       182.4750 KinEng   =        82.8894 Temp     =       280.8857 
PotEng   =        99.5856 E_bond   =        34.5248 E_angle  =        30.3837 
E_dihed  =        38.7028 E_impro  =         0.0000 E_vdwl   =        -4.0258 
E_coul   =         0.0000 E_long   =         0.0000 Press    =        -1.3046
------------ Step          21920 ----- CPU =     1.174935 (sec) -------------
TotEng   =       181.4775 KinEng   =        92.6694 Temp     =       314.0268 
PotEng   =        88.8082 E_bond   =        27.9393 E_angle  =        25.5176 
E_dihed  =        40.2948 E_impro  =         0.0000 E_vdwl   =        -4.9435 
E_coul   =         0.0000 E_long   =         0.0000 Press    =         1.4671
------------ Step          21940 ----- CPU =     1.175986 (sec) -------------
TotEng   =       180.2003 KinEng   =        87.4462 Temp     =       296.3270 
PotEng   =        92.7541 E_bond   =        28.0982 E_angle  =        30.5279 
E_dihed  =        38.7088 E_impro  =         0.0000 E_vdwl   =        -4.5808 
E_coul   =         0.0000 E_long   =         0.0000 Press    =         0.1007
------------ Step          21960 ----- CPU =     1.176828 (sec) -------------
TotEng   =       178.7867 KinEng   =        91.9815 Temp     =       311.6959 
PotEng   =        86.8052 E_bond   =        27.2363 E_angle  =        31.4218 
E_dihed  =        32.7130 E_impro  =         0.0000 E_vdwl   =        -4.5660 
E_coul   =         0.0000 E_long   =         0.0000 Press    =         0.3210
------------ Step          21980 ----- CPU =     1.177932 (sec) -------------
TotEng   =       176.9840 KinEng   =        79.4126 Temp     =       269.1038 
PotEng   =        97.5714 E_bond   =        37.4548 E_angle  =        34.4826 
E_dihed  =        30.4214 E_impro  =         0.0000 E_vdwl   =        -4.7875 
E_coul   =         0.0000 E_long   =         0.0000 Press    =         2.0401
------------ Step          22000 ----- CPU =     1.178832 (sec) -------------
TotEng   =       174.2409 KinEng   =        96.3728 Temp     =       326.5765 
PotEng   =        77.8681 E_bond   =        22.5654 E_angle  =        26.4140 
E_dihed  =        34.0116 E_impro  =         0.0000 E_vdwl   =        -5.1228 
E_coul   =         0.0000 E_long   =         0.0000 Press    =         1.2198
------------ Step          22020 ----- CPU =     1.179891 (sec) -------------
TotEng   =       170.6233 KinEng   =        79.5574 Temp     =       269.5945 
PotEng   =        91.0659 E_bond   =        28.6400 E_angle  =        28.8021 
E_dihed  =        37.8572 E_impro  =         0.0000 E_vdwl   =        -4.2333 
E_coul   =         0.0000 E_long   =         0.0000 Press    =        -2.2255
------------ Step          22040 ----- CPU =     1.181312 (sec) -------------
TotEng   =       167.2337 KinEng   =        77.5955 Temp     =       262.9462 
PotEng   =        89.6382 E_bond   =        29.5974 E_angle  =        26.2780 
E_dihed  =        38.0941 E_impro  =         0.0000 E_vdwl   =        -4.3312 
E_coul   =         0.0000 E_long   =         0.0000 Press    =         2.1278
------------ Step          22060 ----- CPU =     1.182194 (sec) -------------
TotEng   =       164.0342 KinEng   =        81.8715 Temp     =       277.4364 
PotEng   =        82.1626 E_bond   =        24.9445 E_angle  =        25.7789 
E_dihed  =        36.0876 E_impro  =         0.0000 E_vdwl   =        -4.6483 
E_coul   =         0.0000 E_long   =         0.0000 Press    =        -1.3367
------------ Step          22080 ----- CPU =     1.183034 (sec) -------------
TotEng   =       161.9484 KinEng   =        76.1456 Temp     =       258.0332 
PotEng   =        85.8027 E_bond   =        27.4818 E_angle  =        27.4288 
E_dihed  =        35.5354 E_impro  =         0.0000 E_vdwl   =        -4.6433 
E_coul   =         0.0000 E_long   =         0.0000 Press    =        -3.4532
------------ Step          22100 ----- CPU =     1.183869 (sec) -------------
TotEng   =       160.6141 KinEng   =        71.9109 Temp     =       243.6831 
PotEng   =        88.7032 E_bond   =        33.6386 E_angle  =        23.6127 
E_dihed  =        35.9982 E_impro  =         0.0000 E_vdwl   =        -4.5464 
E_coul   =         0.0000 E_long   =         0.0000 Press    =         2.3758
------------ Step          22120 ----- CPU =      1.18475 (sec) -------------
TotEng   =       160.0906 KinEng   =        75.5703 Temp     =       256.0835 
PotEng   =        84.5203 E_bond   =        25.1495 E_angle  =        26.0198 
E_dihed  =        38.0833 E_impro  =         0.0000 E_vdwl   =        -4.7323 
E_coul   =         0.0000 E_long   =         0.0000 Press    =        -3.0573
------------ Step          22140 ----- CPU =     1.185695 (sec) -------------
TotEng   =       160.8424 KinEng   =        73.6039 Temp     =       249.4202 
PotEng   =        87.2384 E_bond   =        27.5634 E_angle  =        27.6963 
E_dihed  =        36.0756 E_impro  =         0.0000 E_vdwl   =        -4.0969 
E_coul   =         0.0000 E_long   =         0.0000 Press    =        -0.9953
------------ Step          22160 ----- CPU =     1.186571 (sec) -------------
TotEng   =       162.4960 KinEng   =        75.5137 Temp     =       255.8917 
PotEng   =        86.9823 E_bond   =        30.0850 E_angle  =        29.6429 
E_dihed  =        32.3666 E_impro  =         0.0000 E_vdwl   =        -5.1122 
E_coul   =         0.0000 E_long   =         0.0000 Press    =         3.1778
------------ Step          22180 ----- CPU =     1.188753 (sec) -------------
TotEng   =       165.2472 KinEng   =        85.7891 Temp     =       290.7117 
PotEng   =        79.4581 E_bond   =        23.3438 E_angle  =        27.5448 
E_dihed  =        33.1444 E_impro  =         0.0000 E_vdwl   =        -4.5750 
E_coul   =         0.0000 E_long   =         0.0000 Press    =        -1.4411
------------ Step          22200 ----- CPU =      1.18963 (sec) -------------
TotEng   =       168.6869 KinEng   =        82.8277 Temp     =       280.6765 
PotEng   =        85.8592 E_bond   =        29.8049 E_angle  =        24.4217 
E_dihed  =        35.8141 E_impro  =         0.0000 E_vdwl   =        -4.1815 
E_coul   =         0.0000 E_long   =         0.0000 Press    =        -0.1473
------------ Step          22220 ----- CPU =     1.192579 (sec) -------------
TotEng   =       172.4349 KinEng   =        82.9456 Temp     =       281.0761 
PotEng   =        89.4892 E_bond   =        29.0864 E_angle  =        27.9228 
E_dihed  =        35.3944 E_impro  =         0.0000 E_vdwl   =        -2.9144 
E_coul   =         0.0000 E_long   =         0.0000 Press    =         2.2097
------------ Step          22240 ----- CPU =     1.193377 (sec) -------------
TotEng   =       175.7641 KinEng   =        90.7106 Temp     =       307.3891 
PotEng   =        85.0536 E_bond   =        27.2127 E_angle  =        28.9894 
E_dihed  =        33.2742 E_impro  =         0.0000 E_vdwl   =        -4.4227 
E_coul   =         0.0000 E_long   =         0.0000 Press    =         0.5433
------------ Step          22260 ----- CPU =     1.194328 (sec) -------------
TotEng   =       178.5324 KinEng   =        84.7112 Temp     =       287.0591 
PotEng   =        93.8212 E_bond   =        32.8646 E_angle  =        30.1358 
E_dihed  =        35.4350 E_impro  =         0.0000 E_vdwl   =        -4.6142 
E_coul   =         0.0000 E_long   =         0.0000 Press    =         0.7645
------------ Step          22280 ----- CPU =      1.19549 (sec) -------------
TotEng   =       180.3089 KinEng   =        83.8078 Temp     =       283.9979 
PotEng   =        96.5010 E_bond   =        29.9257 E_angle  =        31.8269 
E_dihed  =        37.6105 E_impro  =         0.0000 E_vdwl   =        -2.8621 
E_coul   =         0.0000 E_long   =         0.0000 Press    =         2.8364
------------ Step          22300 ----- CPU =     1.196357 (sec) -------------
TotEng   =       181.7447 KinEng   =        93.9663 Temp     =       318.4216 
PotEng   =        87.7785 E_bond   =        28.3060 E_angle  =        25.0709 
E_dihed  =        38.9220 E_impro  =         0.0000 E_vdwl   =        -4.5204 
E_coul   =         0.0000 E_long   =         0.0000 Press    =         0.7912
------------ Step          22320 ----- CPU =     1.197301 (sec) -------------
TotEng   =       182.6708 KinEng   =        84.4803 Temp     =       286.2768 
PotEng   =        98.1905 E_bond   =        34.8176 E_angle  =        24.7610 
E_dihed  =        42.6224 E_impro  =         0.0000 E_vdwl   =        -4.0106 
E_coul   =         0.0000 E_long   =         0.0000 Press    =        -1.0567
------------ Step          22340 ----- CPU =     1.198314 (sec) -------------
TotEng   =       183.3875 KinEng   =        87.4670 Temp     =       296.3977 
PotEng   =        95.9205 E_bond   =        30.4392 E_angle  =        28.6201 
E_dihed  =        40.6380 E_impro  =         0.0000 E_vdwl   =        -3.7768 
E_coul   =         0.0000 E_long   =         0.0000 Press    =         1.2470
------------ Step          22360 ----- CPU =     1.199133 (sec) -------------
TotEng   =       183.8440 KinEng   =        90.4618 Temp     =       306.5459 
PotEng   =        93.3823 E_bond   =        32.0991 E_angle  =        29.2083 
E_dihed  =        35.9488 E_impro  =         0.0000 E_vdwl   =        -3.8739 
E_coul   =         0.0000 E_long   =         0.0000 Press    =        -3.4907
------------ Step          22380 ----- CPU =     1.199954 (sec) -------------
TotEng   =       184.0339 KinEng   =        92.3138 Temp     =       312.8219 
PotEng   =        91.7201 E_bond   =        28.6260 E_angle  =        30.1615 
E_dihed  =        36.7520 E_impro  =         0.0000 E_vdwl   =        -3.8194 
E_coul   =         0.0000 E_long   =         0.0000 Press    =        -1.1542
------------ Step          22400 ----- CPU =     1.200898 (sec) -------------
TotEng   =       183.9518 KinEng   =        89.2994 Temp     =       302.6072 
PotEng   =        94.6524 E_bond   =        30.0414 E_angle  =        27.5208 
E_dihed  =        41.0984 E_impro  =         0.0000 E_vdwl   =        -4.0082 
E_coul   =         0.0000 E_long   =         0.0000 Press    =         1.0970
------------ Step          22420 ----- CPU =     1.201838 (sec) -------------
TotEng   =       184.0324 KinEng   =        79.8653 Temp     =       270.6378 
PotEng   =       104.1671 E_bond   =        35.3363 E_angle  =        30.1343 
E_dihed  =        42.9587 E_impro  =         0.0000 E_vdwl   =        -4.2621 
E_coul   =         0.0000 E_long   =         0.0000 Press    =        -2.8428
------------ Step          22440 ----- CPU =     1.202946 (sec) -------------
TotEng   =       184.2835 KinEng   =        87.2497 Temp     =       295.6613 
PotEng   =        97.0338 E_bond   =        33.0608 E_angle  =        26.6618 
E_dihed  =        40.3532 E_impro  =         0.0000 E_vdwl   =        -3.0420 
E_coul   =         0.0000 E_long   =         0.0000 Press    =         1.2264
------------ Step          22460 ----- CPU =     1.204963 (sec) -------------
TotEng   =       184.6249 KinEng   =        90.8733 Temp     =       307.9403 
PotEng   =        93.7517 E_bond   =        28.8634 E_angle  =        29.3997 
E_dihed  =        38.4039 E_impro  =         0.0000 E_vdwl   =        -2.9154 
E_coul   =         0.0000 E_long   =         0.0000 Press    =         0.9717
------------ Step          22480 ----- CPU =     1.206547 (sec) -------------
TotEng   =       184.8365 KinEng   =        88.9638 Temp     =       301.4699 
PotEng   =        95.8727 E_bond   =        31.0348 E_angle  =        29.9282 
E_dihed  =        37.6264 E_impro  =         0.0000 E_vdwl   =        -2.7167 
E_coul   =         0.0000 E_long   =         0.0000 Press    =        -2.3573
------------ Step          22500 ----- CPU =      1.20739 (sec) -------------
TotEng   =       184.7624 KinEng   =        94.0827 Temp     =       318.8163 
PotEng   =        90.6797 E_bond   =        26.2027 E_angle  =        28.8930 
E_dihed  =        38.4710 E_impro  =         0.0000 E_vdwl   =        -2.8870 
E_coul   =         0.0000 E_long   =         0.0000 Press    =        -0.5742
------------ Step          22520 ----- CPU =      1.20903 (sec) -------------
TotEng   =       184.2204 KinEng   =        92.5587 Temp     =       313.6518 
PotEng   =        91.6617 E_bond   =        32.3674 E_angle  =        25.8927 
E_dihed  =        36.6128 E_impro  =         0.0000 E_vdwl   =        -3.2112 
E_coul   =         0.0000 E_long   =         0.0000 Press    =        -1.3208
------------ Step          22540 ----- CPU =     1.209918 (sec) -------------
TotEng   =       183.0809 KinEng   =        84.5099 Temp     =       286.3769 
PotEng   =        98.5710 E_bond   =        31.0789 E_angle  =        34.6417 
E_dihed  =        35.8595 E_impro  =         0.0000 E_vdwl   =        -3.0090 
E_coul   =         0.0000 E_long   =         0.0000 Press    =        -1.1336
------------ Step          22560 ----- CPU =     1.210749 (sec) -------------
TotEng   =       181.5904 KinEng   =        86.3235 Temp     =       292.5226 
PotEng   =        95.2669 E_bond   =        30.4605 E_angle  =        25.6894 
E_dihed  =        42.4533 E_impro  =         0.0000 E_vdwl   =        -3.3363 
E_coul   =         0.0000 E_long   =         0.0000 Press    =         0.1136
------------ Step          22580 ----- CPU =     1.211852 (sec) -------------
TotEng   =       180.0997 KinEng   =        81.4435 Temp     =       275.9858 
PotEng   =        98.6562 E_bond   =        33.5086 E_angle  =        26.0849 
E_dihed  =        42.7980 E_impro  =         0.0000 E_vdwl   =        -3.7352 
E_coul   =         0.0000 E_long   =         0.0000 Press    =        -0.2843
------------ Step          22600 ----- CPU =     1.212769 (sec) -------------
TotEng   =       178.4227 KinEng   =        87.1951 Temp     =       295.4761 
PotEng   =        91.2276 E_bond   =        30.2537 E_angle  =        26.8793 
E_dihed  =        38.0464 E_impro  =         0.0000 E_vdwl   =        -3.9517 
E_coul   =         0.0000 E_long   =         0.0000 Press    =        -0.7072
------------ Step          22620 ----- CPU =     1.214139 (sec) -------------
TotEng   =       176.2873 KinEng   =        85.1991 Temp     =       288.7123 
PotEng   =        91.0882 E_bond   =        31.4913 E_angle  =        26.9390 
E_dihed  =        36.7965 E_impro  =         0.0000 E_vdwl   =        -4.1385 
E_coul   =         0.0000 E_long   =         0.0000 Press    =         0.1570
------------ Step          22640 ----- CPU =     1.215225 (sec) -------------
TotEng   =       173.8867 KinEng   =        84.8980 Temp     =       287.6922 
PotEng   =        88.9886 E_bond   =        29.8157 E_angle  =        25.8437 
E_dihed  =        37.7086 E_impro  =         0.0000 E_vdwl   =        -4.3793 
E_coul   =         0.0000 E_long   =         0.0000 Press    =         1.2972
------------ Step          22660 ----- CPU =     1.216089 (sec) -------------
TotEng   =       171.4856 KinEng   =        80.2036 Temp     =       271.7845 
PotEng   =        91.2819 E_bond   =        30.4609 E_angle  =        25.6845 
E_dihed  =        39.5689 E_impro  =         0.0000 E_vdwl   =        -4.4323 
E_coul   =         0.0000 E_long   =         0.0000 Press    =        -1.1033
------------ Step          22680 ----- CPU =     1.216926 (sec) -------------
TotEng   =       169.2606 KinEng   =        72.1823 Temp     =       244.6026 
PotEng   =        97.0784 E_bond   =        33.6951 E_angle  =        25.3196 
E_dihed  =        42.4553 E_impro  =         0.0000 E_vdwl   =        -4.3917 
E_coul   =         0.0000 E_long   =         0.0000 Press    =        -0.1419
------------ Step          22700 ----- CPU =     1.217751 (sec) -------------
TotEng   =       167.6843 KinEng   =        76.9526 Temp     =       260.7678 
PotEng   =        90.7316 E_bond   =        25.6578 E_angle  =        26.3719 
E_dihed  =        43.0173 E_impro  =         0.0000 E_vdwl   =        -4.3154 
E_coul   =         0.0000 E_long   =         0.0000 Press    =         2.3477
------------ Step          22720 ----- CPU =     1.218632 (sec) -------------
TotEng   =       166.9399 KinEng   =        73.9889 Temp     =       250.7247 
PotEng   =        92.9509 E_bond   =        27.1464 E_angle  =        29.6325 
E_dihed  =        40.4710 E_impro  =         0.0000 E_vdwl   =        -4.2990 
E_coul   =         0.0000 E_long   =         0.0000 Press    =         2.1102
------------ Step          22740 ----- CPU =     1.221723 (sec) -------------
TotEng   =       167.0137 KinEng   =        81.9613 Temp     =       277.7405 
PotEng   =        85.0524 E_bond   =        28.6790 E_angle  =        22.0224 
E_dihed  =        37.8308 E_impro  =         0.0000 E_vdwl   =        -3.4798 
E_coul   =         0.0000 E_long   =         0.0000 Press    =         1.3240
------------ Step          22760 ----- CPU =     1.222706 (sec) -------------
TotEng   =       167.7110 KinEng   =        85.6305 Temp     =       290.1744 
PotEng   =        82.0805 E_bond   =        29.0007 E_angle  =        21.1498 
E_dihed  =        35.7958 E_impro  =         0.0000 E_vdwl   =        -3.8659 
E_coul   =         0.0000 E_long   =         0.0000 Press    =         1.0591
------------ Step          22780 ----- CPU =     1.223555 (sec) -------------
TotEng   =       168.8534 KinEng   =        84.0729 Temp     =       284.8962 
PotEng   =        84.7805 E_bond   =        28.5006 E_angle  =        23.6053 
E_dihed  =        35.6193 E_impro  =         0.0000 E_vdwl   =        -2.9447 
E_coul   =         0.0000 E_long   =         0.0000 Press    =         0.8858
------------ Step          22800 ----- CPU =     1.224394 (sec) -------------
TotEng   =       170.5988 KinEng   =        84.0446 Temp     =       284.8001 
PotEng   =        86.5542 E_bond   =        28.5075 E_angle  =        24.2389 
E_dihed  =        37.2710 E_impro  =         0.0000 E_vdwl   =        -3.4632 
E_coul   =         0.0000 E_long   =         0.0000 Press    =        -2.0477
------------ Step          22820 ----- CPU =      1.22533 (sec) -------------
TotEng   =       173.0846 KinEng   =        85.2389 Temp     =       288.8474 
PotEng   =        87.8457 E_bond   =        25.4352 E_angle  =        29.2170 
E_dihed  =        35.7934 E_impro  =         0.0000 E_vdwl   =        -2.6000 
E_coul   =         0.0000 E_long   =         0.0000 Press    =        -0.9719
------------ Step          22840 ----- CPU =     1.226681 (sec) -------------
TotEng   =       176.5246 KinEng   =        86.3673 Temp     =       292.6711 
PotEng   =        90.1573 E_bond   =        29.1777 E_angle  =        31.6695 
E_dihed  =        31.5933 E_impro  =         0.0000 E_vdwl   =        -2.2832 
E_coul   =         0.0000 E_long   =         0.0000 Press    =         1.1723
------------ Step          22860 ----- CPU =     1.228761 (sec) -------------
TotEng   =       180.6259 KinEng   =        93.8073 Temp     =       317.8830 
PotEng   =        86.8186 E_bond   =        30.1019 E_angle  =        26.9537 
E_dihed  =        32.3766 E_impro  =         0.0000 E_vdwl   =        -2.6136 
E_coul   =         0.0000 E_long   =         0.0000 Press    =         1.3034
------------ Step          22880 ----- CPU =     1.229672 (sec) -------------
TotEng   =       184.3683 KinEng   =        88.7996 Temp     =       300.9133 
PotEng   =        95.5688 E_bond   =        27.7554 E_angle  =        36.6147 
E_dihed  =        33.9361 E_impro  =         0.0000 E_vdwl   =        -2.7374 
E_coul   =         0.0000 E_long   =         0.0000 Press    =         1.0789
------------ Step          22900 ----- CPU =     1.230515 (sec) -------------
TotEng   =       187.8574 KinEng   =        88.2616 Temp     =       299.0903 
PotEng   =        99.5958 E_bond   =        34.9680 E_angle  =        30.8489 
E_dihed  =        36.3815 E_impro  =         0.0000 E_vdwl   =        -2.6025 
E_coul   =         0.0000 E_long   =         0.0000 Press    =         1.3459
------------ Step          22920 ----- CPU =      1.23157 (sec) -------------
TotEng   =       190.5396 KinEng   =        88.9254 Temp     =       301.3396 
PotEng   =       101.6142 E_bond   =        30.9624 E_angle  =        31.8463 
E_dihed  =        41.5746 E_impro  =         0.0000 E_vdwl   =        -2.7692 
E_coul   =         0.0000 E_long   =         0.0000 Press    =         1.9981
------------ Step          22940 ----- CPU =     1.232426 (sec) -------------
TotEng   =       192.6371 KinEng   =        99.5707 Temp     =       337.4133 
PotEng   =        93.0664 E_bond   =        26.4125 E_angle  =        28.7885 
E_dihed  =        38.9174 E_impro  =         0.0000 E_vdwl   =        -1.0520 
E_coul   =         0.0000 E_long   =         0.0000 Press    =        -1.2786
------------ Step          22960 ----- CPU =     1.233263 (sec) -------------
TotEng   =       193.9660 KinEng   =        91.4343 Temp     =       309.8414 
PotEng   =       102.5318 E_bond   =        34.6423 E_angle  =        31.6830 
E_dihed  =        39.6790 E_impro  =         0.0000 E_vdwl   =        -3.4724 
E_coul   =         0.0000 E_long   =         0.0000 Press    =        -0.3800
------------ Step          22980 ----- CPU =     1.234151 (sec) -------------
TotEng   =       194.6202 KinEng   =        96.8663 Temp     =       328.2487 
PotEng   =        97.7540 E_bond   =        32.1984 E_angle  =        28.6822 
E_dihed  =        40.4683 E_impro  =         0.0000 E_vdwl   =        -3.5950 
E_coul   =         0.0000 E_long   =         0.0000 Press    =         0.0547
------------ Step          23000 ----- CPU =     1.235623 (sec) -------------
TotEng   =       194.2340 KinEng   =       104.1443 Temp     =       352.9118 
PotEng   =        90.0896 E_bond   =        24.3684 E_angle  =        28.2249 
E_dihed  =        39.7812 E_impro  =         0.0000 E_vdwl   =        -2.2849 
E_coul   =         0.0000 E_long   =         0.0000 Press    =        -2.9297
------------ Step          23020 ----- CPU =     1.236616 (sec) -------------
TotEng   =       193.3524 KinEng   =        94.5123 Temp     =       320.2720 
PotEng   =        98.8401 E_bond   =        31.0673 E_angle  =        31.3731 
E_dihed  =        39.2655 E_impro  =         0.0000 E_vdwl   =        -2.8659 
E_coul   =         0.0000 E_long   =         0.0000 Press    =         2.5023
------------ Step          23040 ----- CPU =      1.23864 (sec) -------------
TotEng   =       191.8606 KinEng   =       102.4204 Temp     =       347.0701 
PotEng   =        89.4402 E_bond   =        31.1190 E_angle  =        24.6564 
E_dihed  =        36.6044 E_impro  =         0.0000 E_vdwl   =        -2.9397 
E_coul   =         0.0000 E_long   =         0.0000 Press    =        -0.1637
------------ Step          23060 ----- CPU =     1.240208 (sec) -------------
TotEng   =       189.6114 KinEng   =       100.3124 Temp     =       339.9264 
PotEng   =        89.2991 E_bond   =        28.7131 E_angle  =        25.2810 
E_dihed  =        37.6495 E_impro  =         0.0000 E_vdwl   =        -2.3446 
E_coul   =         0.0000 E_long   =         0.0000 Press    =        -3.8531
------------ Step          23080 ----- CPU =      1.24125 (sec) -------------
TotEng   =       187.2205 KinEng   =        88.4406 Temp     =       299.6968 
PotEng   =        98.7799 E_bond   =        26.2911 E_angle  =        33.4446 
E_dihed  =        41.2697 E_impro  =         0.0000 E_vdwl   =        -2.2255 
E_coul   =         0.0000 E_long   =         0.0000 Press    =         0.3914
------------ Step          23100 ----- CPU =     1.242105 (sec) -------------
TotEng   =       185.5109 KinEng   =        85.9142 Temp     =       291.1356 
PotEng   =        99.5967 E_bond   =        30.1346 E_angle  =        30.8148 
E_dihed  =        40.8303 E_impro  =         0.0000 E_vdwl   =        -2.1830 
E_coul   =         0.0000 E_long   =         0.0000 Press    =        -3.5214
------------ Step          23120 ----- CPU =     1.243183 (sec) -------------
TotEng   =       183.9565 KinEng   =        95.1311 Temp     =       322.3687 
PotEng   =        88.8255 E_bond   =        27.3109 E_angle  =        25.5182 
E_dihed  =        38.1011 E_impro  =         0.0000 E_vdwl   =        -2.1047 
E_coul   =         0.0000 E_long   =         0.0000 Press    =        -3.0277
------------ Step          23140 ----- CPU =     1.244057 (sec) -------------
TotEng   =       182.4560 KinEng   =        92.5978 Temp     =       313.7842 
PotEng   =        89.8582 E_bond   =        30.2785 E_angle  =        23.6900 
E_dihed  =        38.2714 E_impro  =         0.0000 E_vdwl   =        -2.3817 
E_coul   =         0.0000 E_long   =         0.0000 Press    =         0.7462
------------ Step          23160 ----- CPU =     1.245146 (sec) -------------
TotEng   =       181.0524 KinEng   =        91.2474 Temp     =       309.2082 
PotEng   =        89.8050 E_bond   =        27.7607 E_angle  =        25.1198 
E_dihed  =        40.0112 E_impro  =         0.0000 E_vdwl   =        -3.0867 
E_coul   =         0.0000 E_long   =         0.0000 Press    =        -1.6212
------------ Step          23180 ----- CPU =     1.246216 (sec) -------------
TotEng   =       179.7684 KinEng   =        79.7900 Temp     =       270.3829 
PotEng   =        99.9784 E_bond   =        31.2489 E_angle  =        30.3478 
E_dihed  =        41.7621 E_impro  =         0.0000 E_vdwl   =        -3.3804 
E_coul   =         0.0000 E_long   =         0.0000 Press    =        -1.0015
------------ Step          23200 ----- CPU =     1.247119 (sec) -------------
TotEng   =       178.9781 KinEng   =        91.3394 Temp     =       309.5199 
PotEng   =        87.6387 E_bond   =        27.5360 E_angle  =        23.0573 
E_dihed  =        40.0949 E_impro  =         0.0000 E_vdwl   =        -3.0494 
E_coul   =         0.0000 E_long   =         0.0000 Press    =         0.2715
------------ Step          23220 ----- CPU =     1.248134 (sec) -------------
TotEng   =       178.5349 KinEng   =        79.1861 Temp     =       268.3364 
PotEng   =        99.3488 E_bond   =        31.7189 E_angle  =        33.8831 
E_dihed  =        36.8966 E_impro  =         0.0000 E_vdwl   =        -3.1499 
E_coul   =         0.0000 E_long   =         0.0000 Press    =         0.4523
------------ Step          23240 ----- CPU =     1.248996 (sec) -------------
TotEng   =       178.2053 KinEng   =        95.7411 Temp     =       324.4359 
PotEng   =        82.4642 E_bond   =        24.2637 E_angle  =        24.1098 
E_dihed  =        37.6970 E_impro  =         0.0000 E_vdwl   =        -3.6064 
E_coul   =         0.0000 E_long   =         0.0000 Press    =         0.7149
------------ Step          23260 ----- CPU =     1.249896 (sec) -------------
TotEng   =       178.0821 KinEng   =        79.9782 Temp     =       271.0205 
PotEng   =        98.1040 E_bond   =        36.1478 E_angle  =        25.2890 
E_dihed  =        40.2919 E_impro  =         0.0000 E_vdwl   =        -3.6247 
E_coul   =         0.0000 E_long   =         0.0000 Press    =         1.1621
------------ Step          23280 ----- CPU =     1.251014 (sec) -------------
TotEng   =       178.0414 KinEng   =        88.4484 Temp     =       299.7234 
PotEng   =        89.5929 E_bond   =        26.4830 E_angle  =        28.3149 
E_dihed  =        38.6589 E_impro  =         0.0000 E_vdwl   =        -3.8639 
E_coul   =         0.0000 E_long   =         0.0000 Press    =         2.4543
------------ Step          23300 ----- CPU =     1.252028 (sec) -------------
TotEng   =       178.1668 KinEng   =        85.0619 Temp     =       288.2476 
PotEng   =        93.1048 E_bond   =        29.6229 E_angle  =        30.8972 
E_dihed  =        36.4419 E_impro  =         0.0000 E_vdwl   =        -3.8572 
E_coul   =         0.0000 E_long   =         0.0000 Press    =         0.8577
------------ Step          23320 ----- CPU =     1.252972 (sec) -------------
TotEng   =       178.4681 KinEng   =        87.5682 Temp     =       296.7405 
PotEng   =        90.8999 E_bond   =        25.9255 E_angle  =        29.5220 
E_dihed  =        39.0146 E_impro  =         0.0000 E_vdwl   =        -3.5623 
E_coul   =         0.0000 E_long   =         0.0000 Press    =         1.9461
------------ Step          23340 ----- CPU =      1.25384 (sec) -------------
TotEng   =       179.0416 KinEng   =        77.8524 Temp     =       263.8167 
PotEng   =       101.1892 E_bond   =        31.9692 E_angle  =        32.0657 
E_dihed  =        41.3330 E_impro  =         0.0000 E_vdwl   =        -4.1787 
E_coul   =         0.0000 E_long   =         0.0000 Press    =         3.2174
------------ Step          23360 ----- CPU =      1.25471 (sec) -------------
TotEng   =       179.9127 KinEng   =        88.7730 Temp     =       300.8233 
PotEng   =        91.1397 E_bond   =        27.3991 E_angle  =        26.2178 
E_dihed  =        41.7512 E_impro  =         0.0000 E_vdwl   =        -4.2284 
E_coul   =         0.0000 E_long   =         0.0000 Press    =         1.8598
------------ Step          23380 ----- CPU =     1.256831 (sec) -------------
TotEng   =       180.9762 KinEng   =        85.1540 Temp     =       288.5597 
PotEng   =        95.8221 E_bond   =        32.2407 E_angle  =        30.0726 
E_dihed  =        37.6519 E_impro  =         0.0000 E_vdwl   =        -4.1431 
E_coul   =         0.0000 E_long   =         0.0000 Press    =         0.9198
------------ Step          23400 ----- CPU =     1.258186 (sec) -------------
TotEng   =       181.8245 KinEng   =       100.0758 Temp     =       339.1248 
PotEng   =        81.7487 E_bond   =        29.4508 E_angle  =        25.0763 
E_dihed  =        30.9420 E_impro  =         0.0000 E_vdwl   =        -3.7204 
E_coul   =         0.0000 E_long   =         0.0000 Press    =         0.1193
------------ Step          23420 ----- CPU =     1.259322 (sec) -------------
TotEng   =       181.7378 KinEng   =        92.6197 Temp     =       313.8585 
PotEng   =        89.1181 E_bond   =        32.4021 E_angle  =        29.2160 
E_dihed  =        31.5176 E_impro  =         0.0000 E_vdwl   =        -4.0175 
E_coul   =         0.0000 E_long   =         0.0000 Press    =        -0.2548
------------ Step          23440 ----- CPU =     1.260181 (sec) -------------
TotEng   =       181.1890 KinEng   =        93.5150 Temp     =       316.8925 
PotEng   =        87.6739 E_bond   =        26.4494 E_angle  =        31.2554 
E_dihed  =        34.4510 E_impro  =         0.0000 E_vdwl   =        -4.4819 
E_coul   =         0.0000 E_long   =         0.0000 Press    =        -2.4692
------------ Step          23460 ----- CPU =     1.261301 (sec) -------------
TotEng   =       180.3689 KinEng   =        88.8109 Temp     =       300.9516 
PotEng   =        91.5581 E_bond   =        33.5960 E_angle  =        24.8621 
E_dihed  =        36.8112 E_impro  =         0.0000 E_vdwl   =        -3.7112 
E_coul   =         0.0000 E_long   =         0.0000 Press    =        -1.4226
------------ Step          23480 ----- CPU =      1.26224 (sec) -------------
TotEng   =       179.6099 KinEng   =        82.3636 Temp     =       279.1038 
PotEng   =        97.2464 E_bond   =        34.5567 E_angle  =        32.7695 
E_dihed  =        33.5630 E_impro  =         0.0000 E_vdwl   =        -3.6429 
E_coul   =         0.0000 E_long   =         0.0000 Press    =         1.1633
------------ Step          23500 ----- CPU =     1.264149 (sec) -------------
TotEng   =       179.0681 KinEng   =        93.1329 Temp     =       315.5975 
PotEng   =        85.9352 E_bond   =        33.4427 E_angle  =        26.6881 
E_dihed  =        30.0345 E_impro  =         0.0000 E_vdwl   =        -4.2301 
E_coul   =         0.0000 E_long   =         0.0000 Press    =        -2.3834
------------ Step          23520 ----- CPU =     1.265149 (sec) -------------
TotEng   =       178.2022 KinEng   =        93.3055 Temp     =       316.1826 
PotEng   =        84.8967 E_bond   =        26.9486 E_angle  =        28.7664 
E_dihed  =        33.5828 E_impro  =         0.0000 E_vdwl   =        -4.4011 
E_coul   =         0.0000 E_long   =         0.0000 Press    =         0.0347
------------ Step          23540 ----- CPU =     1.266027 (sec) -------------
TotEng   =       177.4754 KinEng   =        86.3910 Temp     =       292.7514 
PotEng   =        91.0844 E_bond   =        30.6582 E_angle  =        30.5401 
E_dihed  =        33.9679 E_impro  =         0.0000 E_vdwl   =        -4.0817 
E_coul   =         0.0000 E_long   =         0.0000 Press    =         0.0208
------------ Step          23560 ----- CPU =     1.266897 (sec) -------------
TotEng   =       176.7337 KinEng   =        92.8484 Temp     =       314.6336 
PotEng   =        83.8853 E_bond   =        27.4707 E_angle  =        27.5640 
E_dihed  =        33.7442 E_impro  =         0.0000 E_vdwl   =        -4.8936 
E_coul   =         0.0000 E_long   =         0.0000 Press    =        -4.3868
------------ Step          23580 ----- CPU =     1.267911 (sec) -------------
TotEng   =       175.9454 KinEng   =        92.7598 Temp     =       314.3332 
PotEng   =        83.1856 E_bond   =        29.9270 E_angle  =        22.8778 
E_dihed  =        34.6182 E_impro  =         0.0000 E_vdwl   =        -4.2374 
E_coul   =         0.0000 E_long   =         0.0000 Press    =        -0.6311
------------ Step          23600 ----- CPU =     1.268804 (sec) -------------
TotEng   =       175.1944 KinEng   =        84.1498 Temp     =       285.1568 
PotEng   =        91.0446 E_bond   =        30.8953 E_angle  =        27.9245 
E_dihed  =        36.8601 E_impro  =         0.0000 E_vdwl   =        -4.6354 
E_coul   =         0.0000 E_long   =         0.0000 Press    =        -0.4225
------------ Step          23620 ----- CPU =     1.271352 (sec) -------------
TotEng   =       174.6291 KinEng   =        87.6614 Temp     =       297.0563 
PotEng   =        86.9678 E_bond   =        33.7655 E_angle  =        22.2250 
E_dihed  =        35.4697 E_impro  =         0.0000 E_vdwl   =        -4.4925 
E_coul   =         0.0000 E_long   =         0.0000 Press    =        -4.1001
------------ Step          23640 ----- CPU =     1.272355 (sec) -------------
TotEng   =       174.0171 KinEng   =        88.4281 Temp     =       299.6545 
PotEng   =        85.5890 E_bond   =        24.5644 E_angle  =        29.5008 
E_dihed  =        36.4357 E_impro  =         0.0000 E_vdwl   =        -4.9118 
E_coul   =         0.0000 E_long   =         0.0000 Press    =        -0.1607
------------ Step          23660 ----- CPU =     1.273587 (sec) -------------
TotEng   =       173.7095 KinEng   =        85.0229 Temp     =       288.1155 
PotEng   =        88.6865 E_bond   =        33.1583 E_angle  =        22.6636 
E_dihed  =        37.7203 E_impro  =         0.0000 E_vdwl   =        -4.8556 
E_coul   =         0.0000 E_long   =         0.0000 Press    =         0.4725
------------ Step          23680 ----- CPU =     1.274568 (sec) -------------
TotEng   =       173.4362 KinEng   =        82.5587 Temp     =       279.7651 
PotEng   =        90.8774 E_bond   =        32.1456 E_angle  =        27.0441 
E_dihed  =        36.1387 E_impro  =         0.0000 E_vdwl   =        -4.4510 
E_coul   =         0.0000 E_long   =         0.0000 Press    =        -1.7412
------------ Step          23700 ----- CPU =     1.275402 (sec) -------------
TotEng   =       173.4338 KinEng   =        86.3016 Temp     =       292.4484 
PotEng   =        87.1322 E_bond   =        31.2417 E_angle  =        28.0880 
E_dihed  =        32.3551 E_impro  =         0.0000 E_vdwl   =        -4.5527 
E_coul   =         0.0000 E_long   =         0.0000 Press    =         2.0874
------------ Step          23720 ----- CPU =     1.276518 (sec) -------------
TotEng   =       173.3443 KinEng   =        90.9690 Temp     =       308.2648 
PotEng   =        82.3753 E_bond   =        30.6320 E_angle  =        23.2313 
E_dihed  =        33.6653 E_impro  =         0.0000 E_vdwl   =        -5.1534 
E_coul   =         0.0000 E_long   =         0.0000 Press    =         2.5509
------------ Step          23740 ----- CPU =     1.277397 (sec) -------------
TotEng   =       172.9903 KinEng   =        81.9934 Temp     =       277.8493 
PotEng   =        90.9969 E_bond   =        28.6898 E_angle  =        29.4180 
E_dihed  =        37.1224 E_impro  =         0.0000 E_vdwl   =        -4.2333 
E_coul   =         0.0000 E_long   =         0.0000 Press    =        -1.2712
------------ Step          23760 ----- CPU =     1.278934 (sec) -------------
TotEng   =       173.1137 KinEng   =        79.8378 Temp     =       270.5446 
PotEng   =        93.2759 E_bond   =        31.4276 E_angle  =        27.9998 
E_dihed  =        38.1014 E_impro  =         0.0000 E_vdwl   =        -4.2528 
E_coul   =         0.0000 E_long   =         0.0000 Press    =         2.0350
------------ Step          23780 ----- CPU =     1.279821 (sec) -------------
TotEng   =       174.0103 KinEng   =        85.3039 Temp     =       289.0677 
PotEng   =        88.7063 E_bond   =        27.7492 E_angle  =        29.7005 
E_dihed  =        35.8315 E_impro  =         0.0000 E_vdwl   =        -4.5749 
E_coul   =         0.0000 E_long   =         0.0000 Press    =         1.4014
------------ Step          23800 ----- CPU =      1.28066 (sec) -------------
TotEng   =       175.8074 KinEng   =        90.7180 Temp     =       307.4142 
PotEng   =        85.0894 E_bond   =        26.2623 E_angle  =        30.2827 
E_dihed  =        33.3087 E_impro  =         0.0000 E_vdwl   =        -4.7643 
E_coul   =         0.0000 E_long   =         0.0000 Press    =        -1.2069
------------ Step          23820 ----- CPU =     1.281782 (sec) -------------
TotEng   =       178.8200 KinEng   =        86.5325 Temp     =       293.2310 
PotEng   =        92.2875 E_bond   =        33.4354 E_angle  =        26.8678 
E_dihed  =        36.5936 E_impro  =         0.0000 E_vdwl   =        -4.6094 
E_coul   =         0.0000 E_long   =         0.0000 Press    =         2.3832
------------ Step          23840 ----- CPU =     1.282639 (sec) -------------
TotEng   =       183.1412 KinEng   =        90.7506 Temp     =       307.5245 
PotEng   =        92.3906 E_bond   =        31.2693 E_angle  =        24.0248 
E_dihed  =        40.5327 E_impro  =         0.0000 E_vdwl   =        -3.4362 
E_coul   =         0.0000 E_long   =         0.0000 Press    =         1.1580
------------ Step          23860 ----- CPU =     1.283483 (sec) -------------
TotEng   =       188.5808 KinEng   =        90.1523 Temp     =       305.4972 
PotEng   =        98.4286 E_bond   =        29.3795 E_angle  =        29.9952 
E_dihed  =        42.5520 E_impro  =         0.0000 E_vdwl   =        -3.4981 
E_coul   =         0.0000 E_long   =         0.0000 Press    =         0.6897
------------ Step          23880 ----- CPU =     1.284831 (sec) -------------
TotEng   =       193.7725 KinEng   =       102.1655 Temp     =       346.2060 
PotEng   =        91.6070 E_bond   =        30.0426 E_angle  =        28.6070 
E_dihed  =        36.7554 E_impro  =         0.0000 E_vdwl   =        -3.7980 
E_coul   =         0.0000 E_long   =         0.0000 Press    =         3.5809
------------ Step          23900 ----- CPU =     1.285753 (sec) -------------
TotEng   =       197.4879 KinEng   =        98.4783 Temp     =       333.7114 
PotEng   =        99.0096 E_bond   =        37.2786 E_angle  =        31.9037 
E_dihed  =        33.5410 E_impro  =         0.0000 E_vdwl   =        -3.7138 
E_coul   =         0.0000 E_long   =         0.0000 Press    =         0.8936
------------ Step          23920 ----- CPU =     1.287867 (sec) -------------
TotEng   =       199.2746 KinEng   =       104.9313 Temp     =       355.5785 
PotEng   =        94.3433 E_bond   =        34.2875 E_angle  =        29.2061 
E_dihed  =        34.3408 E_impro  =         0.0000 E_vdwl   =        -3.4910 
E_coul   =         0.0000 E_long   =         0.0000 Press    =         1.8016
------------ Step          23940 ----- CPU =     1.288848 (sec) -------------
TotEng   =       199.3495 KinEng   =       104.7999 Temp     =       355.1334 
PotEng   =        94.5495 E_bond   =        35.7113 E_angle  =        27.4310 
E_dihed  =        35.1186 E_impro  =         0.0000 E_vdwl   =        -3.7114 
E_coul   =         0.0000 E_long   =         0.0000 Press    =         0.0235
------------ Step          23960 ----- CPU =     1.290875 (sec) -------------
TotEng   =       197.6796 KinEng   =       105.5964 Temp     =       357.8325 
PotEng   =        92.0832 E_bond   =        27.7890 E_angle  =        30.7197 
E_dihed  =        37.4229 E_impro  =         0.0000 E_vdwl   =        -3.8484 
E_coul   =         0.0000 E_long   =         0.0000 Press    =        -1.1882
------------ Step          23980 ----- CPU =     1.291863 (sec) -------------
TotEng   =       195.4170 KinEng   =        94.7682 Temp     =       321.1392 
PotEng   =       100.6488 E_bond   =        34.1333 E_angle  =        30.2076 
E_dihed  =        39.6701 E_impro  =         0.0000 E_vdwl   =        -3.3622 
E_coul   =         0.0000 E_long   =         0.0000 Press    =         0.6688
------------ Step          24000 ----- CPU =     1.292849 (sec) -------------
TotEng   =       192.8914 KinEng   =        91.1724 Temp     =       308.9540 
PotEng   =       101.7190 E_bond   =        34.5401 E_angle  =        28.3918 
E_dihed  =        42.1705 E_impro  =         0.0000 E_vdwl   =        -3.3834 
E_coul   =         0.0000 E_long   =         0.0000 Press    =        -2.1240
------------ Step          24020 ----- CPU =     1.293853 (sec) -------------
TotEng   =       190.1000 KinEng   =        96.3205 Temp     =       326.3993 
PotEng   =        93.7795 E_bond   =        26.3588 E_angle  =        32.8571 
E_dihed  =        37.7548 E_impro  =         0.0000 E_vdwl   =        -3.1911 
E_coul   =         0.0000 E_long   =         0.0000 Press    =        -1.1014
------------ Step          24040 ----- CPU =     1.294993 (sec) -------------
TotEng   =       187.4498 KinEng   =        97.4777 Temp     =       330.3208 
PotEng   =        89.9720 E_bond   =        27.0768 E_angle  =        31.4273 
E_dihed  =        35.0137 E_impro  =         0.0000 E_vdwl   =        -3.5458 
E_coul   =         0.0000 E_long   =         0.0000 Press    =        -0.6217
------------ Step          24060 ----- CPU =     1.296438 (sec) -------------
TotEng   =       184.8956 KinEng   =        88.1610 Temp     =       298.7494 
PotEng   =        96.7346 E_bond   =        33.0252 E_angle  =        31.4880 
E_dihed  =        36.0023 E_impro  =         0.0000 E_vdwl   =        -3.7809 
E_coul   =         0.0000 E_long   =         0.0000 Press    =        -2.6655
------------ Step          24080 ----- CPU =     1.297277 (sec) -------------
TotEng   =       182.5810 KinEng   =        92.0975 Temp     =       312.0887 
PotEng   =        90.4835 E_bond   =        25.8888 E_angle  =        29.9215 
E_dihed  =        38.1209 E_impro  =         0.0000 E_vdwl   =        -3.4476 
E_coul   =         0.0000 E_long   =         0.0000 Press    =        -1.5934
------------ Step          24100 ----- CPU =     1.298123 (sec) -------------
TotEng   =       180.8196 KinEng   =        91.2440 Temp     =       309.1967 
PotEng   =        89.5756 E_bond   =        34.6037 E_angle  =        20.3019 
E_dihed  =        37.8764 E_impro  =         0.0000 E_vdwl   =        -3.2063 
E_coul   =         0.0000 E_long   =         0.0000 Press    =        -0.7128
------------ Step          24120 ----- CPU =     1.299011 (sec) -------------
TotEng   =       179.0092 KinEng   =        85.1091 Temp     =       288.4075 
PotEng   =        93.9000 E_bond   =        33.8331 E_angle  =        28.7421 
E_dihed  =        34.6224 E_impro  =         0.0000 E_vdwl   =        -3.2976 
E_coul   =         0.0000 E_long   =         0.0000 Press    =        -0.9498
------------ Step          24140 ----- CPU =     1.299784 (sec) -------------
TotEng   =       177.5829 KinEng   =        89.2248 Temp     =       302.3541 
PotEng   =        88.3582 E_bond   =        27.8696 E_angle  =        25.2676 
E_dihed  =        38.5823 E_impro  =         0.0000 E_vdwl   =        -3.3613 
E_coul   =         0.0000 E_long   =         0.0000 Press    =        -2.5285
------------ Step          24160 ----- CPU =     1.300649 (sec) -------------
TotEng   =       176.4857 KinEng   =        82.6779 Temp     =       280.1688 
PotEng   =        93.8079 E_bond   =        27.6646 E_angle  =        28.8697 
E_dihed  =        40.8632 E_impro  =         0.0000 E_vdwl   =        -3.5897 
E_coul   =         0.0000 E_long   =         0.0000 Press    =        -0.6885
------------ Step          24180 ----- CPU =     1.301565 (sec) -------------
TotEng   =       175.8056 KinEng   =        86.9783 Temp     =       294.7416 
PotEng   =        88.8273 E_bond   =        28.6822 E_angle  =        26.4633 
E_dihed  =        37.6861 E_impro  =         0.0000 E_vdwl   =        -4.0043 
E_coul   =         0.0000 E_long   =         0.0000 Press    =        -0.9720
------------ Step          24200 ----- CPU =     1.302352 (sec) -------------
TotEng   =       175.2936 KinEng   =        86.6863 Temp     =       293.7520 
PotEng   =        88.6074 E_bond   =        26.6376 E_angle  =        27.4773 
E_dihed  =        38.3437 E_impro  =         0.0000 E_vdwl   =        -3.8512 
E_coul   =         0.0000 E_long   =         0.0000 Press    =        -3.8277
------------ Step          24220 ----- CPU =     1.303264 (sec) -------------
TotEng   =       175.0148 KinEng   =        84.2263 Temp     =       285.4158 
PotEng   =        90.7886 E_bond   =        33.7243 E_angle  =        22.0228 
E_dihed  =        40.0962 E_impro  =         0.0000 E_vdwl   =        -5.0547 
E_coul   =         0.0000 E_long   =         0.0000 Press    =         0.6446
------------ Step          24240 ----- CPU =     1.304078 (sec) -------------
TotEng   =       174.8554 KinEng   =        89.7532 Temp     =       304.1449 
PotEng   =        85.1022 E_bond   =        25.7000 E_angle  =        25.9546 
E_dihed  =        38.4125 E_impro  =         0.0000 E_vdwl   =        -4.9649 
E_coul   =         0.0000 E_long   =         0.0000 Press    =         0.3897
------------ Step          24260 ----- CPU =     1.305132 (sec) -------------
TotEng   =       174.8920 KinEng   =        89.9360 Temp     =       304.7644 
PotEng   =        84.9560 E_bond   =        28.1862 E_angle  =        25.2764 
E_dihed  =        36.4184 E_impro  =         0.0000 E_vdwl   =        -4.9250 
E_coul   =         0.0000 E_long   =         0.0000 Press    =        -0.8218
------------ Step          24280 ----- CPU =     1.306341 (sec) -------------
TotEng   =       175.1173 KinEng   =        81.1706 Temp     =       275.0613 
PotEng   =        93.9467 E_bond   =        31.1433 E_angle  =        30.0958 
E_dihed  =        37.6349 E_impro  =         0.0000 E_vdwl   =        -4.9273 
E_coul   =         0.0000 E_long   =         0.0000 Press    =         3.5429
------------ Step          24300 ----- CPU =     1.307277 (sec) -------------
TotEng   =       175.6829 KinEng   =        91.7907 Temp     =       311.0494 
PotEng   =        83.8922 E_bond   =        24.8978 E_angle  =        26.5653 
E_dihed  =        37.4240 E_impro  =         0.0000 E_vdwl   =        -4.9949 
E_coul   =         0.0000 E_long   =         0.0000 Press    =         3.0858
------------ Step          24320 ----- CPU =      1.30824 (sec) -------------
TotEng   =       176.5985 KinEng   =        81.5355 Temp     =       276.2975 
PotEng   =        95.0630 E_bond   =        32.0327 E_angle  =        30.3334 
E_dihed  =        38.2129 E_impro  =         0.0000 E_vdwl   =        -5.5159 
E_coul   =         0.0000 E_long   =         0.0000 Press    =         1.3609
------------ Step          24340 ----- CPU =     1.309117 (sec) -------------
TotEng   =       178.0504 KinEng   =        92.6791 Temp     =       314.0597 
PotEng   =        85.3713 E_bond   =        28.6316 E_angle  =        25.9999 
E_dihed  =        35.9201 E_impro  =         0.0000 E_vdwl   =        -5.1802 
E_coul   =         0.0000 E_long   =         0.0000 Press    =         5.1383
------------ Step          24360 ----- CPU =     1.310163 (sec) -------------
TotEng   =       180.0697 KinEng   =        87.3598 Temp     =       296.0342 
PotEng   =        92.7099 E_bond   =        32.0301 E_angle  =        27.0039 
E_dihed  =        38.8545 E_impro  =         0.0000 E_vdwl   =        -5.1786 
E_coul   =         0.0000 E_long   =         0.0000 Press    =         3.1049
------------ Step          24380 ----- CPU =     1.312146 (sec) -------------
TotEng   =       182.9255 KinEng   =        86.3016 Temp     =       292.4483 
PotEng   =        96.6239 E_bond   =        27.7221 E_angle  =        30.3760 
E_dihed  =        43.6426 E_impro  =         0.0000 E_vdwl   =        -5.1167 
E_coul   =         0.0000 E_long   =         0.0000 Press    =        -1.1496
------------ Step          24400 ----- CPU =     1.312999 (sec) -------------
TotEng   =       187.6270 KinEng   =        91.7108 Temp     =       310.7784 
PotEng   =        95.9162 E_bond   =        31.1859 E_angle  =        24.8795 
E_dihed  =        44.7992 E_impro  =         0.0000 E_vdwl   =        -4.9484 
E_coul   =         0.0000 E_long   =         0.0000 Press    =         4.6039
------------ Step          24420 ----- CPU =     1.313914 (sec) -------------
TotEng   =       193.4811 KinEng   =        88.9894 Temp     =       301.5566 
PotEng   =       104.4917 E_bond   =        33.5825 E_angle  =        28.3165 
E_dihed  =        46.6252 E_impro  =         0.0000 E_vdwl   =        -4.0326 
E_coul   =         0.0000 E_long   =         0.0000 Press    =         0.8125
------------ Step          24440 ----- CPU =     1.314717 (sec) -------------
TotEng   =       199.1922 KinEng   =        88.6338 Temp     =       300.3514 
PotEng   =       110.5584 E_bond   =        41.8120 E_angle  =        26.4386 
E_dihed  =        47.0979 E_impro  =         0.0000 E_vdwl   =        -4.7901 
E_coul   =         0.0000 E_long   =         0.0000 Press    =        -5.4456
------------ Step          24460 ----- CPU =     1.315773 (sec) -------------
TotEng   =       203.1962 KinEng   =       106.0230 Temp     =       359.2780 
PotEng   =        97.1731 E_bond   =        25.1631 E_angle  =        29.3795 
E_dihed  =        46.9134 E_impro  =         0.0000 E_vdwl   =        -4.2829 
E_coul   =         0.0000 E_long   =         0.0000 Press    =         4.4906
------------ Step          24480 ----- CPU =     1.316636 (sec) -------------
TotEng   =       205.6019 KinEng   =        98.9496 Temp     =       335.3085 
PotEng   =       106.6523 E_bond   =        33.5854 E_angle  =        29.6931 
E_dihed  =        46.7628 E_impro  =         0.0000 E_vdwl   =        -3.3890 
E_coul   =         0.0000 E_long   =         0.0000 Press    =        -2.1502
------------ Step          24500 ----- CPU =     1.317427 (sec) -------------
TotEng   =       206.6831 KinEng   =        94.3918 Temp     =       319.8635 
PotEng   =       112.2914 E_bond   =        42.0739 E_angle  =        26.4576 
E_dihed  =        47.0367 E_impro  =         0.0000 E_vdwl   =        -3.2769 
E_coul   =         0.0000 E_long   =         0.0000 Press    =        -5.6014
------------ Step          24520 ----- CPU =     1.318352 (sec) -------------
TotEng   =       206.4870 KinEng   =        97.5153 Temp     =       330.4480 
PotEng   =       108.9717 E_bond   =        31.5457 E_angle  =        33.7868 
E_dihed  =        46.4758 E_impro  =         0.0000 E_vdwl   =        -2.8366 
E_coul   =         0.0000 E_long   =         0.0000 Press    =         5.0275
------------ Step          24540 ----- CPU =     1.319123 (sec) -------------
TotEng   =       205.4859 KinEng   =       109.9450 Temp     =       372.5685 
PotEng   =        95.5408 E_bond   =        29.0043 E_angle  =        27.2066 
E_dihed  =        42.1469 E_impro  =         0.0000 E_vdwl   =        -2.8170 
E_coul   =         0.0000 E_long   =         0.0000 Press    =        -1.9066
------------ Step          24560 ----- CPU =     1.319895 (sec) -------------
TotEng   =       203.5079 KinEng   =        99.6067 Temp     =       337.5352 
PotEng   =       103.9012 E_bond   =        35.5913 E_angle  =        30.9146 
E_dihed  =        40.3120 E_impro  =         0.0000 E_vdwl   =        -2.9167 
E_coul   =         0.0000 E_long   =         0.0000 Press    =        -2.9245
------------ Step          24580 ----- CPU =     1.320698 (sec) -------------
TotEng   =       200.7069 KinEng   =        94.3502 Temp     =       319.7225 
PotEng   =       106.3567 E_bond   =        33.9929 E_angle  =        30.0101 
E_dihed  =        45.4036 E_impro  =         0.0000 E_vdwl   =        -3.0500 
E_coul   =         0.0000 E_long   =         0.0000 Press    =         2.5617
------------ Step          24600 ----- CPU =     1.321657 (sec) -------------
TotEng   =       197.5986 KinEng   =        92.7525 Temp     =       314.3086 
PotEng   =       104.8461 E_bond   =        38.6929 E_angle  =        26.3512 
E_dihed  =        42.5991 E_impro  =         0.0000 E_vdwl   =        -2.7971 
E_coul   =         0.0000 E_long   =         0.0000 Press    =        -4.2713
------------ Step          24620 ----- CPU =     1.322597 (sec) -------------
TotEng   =       194.3416 KinEng   =        98.6228 Temp     =       334.2010 
PotEng   =        95.7188 E_bond   =        31.7401 E_angle  =        31.1981 
E_dihed  =        36.2846 E_impro  =         0.0000 E_vdwl   =        -3.5041 
E_coul   =         0.0000 E_long   =         0.0000 Press    =        -3.6157
------------ Step          24640 ----- CPU =     1.323487 (sec) -------------
TotEng   =       190.7210 KinEng   =        97.9495 Temp     =       331.9195 
PotEng   =        92.7715 E_bond   =        31.4725 E_angle  =        28.9140 
E_dihed  =        35.8511 E_impro  =         0.0000 E_vdwl   =        -3.4660 
E_coul   =         0.0000 E_long   =         0.0000 Press    =         1.3394
------------ Step          24660 ----- CPU =     1.324644 (sec) -------------
TotEng   =       187.5030 KinEng   =        82.6082 Temp     =       279.9327 
PotEng   =       104.8948 E_bond   =        38.5166 E_angle  =        29.8734 
E_dihed  =        40.0045 E_impro  =         0.0000 E_vdwl   =        -3.4996 
E_coul   =         0.0000 E_long   =         0.0000 Press    =        -2.4924
------------ Step          24680 ----- CPU =     1.325492 (sec) -------------
TotEng   =       184.9870 KinEng   =        86.9108 Temp     =       294.5129 
PotEng   =        98.0762 E_bond   =        33.5573 E_angle  =        28.2559 
E_dihed  =        40.1480 E_impro  =         0.0000 E_vdwl   =        -3.8850 
E_coul   =         0.0000 E_long   =         0.0000 Press    =        -2.3465
------------ Step          24700 ----- CPU =     1.326533 (sec) -------------
TotEng   =       182.9848 KinEng   =        96.3194 Temp     =       326.3956 
PotEng   =        86.6654 E_bond   =        25.6115 E_angle  =        26.5837 
E_dihed  =        37.9012 E_impro  =         0.0000 E_vdwl   =        -3.4310 
E_coul   =         0.0000 E_long   =         0.0000 Press    =         2.5171
------------ Step          24720 ----- CPU =     1.327614 (sec) -------------
TotEng   =       181.5117 KinEng   =        80.3485 Temp     =       272.2752 
PotEng   =       101.1632 E_bond   =        31.4341 E_angle  =        33.8474 
E_dihed  =        39.8059 E_impro  =         0.0000 E_vdwl   =        -3.9242 
E_coul   =         0.0000 E_long   =         0.0000 Press    =        -3.7807
------------ Step          24740 ----- CPU =     1.328644 (sec) -------------
TotEng   =       180.5359 KinEng   =        90.4859 Temp     =       306.6276 
PotEng   =        90.0501 E_bond   =        28.0855 E_angle  =        24.9557 
E_dihed  =        40.4046 E_impro  =         0.0000 E_vdwl   =        -3.3958 
E_coul   =         0.0000 E_long   =         0.0000 Press    =        -1.5634
------------ Step          24760 ----- CPU =     1.329473 (sec) -------------
TotEng   =       179.7040 KinEng   =        88.4655 Temp     =       299.7813 
PotEng   =        91.2384 E_bond   =        26.0326 E_angle  =        29.0276 
E_dihed  =        39.7065 E_impro  =         0.0000 E_vdwl   =        -3.5282 
E_coul   =         0.0000 E_long   =         0.0000 Press    =         3.2839
------------ Step          24780 ----- CPU =     1.330266 (sec) -------------
TotEng   =       179.1777 KinEng   =        81.0224 Temp     =       274.5591 
PotEng   =        98.1553 E_bond   =        28.6920 E_angle  =        29.7911 
E_dihed  =        43.0026 E_impro  =         0.0000 E_vdwl   =        -3.3305 
E_coul   =         0.0000 E_long   =         0.0000 Press    =        -4.0216
------------ Step          24800 ----- CPU =     1.331099 (sec) -------------
TotEng   =       179.1537 KinEng   =        85.7703 Temp     =       290.6481 
PotEng   =        93.3834 E_bond   =        30.3622 E_angle  =        23.8722 
E_dihed  =        42.0565 E_impro  =         0.0000 E_vdwl   =        -2.9076 
E_coul   =         0.0000 E_long   =         0.0000 Press    =         2.1768
------------ Step          24820 ----- CPU =     1.332049 (sec) -------------
TotEng   =       179.4088 KinEng   =        89.7815 Temp     =       304.2409 
PotEng   =        89.6273 E_bond   =        29.8934 E_angle  =        27.4443 
E_dihed  =        35.3148 E_impro  =         0.0000 E_vdwl   =        -3.0253 
E_coul   =         0.0000 E_long   =         0.0000 Press    =         3.2700
------------ Step          24840 ----- CPU =     1.332819 (sec) -------------
TotEng   =       179.6610 KinEng   =        86.5271 Temp     =       293.2127 
PotEng   =        93.1338 E_bond   =        32.7665 E_angle  =        29.9704 
E_dihed  =        33.8635 E_impro  =         0.0000 E_vdwl   =        -3.4665 
E_coul   =         0.0000 E_long   =         0.0000 Press    =        -3.0972
------------ Step          24860 ----- CPU =     1.333699 (sec) -------------
TotEng   =       179.8000 KinEng   =        93.1136 Temp     =       315.5321 
PotEng   =        86.6864 E_bond   =        27.9055 E_angle  =        22.9109 
E_dihed  =        38.1558 E_impro  =         0.0000 E_vdwl   =        -2.2858 
E_coul   =         0.0000 E_long   =         0.0000 Press    =         3.8185
------------ Step          24880 ----- CPU =     1.334642 (sec) -------------
TotEng   =       179.7071 KinEng   =        82.7003 Temp     =       280.2447 
PotEng   =        97.0068 E_bond   =        27.7948 E_angle  =        28.7743 
E_dihed  =        44.0623 E_impro  =         0.0000 E_vdwl   =        -3.6245 
E_coul   =         0.0000 E_long   =         0.0000 Press    =         1.8541
------------ Step          24900 ----- CPU =     1.335435 (sec) -------------
TotEng   =       180.0691 KinEng   =        76.8244 Temp     =       260.3331 
PotEng   =       103.2448 E_bond   =        35.4515 E_angle  =        27.8187 
E_dihed  =        43.6410 E_impro  =         0.0000 E_vdwl   =        -3.6664 
E_coul   =         0.0000 E_long   =         0.0000 Press    =        -0.0664
------------ Step          24920 ----- CPU =      1.33644 (sec) -------------
TotEng   =       180.8269 KinEng   =        90.6747 Temp     =       307.2675 
PotEng   =        90.1522 E_bond   =        26.0811 E_angle  =        27.7704 
E_dihed  =        39.8570 E_impro  =         0.0000 E_vdwl   =        -3.5562 
E_coul   =         0.0000 E_long   =         0.0000 Press    =         3.7528
------------ Step          24940 ----- CPU =     1.338477 (sec) -------------
TotEng   =       182.2403 KinEng   =        90.3796 Temp     =       306.2676 
PotEng   =        91.8607 E_bond   =        27.5820 E_angle  =        27.5759 
E_dihed  =        40.3495 E_impro  =         0.0000 E_vdwl   =        -3.6467 
E_coul   =         0.0000 E_long   =         0.0000 Press    =         0.9836
------------ Step          24960 ----- CPU =     1.339635 (sec) -------------
TotEng   =       184.4301 KinEng   =        81.5189 Temp     =       276.2414 
PotEng   =       102.9112 E_bond   =        31.0377 E_angle  =        30.7613 
E_dihed  =        44.8135 E_impro  =         0.0000 E_vdwl   =        -3.7012 
E_coul   =         0.0000 E_long   =         0.0000 Press    =         0.2033
------------ Step          24980 ----- CPU =      1.34081 (sec) -------------
TotEng   =       187.7244 KinEng   =        87.7986 Temp     =       297.5213 
PotEng   =        99.9258 E_bond   =        36.8973 E_angle  =        23.6574 
E_dihed  =        42.8896 E_impro  =         0.0000 E_vdwl   =        -3.5185 
E_coul   =         0.0000 E_long   =         0.0000 Press    =         0.1502
------------ Step          25000 ----- CPU =     1.341653 (sec) -------------
TotEng   =       191.9518 KinEng   =        99.3299 Temp     =       336.5971 
PotEng   =        92.6219 E_bond   =        26.3125 E_angle  =        30.7497 
E_dihed  =        38.7527 E_impro  =         0.0000 E_vdwl   =        -3.1930 
E_coul   =         0.0000 E_long   =         0.0000 Press    =         0.7683
------------ Step          25020 ----- CPU =     1.342744 (sec) -------------
TotEng   =       196.5119 KinEng   =        96.8402 Temp     =       328.1605 
PotEng   =        99.6717 E_bond   =        33.3113 E_angle  =        25.5170 
E_dihed  =        44.1217 E_impro  =         0.0000 E_vdwl   =        -3.2783 
E_coul   =         0.0000 E_long   =         0.0000 Press    =        -2.0417
------------ Step          25040 ----- CPU =     1.343788 (sec) -------------
TotEng   =       200.3226 KinEng   =        93.6902 Temp     =       317.4861 
PotEng   =       106.6324 E_bond   =        34.6076 E_angle  =        30.8241 
E_dihed  =        44.9788 E_impro  =         0.0000 E_vdwl   =        -3.7781 
E_coul   =         0.0000 E_long   =         0.0000 Press    =        -1.7064
------------ Step          25060 ----- CPU =     1.344911 (sec) -------------
TotEng   =       203.2351 KinEng   =       107.2776 Temp     =       363.5294 
PotEng   =        95.9575 E_bond   =        34.4874 E_angle  =        20.8282 
E_dihed  =        44.6228 E_impro  =         0.0000 E_vdwl   =        -3.9810 
E_coul   =         0.0000 E_long   =         0.0000 Press    =         0.2112
------------ Step          25080 ----- CPU =     1.345797 (sec) -------------
TotEng   =       204.6311 KinEng   =        97.2523 Temp     =       329.5570 
PotEng   =       107.3787 E_bond   =        36.6898 E_angle  =        30.7805 
E_dihed  =        44.0822 E_impro  =         0.0000 E_vdwl   =        -4.1737 
E_coul   =         0.0000 E_long   =         0.0000 Press    =        -3.6870
------------ Step          25100 ----- CPU =     1.346602 (sec) -------------
TotEng   =       204.6973 KinEng   =       102.0883 Temp     =       345.9445 
PotEng   =       102.6091 E_bond   =        33.6651 E_angle  =        26.7181 
E_dihed  =        45.6083 E_impro  =         0.0000 E_vdwl   =        -3.3825 
E_coul   =         0.0000 E_long   =         0.0000 Press    =         1.7512
------------ Step          25120 ----- CPU =     1.347468 (sec) -------------
TotEng   =       203.9054 KinEng   =        91.9900 Temp     =       311.7248 
PotEng   =       111.9153 E_bond   =        33.1072 E_angle  =        32.7401 
E_dihed  =        50.2438 E_impro  =         0.0000 E_vdwl   =        -4.1758 
E_coul   =         0.0000 E_long   =         0.0000 Press    =        -0.9536
------------ Step          25140 ----- CPU =     1.348345 (sec) -------------
TotEng   =       202.7451 KinEng   =        94.6118 Temp     =       320.6089 
PotEng   =       108.1333 E_bond   =        34.4703 E_angle  =        27.2183 
E_dihed  =        50.3022 E_impro  =         0.0000 E_vdwl   =        -3.8575 
E_coul   =         0.0000 E_long   =         0.0000 Press    =        -4.5900
------------ Step          25160 ----- CPU =     1.349213 (sec) -------------
TotEng   =       201.2140 KinEng   =        94.1967 Temp     =       319.2024 
PotEng   =       107.0173 E_bond   =        31.7303 E_angle  =        29.5373 
E_dihed  =        48.9372 E_impro  =         0.0000 E_vdwl   =        -3.1875 
E_coul   =         0.0000 E_long   =         0.0000 Press    =         1.2960
------------ Step          25180 ----- CPU =     1.349996 (sec) -------------
TotEng   =       198.9184 KinEng   =        99.7014 Temp     =       337.8560 
PotEng   =        99.2171 E_bond   =        31.4979 E_angle  =        23.5460 
E_dihed  =        47.1936 E_impro  =         0.0000 E_vdwl   =        -3.0204 
E_coul   =         0.0000 E_long   =         0.0000 Press    =        -3.2267
------------ Step          25200 ----- CPU =      1.35077 (sec) -------------
TotEng   =       196.0829 KinEng   =        91.1962 Temp     =       309.0347 
PotEng   =       104.8867 E_bond   =        30.1142 E_angle  =        30.6365 
E_dihed  =        46.9999 E_impro  =         0.0000 E_vdwl   =        -2.8640 
E_coul   =         0.0000 E_long   =         0.0000 Press    =        -1.2270
------------ Step          25220 ----- CPU =     1.351748 (sec) -------------
TotEng   =       193.2960 KinEng   =        92.3976 Temp     =       313.1059 
PotEng   =       100.8984 E_bond   =        31.4681 E_angle  =        24.4971 
E_dihed  =        47.4930 E_impro  =         0.0000 E_vdwl   =        -2.5598 
E_coul   =         0.0000 E_long   =         0.0000 Press    =         3.5502
------------ Step          25240 ----- CPU =     1.352554 (sec) -------------
TotEng   =       190.4995 KinEng   =        89.5338 Temp     =       303.4013 
PotEng   =       100.9658 E_bond   =        30.0735 E_angle  =        25.2023 
E_dihed  =        47.0958 E_impro  =         0.0000 E_vdwl   =        -1.4058 
E_coul   =         0.0000 E_long   =         0.0000 Press    =        -1.2283
------------ Step          25260 ----- CPU =     1.353344 (sec) -------------
TotEng   =       188.1339 KinEng   =        87.2962 Temp     =       295.8188 
PotEng   =       100.8377 E_bond   =        27.6361 E_angle  =        27.8560 
E_dihed  =        48.4520 E_impro  =         0.0000 E_vdwl   =        -3.1064 
E_coul   =         0.0000 E_long   =         0.0000 Press    =         0.1689
------------ Step          25280 ----- CPU =     1.354226 (sec) -------------
TotEng   =       186.6857 KinEng   =        85.8240 Temp     =       290.8300 
PotEng   =       100.8617 E_bond   =        29.8664 E_angle  =        25.2677 
E_dihed  =        48.3263 E_impro  =         0.0000 E_vdwl   =        -2.5987 
E_coul   =         0.0000 E_long   =         0.0000 Press    =         3.0503
------------ Step          25300 ----- CPU =     1.355099 (sec) -------------
TotEng   =       185.8851 KinEng   =        84.1881 Temp     =       285.2867 
PotEng   =       101.6970 E_bond   =        31.0480 E_angle  =        26.0502 
E_dihed  =        47.1717 E_impro  =         0.0000 E_vdwl   =        -2.5730 
E_coul   =         0.0000 E_long   =         0.0000 Press    =        -0.3732
------------ Step          25320 ----- CPU =     1.356537 (sec) -------------
TotEng   =       185.5024 KinEng   =        85.3305 Temp     =       289.1577 
PotEng   =       100.1719 E_bond   =        32.2136 E_angle  =        24.8738 
E_dihed  =        45.8046 E_impro  =         0.0000 E_vdwl   =        -2.7201 
E_coul   =         0.0000 E_long   =         0.0000 Press    =        -0.9880
------------ Step          25340 ----- CPU =     1.357566 (sec) -------------
TotEng   =       185.2439 KinEng   =        90.8439 Temp     =       307.8410 
PotEng   =        94.3999 E_bond   =        32.0125 E_angle  =        21.7700 
E_dihed  =        43.5205 E_impro  =         0.0000 E_vdwl   =        -2.9031 
E_coul   =         0.0000 E_long   =         0.0000 Press    =         1.9481
------------ Step          25360 ----- CPU =     1.358477 (sec) -------------
TotEng   =       184.8733 KinEng   =        85.1630 Temp     =       288.5901 
PotEng   =        99.7103 E_bond   =        28.6139 E_angle  =        27.9581 
E_dihed  =        46.0419 E_impro  =         0.0000 E_vdwl   =        -2.9036 
E_coul   =         0.0000 E_long   =         0.0000 Press    =        -0.8718
------------ Step          25380 ----- CPU =     1.359378 (sec) -------------
TotEng   =       184.9407 KinEng   =        86.0940 Temp     =       291.7450 
PotEng   =        98.8467 E_bond   =        30.5110 E_angle  =        25.9338 
E_dihed  =        45.3358 E_impro  =         0.0000 E_vdwl   =        -2.9339 
E_coul   =         0.0000 E_long   =         0.0000 Press    =        -1.9118
------------ Step          25400 ----- CPU =     1.360415 (sec) -------------
TotEng   =       185.2705 KinEng   =        81.3471 Temp     =       275.6594 
PotEng   =       103.9234 E_bond   =        30.7204 E_angle  =        32.4067 
E_dihed  =        43.4826 E_impro  =         0.0000 E_vdwl   =        -2.6863 
E_coul   =         0.0000 E_long   =         0.0000 Press    =         2.9108
------------ Step          25420 ----- CPU =     1.361728 (sec) -------------
TotEng   =       185.7612 KinEng   =        86.5623 Temp     =       293.3321 
PotEng   =        99.1989 E_bond   =        29.2496 E_angle  =        28.1486 
E_dihed  =        44.1904 E_impro  =         0.0000 E_vdwl   =        -2.3897 
E_coul   =         0.0000 E_long   =         0.0000 Press    =        -0.1852
------------ Step          25440 ----- CPU =     1.362526 (sec) -------------
TotEng   =       186.5275 KinEng   =        80.1775 Temp     =       271.6957 
PotEng   =       106.3500 E_bond   =        31.6924 E_angle  =        33.0829 
E_dihed  =        42.5197 E_impro  =         0.0000 E_vdwl   =        -0.9450 
E_coul   =         0.0000 E_long   =         0.0000 Press    =        -1.1035
------------ Step          25460 ----- CPU =     1.363369 (sec) -------------
TotEng   =       187.4418 KinEng   =        89.2479 Temp     =       302.4324 
PotEng   =        98.1940 E_bond   =        27.4048 E_angle  =        31.9534 
E_dihed  =        41.1286 E_impro  =         0.0000 E_vdwl   =        -2.2928 
E_coul   =         0.0000 E_long   =         0.0000 Press    =         0.4299
------------ Step          25480 ----- CPU =     1.364162 (sec) -------------
TotEng   =       188.6182 KinEng   =        93.5066 Temp     =       316.8641 
PotEng   =        95.1116 E_bond   =        32.0663 E_angle  =        24.2640 
E_dihed  =        41.0308 E_impro  =         0.0000 E_vdwl   =        -2.2495 
E_coul   =         0.0000 E_long   =         0.0000 Press    =        -3.7279
------------ Step          25500 ----- CPU =     1.365089 (sec) -------------
TotEng   =       189.5529 KinEng   =        93.1944 Temp     =       315.8060 
PotEng   =        96.3584 E_bond   =        29.5440 E_angle  =        29.3290 
E_dihed  =        39.7661 E_impro  =         0.0000 E_vdwl   =        -2.2806 
E_coul   =         0.0000 E_long   =         0.0000 Press    =        -2.4304
------------ Step          25520 ----- CPU =     1.366348 (sec) -------------
TotEng   =       190.3226 KinEng   =        91.8523 Temp     =       311.2580 
PotEng   =        98.4703 E_bond   =        32.0930 E_angle  =        29.2134 
E_dihed  =        39.7916 E_impro  =         0.0000 E_vdwl   =        -2.6277 
E_coul   =         0.0000 E_long   =         0.0000 Press    =         0.5246
------------ Step          25540 ----- CPU =     1.367164 (sec) -------------
TotEng   =       190.5439 KinEng   =        87.0673 Temp     =       295.0431 
PotEng   =       103.4766 E_bond   =        33.0119 E_angle  =        32.4143 
E_dihed  =        41.2062 E_impro  =         0.0000 E_vdwl   =        -3.1558 
E_coul   =         0.0000 E_long   =         0.0000 Press    =        -1.0391
------------ Step          25560 ----- CPU =      1.36802 (sec) -------------
TotEng   =       190.5112 KinEng   =       101.4820 Temp     =       343.8900 
PotEng   =        89.0292 E_bond   =        25.8458 E_angle  =        26.7049 
E_dihed  =        40.0263 E_impro  =         0.0000 E_vdwl   =        -3.5478 
E_coul   =         0.0000 E_long   =         0.0000 Press    =        -0.0569
------------ Step          25580 ----- CPU =     1.368801 (sec) -------------
TotEng   =       189.9938 KinEng   =        87.8295 Temp     =       297.6260 
PotEng   =       102.1643 E_bond   =        32.5443 E_angle  =        35.7858 
E_dihed  =        38.2944 E_impro  =         0.0000 E_vdwl   =        -4.4602 
E_coul   =         0.0000 E_long   =         0.0000 Press    =         0.7279
------------ Step          25600 ----- CPU =     1.369667 (sec) -------------
TotEng   =       188.9053 KinEng   =        91.1606 Temp     =       308.9140 
PotEng   =        97.7447 E_bond   =        28.0214 E_angle  =        33.0472 
E_dihed  =        40.7413 E_impro  =         0.0000 E_vdwl   =        -4.0653 
E_coul   =         0.0000 E_long   =         0.0000 Press    =         0.6201
------------ Step          25620 ----- CPU =     1.370685 (sec) -------------
TotEng   =       187.4383 KinEng   =        87.2776 Temp     =       295.7558 
PotEng   =       100.1607 E_bond   =        30.8261 E_angle  =        28.9202 
E_dihed  =        45.2420 E_impro  =         0.0000 E_vdwl   =        -4.8275 
E_coul   =         0.0000 E_long   =         0.0000 Press    =         0.3113
------------ Step          25640 ----- CPU =     1.371564 (sec) -------------
TotEng   =       185.3410 KinEng   =        83.5773 Temp     =       283.2168 
PotEng   =       101.7636 E_bond   =        32.6444 E_angle  =        25.5090 
E_dihed  =        48.6865 E_impro  =         0.0000 E_vdwl   =        -5.0762 
E_coul   =         0.0000 E_long   =         0.0000 Press    =         1.6023
------------ Step          25660 ----- CPU =     1.372617 (sec) -------------
TotEng   =       182.7062 KinEng   =        84.8742 Temp     =       287.6114 
PotEng   =        97.8320 E_bond   =        25.1796 E_angle  =        29.8975 
E_dihed  =        48.0265 E_impro  =         0.0000 E_vdwl   =        -5.2717 
E_coul   =         0.0000 E_long   =         0.0000 Press    =         1.9108
------------ Step          25680 ----- CPU =     1.373586 (sec) -------------
TotEng   =       179.8535 KinEng   =        84.8503 Temp     =       287.5304 
PotEng   =        95.0032 E_bond   =        28.3906 E_angle  =        31.3247 
E_dihed  =        40.9478 E_impro  =         0.0000 E_vdwl   =        -5.6599 
E_coul   =         0.0000 E_long   =         0.0000 Press    =         0.2956
------------ Step          25700 ----- CPU =     1.374463 (sec) -------------
TotEng   =       176.6197 KinEng   =        86.2090 Temp     =       292.1346 
PotEng   =        90.4108 E_bond   =        26.0673 E_angle  =        34.2623 
E_dihed  =        35.2201 E_impro  =         0.0000 E_vdwl   =        -5.1390 
E_coul   =         0.0000 E_long   =         0.0000 Press    =         1.0998
------------ Step          25720 ----- CPU =     1.375365 (sec) -------------
TotEng   =       173.2174 KinEng   =        88.9892 Temp     =       301.5560 
PotEng   =        84.2282 E_bond   =        25.6139 E_angle  =        25.5528 
E_dihed  =        36.1451 E_impro  =         0.0000 E_vdwl   =        -3.0836 
E_coul   =         0.0000 E_long   =         0.0000 Press    =         2.6216
------------ Step          25740 ----- CPU =     1.376597 (sec) -------------
TotEng   =       170.0986 KinEng   =        83.3835 Temp     =       282.5599 
PotEng   =        86.7152 E_bond   =        27.1941 E_angle  =        24.9759 
E_dihed  =        38.8299 E_impro  =         0.0000 E_vdwl   =        -4.2847 
E_coul   =         0.0000 E_long   =         0.0000 Press    =        -0.7156
------------ Step          25760 ----- CPU =     1.377621 (sec) -------------
TotEng   =       167.6946 KinEng   =        76.3286 Temp     =       258.6532 
PotEng   =        91.3660 E_bond   =        29.5431 E_angle  =        26.6941 
E_dihed  =        39.3382 E_impro  =         0.0000 E_vdwl   =        -4.2094 
E_coul   =         0.0000 E_long   =         0.0000 Press    =         0.0903
------------ Step          25780 ----- CPU =     1.378994 (sec) -------------
TotEng   =       165.9427 KinEng   =        82.2765 Temp     =       278.8087 
PotEng   =        83.6662 E_bond   =        22.2218 E_angle  =        27.8061 
E_dihed  =        37.4875 E_impro  =         0.0000 E_vdwl   =        -3.8493 
E_coul   =         0.0000 E_long   =         0.0000 Press    =         1.3925
------------ Step          25800 ----- CPU =     1.380312 (sec) -------------
TotEng   =       164.9768 KinEng   =        78.1967 Temp     =       264.9836 
PotEng   =        86.7800 E_bond   =        26.0743 E_angle  =        22.6392 
E_dihed  =        41.0400 E_impro  =         0.0000 E_vdwl   =        -2.9734 
E_coul   =         0.0000 E_long   =         0.0000 Press    =        -3.0808
------------ Step          25820 ----- CPU =     1.381432 (sec) -------------
TotEng   =       164.7352 KinEng   =        78.3298 Temp     =       265.4345 
PotEng   =        86.4054 E_bond   =        26.4564 E_angle  =        23.5974 
E_dihed  =        40.5270 E_impro  =         0.0000 E_vdwl   =        -4.1754 
E_coul   =         0.0000 E_long   =         0.0000 Press    =        -0.2336
------------ Step          25840 ----- CPU =     1.382419 (sec) -------------
TotEng   =       165.1691 KinEng   =        83.6386 Temp     =       283.4243 
PotEng   =        81.5306 E_bond   =        22.8848 E_angle  =        25.1689 
E_dihed  =        37.4525 E_impro  =         0.0000 E_vdwl   =        -3.9756 
E_coul   =         0.0000 E_long   =         0.0000 Press    =         0.8321
------------ Step          25860 ----- CPU =     1.383225 (sec) -------------
TotEng   =       166.1378 KinEng   =        80.0935 Temp     =       271.4111 
PotEng   =        86.0443 E_bond   =        24.9709 E_angle  =        23.3497 
E_dihed  =        41.8058 E_impro  =         0.0000 E_vdwl   =        -4.0821 
E_coul   =         0.0000 E_long   =         0.0000 Press    =        -1.5887
------------ Step          25880 ----- CPU =     1.384014 (sec) -------------
TotEng   =       167.7137 KinEng   =        75.9010 Temp     =       257.2043 
PotEng   =        91.8126 E_bond   =        25.5892 E_angle  =        27.4227 
E_dihed  =        42.7128 E_impro  =         0.0000 E_vdwl   =        -3.9120 
E_coul   =         0.0000 E_long   =         0.0000 Press    =         1.4021
------------ Step          25900 ----- CPU =      1.38479 (sec) -------------
TotEng   =       170.3411 KinEng   =        76.8341 Temp     =       260.3663 
PotEng   =        93.5070 E_bond   =        30.8233 E_angle  =        26.3621 
E_dihed  =        39.7110 E_impro  =         0.0000 E_vdwl   =        -3.3895 
E_coul   =         0.0000 E_long   =         0.0000 Press    =         0.1329
------------ Step          25920 ----- CPU =     1.385801 (sec) -------------
TotEng   =       173.8905 KinEng   =        90.4940 Temp     =       306.6550 
PotEng   =        83.3966 E_bond   =        23.6389 E_angle  =        24.4808 
E_dihed  =        38.2331 E_impro  =         0.0000 E_vdwl   =        -2.9562 
E_coul   =         0.0000 E_long   =         0.0000 Press    =        -0.7043
------------ Step          25940 ----- CPU =     1.386605 (sec) -------------
TotEng   =       177.9682 KinEng   =        93.9056 Temp     =       318.2160 
PotEng   =        84.0626 E_bond   =        25.8500 E_angle  =        23.1996 
E_dihed  =        38.0066 E_impro  =         0.0000 E_vdwl   =        -2.9935 
E_coul   =         0.0000 E_long   =         0.0000 Press    =         1.3460
------------ Step          25960 ----- CPU =     1.387546 (sec) -------------
TotEng   =       181.6238 KinEng   =        77.8913 Temp     =       263.9487 
PotEng   =       103.7324 E_bond   =        31.9156 E_angle  =        35.8752 
E_dihed  =        38.8414 E_impro  =         0.0000 E_vdwl   =        -2.8998 
E_coul   =         0.0000 E_long   =         0.0000 Press    =        -2.6691
------------ Step          25980 ----- CPU =     1.388446 (sec) -------------
TotEng   =       184.2377 KinEng   =        91.8561 Temp     =       311.2708 
PotEng   =        92.3816 E_bond   =        32.0902 E_angle  =        27.5425 
E_dihed  =        35.4617 E_impro  =         0.0000 E_vdwl   =        -2.7129 
E_coul   =         0.0000 E_long   =         0.0000 Press    =        -2.9795
------------ Step          26000 ----- CPU =     1.389412 (sec) -------------
TotEng   =       186.0860 KinEng   =       107.9589 Temp     =       365.8380 
PotEng   =        78.1272 E_bond   =        25.0980 E_angle  =        22.2262 
E_dihed  =        33.4849 E_impro  =         0.0000 E_vdwl   =        -2.6820 
E_coul   =         0.0000 E_long   =         0.0000 Press    =         3.2170
------------ Step          26020 ----- CPU =     1.391013 (sec) -------------
TotEng   =       186.5423 KinEng   =        89.5893 Temp     =       303.5896 
PotEng   =        96.9530 E_bond   =        38.5037 E_angle  =        23.8007 
E_dihed  =        36.9973 E_impro  =         0.0000 E_vdwl   =        -2.3488 
E_coul   =         0.0000 E_long   =         0.0000 Press    =        -0.6628
------------ Step          26040 ----- CPU =     1.391871 (sec) -------------
TotEng   =       186.0738 KinEng   =        91.2958 Temp     =       309.3722 
PotEng   =        94.7780 E_bond   =        24.2813 E_angle  =        31.5731 
E_dihed  =        40.9398 E_impro  =         0.0000 E_vdwl   =        -2.0162 
E_coul   =         0.0000 E_long   =         0.0000 Press    =        -0.7851
------------ Step          26060 ----- CPU =     1.392741 (sec) -------------
TotEng   =       185.8973 KinEng   =        92.6067 Temp     =       313.8143 
PotEng   =        93.2907 E_bond   =        31.1501 E_angle  =        23.1364 
E_dihed  =        40.4217 E_impro  =         0.0000 E_vdwl   =        -1.4175 
E_coul   =         0.0000 E_long   =         0.0000 Press    =         3.7127
------------ Step          26080 ----- CPU =     1.393522 (sec) -------------
TotEng   =       185.6162 KinEng   =        84.4217 Temp     =       286.0781 
PotEng   =       101.1945 E_bond   =        31.3291 E_angle  =        31.2614 
E_dihed  =        39.5843 E_impro  =         0.0000 E_vdwl   =        -0.9803 
E_coul   =         0.0000 E_long   =         0.0000 Press    =        -2.2976
------------ Step          26100 ----- CPU =     1.394397 (sec) -------------
TotEng   =       185.1355 KinEng   =        89.7401 Temp     =       304.1006 
PotEng   =        95.3954 E_bond   =        31.7002 E_angle  =        24.2406 
E_dihed  =        40.2983 E_impro  =         0.0000 E_vdwl   =        -0.8437 
E_coul   =         0.0000 E_long   =         0.0000 Press    =        -2.3837
------------ Step          26120 ----- CPU =     1.396056 (sec) -------------
TotEng   =       184.7334 KinEng   =        87.8462 Temp     =       297.6826 
PotEng   =        96.8872 E_bond   =        30.8651 E_angle  =        24.6500 
E_dihed  =        42.1706 E_impro  =         0.0000 E_vdwl   =        -0.7985 
E_coul   =         0.0000 E_long   =         0.0000 Press    =         2.8631
------------ Step          26140 ----- CPU =     1.397017 (sec) -------------
TotEng   =       184.2938 KinEng   =        91.1020 Temp     =       308.7156 
PotEng   =        93.1918 E_bond   =        24.5158 E_angle  =        29.5005 
E_dihed  =        40.1837 E_impro  =         0.0000 E_vdwl   =        -1.0082 
E_coul   =         0.0000 E_long   =         0.0000 Press    =        -2.5079
------------ Step          26160 ----- CPU =     1.397825 (sec) -------------
TotEng   =       184.0201 KinEng   =        90.0471 Temp     =       305.1406 
PotEng   =        93.9730 E_bond   =        30.2889 E_angle  =        25.3568 
E_dihed  =        39.4761 E_impro  =         0.0000 E_vdwl   =        -1.1488 
E_coul   =         0.0000 E_long   =         0.0000 Press    =         0.4101
------------ Step          26180 ----- CPU =     1.398688 (sec) -------------
TotEng   =       183.4914 KinEng   =        92.7479 Temp     =       314.2930 
PotEng   =        90.7435 E_bond   =        30.2817 E_angle  =        21.3513 
E_dihed  =        40.3288 E_impro  =         0.0000 E_vdwl   =        -1.2182 
E_coul   =         0.0000 E_long   =         0.0000 Press    =         4.2453
------------ Step          26200 ----- CPU =     1.399467 (sec) -------------
TotEng   =       182.7251 KinEng   =        86.4539 Temp     =       292.9647 
PotEng   =        96.2712 E_bond   =        33.8897 E_angle  =        27.1735 
E_dihed  =        36.7372 E_impro  =         0.0000 E_vdwl   =        -1.5292 
E_coul   =         0.0000 E_long   =         0.0000 Press    =        -0.8769
------------ Step          26220 ----- CPU =     1.400355 (sec) -------------
TotEng   =       181.6931 KinEng   =        91.4805 Temp     =       309.9982 
PotEng   =        90.2126 E_bond   =        26.2688 E_angle  =        28.3648 
E_dihed  =        37.2214 E_impro  =         0.0000 E_vdwl   =        -1.6423 
E_coul   =         0.0000 E_long   =         0.0000 Press    =         3.0249
------------ Step          26240 ----- CPU =     1.401199 (sec) -------------
TotEng   =       180.7674 KinEng   =        88.5158 Temp     =       299.9517 
PotEng   =        92.2516 E_bond   =        27.6662 E_angle  =        27.0985 
E_dihed  =        39.3370 E_impro  =         0.0000 E_vdwl   =        -1.8500 
E_coul   =         0.0000 E_long   =         0.0000 Press    =         3.4104
------------ Step          26260 ----- CPU =     1.402067 (sec) -------------
TotEng   =       179.5366 KinEng   =        89.6114 Temp     =       303.6642 
PotEng   =        89.9252 E_bond   =        27.2353 E_angle  =        26.9323 
E_dihed  =        38.0464 E_impro  =         0.0000 E_vdwl   =        -2.2888 
E_coul   =         0.0000 E_long   =         0.0000 Press    =        -1.9330
------------ Step          26280 ----- CPU =       1.4029 (sec) -------------
TotEng   =       177.9926 KinEng   =        90.7458 Temp     =       307.5084 
PotEng   =        87.2468 E_bond   =        30.9606 E_angle  =        23.6736 
E_dihed  =        35.2107 E_impro  =         0.0000 E_vdwl   =        -2.5981 
E_coul   =         0.0000 E_long   =         0.0000 Press    =         2.8908
------------ Step          26300 ----- CPU =     1.403729 (sec) -------------
TotEng   =       175.7942 KinEng   =        74.8434 Temp     =       253.6203 
PotEng   =       100.9508 E_bond   =        29.9862 E_angle  =        34.3712 
E_dihed  =        38.9647 E_impro  =         0.0000 E_vdwl   =        -2.3712 
E_coul   =         0.0000 E_long   =         0.0000 Press    =         0.9087
------------ Step          26320 ----- CPU =     1.404815 (sec) -------------
TotEng   =       173.9270 KinEng   =        82.7110 Temp     =       280.2811 
PotEng   =        91.2159 E_bond   =        22.8936 E_angle  =        30.2301 
E_dihed  =        40.8241 E_impro  =         0.0000 E_vdwl   =        -2.7318 
E_coul   =         0.0000 E_long   =         0.0000 Press    =        -2.6222
------------ Step          26340 ----- CPU =     1.405999 (sec) -------------
TotEng   =       172.2932 KinEng   =        83.1425 Temp     =       281.7433 
PotEng   =        89.1507 E_bond   =        29.0375 E_angle  =        23.3122 
E_dihed  =        39.9083 E_impro  =         0.0000 E_vdwl   =        -3.1073 
E_coul   =         0.0000 E_long   =         0.0000 Press    =         2.8166
------------ Step          26360 ----- CPU =     1.407302 (sec) -------------
TotEng   =       170.5651 KinEng   =        82.0344 Temp     =       277.9884 
PotEng   =        88.5307 E_bond   =        27.7896 E_angle  =        24.4207 
E_dihed  =        39.7335 E_impro  =         0.0000 E_vdwl   =        -3.4131 
E_coul   =         0.0000 E_long   =         0.0000 Press    =        -1.5186
------------ Step          26380 ----- CPU =     1.408112 (sec) -------------
TotEng   =       169.1014 KinEng   =        78.1935 Temp     =       264.9726 
PotEng   =        90.9079 E_bond   =        25.4681 E_angle  =        27.8264 
E_dihed  =        41.3929 E_impro  =         0.0000 E_vdwl   =        -3.7795 
E_coul   =         0.0000 E_long   =         0.0000 Press    =        -3.5304
------------ Step          26400 ----- CPU =     1.409005 (sec) -------------
TotEng   =       168.1070 KinEng   =        78.3426 Temp     =       265.4781 
PotEng   =        89.7644 E_bond   =        28.9190 E_angle  =        24.0233 
E_dihed  =        41.5078 E_impro  =         0.0000 E_vdwl   =        -4.6857 
E_coul   =         0.0000 E_long   =         0.0000 Press    =         2.3428
------------ Step          26420 ----- CPU =     1.410016 (sec) -------------
TotEng   =       167.4619 KinEng   =        80.5254 Temp     =       272.8746 
PotEng   =        86.9366 E_bond   =        29.0873 E_angle  =        23.2582 
E_dihed  =        39.9200 E_impro  =         0.0000 E_vdwl   =        -5.3289 
E_coul   =         0.0000 E_long   =         0.0000 Press    =        -1.7306
------------ Step          26440 ----- CPU =     1.411004 (sec) -------------
TotEng   =       167.2776 KinEng   =        86.0496 Temp     =       291.5946 
PotEng   =        81.2280 E_bond   =        24.4044 E_angle  =        26.4540 
E_dihed  =        35.2961 E_impro  =         0.0000 E_vdwl   =        -4.9265 
E_coul   =         0.0000 E_long   =         0.0000 Press    =        -2.2142
------------ Step          26460 ----- CPU =     1.412224 (sec) -------------
TotEng   =       167.3648 KinEng   =        86.2859 Temp     =       292.3952 
PotEng   =        81.0789 E_bond   =        17.6418 E_angle  =        31.0046 
E_dihed  =        37.5405 E_impro  =         0.0000 E_vdwl   =        -5.1080 
E_coul   =         0.0000 E_long   =         0.0000 Press    =         0.0847
------------ Step          26480 ----- CPU =     1.413057 (sec) -------------
TotEng   =       168.3881 KinEng   =        73.2239 Temp     =       248.1325 
PotEng   =        95.1642 E_bond   =        34.5222 E_angle  =        26.2309 
E_dihed  =        39.6846 E_impro  =         0.0000 E_vdwl   =        -5.2734 
E_coul   =         0.0000 E_long   =         0.0000 Press    =        -4.5359
------------ Step          26500 ----- CPU =     1.413874 (sec) -------------
TotEng   =       169.9084 KinEng   =        81.3897 Temp     =       275.8035 
PotEng   =        88.5187 E_bond   =        28.4924 E_angle  =        25.6267 
E_dihed  =        39.8656 E_impro  =         0.0000 E_vdwl   =        -5.4660 
E_coul   =         0.0000 E_long   =         0.0000 Press    =        -2.3614
------------ Step          26520 ----- CPU =     1.415034 (sec) -------------
TotEng   =       172.8828 KinEng   =        88.2984 Temp     =       299.2149 
PotEng   =        84.5844 E_bond   =        28.6793 E_angle  =        23.3825 
E_dihed  =        38.3552 E_impro  =         0.0000 E_vdwl   =        -5.8325 
E_coul   =         0.0000 E_long   =         0.0000 Press    =         2.1049
------------ Step          26540 ----- CPU =     1.415825 (sec) -------------
TotEng   =       176.3347 KinEng   =        90.5425 Temp     =       306.8196 
PotEng   =        85.7922 E_bond   =        27.3685 E_angle  =        26.7159 
E_dihed  =        36.9022 E_impro  =         0.0000 E_vdwl   =        -5.1945 
E_coul   =         0.0000 E_long   =         0.0000 Press    =        -0.9410
------------ Step          26560 ----- CPU =     1.416688 (sec) -------------
TotEng   =       180.2010 KinEng   =        86.7618 Temp     =       294.0079 
PotEng   =        93.4392 E_bond   =        26.9779 E_angle  =        34.4498 
E_dihed  =        37.6624 E_impro  =         0.0000 E_vdwl   =        -5.6509 
E_coul   =         0.0000 E_long   =         0.0000 Press    =         0.5172
------------ Step          26580 ----- CPU =     1.417495 (sec) -------------
TotEng   =       183.6344 KinEng   =        90.7658 Temp     =       307.5763 
PotEng   =        92.8686 E_bond   =        30.9189 E_angle  =        27.2214 
E_dihed  =        39.5170 E_impro  =         0.0000 E_vdwl   =        -4.7888 
E_coul   =         0.0000 E_long   =         0.0000 Press    =         2.5741
------------ Step          26600 ----- CPU =     1.418401 (sec) -------------
TotEng   =       186.5218 KinEng   =        92.8115 Temp     =       314.5085 
PotEng   =        93.7103 E_bond   =        30.6022 E_angle  =        25.1048 
E_dihed  =        43.5893 E_impro  =         0.0000 E_vdwl   =        -5.5860 
E_coul   =         0.0000 E_long   =         0.0000 Press    =        -1.5635
------------ Step          26620 ----- CPU =     1.419316 (sec) -------------
TotEng   =       188.5569 KinEng   =        96.8806 Temp     =       328.2974 
PotEng   =        91.6763 E_bond   =        26.7321 E_angle  =        24.1665 
E_dihed  =        45.9479 E_impro  =         0.0000 E_vdwl   =        -5.1702 
E_coul   =         0.0000 E_long   =         0.0000 Press    =        -0.1864
------------ Step          26640 ----- CPU =      1.42014 (sec) -------------
TotEng   =       190.2747 KinEng   =        85.6084 Temp     =       290.0994 
PotEng   =       104.6663 E_bond   =        34.1525 E_angle  =        29.4323 
E_dihed  =        45.9880 E_impro  =         0.0000 E_vdwl   =        -4.9065 
E_coul   =         0.0000 E_long   =         0.0000 Press    =         0.6519
------------ Step          26660 ----- CPU =     1.420973 (sec) -------------
TotEng   =       191.5026 KinEng   =        95.3381 Temp     =       323.0702 
PotEng   =        96.1645 E_bond   =        31.3588 E_angle  =        23.8717 
E_dihed  =        45.5406 E_impro  =         0.0000 E_vdwl   =        -4.6066 
E_coul   =         0.0000 E_long   =         0.0000 Press    =        -1.4523
------------ Step          26680 ----- CPU =     1.423647 (sec) -------------
TotEng   =       192.2588 KinEng   =        91.1183 Temp     =       308.7707 
PotEng   =       101.1405 E_bond   =        27.9725 E_angle  =        30.5785 
E_dihed  =        47.4049 E_impro  =         0.0000 E_vdwl   =        -4.8154 
E_coul   =         0.0000 E_long   =         0.0000 Press    =         0.7711
------------ Step          26700 ----- CPU =     1.424857 (sec) -------------
TotEng   =       192.8373 KinEng   =        93.2394 Temp     =       315.9586 
PotEng   =        99.5978 E_bond   =        31.4287 E_angle  =        28.4443 
E_dihed  =        44.9056 E_impro  =         0.0000 E_vdwl   =        -5.1808 
E_coul   =         0.0000 E_long   =         0.0000 Press    =         0.8032
------------ Step          26720 ----- CPU =     1.425952 (sec) -------------
TotEng   =       193.0979 KinEng   =        91.7107 Temp     =       310.7781 
PotEng   =       101.3873 E_bond   =        31.3272 E_angle  =        33.2053 
E_dihed  =        42.6420 E_impro  =         0.0000 E_vdwl   =        -5.7872 
E_coul   =         0.0000 E_long   =         0.0000 Press    =        -0.0655
------------ Step          26740 ----- CPU =     1.427438 (sec) -------------
TotEng   =       193.0420 KinEng   =        96.2904 Temp     =       326.2975 
PotEng   =        96.7516 E_bond   =        29.7903 E_angle  =        28.8986 
E_dihed  =        43.9750 E_impro  =         0.0000 E_vdwl   =        -5.9123 
E_coul   =         0.0000 E_long   =         0.0000 Press    =         0.9664
------------ Step          26760 ----- CPU =     1.428477 (sec) -------------
TotEng   =       192.5969 KinEng   =        83.4719 Temp     =       282.8594 
PotEng   =       109.1251 E_bond   =        31.3799 E_angle  =        38.0157 
E_dihed  =        45.3963 E_impro  =         0.0000 E_vdwl   =        -5.6669 
E_coul   =         0.0000 E_long   =         0.0000 Press    =         0.4096
------------ Step          26780 ----- CPU =     1.429354 (sec) -------------
TotEng   =       192.1771 KinEng   =        93.5601 Temp     =       317.0453 
PotEng   =        98.6170 E_bond   =        26.4506 E_angle  =        35.2793 
E_dihed  =        42.7087 E_impro  =         0.0000 E_vdwl   =        -5.8216 
E_coul   =         0.0000 E_long   =         0.0000 Press    =        -0.7598
------------ Step          26800 ----- CPU =     1.430178 (sec) -------------
TotEng   =       191.4911 KinEng   =        87.1249 Temp     =       295.2383 
PotEng   =       104.3662 E_bond   =        30.9971 E_angle  =        36.4594 
E_dihed  =        42.7595 E_impro  =         0.0000 E_vdwl   =        -5.8498 
E_coul   =         0.0000 E_long   =         0.0000 Press    =         1.9198
------------ Step          26820 ----- CPU =     1.431199 (sec) -------------
TotEng   =       190.4499 KinEng   =        92.1335 Temp     =       312.2108 
PotEng   =        98.3164 E_bond   =        35.4957 E_angle  =        24.8534 
E_dihed  =        43.8618 E_impro  =         0.0000 E_vdwl   =        -5.8945 
E_coul   =         0.0000 E_long   =         0.0000 Press    =         2.0084
------------ Step          26840 ----- CPU =     1.432555 (sec) -------------
TotEng   =       188.6133 KinEng   =        86.1023 Temp     =       291.7730 
PotEng   =       102.5111 E_bond   =        36.9400 E_angle  =        25.7976 
E_dihed  =        44.8215 E_impro  =         0.0000 E_vdwl   =        -5.0481 
E_coul   =         0.0000 E_long   =         0.0000 Press    =        -1.8893
------------ Step          26860 ----- CPU =     1.433438 (sec) -------------
TotEng   =       185.5290 KinEng   =        90.4299 Temp     =       306.4379 
PotEng   =        95.0991 E_bond   =        24.5795 E_angle  =        28.1376 
E_dihed  =        48.1558 E_impro  =         0.0000 E_vdwl   =        -5.7738 
E_coul   =         0.0000 E_long   =         0.0000 Press    =        -0.1944
------------ Step          26880 ----- CPU =     1.434328 (sec) -------------
TotEng   =       181.9667 KinEng   =        84.0263 Temp     =       284.7383 
PotEng   =        97.9403 E_bond   =        30.8573 E_angle  =        25.9378 
E_dihed  =        46.5657 E_impro  =         0.0000 E_vdwl   =        -5.4204 
E_coul   =         0.0000 E_long   =         0.0000 Press    =         0.1384
------------ Step          26900 ----- CPU =     1.435145 (sec) -------------
TotEng   =       177.8979 KinEng   =        80.3800 Temp     =       272.3821 
PotEng   =        97.5179 E_bond   =        30.4720 E_angle  =        32.7976 
E_dihed  =        39.9755 E_impro  =         0.0000 E_vdwl   =        -5.7272 
E_coul   =         0.0000 E_long   =         0.0000 Press    =        -4.3816
------------ Step          26920 ----- CPU =     1.436088 (sec) -------------
TotEng   =       174.0142 KinEng   =        90.9305 Temp     =       308.1344 
PotEng   =        83.0837 E_bond   =        25.0492 E_angle  =        26.2432 
E_dihed  =        37.4475 E_impro  =         0.0000 E_vdwl   =        -5.6562 
E_coul   =         0.0000 E_long   =         0.0000 Press    =         0.4476
------------ Step          26940 ----- CPU =     1.438153 (sec) -------------
TotEng   =       170.5366 KinEng   =        81.8594 Temp     =       277.3953 
PotEng   =        88.6772 E_bond   =        23.5363 E_angle  =        31.4373 
E_dihed  =        39.5929 E_impro  =         0.0000 E_vdwl   =        -5.8893 
E_coul   =         0.0000 E_long   =         0.0000 Press    =        -0.3563
------------ Step          26960 ----- CPU =     1.439337 (sec) -------------
TotEng   =       168.1277 KinEng   =        81.7241 Temp     =       276.9369 
PotEng   =        86.4036 E_bond   =        26.3538 E_angle  =        24.6816 
E_dihed  =        41.2718 E_impro  =         0.0000 E_vdwl   =        -5.9037 
E_coul   =         0.0000 E_long   =         0.0000 Press    =        -3.7604
------------ Step          26980 ----- CPU =     1.440158 (sec) -------------
TotEng   =       166.4908 KinEng   =        75.1102 Temp     =       254.5244 
PotEng   =        91.3806 E_bond   =        29.7262 E_angle  =        26.5023 
E_dihed  =        40.4909 E_impro  =         0.0000 E_vdwl   =        -5.3389 
E_coul   =         0.0000 E_long   =         0.0000 Press    =         2.6821
------------ Step          27000 ----- CPU =     1.440973 (sec) -------------
TotEng   =       165.6869 KinEng   =        86.7503 Temp     =       293.9691 
PotEng   =        78.9366 E_bond   =        21.8821 E_angle  =        23.1137 
E_dihed  =        39.1638 E_impro  =         0.0000 E_vdwl   =        -5.2231 
E_coul   =         0.0000 E_long   =         0.0000 Press    =         0.9790
------------ Step          27020 ----- CPU =      1.44256 (sec) -------------
TotEng   =       165.6751 KinEng   =        80.4175 Temp     =       272.5092 
PotEng   =        85.2576 E_bond   =        27.9069 E_angle  =        24.6227 
E_dihed  =        37.9707 E_impro  =         0.0000 E_vdwl   =        -5.2428 
E_coul   =         0.0000 E_long   =         0.0000 Press    =        -2.0929
------------ Step          27040 ----- CPU =     1.443509 (sec) -------------
TotEng   =       165.9262 KinEng   =        80.6215 Temp     =       273.2004 
PotEng   =        85.3047 E_bond   =        28.4299 E_angle  =        22.0016 
E_dihed  =        39.7253 E_impro  =         0.0000 E_vdwl   =        -4.8521 
E_coul   =         0.0000 E_long   =         0.0000 Press    =         1.2178
------------ Step          27060 ----- CPU =     1.444563 (sec) -------------
TotEng   =       166.4377 KinEng   =        81.4562 Temp     =       276.0290 
PotEng   =        84.9815 E_bond   =        26.9602 E_angle  =        24.3221 
E_dihed  =        38.4471 E_impro  =         0.0000 E_vdwl   =        -4.7478 
E_coul   =         0.0000 E_long   =         0.0000 Press    =        -0.5666
------------ Step          27080 ----- CPU =     1.445427 (sec) -------------
TotEng   =       167.6336 KinEng   =        90.2788 Temp     =       305.9258 
PotEng   =        77.3548 E_bond   =        26.7731 E_angle  =        21.1784 
E_dihed  =        34.4425 E_impro  =         0.0000 E_vdwl   =        -5.0392 
E_coul   =         0.0000 E_long   =         0.0000 Press    =        -1.0397
------------ Step          27100 ----- CPU =     1.446301 (sec) -------------
TotEng   =       168.8394 KinEng   =        87.3453 Temp     =       295.9852 
PotEng   =        81.4941 E_bond   =        29.0067 E_angle  =        21.6076 
E_dihed  =        35.9595 E_impro  =         0.0000 E_vdwl   =        -5.0796 
E_coul   =         0.0000 E_long   =         0.0000 Press    =         0.3890
------------ Step          27120 ----- CPU =     1.447493 (sec) -------------
TotEng   =       170.0914 KinEng   =        82.1625 Temp     =       278.4222 
PotEng   =        87.9289 E_bond   =        26.2120 E_angle  =        25.7066 
E_dihed  =        40.9626 E_impro  =         0.0000 E_vdwl   =        -4.9522 
E_coul   =         0.0000 E_long   =         0.0000 Press    =         1.1709
------------ Step          27140 ----- CPU =      1.44841 (sec) -------------
TotEng   =       171.6996 KinEng   =        86.3747 Temp     =       292.6960 
PotEng   =        85.3250 E_bond   =        23.2439 E_angle  =        23.3401 
E_dihed  =        43.9368 E_impro  =         0.0000 E_vdwl   =        -5.1958 
E_coul   =         0.0000 E_long   =         0.0000 Press    =        -1.9844
------------ Step          27160 ----- CPU =     1.449253 (sec) -------------
TotEng   =       174.3639 KinEng   =        81.8070 Temp     =       277.2178 
PotEng   =        92.5569 E_bond   =        28.9634 E_angle  =        28.1810 
E_dihed  =        40.3691 E_impro  =         0.0000 E_vdwl   =        -4.9567 
E_coul   =         0.0000 E_long   =         0.0000 Press    =        -0.1577
------------ Step          27180 ----- CPU =     1.450075 (sec) -------------
TotEng   =       177.2972 KinEng   =        91.0723 Temp     =       308.6149 
PotEng   =        86.2249 E_bond   =        34.1733 E_angle  =        19.9345 
E_dihed  =        37.2671 E_impro  =         0.0000 E_vdwl   =        -5.1500 
E_coul   =         0.0000 E_long   =         0.0000 Press    =         2.3459
------------ Step          27200 ----- CPU =     1.450899 (sec) -------------
TotEng   =       180.6932 KinEng   =        95.2498 Temp     =       322.7711 
PotEng   =        85.4434 E_bond   =        25.1302 E_angle  =        26.8070 
E_dihed  =        38.6927 E_impro  =         0.0000 E_vdwl   =        -5.1866 
E_coul   =         0.0000 E_long   =         0.0000 Press    =        -0.8513
------------ Step          27220 ----- CPU =      1.45204 (sec) -------------
TotEng   =       183.9996 KinEng   =        93.4138 Temp     =       316.5495 
PotEng   =        90.5858 E_bond   =        28.2713 E_angle  =        27.4274 
E_dihed  =        40.3066 E_impro  =         0.0000 E_vdwl   =        -5.4195 
E_coul   =         0.0000 E_long   =         0.0000 Press    =         2.7187
------------ Step          27240 ----- CPU =     1.454479 (sec) -------------
TotEng   =       187.0998 KinEng   =        84.0242 Temp     =       284.7311 
PotEng   =       103.0756 E_bond   =        37.5626 E_angle  =        32.0153 
E_dihed  =        38.8244 E_impro  =         0.0000 E_vdwl   =        -5.3267 
E_coul   =         0.0000 E_long   =         0.0000 Press    =         0.6971
------------ Step          27260 ----- CPU =     1.456036 (sec) -------------
TotEng   =       189.7317 KinEng   =       101.7995 Temp     =       344.9658 
PotEng   =        87.9322 E_bond   =        24.8322 E_angle  =        30.0315 
E_dihed  =        37.6419 E_impro  =         0.0000 E_vdwl   =        -4.5734 
E_coul   =         0.0000 E_long   =         0.0000 Press    =        -2.0760
------------ Step          27280 ----- CPU =     1.457213 (sec) -------------
TotEng   =       191.6797 KinEng   =        87.7049 Temp     =       297.2036 
PotEng   =       103.9749 E_bond   =        31.4184 E_angle  =        34.4571 
E_dihed  =        42.6138 E_impro  =         0.0000 E_vdwl   =        -4.5144 
E_coul   =         0.0000 E_long   =         0.0000 Press    =         2.9703
------------ Step          27300 ----- CPU =     1.458006 (sec) -------------
TotEng   =       193.3204 KinEng   =        90.5726 Temp     =       306.9216 
PotEng   =       102.7478 E_bond   =        35.3901 E_angle  =        27.4101 
E_dihed  =        45.4008 E_impro  =         0.0000 E_vdwl   =        -5.4531 
E_coul   =         0.0000 E_long   =         0.0000 Press    =        -1.9025
------------ Step          27320 ----- CPU =     1.458979 (sec) -------------
TotEng   =       194.6431 KinEng   =        85.4087 Temp     =       289.4229 
PotEng   =       109.2343 E_bond   =        35.7170 E_angle  =        32.1095 
E_dihed  =        47.0197 E_impro  =         0.0000 E_vdwl   =        -5.6119 
E_coul   =         0.0000 E_long   =         0.0000 Press    =        -1.9191
------------ Step          27340 ----- CPU =     1.459858 (sec) -------------
TotEng   =       195.2975 KinEng   =       103.1724 Temp     =       349.6182 
PotEng   =        92.1251 E_bond   =        23.8983 E_angle  =        25.4218 
E_dihed  =        48.1788 E_impro  =         0.0000 E_vdwl   =        -5.3738 
E_coul   =         0.0000 E_long   =         0.0000 Press    =         2.6101
------------ Step          27360 ----- CPU =     1.460687 (sec) -------------
TotEng   =       195.7261 KinEng   =        87.5148 Temp     =       296.5595 
PotEng   =       108.2113 E_bond   =        36.2301 E_angle  =        33.3554 
E_dihed  =        44.0700 E_impro  =         0.0000 E_vdwl   =        -5.4442 
E_coul   =         0.0000 E_long   =         0.0000 Press    =        -2.9523
------------ Step          27380 ----- CPU =     1.462113 (sec) -------------
TotEng   =       195.4527 KinEng   =        98.8728 Temp     =       335.0483 
PotEng   =        96.5799 E_bond   =        30.4658 E_angle  =        30.3740 
E_dihed  =        41.2658 E_impro  =         0.0000 E_vdwl   =        -5.5258 
E_coul   =         0.0000 E_long   =         0.0000 Press    =         0.3789
------------ Step          27400 ----- CPU =     1.462971 (sec) -------------
TotEng   =       194.8486 KinEng   =        87.1281 Temp     =       295.2493 
PotEng   =       107.7205 E_bond   =        32.6829 E_angle  =        35.2650 
E_dihed  =        45.1630 E_impro  =         0.0000 E_vdwl   =        -5.3904 
E_coul   =         0.0000 E_long   =         0.0000 Press    =         2.6719
------------ Step          27420 ----- CPU =       1.4641 (sec) -------------
TotEng   =       194.4988 KinEng   =        94.0687 Temp     =       318.7687 
PotEng   =       100.4301 E_bond   =        27.7553 E_angle  =        33.5855 
E_dihed  =        44.3005 E_impro  =         0.0000 E_vdwl   =        -5.2112 
E_coul   =         0.0000 E_long   =         0.0000 Press    =         0.2674
------------ Step          27440 ----- CPU =      1.46499 (sec) -------------
TotEng   =       194.3468 KinEng   =        85.5207 Temp     =       289.8024 
PotEng   =       108.8261 E_bond   =        36.9531 E_angle  =        35.3089 
E_dihed  =        41.7530 E_impro  =         0.0000 E_vdwl   =        -5.1890 
E_coul   =         0.0000 E_long   =         0.0000 Press    =         3.6504
------------ Step          27460 ----- CPU =     1.465823 (sec) -------------
TotEng   =       193.8926 KinEng   =        97.7325 Temp     =       331.1841 
PotEng   =        96.1601 E_bond   =        25.0422 E_angle  =        33.5212 
E_dihed  =        42.0610 E_impro  =         0.0000 E_vdwl   =        -4.4642 
E_coul   =         0.0000 E_long   =         0.0000 Press    =         3.3169
------------ Step          27480 ----- CPU =     1.466822 (sec) -------------
TotEng   =       193.3912 KinEng   =        84.7182 Temp     =       287.0829 
PotEng   =       108.6730 E_bond   =        37.9395 E_angle  =        31.3767 
E_dihed  =        44.8226 E_impro  =         0.0000 E_vdwl   =        -5.4658 
E_coul   =         0.0000 E_long   =         0.0000 Press    =        -0.5651
------------ Step          27500 ----- CPU =     1.467694 (sec) -------------
TotEng   =       192.4799 KinEng   =        93.1277 Temp     =       315.5800 
PotEng   =        99.3522 E_bond   =        28.1874 E_angle  =        29.6062 
E_dihed  =        46.3009 E_impro  =         0.0000 E_vdwl   =        -4.7423 
E_coul   =         0.0000 E_long   =         0.0000 Press    =         0.5974
------------ Step          27520 ----- CPU =     1.468621 (sec) -------------
TotEng   =       191.4054 KinEng   =        89.7796 Temp     =       304.2342 
PotEng   =       101.6258 E_bond   =        32.3257 E_angle  =        28.7302 
E_dihed  =        44.7386 E_impro  =         0.0000 E_vdwl   =        -4.1687 
E_coul   =         0.0000 E_long   =         0.0000 Press    =        -0.0342
------------ Step          27540 ----- CPU =     1.469457 (sec) -------------
TotEng   =       190.2542 KinEng   =        87.5948 Temp     =       296.8307 
PotEng   =       102.6594 E_bond   =        28.1090 E_angle  =        34.6212 
E_dihed  =        43.5342 E_impro  =         0.0000 E_vdwl   =        -3.6050 
E_coul   =         0.0000 E_long   =         0.0000 Press    =        -0.6639
------------ Step          27560 ----- CPU =     1.471167 (sec) -------------
TotEng   =       189.1517 KinEng   =        90.9385 Temp     =       308.1616 
PotEng   =        98.2132 E_bond   =        30.5018 E_angle  =        32.1175 
E_dihed  =        39.6054 E_impro  =         0.0000 E_vdwl   =        -4.0115 
E_coul   =         0.0000 E_long   =         0.0000 Press    =        -0.0571
------------ Step          27580 ----- CPU =      1.47374 (sec) -------------
TotEng   =       187.5940 KinEng   =        95.5262 Temp     =       323.7077 
PotEng   =        92.0678 E_bond   =        27.9915 E_angle  =        30.9229 
E_dihed  =        37.6157 E_impro  =         0.0000 E_vdwl   =        -4.4624 
E_coul   =         0.0000 E_long   =         0.0000 Press    =        -0.8125
------------ Step          27600 ----- CPU =     1.474793 (sec) -------------
TotEng   =       185.3942 KinEng   =        95.7369 Temp     =       324.4217 
PotEng   =        89.6573 E_bond   =        28.2717 E_angle  =        24.9879 
E_dihed  =        40.8402 E_impro  =         0.0000 E_vdwl   =        -4.4424 
E_coul   =         0.0000 E_long   =         0.0000 Press    =        -1.4913
------------ Step          27620 ----- CPU =      1.47581 (sec) -------------
TotEng   =       182.9485 KinEng   =        78.5401 Temp     =       266.1472 
PotEng   =       104.4084 E_bond   =        34.9578 E_angle  =        30.9880 
E_dihed  =        42.1642 E_impro  =         0.0000 E_vdwl   =        -3.7016 
E_coul   =         0.0000 E_long   =         0.0000 Press    =         0.6238
------------ Step          27640 ----- CPU =     1.476951 (sec) -------------
TotEng   =       180.5986 KinEng   =        92.4284 Temp     =       313.2103 
PotEng   =        88.1701 E_bond   =        26.4292 E_angle  =        26.9705 
E_dihed  =        39.3489 E_impro  =         0.0000 E_vdwl   =        -4.5784 
E_coul   =         0.0000 E_long   =         0.0000 Press    =         0.1071
------------ Step          27660 ----- CPU =     1.477938 (sec) -------------
TotEng   =       178.2170 KinEng   =        87.9231 Temp     =       297.9434 
PotEng   =        90.2938 E_bond   =        24.7705 E_angle  =        29.6816 
E_dihed  =        40.2908 E_impro  =         0.0000 E_vdwl   =        -4.4491 
E_coul   =         0.0000 E_long   =         0.0000 Press    =         0.2022
------------ Step          27680 ----- CPU =     1.478813 (sec) -------------
TotEng   =       176.3840 KinEng   =        77.9808 Temp     =       264.2520 
PotEng   =        98.4032 E_bond   =        35.9064 E_angle  =        22.8074 
E_dihed  =        44.4022 E_impro  =         0.0000 E_vdwl   =        -4.7128 
E_coul   =         0.0000 E_long   =         0.0000 Press    =         1.5859
------------ Step          27700 ----- CPU =     1.479643 (sec) -------------
TotEng   =       175.0219 KinEng   =        79.4001 Temp     =       269.0614 
PotEng   =        95.6218 E_bond   =        29.3761 E_angle  =        24.4950 
E_dihed  =        46.9001 E_impro  =         0.0000 E_vdwl   =        -5.1494 
E_coul   =         0.0000 E_long   =         0.0000 Press    =         1.1108
------------ Step          27720 ----- CPU =     1.480566 (sec) -------------
TotEng   =       174.0843 KinEng   =        84.5242 Temp     =       286.4254 
PotEng   =        89.5601 E_bond   =        28.5609 E_angle  =        22.8244 
E_dihed  =        43.2750 E_impro  =         0.0000 E_vdwl   =        -5.1002 
E_coul   =         0.0000 E_long   =         0.0000 Press    =        -0.1888
------------ Step          27740 ----- CPU =     1.481552 (sec) -------------
TotEng   =       173.6934 KinEng   =        84.5167 Temp     =       286.4000 
PotEng   =        89.1767 E_bond   =        26.6319 E_angle  =        31.2279 
E_dihed  =        36.6523 E_impro  =         0.0000 E_vdwl   =        -5.3355 
E_coul   =         0.0000 E_long   =         0.0000 Press    =         1.9094
------------ Step          27760 ----- CPU =     1.483198 (sec) -------------
TotEng   =       173.5984 KinEng   =        90.1762 Temp     =       305.5782 
PotEng   =        83.4222 E_bond   =        30.6073 E_angle  =        25.0526 
E_dihed  =        33.0185 E_impro  =         0.0000 E_vdwl   =        -5.2562 
E_coul   =         0.0000 E_long   =         0.0000 Press    =        -0.0056
------------ Step          27780 ----- CPU =     1.484018 (sec) -------------
TotEng   =       173.4919 KinEng   =        78.7148 Temp     =       266.7392 
PotEng   =        94.7771 E_bond   =        36.0391 E_angle  =        27.0592 
E_dihed  =        36.8460 E_impro  =         0.0000 E_vdwl   =        -5.1672 
E_coul   =         0.0000 E_long   =         0.0000 Press    =        -2.5379
------------ Step          27800 ----- CPU =      1.48484 (sec) -------------
TotEng   =       173.6175 KinEng   =        84.6304 Temp     =       286.7854 
PotEng   =        88.9870 E_bond   =        27.5932 E_angle  =        26.0430 
E_dihed  =        40.3586 E_impro  =         0.0000 E_vdwl   =        -5.0078 
E_coul   =         0.0000 E_long   =         0.0000 Press    =        -0.9995
------------ Step          27820 ----- CPU =     1.485758 (sec) -------------
TotEng   =       174.5861 KinEng   =        81.6328 Temp     =       276.6273 
PotEng   =        92.9533 E_bond   =        28.8619 E_angle  =        30.3959 
E_dihed  =        38.5419 E_impro  =         0.0000 E_vdwl   =        -4.8463 
E_coul   =         0.0000 E_long   =         0.0000 Press    =        -1.7943
------------ Step          27840 ----- CPU =     1.486568 (sec) -------------
TotEng   =       176.4006 KinEng   =        92.4837 Temp     =       313.3975 
PotEng   =        83.9170 E_bond   =        29.0528 E_angle  =        27.0382 
E_dihed  =        33.3832 E_impro  =         0.0000 E_vdwl   =        -5.5573 
E_coul   =         0.0000 E_long   =         0.0000 Press    =        -0.7810
------------ Step          27860 ----- CPU =     1.488754 (sec) -------------
TotEng   =       179.2134 KinEng   =        88.8157 Temp     =       300.9679 
PotEng   =        90.3977 E_bond   =        34.2060 E_angle  =        25.4291 
E_dihed  =        36.1276 E_impro  =         0.0000 E_vdwl   =        -5.3650 
E_coul   =         0.0000 E_long   =         0.0000 Press    =         2.1295
------------ Step          27880 ----- CPU =     1.490095 (sec) -------------
TotEng   =       182.6058 KinEng   =        87.4506 Temp     =       296.3419 
PotEng   =        95.1553 E_bond   =        28.3370 E_angle  =        31.4972 
E_dihed  =        39.9882 E_impro  =         0.0000 E_vdwl   =        -4.6670 
E_coul   =         0.0000 E_long   =         0.0000 Press    =         0.6830
------------ Step          27900 ----- CPU =      1.49095 (sec) -------------
TotEng   =       186.7988 KinEng   =        93.4130 Temp     =       316.5467 
PotEng   =        93.3858 E_bond   =        29.3443 E_angle  =        29.5638 
E_dihed  =        39.3433 E_impro  =         0.0000 E_vdwl   =        -4.8657 
E_coul   =         0.0000 E_long   =         0.0000 Press    =         1.9282
------------ Step          27920 ----- CPU =     1.492424 (sec) -------------
TotEng   =       190.9171 KinEng   =        91.2455 Temp     =       309.2016 
PotEng   =        99.6717 E_bond   =        29.4980 E_angle  =        34.1017 
E_dihed  =        41.4274 E_impro  =         0.0000 E_vdwl   =        -5.3553 
E_coul   =         0.0000 E_long   =         0.0000 Press    =         0.6591
------------ Step          27940 ----- CPU =     1.493278 (sec) -------------
TotEng   =       194.8219 KinEng   =        90.1523 Temp     =       305.4972 
PotEng   =       104.6697 E_bond   =        30.6583 E_angle  =        34.7990 
E_dihed  =        44.5105 E_impro  =         0.0000 E_vdwl   =        -5.2981 
E_coul   =         0.0000 E_long   =         0.0000 Press    =         0.2627
------------ Step          27960 ----- CPU =     1.494594 (sec) -------------
TotEng   =       197.9157 KinEng   =        96.8051 Temp     =       328.0416 
PotEng   =       101.1105 E_bond   =        30.7527 E_angle  =        31.4316 
E_dihed  =        43.7534 E_impro  =         0.0000 E_vdwl   =        -4.8272 
E_coul   =         0.0000 E_long   =         0.0000 Press    =         1.6703
------------ Step          27980 ----- CPU =       1.4967 (sec) -------------
TotEng   =       200.1114 KinEng   =       103.0717 Temp     =       349.2769 
PotEng   =        97.0397 E_bond   =        32.9433 E_angle  =        29.2184 
E_dihed  =        39.9518 E_impro  =         0.0000 E_vdwl   =        -5.0738 
E_coul   =         0.0000 E_long   =         0.0000 Press    =        -2.7737
------------ Step          28000 ----- CPU =     1.497523 (sec) -------------
TotEng   =       200.5909 KinEng   =       103.3197 Temp     =       350.1172 
PotEng   =        97.2712 E_bond   =        32.0057 E_angle  =        30.9004 
E_dihed  =        39.8505 E_impro  =         0.0000 E_vdwl   =        -5.4854 
E_coul   =         0.0000 E_long   =         0.0000 Press    =         0.3125
------------ Step          28020 ----- CPU =     1.499035 (sec) -------------
TotEng   =       199.9844 KinEng   =        89.9499 Temp     =       304.8112 
PotEng   =       110.0345 E_bond   =        34.8257 E_angle  =        37.1947 
E_dihed  =        43.6434 E_impro  =         0.0000 E_vdwl   =        -5.6292 
E_coul   =         0.0000 E_long   =         0.0000 Press    =        -1.3786
------------ Step          28040 ----- CPU =     1.499844 (sec) -------------
TotEng   =       199.1336 KinEng   =        95.1534 Temp     =       322.4444 
PotEng   =       103.9802 E_bond   =        34.0486 E_angle  =        28.1442 
E_dihed  =        47.4174 E_impro  =         0.0000 E_vdwl   =        -5.6301 
E_coul   =         0.0000 E_long   =         0.0000 Press    =        -4.2854
------------ Step          28060 ----- CPU =     1.500864 (sec) -------------
TotEng   =       197.7296 KinEng   =        97.3049 Temp     =       329.7351 
PotEng   =       100.4247 E_bond   =        31.4130 E_angle  =        31.4776 
E_dihed  =        42.7402 E_impro  =         0.0000 E_vdwl   =        -5.2062 
E_coul   =         0.0000 E_long   =         0.0000 Press    =         0.1364
------------ Step          28080 ----- CPU =     1.504696 (sec) -------------
TotEng   =       195.4602 KinEng   =        98.7508 Temp     =       334.6349 
PotEng   =        96.7093 E_bond   =        35.9644 E_angle  =        24.1050 
E_dihed  =        41.0173 E_impro  =         0.0000 E_vdwl   =        -4.3774 
E_coul   =         0.0000 E_long   =         0.0000 Press    =        -0.4703
------------ Step          28100 ----- CPU =     1.508276 (sec) -------------
TotEng   =       192.2141 KinEng   =        98.9575 Temp     =       335.3353 
PotEng   =        93.2566 E_bond   =        20.2249 E_angle  =        33.2495 
E_dihed  =        43.8697 E_impro  =         0.0000 E_vdwl   =        -4.0874 
E_coul   =         0.0000 E_long   =         0.0000 Press    =         0.9551
------------ Step          28120 ----- CPU =     1.509388 (sec) -------------
TotEng   =       189.3863 KinEng   =        82.0421 Temp     =       278.0142 
PotEng   =       107.3443 E_bond   =        34.8015 E_angle  =        31.7218 
E_dihed  =        45.7919 E_impro  =         0.0000 E_vdwl   =        -4.9709 
E_coul   =         0.0000 E_long   =         0.0000 Press    =         0.3774
------------ Step          28140 ----- CPU =     1.510199 (sec) -------------
TotEng   =       186.5932 KinEng   =        90.0497 Temp     =       305.1495 
PotEng   =        96.5435 E_bond   =        26.8341 E_angle  =        32.3505 
E_dihed  =        43.6063 E_impro  =         0.0000 E_vdwl   =        -6.2474 
E_coul   =         0.0000 E_long   =         0.0000 Press    =         0.8261
------------ Step          28160 ----- CPU =     1.511227 (sec) -------------
TotEng   =       184.3958 KinEng   =        87.3575 Temp     =       296.0266 
PotEng   =        97.0383 E_bond   =        34.0367 E_angle  =        29.0862 
E_dihed  =        40.1562 E_impro  =         0.0000 E_vdwl   =        -6.2407 
E_coul   =         0.0000 E_long   =         0.0000 Press    =         2.0542
------------ Step          28180 ----- CPU =     1.512071 (sec) -------------
TotEng   =       182.5022 KinEng   =        93.6416 Temp     =       317.3215 
PotEng   =        88.8606 E_bond   =        27.1998 E_angle  =        30.1033 
E_dihed  =        37.0610 E_impro  =         0.0000 E_vdwl   =        -5.5035 
E_coul   =         0.0000 E_long   =         0.0000 Press    =        -1.5875
------------ Step          28200 ----- CPU =     1.512874 (sec) -------------
TotEng   =       180.8088 KinEng   =        86.0401 Temp     =       291.5625 
PotEng   =        94.7686 E_bond   =        27.3284 E_angle  =        34.4009 
E_dihed  =        37.7809 E_impro  =         0.0000 E_vdwl   =        -4.7416 
E_coul   =         0.0000 E_long   =         0.0000 Press    =         0.5172
------------ Step          28220 ----- CPU =     1.513932 (sec) -------------
TotEng   =       179.6302 KinEng   =        78.5759 Temp     =       266.2686 
PotEng   =       101.0542 E_bond   =        33.7579 E_angle  =        31.0330 
E_dihed  =        40.0959 E_impro  =         0.0000 E_vdwl   =        -3.8326 
E_coul   =         0.0000 E_long   =         0.0000 Press    =        -1.0172
------------ Step          28240 ----- CPU =     1.514965 (sec) -------------
TotEng   =       179.1325 KinEng   =        88.0273 Temp     =       298.2964 
PotEng   =        91.1051 E_bond   =        27.6315 E_angle  =        24.6834 
E_dihed  =        42.4188 E_impro  =         0.0000 E_vdwl   =        -3.6285 
E_coul   =         0.0000 E_long   =         0.0000 Press    =        -2.9610
------------ Step          28260 ----- CPU =      1.51577 (sec) -------------
TotEng   =       179.0416 KinEng   =        84.1716 Temp     =       285.2306 
PotEng   =        94.8700 E_bond   =        29.5517 E_angle  =        25.2408 
E_dihed  =        44.0950 E_impro  =         0.0000 E_vdwl   =        -4.0174 
E_coul   =         0.0000 E_long   =         0.0000 Press    =         0.0126
------------ Step          28280 ----- CPU =     1.516686 (sec) -------------
TotEng   =       179.2906 KinEng   =        80.1513 Temp     =       271.6070 
PotEng   =        99.1393 E_bond   =        30.8938 E_angle  =        27.5204 
E_dihed  =        44.3821 E_impro  =         0.0000 E_vdwl   =        -3.6569 
E_coul   =         0.0000 E_long   =         0.0000 Press    =        -2.4600
------------ Step          28300 ----- CPU =     1.517469 (sec) -------------
TotEng   =       179.6002 KinEng   =        89.0532 Temp     =       301.7729 
PotEng   =        90.5470 E_bond   =        23.9485 E_angle  =        26.1087 
E_dihed  =        44.2551 E_impro  =         0.0000 E_vdwl   =        -3.7654 
E_coul   =         0.0000 E_long   =         0.0000 Press    =        -0.1258
------------ Step          28320 ----- CPU =     1.518352 (sec) -------------
TotEng   =       180.2499 KinEng   =        85.3824 Temp     =       289.3335 
PotEng   =        94.8675 E_bond   =        29.6313 E_angle  =        24.1687 
E_dihed  =        45.0403 E_impro  =         0.0000 E_vdwl   =        -3.9728 
E_coul   =         0.0000 E_long   =         0.0000 Press    =         3.1024
------------ Step          28340 ----- CPU =     1.520537 (sec) -------------
TotEng   =       180.8642 KinEng   =        82.1803 Temp     =       278.4825 
PotEng   =        98.6840 E_bond   =        28.8956 E_angle  =        29.3862 
E_dihed  =        44.4200 E_impro  =         0.0000 E_vdwl   =        -4.0178 
E_coul   =         0.0000 E_long   =         0.0000 Press    =        -0.7980
------------ Step          28360 ----- CPU =     1.521516 (sec) -------------
TotEng   =       181.8679 KinEng   =        85.0209 Temp     =       288.1085 
PotEng   =        96.8471 E_bond   =        30.8911 E_angle  =        25.4180 
E_dihed  =        43.4501 E_impro  =         0.0000 E_vdwl   =        -2.9121 
E_coul   =         0.0000 E_long   =         0.0000 Press    =        -0.4262
------------ Step          28380 ----- CPU =      1.52256 (sec) -------------
TotEng   =       182.8443 KinEng   =        80.8600 Temp     =       274.0086 
PotEng   =       101.9843 E_bond   =        26.2207 E_angle  =        34.7739 
E_dihed  =        44.7476 E_impro  =         0.0000 E_vdwl   =        -3.7579 
E_coul   =         0.0000 E_long   =         0.0000 Press    =         1.6710
------------ Step          28400 ----- CPU =      1.52342 (sec) -------------
TotEng   =       184.4037 KinEng   =        81.2670 Temp     =       275.3879 
PotEng   =       103.1366 E_bond   =        31.6420 E_angle  =        30.6107 
E_dihed  =        44.9266 E_impro  =         0.0000 E_vdwl   =        -4.0427 
E_coul   =         0.0000 E_long   =         0.0000 Press    =        -2.9475
------------ Step          28420 ----- CPU =      1.52457 (sec) -------------
TotEng   =       186.2386 KinEng   =        79.8470 Temp     =       270.5760 
PotEng   =       106.3916 E_bond   =        34.4435 E_angle  =        27.9859 
E_dihed  =        47.8100 E_impro  =         0.0000 E_vdwl   =        -3.8477 
E_coul   =         0.0000 E_long   =         0.0000 Press    =        -1.4096
------------ Step          28440 ----- CPU =     1.525364 (sec) -------------
TotEng   =       188.1136 KinEng   =        87.1005 Temp     =       295.1556 
PotEng   =       101.0131 E_bond   =        31.5057 E_angle  =        28.4584 
E_dihed  =        44.4258 E_impro  =         0.0000 E_vdwl   =        -3.3768 
E_coul   =         0.0000 E_long   =         0.0000 Press    =         2.1687
------------ Step          28460 ----- CPU =     1.526368 (sec) -------------
TotEng   =       189.8773 KinEng   =        88.8102 Temp     =       300.9492 
PotEng   =       101.0671 E_bond   =        32.3230 E_angle  =        28.6681 
E_dihed  =        43.3823 E_impro  =         0.0000 E_vdwl   =        -3.3063 
E_coul   =         0.0000 E_long   =         0.0000 Press    =        -3.0841
------------ Step          28480 ----- CPU =     1.527389 (sec) -------------
TotEng   =       191.2930 KinEng   =        82.7008 Temp     =       280.2466 
PotEng   =       108.5922 E_bond   =        31.6964 E_angle  =        30.2323 
E_dihed  =        49.7027 E_impro  =         0.0000 E_vdwl   =        -3.0393 
E_coul   =         0.0000 E_long   =         0.0000 Press    =         1.9589
------------ Step          28500 ----- CPU =     1.528734 (sec) -------------
TotEng   =       192.7850 KinEng   =        85.9534 Temp     =       291.2685 
PotEng   =       106.8316 E_bond   =        32.2634 E_angle  =        28.0967 
E_dihed  =        49.2190 E_impro  =         0.0000 E_vdwl   =        -2.7475 
E_coul   =         0.0000 E_long   =         0.0000 Press    =         3.3831
------------ Step          28520 ----- CPU =      1.53017 (sec) -------------
TotEng   =       194.2089 KinEng   =        85.9325 Temp     =       291.1976 
PotEng   =       108.2764 E_bond   =        32.5682 E_angle  =        33.0326 
E_dihed  =        45.5889 E_impro  =         0.0000 E_vdwl   =        -2.9133 
E_coul   =         0.0000 E_long   =         0.0000 Press    =        -2.1782
------------ Step          28540 ----- CPU =     1.531075 (sec) -------------
TotEng   =       195.3193 KinEng   =        96.8236 Temp     =       328.1040 
PotEng   =        98.4957 E_bond   =        27.9496 E_angle  =        27.6431 
E_dihed  =        45.9563 E_impro  =         0.0000 E_vdwl   =        -3.0533 
E_coul   =         0.0000 E_long   =         0.0000 Press    =         2.0355
------------ Step          28560 ----- CPU =     1.531857 (sec) -------------
TotEng   =       195.8473 KinEng   =        96.4315 Temp     =       326.7756 
PotEng   =        99.4157 E_bond   =        28.7298 E_angle  =        29.4816 
E_dihed  =        44.4689 E_impro  =         0.0000 E_vdwl   =        -3.2646 
E_coul   =         0.0000 E_long   =         0.0000 Press    =         0.6702
------------ Step          28580 ----- CPU =     1.532628 (sec) -------------
TotEng   =       195.8942 KinEng   =        91.1045 Temp     =       308.7240 
PotEng   =       104.7897 E_bond   =        35.8941 E_angle  =        32.5789 
E_dihed  =        39.6841 E_impro  =         0.0000 E_vdwl   =        -3.3676 
E_coul   =         0.0000 E_long   =         0.0000 Press    =        -2.7281
------------ Step          28600 ----- CPU =     1.533407 (sec) -------------
TotEng   =       195.4374 KinEng   =        94.0496 Temp     =       318.7039 
PotEng   =       101.3879 E_bond   =        28.8020 E_angle  =        37.8513 
E_dihed  =        37.7665 E_impro  =         0.0000 E_vdwl   =        -3.0319 
E_coul   =         0.0000 E_long   =         0.0000 Press    =         0.5707
------------ Step          28620 ----- CPU =     1.534489 (sec) -------------
TotEng   =       195.0709 KinEng   =        82.7479 Temp     =       280.4062 
PotEng   =       112.3230 E_bond   =        34.4425 E_angle  =        37.6326 
E_dihed  =        43.2533 E_impro  =         0.0000 E_vdwl   =        -3.0055 
E_coul   =         0.0000 E_long   =         0.0000 Press    =         0.4558
------------ Step          28640 ----- CPU =     1.535234 (sec) -------------
TotEng   =       194.8033 KinEng   =        89.6404 Temp     =       303.7627 
PotEng   =       105.1629 E_bond   =        35.8396 E_angle  =        26.4681 
E_dihed  =        46.0880 E_impro  =         0.0000 E_vdwl   =        -3.2328 
E_coul   =         0.0000 E_long   =         0.0000 Press    =        -1.1404
------------ Step          28660 ----- CPU =     1.537011 (sec) -------------
TotEng   =       194.4824 KinEng   =        84.1637 Temp     =       285.2038 
PotEng   =       110.3187 E_bond   =        34.7510 E_angle  =        33.8159 
E_dihed  =        44.8744 E_impro  =         0.0000 E_vdwl   =        -3.1226 
E_coul   =         0.0000 E_long   =         0.0000 Press    =         0.6754
------------ Step          28680 ----- CPU =     1.538149 (sec) -------------
TotEng   =       193.9835 KinEng   =        95.8722 Temp     =       324.8803 
PotEng   =        98.1113 E_bond   =        25.9899 E_angle  =        29.3707 
E_dihed  =        45.9096 E_impro  =         0.0000 E_vdwl   =        -3.1589 
E_coul   =         0.0000 E_long   =         0.0000 Press    =         1.0046
------------ Step          28700 ----- CPU =     1.539097 (sec) -------------
TotEng   =       193.6490 KinEng   =        87.5044 Temp     =       296.5245 
PotEng   =       106.1445 E_bond   =        33.9932 E_angle  =        28.0968 
E_dihed  =        46.9884 E_impro  =         0.0000 E_vdwl   =        -2.9338 
E_coul   =         0.0000 E_long   =         0.0000 Press    =        -1.6856
------------ Step          28720 ----- CPU =     1.539993 (sec) -------------
TotEng   =       193.0015 KinEng   =        85.9005 Temp     =       291.0892 
PotEng   =       107.1010 E_bond   =        37.8033 E_angle  =        24.5847 
E_dihed  =        47.3342 E_impro  =         0.0000 E_vdwl   =        -2.6212 
E_coul   =         0.0000 E_long   =         0.0000 Press    =         1.0864
------------ Step          28740 ----- CPU =     1.540871 (sec) -------------
TotEng   =       192.1496 KinEng   =        97.5183 Temp     =       330.4583 
PotEng   =        94.6313 E_bond   =        27.6738 E_angle  =        25.7194 
E_dihed  =        44.0477 E_impro  =         0.0000 E_vdwl   =        -2.8096 
E_coul   =         0.0000 E_long   =         0.0000 Press    =        -0.8369
------------ Step          28760 ----- CPU =     1.541646 (sec) -------------
TotEng   =       191.0144 KinEng   =        91.9644 Temp     =       311.6377 
PotEng   =        99.0501 E_bond   =        27.2340 E_angle  =        32.1359 
E_dihed  =        42.5783 E_impro  =         0.0000 E_vdwl   =        -2.8981 
E_coul   =         0.0000 E_long   =         0.0000 Press    =        -1.3301
------------ Step          28780 ----- CPU =     1.542557 (sec) -------------
TotEng   =       189.5907 KinEng   =        85.7700 Temp     =       290.6471 
PotEng   =       103.8207 E_bond   =        35.0647 E_angle  =        28.0708 
E_dihed  =        43.4656 E_impro  =         0.0000 E_vdwl   =        -2.7805 
E_coul   =         0.0000 E_long   =         0.0000 Press    =         2.0109
------------ Step          28800 ----- CPU =     1.543343 (sec) -------------
TotEng   =       187.5450 KinEng   =        89.5326 Temp     =       303.3975 
PotEng   =        98.0124 E_bond   =        29.5895 E_angle  =        28.4014 
E_dihed  =        42.9839 E_impro  =         0.0000 E_vdwl   =        -2.9623 
E_coul   =         0.0000 E_long   =         0.0000 Press    =        -3.3050
------------ Step          28820 ----- CPU =     1.544824 (sec) -------------
TotEng   =       185.1255 KinEng   =        89.5249 Temp     =       303.3713 
PotEng   =        95.6006 E_bond   =        33.7204 E_angle  =        23.2058 
E_dihed  =        41.9585 E_impro  =         0.0000 E_vdwl   =        -3.2842 
E_coul   =         0.0000 E_long   =         0.0000 Press    =         1.0693
------------ Step          28840 ----- CPU =     1.545653 (sec) -------------
TotEng   =       181.6079 KinEng   =        87.3019 Temp     =       295.8382 
PotEng   =        94.3060 E_bond   =        27.0369 E_angle  =        27.9184 
E_dihed  =        42.5294 E_impro  =         0.0000 E_vdwl   =        -3.1787 
E_coul   =         0.0000 E_long   =         0.0000 Press    =         1.6038
------------ Step          28860 ----- CPU =     1.546475 (sec) -------------
TotEng   =       177.4322 KinEng   =        81.9873 Temp     =       277.8285 
PotEng   =        95.4450 E_bond   =        31.9175 E_angle  =        23.7299 
E_dihed  =        42.7896 E_impro  =         0.0000 E_vdwl   =        -2.9920 
E_coul   =         0.0000 E_long   =         0.0000 Press    =        -0.6855
------------ Step          28880 ----- CPU =     1.547269 (sec) -------------
TotEng   =       172.8875 KinEng   =        75.1516 Temp     =       254.6647 
PotEng   =        97.7359 E_bond   =        33.1543 E_angle  =        26.5218 
E_dihed  =        41.0023 E_impro  =         0.0000 E_vdwl   =        -2.9425 
E_coul   =         0.0000 E_long   =         0.0000 Press    =         3.9675
------------ Step          28900 ----- CPU =     1.548118 (sec) -------------
TotEng   =       168.9834 KinEng   =        79.2808 Temp     =       268.6571 
PotEng   =        89.7026 E_bond   =        23.5122 E_angle  =        27.6142 
E_dihed  =        41.5708 E_impro  =         0.0000 E_vdwl   =        -2.9946 
E_coul   =         0.0000 E_long   =         0.0000 Press    =        -0.4861
------------ Step          28920 ----- CPU =     1.549004 (sec) -------------
TotEng   =       166.5517 KinEng   =        69.3215 Temp     =       234.9082 
PotEng   =        97.2302 E_bond   =        29.8852 E_angle  =        25.5911 
E_dihed  =        43.6659 E_impro  =         0.0000 E_vdwl   =        -1.9119 
E_coul   =         0.0000 E_long   =         0.0000 Press    =        -0.8260
------------ Step          28940 ----- CPU =     1.549827 (sec) -------------
TotEng   =       165.3053 KinEng   =        78.8676 Temp     =       267.2570 
PotEng   =        86.4377 E_bond   =        23.2780 E_angle  =        23.3115 
E_dihed  =        43.0884 E_impro  =         0.0000 E_vdwl   =        -3.2403 
E_coul   =         0.0000 E_long   =         0.0000 Press    =         1.3832
------------ Step          28960 ----- CPU =     1.550567 (sec) -------------
TotEng   =       165.2136 KinEng   =        73.3040 Temp     =       248.4037 
PotEng   =        91.9096 E_bond   =        28.9029 E_angle  =        26.7834 
E_dihed  =        39.9580 E_impro  =         0.0000 E_vdwl   =        -3.7347 
E_coul   =         0.0000 E_long   =         0.0000 Press    =         0.4965
------------ Step          28980 ----- CPU =     1.551288 (sec) -------------
TotEng   =       165.8311 KinEng   =        83.8945 Temp     =       284.2917 
PotEng   =        81.9366 E_bond   =        23.0538 E_angle  =        27.1866 
E_dihed  =        36.5618 E_impro  =         0.0000 E_vdwl   =        -4.8657 
E_coul   =         0.0000 E_long   =         0.0000 Press    =        -1.3205
------------ Step          29000 ----- CPU =     1.552005 (sec) -------------
TotEng   =       166.9631 KinEng   =        79.5525 Temp     =       269.5778 
PotEng   =        87.4107 E_bond   =        30.6838 E_angle  =        22.9526 
E_dihed  =        39.1650 E_impro  =         0.0000 E_vdwl   =        -5.3907 
E_coul   =         0.0000 E_long   =         0.0000 Press    =         0.7083
------------ Step          29020 ----- CPU =     1.552889 (sec) -------------
TotEng   =       168.1804 KinEng   =        78.7531 Temp     =       266.8691 
PotEng   =        89.4273 E_bond   =        30.1706 E_angle  =        21.4919 
E_dihed  =        42.5569 E_impro  =         0.0000 E_vdwl   =        -4.7921 
E_coul   =         0.0000 E_long   =         0.0000 Press    =        -0.6439
------------ Step          29040 ----- CPU =     1.553629 (sec) -------------
TotEng   =       169.7580 KinEng   =        84.7496 Temp     =       287.1893 
PotEng   =        85.0084 E_bond   =        29.9038 E_angle  =        17.3893 
E_dihed  =        41.9078 E_impro  =         0.0000 E_vdwl   =        -4.1924 
E_coul   =         0.0000 E_long   =         0.0000 Press    =        -4.1996
------------ Step          29060 ----- CPU =      1.55449 (sec) -------------
TotEng   =       171.4526 KinEng   =        73.9018 Temp     =       250.4295 
PotEng   =        97.5508 E_bond   =        33.2862 E_angle  =        26.8302 
E_dihed  =        42.1594 E_impro  =         0.0000 E_vdwl   =        -4.7250 
E_coul   =         0.0000 E_long   =         0.0000 Press    =         1.7006
------------ Step          29080 ----- CPU =     1.555303 (sec) -------------
TotEng   =       173.1793 KinEng   =        85.4930 Temp     =       289.7085 
PotEng   =        87.6863 E_bond   =        25.5345 E_angle  =        25.4563 
E_dihed  =        41.7062 E_impro  =         0.0000 E_vdwl   =        -5.0108 
E_coul   =         0.0000 E_long   =         0.0000 Press    =        -1.5816
------------ Step          29100 ----- CPU =     1.556642 (sec) -------------
TotEng   =       175.0915 KinEng   =        83.0471 Temp     =       281.4200 
PotEng   =        92.0444 E_bond   =        26.7077 E_angle  =        24.7697 
E_dihed  =        45.0930 E_impro  =         0.0000 E_vdwl   =        -4.5260 
E_coul   =         0.0000 E_long   =         0.0000 Press    =         0.0095
------------ Step          29120 ----- CPU =     1.557698 (sec) -------------
TotEng   =       176.9768 KinEng   =        75.1511 Temp     =       254.6629 
PotEng   =       101.8258 E_bond   =        36.8646 E_angle  =        24.0392 
E_dihed  =        46.5031 E_impro  =         0.0000 E_vdwl   =        -5.5811 
E_coul   =         0.0000 E_long   =         0.0000 Press    =         3.8817
------------ Step          29140 ----- CPU =      1.55849 (sec) -------------
TotEng   =       178.8536 KinEng   =        85.8411 Temp     =       290.8879 
PotEng   =        93.0125 E_bond   =        24.7041 E_angle  =        26.0017 
E_dihed  =        46.0877 E_impro  =         0.0000 E_vdwl   =        -3.7809 
E_coul   =         0.0000 E_long   =         0.0000 Press    =        -0.7112
------------ Step          29160 ----- CPU =     1.559348 (sec) -------------
TotEng   =       180.9585 KinEng   =        92.6763 Temp     =       314.0502 
PotEng   =        88.2823 E_bond   =        33.7094 E_angle  =        15.5828 
E_dihed  =        43.1942 E_impro  =         0.0000 E_vdwl   =        -4.2041 
E_coul   =         0.0000 E_long   =         0.0000 Press    =         2.9919
------------ Step          29180 ----- CPU =     1.561568 (sec) -------------
TotEng   =       182.2604 KinEng   =        91.6044 Temp     =       310.4179 
PotEng   =        90.6560 E_bond   =        25.2258 E_angle  =        29.1970 
E_dihed  =        41.6209 E_impro  =         0.0000 E_vdwl   =        -5.3877 
E_coul   =         0.0000 E_long   =         0.0000 Press    =        -0.5436
------------ Step          29200 ----- CPU =     1.562424 (sec) -------------
TotEng   =       183.4894 KinEng   =        81.4493 Temp     =       276.0057 
PotEng   =       102.0401 E_bond   =        39.3560 E_angle  =        25.7784 
E_dihed  =        42.4487 E_impro  =         0.0000 E_vdwl   =        -5.5430 
E_coul   =         0.0000 E_long   =         0.0000 Press    =        -5.1842
------------ Step          29220 ----- CPU =     1.563333 (sec) -------------
TotEng   =       184.3808 KinEng   =        96.9331 Temp     =       328.4751 
PotEng   =        87.4477 E_bond   =        28.4583 E_angle  =        21.8704 
E_dihed  =        41.8305 E_impro  =         0.0000 E_vdwl   =        -4.7115 
E_coul   =         0.0000 E_long   =         0.0000 Press    =         1.1658
------------ Step          29240 ----- CPU =     1.564067 (sec) -------------
TotEng   =       184.8834 KinEng   =        92.9642 Temp     =       315.0258 
PotEng   =        91.9192 E_bond   =        37.3730 E_angle  =        20.3628 
E_dihed  =        38.2070 E_impro  =         0.0000 E_vdwl   =        -4.0236 
E_coul   =         0.0000 E_long   =         0.0000 Press    =        -1.3894
------------ Step          29260 ----- CPU =     1.564871 (sec) -------------
TotEng   =       184.7276 KinEng   =        89.1960 Temp     =       302.2566 
PotEng   =        95.5316 E_bond   =        28.8200 E_angle  =        34.1485 
E_dihed  =        36.6811 E_impro  =         0.0000 E_vdwl   =        -4.1180 
E_coul   =         0.0000 E_long   =         0.0000 Press    =        -1.2858
------------ Step          29280 ----- CPU =     1.565606 (sec) -------------
TotEng   =       184.7715 KinEng   =        84.9713 Temp     =       287.9404 
PotEng   =        99.8003 E_bond   =        37.5935 E_angle  =        24.9324 
E_dihed  =        42.2906 E_impro  =         0.0000 E_vdwl   =        -5.0162 
E_coul   =         0.0000 E_long   =         0.0000 Press    =         4.1479
------------ Step          29300 ----- CPU =     1.566331 (sec) -------------
TotEng   =       184.6072 KinEng   =        84.5181 Temp     =       286.4048 
PotEng   =       100.0891 E_bond   =        30.3505 E_angle  =        25.8889 
E_dihed  =        49.1681 E_impro  =         0.0000 E_vdwl   =        -5.3184 
E_coul   =         0.0000 E_long   =         0.0000 Press    =        -1.2236
------------ Step          29320 ----- CPU =      1.56733 (sec) -------------
TotEng   =       184.8795 KinEng   =        91.1135 Temp     =       308.7545 
PotEng   =        93.7659 E_bond   =        31.2323 E_angle  =        21.4412 
E_dihed  =        46.4886 E_impro  =         0.0000 E_vdwl   =        -5.3962 
E_coul   =         0.0000 E_long   =         0.0000 Press    =        -1.9154
------------ Step          29340 ----- CPU =     1.568035 (sec) -------------
TotEng   =       185.3070 KinEng   =        93.7991 Temp     =       317.8550 
PotEng   =        91.5080 E_bond   =        24.7431 E_angle  =        32.9515 
E_dihed  =        39.3779 E_impro  =         0.0000 E_vdwl   =        -5.5645 
E_coul   =         0.0000 E_long   =         0.0000 Press    =         5.1856
------------ Step          29360 ----- CPU =     1.568793 (sec) -------------
TotEng   =       185.7850 KinEng   =        87.5782 Temp     =       296.7745 
PotEng   =        98.2067 E_bond   =        38.6809 E_angle  =        25.8363 
E_dihed  =        38.9794 E_impro  =         0.0000 E_vdwl   =        -5.2899 
E_coul   =         0.0000 E_long   =         0.0000 Press    =        -3.0353
------------ Step          29380 ----- CPU =     1.569522 (sec) -------------
TotEng   =       185.8761 KinEng   =        90.1580 Temp     =       305.5166 
PotEng   =        95.7181 E_bond   =        32.8035 E_angle  =        25.6212 
E_dihed  =        42.9953 E_impro  =         0.0000 E_vdwl   =        -5.7020 
E_coul   =         0.0000 E_long   =         0.0000 Press    =        -1.7440
------------ Step          29400 ----- CPU =     1.570283 (sec) -------------
TotEng   =       185.8814 KinEng   =        96.8214 Temp     =       328.0966 
PotEng   =        89.0601 E_bond   =        28.3817 E_angle  =        22.0093 
E_dihed  =        43.9672 E_impro  =         0.0000 E_vdwl   =        -5.2982 
E_coul   =         0.0000 E_long   =         0.0000 Press    =         2.7178
------------ Step          29420 ----- CPU =     1.571551 (sec) -------------
TotEng   =       185.6921 KinEng   =        87.2777 Temp     =       295.7561 
PotEng   =        98.4144 E_bond   =        33.5663 E_angle  =        27.7808 
E_dihed  =        40.9989 E_impro  =         0.0000 E_vdwl   =        -3.9316 
E_coul   =         0.0000 E_long   =         0.0000 Press    =        -5.1833
------------ Step          29440 ----- CPU =     1.572758 (sec) -------------
TotEng   =       185.3367 KinEng   =        86.9332 Temp     =       294.5886 
PotEng   =        98.4035 E_bond   =        34.2169 E_angle  =        29.6834 
E_dihed  =        37.8683 E_impro  =         0.0000 E_vdwl   =        -3.3651 
E_coul   =         0.0000 E_long   =         0.0000 Press    =         1.0261
------------ Step          29460 ----- CPU =     1.573599 (sec) -------------
TotEng   =       184.6767 KinEng   =        88.2535 Temp     =       299.0629 
PotEng   =        96.4232 E_bond   =        35.1044 E_angle  =        25.8056 
E_dihed  =        40.0915 E_impro  =         0.0000 E_vdwl   =        -4.5784 
E_coul   =         0.0000 E_long   =         0.0000 Press    =         3.3357
------------ Step          29480 ----- CPU =     1.574332 (sec) -------------
TotEng   =       183.6798 KinEng   =        83.7022 Temp     =       283.6399 
PotEng   =        99.9776 E_bond   =        32.3405 E_angle  =        26.9758 
E_dihed  =        44.9253 E_impro  =         0.0000 E_vdwl   =        -4.2640 
E_coul   =         0.0000 E_long   =         0.0000 Press    =        -2.1784
------------ Step          29500 ----- CPU =     1.575047 (sec) -------------
TotEng   =       182.7353 KinEng   =        83.8348 Temp     =       284.0892 
PotEng   =        98.9005 E_bond   =        26.6083 E_angle  =        30.0473 
E_dihed  =        46.6700 E_impro  =         0.0000 E_vdwl   =        -4.4251 
E_coul   =         0.0000 E_long   =         0.0000 Press    =         2.7873
------------ Step          29520 ----- CPU =     1.576071 (sec) -------------
TotEng   =       182.2798 KinEng   =        82.5756 Temp     =       279.8223 
PotEng   =        99.7042 E_bond   =        31.0188 E_angle  =        29.5903 
E_dihed  =        43.0671 E_impro  =         0.0000 E_vdwl   =        -3.9720 
E_coul   =         0.0000 E_long   =         0.0000 Press    =         0.7112
------------ Step          29540 ----- CPU =     1.576836 (sec) -------------
TotEng   =       182.1200 KinEng   =        83.5827 Temp     =       283.2351 
PotEng   =        98.5373 E_bond   =        28.1210 E_angle  =        33.4309 
E_dihed  =        40.7920 E_impro  =         0.0000 E_vdwl   =        -3.8067 
E_coul   =         0.0000 E_long   =         0.0000 Press    =        -3.5503
------------ Step          29560 ----- CPU =     1.577798 (sec) -------------
TotEng   =       182.3127 KinEng   =        91.0919 Temp     =       308.6814 
PotEng   =        91.2208 E_bond   =        32.4268 E_angle  =        20.8412 
E_dihed  =        41.5548 E_impro  =         0.0000 E_vdwl   =        -3.6020 
E_coul   =         0.0000 E_long   =         0.0000 Press    =         1.5536
------------ Step          29580 ----- CPU =     1.578959 (sec) -------------
TotEng   =       182.3271 KinEng   =        85.7164 Temp     =       290.4653 
PotEng   =        96.6107 E_bond   =        25.8646 E_angle  =        33.6417 
E_dihed  =        41.1900 E_impro  =         0.0000 E_vdwl   =        -4.0856 
E_coul   =         0.0000 E_long   =         0.0000 Press    =        -0.3864
------------ Step          29600 ----- CPU =     1.579736 (sec) -------------
TotEng   =       182.6614 KinEng   =        89.1059 Temp     =       301.9514 
PotEng   =        93.5555 E_bond   =        26.4439 E_angle  =        28.2633 
E_dihed  =        42.1634 E_impro  =         0.0000 E_vdwl   =        -3.3152 
E_coul   =         0.0000 E_long   =         0.0000 Press    =        -2.7970
------------ Step          29620 ----- CPU =     1.580629 (sec) -------------
TotEng   =       183.6125 KinEng   =        79.1870 Temp     =       268.3392 
PotEng   =       104.4255 E_bond   =        35.3755 E_angle  =        30.5251 
E_dihed  =        42.6554 E_impro  =         0.0000 E_vdwl   =        -4.1305 
E_coul   =         0.0000 E_long   =         0.0000 Press    =         3.4881
------------ Step          29640 ----- CPU =     1.581419 (sec) -------------
TotEng   =       184.6951 KinEng   =        88.5942 Temp     =       300.2173 
PotEng   =        96.1009 E_bond   =        34.2617 E_angle  =        25.5063 
E_dihed  =        40.5400 E_impro  =         0.0000 E_vdwl   =        -4.2072 
E_coul   =         0.0000 E_long   =         0.0000 Press    =         1.4181
------------ Step          29660 ----- CPU =     1.582146 (sec) -------------
TotEng   =       186.0335 KinEng   =        86.2052 Temp     =       292.1217 
PotEng   =        99.8283 E_bond   =        32.9623 E_angle  =        31.2236 
E_dihed  =        39.5898 E_impro  =         0.0000 E_vdwl   =        -3.9475 
E_coul   =         0.0000 E_long   =         0.0000 Press    =        -3.2701
------------ Step          29680 ----- CPU =     1.582861 (sec) -------------
TotEng   =       187.3910 KinEng   =        94.3889 Temp     =       319.8536 
PotEng   =        93.0021 E_bond   =        26.0296 E_angle  =        26.3653 
E_dihed  =        43.6166 E_impro  =         0.0000 E_vdwl   =        -3.0094 
E_coul   =         0.0000 E_long   =         0.0000 Press    =         5.1041
------------ Step          29700 ----- CPU =     1.583653 (sec) -------------
TotEng   =       189.1078 KinEng   =        86.1404 Temp     =       291.9023 
PotEng   =       102.9674 E_bond   =        29.2142 E_angle  =        33.4740 
E_dihed  =        43.3185 E_impro  =         0.0000 E_vdwl   =        -3.0392 
E_coul   =         0.0000 E_long   =         0.0000 Press    =         0.2501
------------ Step          29720 ----- CPU =     1.584618 (sec) -------------
TotEng   =       190.9139 KinEng   =        81.9485 Temp     =       277.6973 
PotEng   =       108.9654 E_bond   =        30.3517 E_angle  =        39.3986 
E_dihed  =        42.4121 E_impro  =         0.0000 E_vdwl   =        -3.1970 
E_coul   =         0.0000 E_long   =         0.0000 Press    =        -2.4020
------------ Step          29740 ----- CPU =     1.585515 (sec) -------------
TotEng   =       193.2612 KinEng   =       100.6903 Temp     =       341.2072 
PotEng   =        92.5709 E_bond   =        26.9405 E_angle  =        26.3013 
E_dihed  =        42.0934 E_impro  =         0.0000 E_vdwl   =        -2.7643 
E_coul   =         0.0000 E_long   =         0.0000 Press    =         3.6330
------------ Step          29760 ----- CPU =      1.58623 (sec) -------------
TotEng   =       195.3694 KinEng   =        94.9667 Temp     =       321.8117 
PotEng   =       100.4027 E_bond   =        29.4784 E_angle  =        31.0381 
E_dihed  =        42.9721 E_impro  =         0.0000 E_vdwl   =        -3.0859 
E_coul   =         0.0000 E_long   =         0.0000 Press    =        -3.3663
------------ Step          29780 ----- CPU =     1.586943 (sec) -------------
TotEng   =       197.2698 KinEng   =        91.1860 Temp     =       309.0000 
PotEng   =       106.0838 E_bond   =        30.6761 E_angle  =        33.2341 
E_dihed  =        45.9438 E_impro  =         0.0000 E_vdwl   =        -3.7702 
E_coul   =         0.0000 E_long   =         0.0000 Press    =        -2.2934
------------ Step          29800 ----- CPU =     1.587657 (sec) -------------
TotEng   =       198.9149 KinEng   =        92.7325 Temp     =       314.2407 
PotEng   =       106.1824 E_bond   =        30.9731 E_angle  =        32.8121 
E_dihed  =        45.8803 E_impro  =         0.0000 E_vdwl   =        -3.4831 
E_coul   =         0.0000 E_long   =         0.0000 Press    =         2.4337
------------ Step          29820 ----- CPU =     1.588561 (sec) -------------
TotEng   =       200.6434 KinEng   =        91.2443 Temp     =       309.1977 
PotEng   =       109.3991 E_bond   =        37.7321 E_angle  =        33.9334 
E_dihed  =        42.6826 E_impro  =         0.0000 E_vdwl   =        -4.9491 
E_coul   =         0.0000 E_long   =         0.0000 Press    =        -6.7085
------------ Step          29840 ----- CPU =     1.589287 (sec) -------------
TotEng   =       201.9408 KinEng   =       102.8885 Temp     =       348.6561 
PotEng   =        99.0523 E_bond   =        32.8496 E_angle  =        29.5001 
E_dihed  =        41.8533 E_impro  =         0.0000 E_vdwl   =        -5.1506 
E_coul   =         0.0000 E_long   =         0.0000 Press    =        -1.8279
------------ Step          29860 ----- CPU =     1.590268 (sec) -------------
TotEng   =       202.5456 KinEng   =       102.8361 Temp     =       348.4785 
PotEng   =        99.7096 E_bond   =        33.7413 E_angle  =        27.9314 
E_dihed  =        43.0898 E_impro  =         0.0000 E_vdwl   =        -5.0530 
E_coul   =         0.0000 E_long   =         0.0000 Press    =         0.6095
------------ Step          29880 ----- CPU =     1.591393 (sec) -------------
TotEng   =       202.0568 KinEng   =        91.7906 Temp     =       311.0490 
PotEng   =       110.2662 E_bond   =        35.6270 E_angle  =        32.9939 
E_dihed  =        46.4254 E_impro  =         0.0000 E_vdwl   =        -4.7801 
E_coul   =         0.0000 E_long   =         0.0000 Press    =        -4.5402
------------ Step          29900 ----- CPU =       1.5922 (sec) -------------
TotEng   =       200.9639 KinEng   =        92.3569 Temp     =       312.9678 
PotEng   =       108.6070 E_bond   =        35.4768 E_angle  =        31.9383 
E_dihed  =        46.1677 E_impro  =         0.0000 E_vdwl   =        -4.9758 
E_coul   =         0.0000 E_long   =         0.0000 Press    =         1.5577
------------ Step          29920 ----- CPU =     1.593192 (sec) -------------
TotEng   =       198.7437 KinEng   =        92.9904 Temp     =       315.1147 
PotEng   =       105.7533 E_bond   =        30.0052 E_angle  =        33.2527 
E_dihed  =        47.7089 E_impro  =         0.0000 E_vdwl   =        -5.2135 
E_coul   =         0.0000 E_long   =         0.0000 Press    =        -1.9067
------------ Step          29940 ----- CPU =     1.596248 (sec) -------------
TotEng   =       195.2861 KinEng   =        97.5919 Temp     =       330.7078 
PotEng   =        97.6941 E_bond   =        30.7567 E_angle  =        26.2304 
E_dihed  =        45.9819 E_impro  =         0.0000 E_vdwl   =        -5.2748 
E_coul   =         0.0000 E_long   =         0.0000 Press    =        -1.7416
------------ Step          29960 ----- CPU =     1.596992 (sec) -------------
TotEng   =       190.9152 KinEng   =        86.9268 Temp     =       294.5670 
PotEng   =       103.9884 E_bond   =        34.0751 E_angle  =        28.8729 
E_dihed  =        46.4053 E_impro  =         0.0000 E_vdwl   =        -5.3649 
E_coul   =         0.0000 E_long   =         0.0000 Press    =         1.0113
------------ Step          29980 ----- CPU =     1.597704 (sec) -------------
TotEng   =       186.0488 KinEng   =        87.1528 Temp     =       295.3328 
PotEng   =        98.8961 E_bond   =        31.2347 E_angle  =        22.5358 
E_dihed  =        49.7196 E_impro  =         0.0000 E_vdwl   =        -4.5940 
E_coul   =         0.0000 E_long   =         0.0000 Press    =        -2.0447
------------ Step          30000 ----- CPU =     1.598429 (sec) -------------
TotEng   =       182.0776 KinEng   =        86.5085 Temp     =       293.1497 
PotEng   =        95.5691 E_bond   =        24.7864 E_angle  =        27.5153 
E_dihed  =        47.3710 E_impro  =         0.0000 E_vdwl   =        -4.1036 
E_coul   =         0.0000 E_long   =         0.0000 Press    =         1.7460
------------ Step          30020 ----- CPU =     1.599316 (sec) -------------
TotEng   =       179.2202 KinEng   =        82.4571 Temp     =       279.4208 
PotEng   =        96.7631 E_bond   =        29.1358 E_angle  =        28.7352 
E_dihed  =        44.0464 E_impro  =         0.0000 E_vdwl   =        -5.1542 
E_coul   =         0.0000 E_long   =         0.0000 Press    =        -0.6334
------------ Step          30040 ----- CPU =     1.600034 (sec) -------------
TotEng   =       177.2370 KinEng   =        87.0400 Temp     =       294.9507 
PotEng   =        90.1970 E_bond   =        26.5307 E_angle  =        25.3391 
E_dihed  =        43.8998 E_impro  =         0.0000 E_vdwl   =        -5.5726 
E_coul   =         0.0000 E_long   =         0.0000 Press    =         0.1586
------------ Step          30060 ----- CPU =     1.600863 (sec) -------------
TotEng   =       175.9095 KinEng   =        81.0910 Temp     =       274.7914 
PotEng   =        94.8185 E_bond   =        28.7498 E_angle  =        22.6087 
E_dihed  =        48.2130 E_impro  =         0.0000 E_vdwl   =        -4.7531 
E_coul   =         0.0000 E_long   =         0.0000 Press    =         2.7305
------------ Step          30080 ----- CPU =     1.601826 (sec) -------------
TotEng   =       175.5447 KinEng   =        75.5374 Temp     =       255.9721 
PotEng   =       100.0072 E_bond   =        30.3421 E_angle  =        26.6580 
E_dihed  =        48.3345 E_impro  =         0.0000 E_vdwl   =        -5.3273 
E_coul   =         0.0000 E_long   =         0.0000 Press    =         1.4558
------------ Step          30100 ----- CPU =     1.602577 (sec) -------------
TotEng   =       176.0832 KinEng   =        76.1336 Temp     =       257.9924 
PotEng   =        99.9496 E_bond   =        29.4625 E_angle  =        25.7503 
E_dihed  =        50.2185 E_impro  =         0.0000 E_vdwl   =        -5.4818 
E_coul   =         0.0000 E_long   =         0.0000 Press    =         2.1824
------------ Step          30120 ----- CPU =      1.60344 (sec) -------------
TotEng   =       177.3694 KinEng   =        79.3026 Temp     =       268.7311 
PotEng   =        98.0668 E_bond   =        29.8470 E_angle  =        26.6811 
E_dihed  =        47.0943 E_impro  =         0.0000 E_vdwl   =        -5.5556 
E_coul   =         0.0000 E_long   =         0.0000 Press    =         1.4509
------------ Step          30140 ----- CPU =      1.60428 (sec) -------------
TotEng   =       179.2901 KinEng   =        81.3809 Temp     =       275.7737 
PotEng   =        97.9092 E_bond   =        29.9962 E_angle  =        30.2244 
E_dihed  =        42.5336 E_impro  =         0.0000 E_vdwl   =        -4.8450 
E_coul   =         0.0000 E_long   =         0.0000 Press    =        -0.6139
------------ Step          30160 ----- CPU =     1.605075 (sec) -------------
TotEng   =       181.3365 KinEng   =        84.3186 Temp     =       285.7288 
PotEng   =        97.0179 E_bond   =        32.8227 E_angle  =        29.9096 
E_dihed  =        39.3408 E_impro  =         0.0000 E_vdwl   =        -5.0552 
E_coul   =         0.0000 E_long   =         0.0000 Press    =        -0.8780
------------ Step          30180 ----- CPU =      1.60667 (sec) -------------
TotEng   =       183.2570 KinEng   =        94.3737 Temp     =       319.8024 
PotEng   =        88.8833 E_bond   =        25.1209 E_angle  =        28.1161 
E_dihed  =        40.6772 E_impro  =         0.0000 E_vdwl   =        -5.0310 
E_coul   =         0.0000 E_long   =         0.0000 Press    =         3.9331
------------ Step          30200 ----- CPU =     1.607552 (sec) -------------
TotEng   =       185.1621 KinEng   =        82.2615 Temp     =       278.7580 
PotEng   =       102.9006 E_bond   =        29.4675 E_angle  =        35.1036 
E_dihed  =        43.6957 E_impro  =         0.0000 E_vdwl   =        -5.3662 
E_coul   =         0.0000 E_long   =         0.0000 Press    =        -2.4650
------------ Step          30220 ----- CPU =     1.608527 (sec) -------------
TotEng   =       186.8357 KinEng   =        91.3399 Temp     =       309.5215 
PotEng   =        95.4958 E_bond   =        30.2065 E_angle  =        27.1543 
E_dihed  =        43.5963 E_impro  =         0.0000 E_vdwl   =        -5.4613 
E_coul   =         0.0000 E_long   =         0.0000 Press    =        -0.8915
------------ Step          30240 ----- CPU =     1.609391 (sec) -------------
TotEng   =       188.3853 KinEng   =        99.0629 Temp     =       335.6923 
PotEng   =        89.3225 E_bond   =        25.0234 E_angle  =        27.5104 
E_dihed  =        41.9925 E_impro  =         0.0000 E_vdwl   =        -5.2039 
E_coul   =         0.0000 E_long   =         0.0000 Press    =         1.6740
------------ Step          30260 ----- CPU =     1.610271 (sec) -------------
TotEng   =       189.4138 KinEng   =        94.5311 Temp     =       320.3354 
PotEng   =        94.8827 E_bond   =        32.5167 E_angle  =        25.4058 
E_dihed  =        41.4498 E_impro  =         0.0000 E_vdwl   =        -4.4895 
E_coul   =         0.0000 E_long   =         0.0000 Press    =        -5.4266
------------ Step          30280 ----- CPU =      1.61125 (sec) -------------
TotEng   =       190.0107 KinEng   =        79.0744 Temp     =       267.9578 
PotEng   =       110.9363 E_bond   =        35.1937 E_angle  =        35.2832 
E_dihed  =        45.8058 E_impro  =         0.0000 E_vdwl   =        -5.3464 
E_coul   =         0.0000 E_long   =         0.0000 Press    =        -0.2912
------------ Step          30300 ----- CPU =     1.612012 (sec) -------------
TotEng   =       190.5124 KinEng   =        99.0769 Temp     =       335.7399 
PotEng   =        91.4355 E_bond   =        30.2555 E_angle  =        22.6547 
E_dihed  =        43.3484 E_impro  =         0.0000 E_vdwl   =        -4.8231 
E_coul   =         0.0000 E_long   =         0.0000 Press    =         0.0330
------------ Step          30320 ----- CPU =     1.613056 (sec) -------------
TotEng   =       190.6153 KinEng   =        90.8079 Temp     =       307.7188 
PotEng   =        99.8074 E_bond   =        32.3648 E_angle  =        34.3817 
E_dihed  =        37.5587 E_impro  =         0.0000 E_vdwl   =        -4.4978 
E_coul   =         0.0000 E_long   =         0.0000 Press    =        -2.1961
------------ Step          30340 ----- CPU =     1.613809 (sec) -------------
TotEng   =       190.5327 KinEng   =        91.3574 Temp     =       309.5811 
PotEng   =        99.1753 E_bond   =        34.1202 E_angle  =        29.4615 
E_dihed  =        39.5819 E_impro  =         0.0000 E_vdwl   =        -3.9882 
E_coul   =         0.0000 E_long   =         0.0000 Press    =         1.6946
------------ Step          30360 ----- CPU =      1.61472 (sec) -------------
TotEng   =       189.8792 KinEng   =        96.3748 Temp     =       326.5832 
PotEng   =        93.5044 E_bond   =        27.0514 E_angle  =        30.8962 
E_dihed  =        39.0634 E_impro  =         0.0000 E_vdwl   =        -3.5067 
E_coul   =         0.0000 E_long   =         0.0000 Press    =         1.8595
------------ Step          30380 ----- CPU =     1.615564 (sec) -------------
TotEng   =       188.9337 KinEng   =        88.2586 Temp     =       299.0801 
PotEng   =       100.6751 E_bond   =        30.7339 E_angle  =        33.9508 
E_dihed  =        38.7153 E_impro  =         0.0000 E_vdwl   =        -2.7250 
E_coul   =         0.0000 E_long   =         0.0000 Press    =        -1.9722
------------ Step          30400 ----- CPU =     1.616296 (sec) -------------
TotEng   =       187.9248 KinEng   =        86.9194 Temp     =       294.5419 
PotEng   =       101.0054 E_bond   =        34.6598 E_angle  =        29.4562 
E_dihed  =        38.9133 E_impro  =         0.0000 E_vdwl   =        -2.0238 
E_coul   =         0.0000 E_long   =         0.0000 Press    =         1.9086
------------ Step          30420 ----- CPU =     1.617159 (sec) -------------
TotEng   =       185.8597 KinEng   =        93.5831 Temp     =       317.1231 
PotEng   =        92.2766 E_bond   =        24.0607 E_angle  =        31.6030 
E_dihed  =        38.2078 E_impro  =         0.0000 E_vdwl   =        -1.5950 
E_coul   =         0.0000 E_long   =         0.0000 Press    =         1.9825
------------ Step          30440 ----- CPU =     1.618132 (sec) -------------
TotEng   =       183.0609 KinEng   =        84.4945 Temp     =       286.3246 
PotEng   =        98.5665 E_bond   =        29.5231 E_angle  =        30.4375 
E_dihed  =        39.8912 E_impro  =         0.0000 E_vdwl   =        -1.2854 
E_coul   =         0.0000 E_long   =         0.0000 Press    =        -3.7116
------------ Step          30460 ----- CPU =     1.618911 (sec) -------------
TotEng   =       179.1367 KinEng   =        75.2585 Temp     =       255.0269 
PotEng   =       103.8782 E_bond   =        35.3006 E_angle  =        25.7043 
E_dihed  =        44.0811 E_impro  =         0.0000 E_vdwl   =        -1.2078 
E_coul   =         0.0000 E_long   =         0.0000 Press    =         4.4040
------------ Step          30480 ----- CPU =      1.61964 (sec) -------------
TotEng   =       174.7975 KinEng   =        81.8270 Temp     =       277.2854 
PotEng   =        92.9705 E_bond   =        30.5050 E_angle  =        22.4479 
E_dihed  =        41.2415 E_impro  =         0.0000 E_vdwl   =        -1.2239 
E_coul   =         0.0000 E_long   =         0.0000 Press    =         0.4434
------------ Step          30500 ----- CPU =     1.620583 (sec) -------------
TotEng   =       170.1319 KinEng   =        81.9371 Temp     =       277.6587 
PotEng   =        88.1948 E_bond   =        26.6399 E_angle  =        24.5644 
E_dihed  =        38.5681 E_impro  =         0.0000 E_vdwl   =        -1.5776 
E_coul   =         0.0000 E_long   =         0.0000 Press    =        -2.8185
------------ Step          30520 ----- CPU =     1.622336 (sec) -------------
TotEng   =       166.5510 KinEng   =        83.5229 Temp     =       283.0324 
PotEng   =        83.0281 E_bond   =        25.3610 E_angle  =        21.6367 
E_dihed  =        38.1248 E_impro  =         0.0000 E_vdwl   =        -2.0945 
E_coul   =         0.0000 E_long   =         0.0000 Press    =         4.4116
------------ Step          30540 ----- CPU =     1.623224 (sec) -------------
TotEng   =       164.1437 KinEng   =        71.1112 Temp     =       240.9729 
PotEng   =        93.0325 E_bond   =        30.9967 E_angle  =        27.2842 
E_dihed  =        38.1345 E_impro  =         0.0000 E_vdwl   =        -3.3828 
E_coul   =         0.0000 E_long   =         0.0000 Press    =        -2.4157
------------ Step          30560 ----- CPU =      1.62406 (sec) -------------
TotEng   =       162.9163 KinEng   =        76.0134 Temp     =       257.5850 
PotEng   =        86.9030 E_bond   =        28.7407 E_angle  =        22.9982 
E_dihed  =        38.9185 E_impro  =         0.0000 E_vdwl   =        -3.7544 
E_coul   =         0.0000 E_long   =         0.0000 Press    =        -0.4510
------------ Step          30580 ----- CPU =     1.624831 (sec) -------------
TotEng   =       162.7274 KinEng   =        72.2781 Temp     =       244.9274 
PotEng   =        90.4493 E_bond   =        29.4437 E_angle  =        25.1505 
E_dihed  =        38.8991 E_impro  =         0.0000 E_vdwl   =        -3.0440 
E_coul   =         0.0000 E_long   =         0.0000 Press    =         2.2002
------------ Step          30600 ----- CPU =     1.625565 (sec) -------------
TotEng   =       163.4503 KinEng   =        81.1320 Temp     =       274.9305 
PotEng   =        82.3183 E_bond   =        29.8179 E_angle  =        16.7935 
E_dihed  =        39.3590 E_impro  =         0.0000 E_vdwl   =        -3.6520 
E_coul   =         0.0000 E_long   =         0.0000 Press    =        -3.3068
------------ Step          30620 ----- CPU =     1.626719 (sec) -------------
TotEng   =       164.8880 KinEng   =        75.3729 Temp     =       255.4146 
PotEng   =        89.5151 E_bond   =        28.0245 E_angle  =        27.1709 
E_dihed  =        37.2897 E_impro  =         0.0000 E_vdwl   =        -2.9700 
E_coul   =         0.0000 E_long   =         0.0000 Press    =        -1.3589
------------ Step          30640 ----- CPU =     1.627496 (sec) -------------
TotEng   =       167.0441 KinEng   =        83.8980 Temp     =       284.3034 
PotEng   =        83.1462 E_bond   =        26.0777 E_angle  =        23.4846 
E_dihed  =        37.6652 E_impro  =         0.0000 E_vdwl   =        -4.0814 
E_coul   =         0.0000 E_long   =         0.0000 Press    =         1.0078
------------ Step          30660 ----- CPU =     1.628738 (sec) -------------
TotEng   =       169.2644 KinEng   =        80.6842 Temp     =       273.4130 
PotEng   =        88.5802 E_bond   =        28.6212 E_angle  =        25.4212 
E_dihed  =        38.0702 E_impro  =         0.0000 E_vdwl   =        -3.5324 
E_coul   =         0.0000 E_long   =         0.0000 Press    =        -3.3927
------------ Step          30680 ----- CPU =     1.629826 (sec) -------------
TotEng   =       171.7581 KinEng   =        81.5809 Temp     =       276.4515 
PotEng   =        90.1772 E_bond   =        29.7209 E_angle  =        24.3033 
E_dihed  =        39.8873 E_impro  =         0.0000 E_vdwl   =        -3.7342 
E_coul   =         0.0000 E_long   =         0.0000 Press    =        -0.9221
------------ Step          30700 ----- CPU =     1.630735 (sec) -------------
TotEng   =       174.1525 KinEng   =        86.6794 Temp     =       293.7286 
PotEng   =        87.4731 E_bond   =        31.2399 E_angle  =        18.3581 
E_dihed  =        41.1815 E_impro  =         0.0000 E_vdwl   =        -3.3064 
E_coul   =         0.0000 E_long   =         0.0000 Press    =         2.4839
------------ Step          30720 ----- CPU =     1.631822 (sec) -------------
TotEng   =       176.2969 KinEng   =        79.7998 Temp     =       270.4160 
PotEng   =        96.4971 E_bond   =        29.1579 E_angle  =        28.9606 
E_dihed  =        42.3713 E_impro  =         0.0000 E_vdwl   =        -3.9927 
E_coul   =         0.0000 E_long   =         0.0000 Press    =        -2.3085
------------ Step          30740 ----- CPU =      1.63257 (sec) -------------
TotEng   =       178.3680 KinEng   =        88.5771 Temp     =       300.1596 
PotEng   =        89.7909 E_bond   =        30.5627 E_angle  =        22.6600 
E_dihed  =        41.2334 E_impro  =         0.0000 E_vdwl   =        -4.6653 
E_coul   =         0.0000 E_long   =         0.0000 Press    =         0.8674
------------ Step          30760 ----- CPU =     1.633304 (sec) -------------
TotEng   =       180.1978 KinEng   =        79.8460 Temp     =       270.5726 
PotEng   =       100.3518 E_bond   =        27.0478 E_angle  =        35.6600 
E_dihed  =        41.2579 E_impro  =         0.0000 E_vdwl   =        -3.6140 
E_coul   =         0.0000 E_long   =         0.0000 Press    =         1.3272
------------ Step          30780 ----- CPU =     1.634274 (sec) -------------
TotEng   =       181.9674 KinEng   =        92.6152 Temp     =       313.8431 
PotEng   =        89.3523 E_bond   =        28.5413 E_angle  =        23.0482 
E_dihed  =        42.0052 E_impro  =         0.0000 E_vdwl   =        -4.2423 
E_coul   =         0.0000 E_long   =         0.0000 Press    =        -2.6615
------------ Step          30800 ----- CPU =     1.635132 (sec) -------------
TotEng   =       183.4721 KinEng   =        77.0397 Temp     =       261.0628 
PotEng   =       106.4324 E_bond   =        37.0539 E_angle  =        27.8540 
E_dihed  =        45.3490 E_impro  =         0.0000 E_vdwl   =        -3.8245 
E_coul   =         0.0000 E_long   =         0.0000 Press    =         3.8807
------------ Step          30820 ----- CPU =     1.636014 (sec) -------------
TotEng   =       184.7876 KinEng   =        91.1255 Temp     =       308.7952 
PotEng   =        93.6621 E_bond   =        28.1925 E_angle  =        26.1275 
E_dihed  =        43.6450 E_impro  =         0.0000 E_vdwl   =        -4.3028 
E_coul   =         0.0000 E_long   =         0.0000 Press    =        -0.3490
------------ Step          30840 ----- CPU =     1.636828 (sec) -------------
TotEng   =       186.0362 KinEng   =        92.6327 Temp     =       313.9025 
PotEng   =        93.4035 E_bond   =        28.0668 E_angle  =        30.7857 
E_dihed  =        39.0345 E_impro  =         0.0000 E_vdwl   =        -4.4835 
E_coul   =         0.0000 E_long   =         0.0000 Press    =        -1.2579
------------ Step          30860 ----- CPU =     1.637614 (sec) -------------
TotEng   =       186.9324 KinEng   =        93.8641 Temp     =       318.0753 
PotEng   =        93.0683 E_bond   =        28.2944 E_angle  =        28.4781 
E_dihed  =        41.9114 E_impro  =         0.0000 E_vdwl   =        -5.6156 
E_coul   =         0.0000 E_long   =         0.0000 Press    =         3.7865
------------ Step          30880 ----- CPU =     1.638635 (sec) -------------
TotEng   =       187.3594 KinEng   =        92.8683 Temp     =       314.7009 
PotEng   =        94.4911 E_bond   =        25.4921 E_angle  =        24.3999 
E_dihed  =        49.8133 E_impro  =         0.0000 E_vdwl   =        -5.2142 
E_coul   =         0.0000 E_long   =         0.0000 Press    =         1.9270
------------ Step          30900 ----- CPU =     1.639885 (sec) -------------
TotEng   =       187.6466 KinEng   =        82.0423 Temp     =       278.0151 
PotEng   =       105.6043 E_bond   =        34.5312 E_angle  =        29.2037 
E_dihed  =        46.8903 E_impro  =         0.0000 E_vdwl   =        -5.0209 
E_coul   =         0.0000 E_long   =         0.0000 Press    =        -0.8699
------------ Step          30920 ----- CPU =     1.640847 (sec) -------------
TotEng   =       187.8848 KinEng   =        95.0630 Temp     =       322.1379 
PotEng   =        92.8219 E_bond   =        29.6478 E_angle  =        26.1246 
E_dihed  =        42.2910 E_impro  =         0.0000 E_vdwl   =        -5.2415 
E_coul   =         0.0000 E_long   =         0.0000 Press    =        -0.1246
------------ Step          30940 ----- CPU =     1.641607 (sec) -------------
TotEng   =       187.8655 KinEng   =        93.0823 Temp     =       315.4262 
PotEng   =        94.7832 E_bond   =        33.2583 E_angle  =        27.6535 
E_dihed  =        38.5898 E_impro  =         0.0000 E_vdwl   =        -4.7184 
E_coul   =         0.0000 E_long   =         0.0000 Press    =         0.8182
------------ Step          30960 ----- CPU =     1.644724 (sec) -------------
TotEng   =       187.2400 KinEng   =        90.1774 Temp     =       305.5823 
PotEng   =        97.0626 E_bond   =        33.3154 E_angle  =        27.3084 
E_dihed  =        40.0486 E_impro  =         0.0000 E_vdwl   =        -3.6097 
E_coul   =         0.0000 E_long   =         0.0000 Press    =        -4.2547
------------ Step          30980 ----- CPU =     1.646028 (sec) -------------
TotEng   =       186.5700 KinEng   =        83.7622 Temp     =       283.8432 
PotEng   =       102.8078 E_bond   =        29.8219 E_angle  =        28.8830 
E_dihed  =        47.7577 E_impro  =         0.0000 E_vdwl   =        -3.6547 
E_coul   =         0.0000 E_long   =         0.0000 Press    =         1.5959
------------ Step          31000 ----- CPU =     1.646948 (sec) -------------
TotEng   =       186.1767 KinEng   =        91.2482 Temp     =       309.2109 
PotEng   =        94.9285 E_bond   =        27.7759 E_angle  =        21.7993 
E_dihed  =        49.0410 E_impro  =         0.0000 E_vdwl   =        -3.6877 
E_coul   =         0.0000 E_long   =         0.0000 Press    =         1.7339
------------ Step          31020 ----- CPU =     1.647867 (sec) -------------
TotEng   =       185.9181 KinEng   =        80.7078 Temp     =       273.4927 
PotEng   =       105.2103 E_bond   =        35.0991 E_angle  =        27.0214 
E_dihed  =        46.6198 E_impro  =         0.0000 E_vdwl   =        -3.5300 
E_coul   =         0.0000 E_long   =         0.0000 Press    =        -2.9211
------------ Step          31040 ----- CPU =     1.648685 (sec) -------------
TotEng   =       185.7681 KinEng   =        87.4537 Temp     =       296.3526 
PotEng   =        98.3144 E_bond   =        29.6751 E_angle  =        28.2024 
E_dihed  =        44.9104 E_impro  =         0.0000 E_vdwl   =        -4.4734 
E_coul   =         0.0000 E_long   =         0.0000 Press    =         3.0029
------------ Step          31060 ----- CPU =     1.649546 (sec) -------------
TotEng   =       185.8208 KinEng   =        85.5808 Temp     =       290.0058 
PotEng   =       100.2401 E_bond   =        30.5278 E_angle  =        31.4224 
E_dihed  =        43.0137 E_impro  =         0.0000 E_vdwl   =        -4.7238 
E_coul   =         0.0000 E_long   =         0.0000 Press    =        -1.7642
------------ Step          31080 ----- CPU =     1.650434 (sec) -------------
TotEng   =       186.3509 KinEng   =        87.8903 Temp     =       297.8320 
PotEng   =        98.4606 E_bond   =        32.9518 E_angle  =        30.0013 
E_dihed  =        40.0576 E_impro  =         0.0000 E_vdwl   =        -4.5501 
E_coul   =         0.0000 E_long   =         0.0000 Press    =        -2.8199
------------ Step          31100 ----- CPU =     1.651298 (sec) -------------
TotEng   =       186.8489 KinEng   =        86.2796 Temp     =       292.3738 
PotEng   =       100.5694 E_bond   =        31.1899 E_angle  =        33.5279 
E_dihed  =        40.4236 E_impro  =         0.0000 E_vdwl   =        -4.5720 
E_coul   =         0.0000 E_long   =         0.0000 Press    =         1.7227
------------ Step          31120 ----- CPU =     1.652244 (sec) -------------
TotEng   =       187.9151 KinEng   =        91.0004 Temp     =       308.3713 
PotEng   =        96.9147 E_bond   =        29.9898 E_angle  =        29.1072 
E_dihed  =        42.1846 E_impro  =         0.0000 E_vdwl   =        -4.3670 
E_coul   =         0.0000 E_long   =         0.0000 Press    =        -2.5025
------------ Step          31140 ----- CPU =     1.653005 (sec) -------------
TotEng   =       189.3308 KinEng   =        85.8486 Temp     =       290.9134 
PotEng   =       103.4822 E_bond   =        34.5131 E_angle  =        29.8311 
E_dihed  =        43.0485 E_impro  =         0.0000 E_vdwl   =        -3.9106 
E_coul   =         0.0000 E_long   =         0.0000 Press    =        -3.4532
------------ Step          31160 ----- CPU =     1.654174 (sec) -------------
TotEng   =       190.8047 KinEng   =        89.8956 Temp     =       304.6275 
PotEng   =       100.9090 E_bond   =        31.2222 E_angle  =        31.5588 
E_dihed  =        42.1737 E_impro  =         0.0000 E_vdwl   =        -4.0457 
E_coul   =         0.0000 E_long   =         0.0000 Press    =         0.9673
------------ Step          31180 ----- CPU =     1.655465 (sec) -------------
TotEng   =       192.6775 KinEng   =        94.4799 Temp     =       320.1620 
PotEng   =        98.1977 E_bond   =        35.0729 E_angle  =        27.5716 
E_dihed  =        39.4363 E_impro  =         0.0000 E_vdwl   =        -3.8831 
E_coul   =         0.0000 E_long   =         0.0000 Press    =        -0.7197
------------ Step          31200 ----- CPU =     1.656635 (sec) -------------
TotEng   =       194.1116 KinEng   =        90.9144 Temp     =       308.0797 
PotEng   =       103.1972 E_bond   =        34.5630 E_angle  =        31.7710 
E_dihed  =        41.0175 E_impro  =         0.0000 E_vdwl   =        -4.1542 
E_coul   =         0.0000 E_long   =         0.0000 Press    =        -2.5997
------------ Step          31220 ----- CPU =     1.657512 (sec) -------------
TotEng   =       195.3138 KinEng   =        96.8005 Temp     =       328.0258 
PotEng   =        98.5133 E_bond   =        25.9941 E_angle  =        31.6153 
E_dihed  =        45.1970 E_impro  =         0.0000 E_vdwl   =        -4.2931 
E_coul   =         0.0000 E_long   =         0.0000 Press    =         3.6358
------------ Step          31240 ----- CPU =     1.658574 (sec) -------------
TotEng   =       196.4978 KinEng   =        94.1304 Temp     =       318.9776 
PotEng   =       102.3674 E_bond   =        32.1150 E_angle  =        30.4454 
E_dihed  =        43.9400 E_impro  =         0.0000 E_vdwl   =        -4.1330 
E_coul   =         0.0000 E_long   =         0.0000 Press    =        -0.5458
------------ Step          31260 ----- CPU =     1.659956 (sec) -------------
TotEng   =       197.1798 KinEng   =        95.0538 Temp     =       322.1070 
PotEng   =       102.1260 E_bond   =        34.4997 E_angle  =        29.8948 
E_dihed  =        41.5304 E_impro  =         0.0000 E_vdwl   =        -3.7989 
E_coul   =         0.0000 E_long   =         0.0000 Press    =        -0.0875
------------ Step          31280 ----- CPU =      1.66078 (sec) -------------
TotEng   =       197.2786 KinEng   =        93.9361 Temp     =       318.3192 
PotEng   =       103.3425 E_bond   =        33.3902 E_angle  =        32.6984 
E_dihed  =        40.9606 E_impro  =         0.0000 E_vdwl   =        -3.7066 
E_coul   =         0.0000 E_long   =         0.0000 Press    =         2.4976
------------ Step          31300 ----- CPU =     1.661662 (sec) -------------
TotEng   =       196.6921 KinEng   =        93.1878 Temp     =       315.7836 
PotEng   =       103.5043 E_bond   =        36.6883 E_angle  =        28.5835 
E_dihed  =        42.0062 E_impro  =         0.0000 E_vdwl   =        -3.7737 
E_coul   =         0.0000 E_long   =         0.0000 Press    =        -4.3006
------------ Step          31320 ----- CPU =     1.664403 (sec) -------------
TotEng   =       195.6389 KinEng   =        98.1600 Temp     =       332.6328 
PotEng   =        97.4789 E_bond   =        29.4464 E_angle  =        28.5836 
E_dihed  =        43.5296 E_impro  =         0.0000 E_vdwl   =        -4.0808 
E_coul   =         0.0000 E_long   =         0.0000 Press    =         1.8031
------------ Step          31340 ----- CPU =      1.66566 (sec) -------------
TotEng   =       194.0790 KinEng   =        82.7225 Temp     =       280.3201 
PotEng   =       111.3564 E_bond   =        38.3614 E_angle  =        31.6493 
E_dihed  =        45.0903 E_impro  =         0.0000 E_vdwl   =        -3.7446 
E_coul   =         0.0000 E_long   =         0.0000 Press    =         1.8414
------------ Step          31360 ----- CPU =     1.666435 (sec) -------------
TotEng   =       192.0844 KinEng   =        93.4188 Temp     =       316.5664 
PotEng   =        98.6656 E_bond   =        31.4972 E_angle  =        30.0598 
E_dihed  =        40.6673 E_impro  =         0.0000 E_vdwl   =        -3.5587 
E_coul   =         0.0000 E_long   =         0.0000 Press    =        -0.6927
------------ Step          31380 ----- CPU =     1.667332 (sec) -------------
TotEng   =       189.6816 KinEng   =        89.8439 Temp     =       304.4521 
PotEng   =        99.8378 E_bond   =        29.6607 E_angle  =        34.4839 
E_dihed  =        39.3706 E_impro  =         0.0000 E_vdwl   =        -3.6774 
E_coul   =         0.0000 E_long   =         0.0000 Press    =         3.4651
------------ Step          31400 ----- CPU =     1.668779 (sec) -------------
TotEng   =       187.0573 KinEng   =        86.3978 Temp     =       292.7744 
PotEng   =       100.6595 E_bond   =        36.0968 E_angle  =        26.7122 
E_dihed  =        40.6509 E_impro  =         0.0000 E_vdwl   =        -2.8005 
E_coul   =         0.0000 E_long   =         0.0000 Press    =         2.0377
------------ Step          31420 ----- CPU =     1.670117 (sec) -------------
TotEng   =       184.3096 KinEng   =        81.9306 Temp     =       277.6365 
PotEng   =       102.3790 E_bond   =        28.7715 E_angle  =        32.7832 
E_dihed  =        43.7981 E_impro  =         0.0000 E_vdwl   =        -2.9738 
E_coul   =         0.0000 E_long   =         0.0000 Press    =         2.3338
------------ Step          31440 ----- CPU =     1.673584 (sec) -------------
TotEng   =       182.0124 KinEng   =        88.1511 Temp     =       298.7159 
PotEng   =        93.8613 E_bond   =        31.9953 E_angle  =        23.7677 
E_dihed  =        41.6505 E_impro  =         0.0000 E_vdwl   =        -3.5522 
E_coul   =         0.0000 E_long   =         0.0000 Press    =         1.3217
------------ Step          31460 ----- CPU =     1.674947 (sec) -------------
TotEng   =       179.6116 KinEng   =        85.4237 Temp     =       289.4737 
PotEng   =        94.1879 E_bond   =        27.2197 E_angle  =        28.3558 
E_dihed  =        42.4451 E_impro  =         0.0000 E_vdwl   =        -3.8328 
E_coul   =         0.0000 E_long   =         0.0000 Press    =         2.3469
------------ Step          31480 ----- CPU =     1.678613 (sec) -------------
TotEng   =       177.9073 KinEng   =        82.9212 Temp     =       280.9935 
PotEng   =        94.9861 E_bond   =        27.3252 E_angle  =        26.1777 
E_dihed  =        45.5184 E_impro  =         0.0000 E_vdwl   =        -4.0352 
E_coul   =         0.0000 E_long   =         0.0000 Press    =        -1.4615
------------ Step          31500 ----- CPU =     1.679535 (sec) -------------
TotEng   =       176.4864 KinEng   =        79.4860 Temp     =       269.3526 
PotEng   =        97.0004 E_bond   =        29.0301 E_angle  =        26.0467 
E_dihed  =        45.7016 E_impro  =         0.0000 E_vdwl   =        -3.7780 
E_coul   =         0.0000 E_long   =         0.0000 Press    =        -1.7695
------------ Step          31520 ----- CPU =     1.680548 (sec) -------------
TotEng   =       175.8023 KinEng   =        81.0468 Temp     =       274.6415 
PotEng   =        94.7555 E_bond   =        27.1481 E_angle  =        30.8564 
E_dihed  =        40.5679 E_impro  =         0.0000 E_vdwl   =        -3.8169 
E_coul   =         0.0000 E_long   =         0.0000 Press    =         2.0541
------------ Step          31540 ----- CPU =     1.682176 (sec) -------------
TotEng   =       175.5041 KinEng   =        85.7686 Temp     =       290.6421 
PotEng   =        89.7356 E_bond   =        28.6913 E_angle  =        26.9503 
E_dihed  =        37.7638 E_impro  =         0.0000 E_vdwl   =        -3.6698 
E_coul   =         0.0000 E_long   =         0.0000 Press    =        -5.4419
------------ Step          31560 ----- CPU =     1.683098 (sec) -------------
TotEng   =       175.4062 KinEng   =        82.6766 Temp     =       280.1646 
PotEng   =        92.7296 E_bond   =        26.6616 E_angle  =        29.8029 
E_dihed  =        40.3173 E_impro  =         0.0000 E_vdwl   =        -4.0522 
E_coul   =         0.0000 E_long   =         0.0000 Press    =         1.1191
------------ Step          31580 ----- CPU =     1.683949 (sec) -------------
TotEng   =       176.0013 KinEng   =        79.0314 Temp     =       267.8119 
PotEng   =        96.9699 E_bond   =        30.8516 E_angle  =        24.9228 
E_dihed  =        45.3225 E_impro  =         0.0000 E_vdwl   =        -4.1269 
E_coul   =         0.0000 E_long   =         0.0000 Press    =         0.5544
------------ Step          31600 ----- CPU =     1.685423 (sec) -------------
TotEng   =       177.3046 KinEng   =        84.2373 Temp     =       285.4532 
PotEng   =        93.0673 E_bond   =        27.9096 E_angle  =        22.7300 
E_dihed  =        46.3538 E_impro  =         0.0000 E_vdwl   =        -3.9260 
E_coul   =         0.0000 E_long   =         0.0000 Press    =        -4.3638
------------ Step          31620 ----- CPU =     1.686806 (sec) -------------
TotEng   =       179.8809 KinEng   =        84.9831 Temp     =       287.9806 
PotEng   =        94.8978 E_bond   =        26.9211 E_angle  =        29.6613 
E_dihed  =        41.8509 E_impro  =         0.0000 E_vdwl   =        -3.5355 
E_coul   =         0.0000 E_long   =         0.0000 Press    =         4.3243
------------ Step          31640 ----- CPU =     1.691728 (sec) -------------
TotEng   =       183.7877 KinEng   =        84.0319 Temp     =       284.7573 
PotEng   =        99.7557 E_bond   =        31.9519 E_angle  =        33.4478 
E_dihed  =        38.5081 E_impro  =         0.0000 E_vdwl   =        -4.1521 
E_coul   =         0.0000 E_long   =         0.0000 Press    =        -3.3174
------------ Step          31660 ----- CPU =     1.693178 (sec) -------------
TotEng   =       189.3925 KinEng   =        93.7491 Temp     =       317.6855 
PotEng   =        95.6434 E_bond   =        32.1137 E_angle  =        25.9236 
E_dihed  =        42.4107 E_impro  =         0.0000 E_vdwl   =        -4.8046 
E_coul   =         0.0000 E_long   =         0.0000 Press    =        -2.5049
------------ Step          31680 ----- CPU =     1.696887 (sec) -------------
TotEng   =       194.3620 KinEng   =        86.5440 Temp     =       293.2697 
PotEng   =       107.8180 E_bond   =        33.1755 E_angle  =        34.0263 
E_dihed  =        45.5579 E_impro  =         0.0000 E_vdwl   =        -4.9417 
E_coul   =         0.0000 E_long   =         0.0000 Press    =         2.9196
------------ Step          31700 ----- CPU =     1.698436 (sec) -------------
TotEng   =       198.5626 KinEng   =       100.9326 Temp     =       342.0283 
PotEng   =        97.6300 E_bond   =        27.0469 E_angle  =        34.0427 
E_dihed  =        40.9850 E_impro  =         0.0000 E_vdwl   =        -4.4445 
E_coul   =         0.0000 E_long   =         0.0000 Press    =        -4.4930
------------ Step          31720 ----- CPU =     1.699936 (sec) -------------
TotEng   =       201.5535 KinEng   =        97.1818 Temp     =       329.3179 
PotEng   =       104.3717 E_bond   =        33.9266 E_angle  =        33.7951 
E_dihed  =        40.8447 E_impro  =         0.0000 E_vdwl   =        -4.1947 
E_coul   =         0.0000 E_long   =         0.0000 Press    =         1.2383
------------ Step          31740 ----- CPU =     1.701356 (sec) -------------
TotEng   =       203.0075 KinEng   =        95.4981 Temp     =       323.6125 
PotEng   =       107.5094 E_bond   =        37.5492 E_angle  =        27.9061 
E_dihed  =        46.1878 E_impro  =         0.0000 E_vdwl   =        -4.1336 
E_coul   =         0.0000 E_long   =         0.0000 Press    =         2.3920
------------ Step          31760 ----- CPU =      1.70264 (sec) -------------
TotEng   =       203.3811 KinEng   =        91.2497 Temp     =       309.2160 
PotEng   =       112.1314 E_bond   =        36.0414 E_angle  =        29.7605 
E_dihed  =        50.5977 E_impro  =         0.0000 E_vdwl   =        -4.2682 
E_coul   =         0.0000 E_long   =         0.0000 Press    =        -3.1635
------------ Step          31780 ----- CPU =     1.704884 (sec) -------------
TotEng   =       203.4424 KinEng   =        99.2739 Temp     =       336.4075 
PotEng   =       104.1685 E_bond   =        28.8425 E_angle  =        32.6006 
E_dihed  =        46.9356 E_impro  =         0.0000 E_vdwl   =        -4.2101 
E_coul   =         0.0000 E_long   =         0.0000 Press    =         2.3805
------------ Step          31800 ----- CPU =     1.714073 (sec) -------------
TotEng   =       203.0230 KinEng   =        99.4201 Temp     =       336.9027 
PotEng   =       103.6029 E_bond   =        31.6368 E_angle  =        31.5125 
E_dihed  =        44.4517 E_impro  =         0.0000 E_vdwl   =        -3.9981 
E_coul   =         0.0000 E_long   =         0.0000 Press    =         3.3435
------------ Step          31820 ----- CPU =     1.715857 (sec) -------------
TotEng   =       201.9902 KinEng   =        93.0997 Temp     =       315.4850 
PotEng   =       108.8905 E_bond   =        38.6477 E_angle  =        30.4954 
E_dihed  =        43.8302 E_impro  =         0.0000 E_vdwl   =        -4.0828 
E_coul   =         0.0000 E_long   =         0.0000 Press    =        -1.0194
------------ Step          31840 ----- CPU =     1.716855 (sec) -------------
TotEng   =       200.1585 KinEng   =        93.3048 Temp     =       316.1799 
PotEng   =       106.8537 E_bond   =        32.5672 E_angle  =        34.8510 
E_dihed  =        43.5251 E_impro  =         0.0000 E_vdwl   =        -4.0895 
E_coul   =         0.0000 E_long   =         0.0000 Press    =         2.3650
------------ Step          31860 ----- CPU =     1.717729 (sec) -------------
TotEng   =       198.1022 KinEng   =        89.2566 Temp     =       302.4621 
PotEng   =       108.8456 E_bond   =        35.5224 E_angle  =        33.4071 
E_dihed  =        44.1628 E_impro  =         0.0000 E_vdwl   =        -4.2467 
E_coul   =         0.0000 E_long   =         0.0000 Press    =         3.3726
------------ Step          31880 ----- CPU =     1.718519 (sec) -------------
TotEng   =       195.7440 KinEng   =        88.0196 Temp     =       298.2701 
PotEng   =       107.7244 E_bond   =        30.0308 E_angle  =        37.6416 
E_dihed  =        44.4054 E_impro  =         0.0000 E_vdwl   =        -4.3534 
E_coul   =         0.0000 E_long   =         0.0000 Press    =        -1.0410
------------ Step          31900 ----- CPU =      1.72011 (sec) -------------
TotEng   =       193.6289 KinEng   =        98.5660 Temp     =       334.0086 
PotEng   =        95.0629 E_bond   =        30.3221 E_angle  =        27.6960 
E_dihed  =        41.3718 E_impro  =         0.0000 E_vdwl   =        -4.3270 
E_coul   =         0.0000 E_long   =         0.0000 Press    =         2.4436
------------ Step          31920 ----- CPU =     1.722492 (sec) -------------
TotEng   =       190.7721 KinEng   =        90.1719 Temp     =       305.5638 
PotEng   =       100.6002 E_bond   =        27.5158 E_angle  =        34.1994 
E_dihed  =        42.7705 E_impro  =         0.0000 E_vdwl   =        -3.8856 
E_coul   =         0.0000 E_long   =         0.0000 Press    =         0.7856
------------ Step          31940 ----- CPU =     1.723402 (sec) -------------
TotEng   =       188.3348 KinEng   =        85.9757 Temp     =       291.3439 
PotEng   =       102.3592 E_bond   =        33.0080 E_angle  =        28.0912 
E_dihed  =        45.9585 E_impro  =         0.0000 E_vdwl   =        -4.6986 
E_coul   =         0.0000 E_long   =         0.0000 Press    =        -2.4361
------------ Step          31960 ----- CPU =     1.724226 (sec) -------------
TotEng   =       186.0234 KinEng   =        91.7862 Temp     =       311.0339 
PotEng   =        94.2372 E_bond   =        27.5438 E_angle  =        27.8969 
E_dihed  =        44.2769 E_impro  =         0.0000 E_vdwl   =        -5.4803 
E_coul   =         0.0000 E_long   =         0.0000 Press    =         1.4212
------------ Step          31980 ----- CPU =     1.725003 (sec) -------------
TotEng   =       183.9884 KinEng   =        91.0000 Temp     =       308.3697 
PotEng   =        92.9884 E_bond   =        31.8742 E_angle  =        27.5824 
E_dihed  =        38.3228 E_impro  =         0.0000 E_vdwl   =        -4.7910 
E_coul   =         0.0000 E_long   =         0.0000 Press    =        -1.0240
------------ Step          32000 ----- CPU =      1.72728 (sec) -------------
TotEng   =       181.9482 KinEng   =        92.6870 Temp     =       314.0864 
PotEng   =        89.2612 E_bond   =        26.2045 E_angle  =        28.2188 
E_dihed  =        39.8018 E_impro  =         0.0000 E_vdwl   =        -4.9638 
E_coul   =         0.0000 E_long   =         0.0000 Press    =         0.1767
------------ Step          32020 ----- CPU =     1.728764 (sec) -------------
TotEng   =       180.4701 KinEng   =        83.1240 Temp     =       281.6804 
PotEng   =        97.3462 E_bond   =        35.7146 E_angle  =        26.1510 
E_dihed  =        40.7056 E_impro  =         0.0000 E_vdwl   =        -5.2250 
E_coul   =         0.0000 E_long   =         0.0000 Press    =         1.1610
------------ Step          32040 ----- CPU =     1.729704 (sec) -------------
TotEng   =       179.1695 KinEng   =        85.6871 Temp     =       290.3660 
PotEng   =        93.4824 E_bond   =        25.7474 E_angle  =        33.0272 
E_dihed  =        39.9949 E_impro  =         0.0000 E_vdwl   =        -5.2871 
E_coul   =         0.0000 E_long   =         0.0000 Press    =        -0.4586
------------ Step          32060 ----- CPU =     1.730524 (sec) -------------
TotEng   =       178.6212 KinEng   =        88.8306 Temp     =       301.0183 
PotEng   =        89.7906 E_bond   =        25.5103 E_angle  =        28.7397 
E_dihed  =        40.7826 E_impro  =         0.0000 E_vdwl   =        -5.2420 
E_coul   =         0.0000 E_long   =         0.0000 Press    =        -1.8636
------------ Step          32080 ----- CPU =     1.732071 (sec) -------------
TotEng   =       178.3713 KinEng   =        84.1125 Temp     =       285.0305 
PotEng   =        94.2587 E_bond   =        28.9277 E_angle  =        28.4861 
E_dihed  =        42.3143 E_impro  =         0.0000 E_vdwl   =        -5.4695 
E_coul   =         0.0000 E_long   =         0.0000 Press    =        -0.9249
------------ Step          32100 ----- CPU =     1.733202 (sec) -------------
TotEng   =       178.4954 KinEng   =        77.0946 Temp     =       261.2489 
PotEng   =       101.4008 E_bond   =        36.0927 E_angle  =        26.6272 
E_dihed  =        44.7499 E_impro  =         0.0000 E_vdwl   =        -6.0689 
E_coul   =         0.0000 E_long   =         0.0000 Press    =         0.0140
------------ Step          32120 ----- CPU =      1.73422 (sec) -------------
TotEng   =       178.7402 KinEng   =        83.5146 Temp     =       283.0041 
PotEng   =        95.2257 E_bond   =        28.9886 E_angle  =        26.8762 
E_dihed  =        45.5850 E_impro  =         0.0000 E_vdwl   =        -6.2242 
E_coul   =         0.0000 E_long   =         0.0000 Press    =        -4.6490
------------ Step          32140 ----- CPU =     1.735055 (sec) -------------
TotEng   =       179.2778 KinEng   =        88.1460 Temp     =       298.6985 
PotEng   =        91.1318 E_bond   =        27.6852 E_angle  =        25.6838 
E_dihed  =        44.4212 E_impro  =         0.0000 E_vdwl   =        -6.6584 
E_coul   =         0.0000 E_long   =         0.0000 Press    =        -0.6603
------------ Step          32160 ----- CPU =     1.735838 (sec) -------------
TotEng   =       179.9493 KinEng   =        88.1622 Temp     =       298.7535 
PotEng   =        91.7871 E_bond   =        28.2485 E_angle  =        28.3887 
E_dihed  =        41.4685 E_impro  =         0.0000 E_vdwl   =        -6.3187 
E_coul   =         0.0000 E_long   =         0.0000 Press    =        -1.6683
------------ Step          32180 ----- CPU =     1.736611 (sec) -------------
TotEng   =       180.5837 KinEng   =        84.6444 Temp     =       286.8328 
PotEng   =        95.9393 E_bond   =        30.2851 E_angle  =        30.2019 
E_dihed  =        41.1105 E_impro  =         0.0000 E_vdwl   =        -5.6582 
E_coul   =         0.0000 E_long   =         0.0000 Press    =        -2.6330
------------ Step          32200 ----- CPU =     1.740216 (sec) -------------
TotEng   =       181.1968 KinEng   =        86.8297 Temp     =       294.2380 
PotEng   =        94.3672 E_bond   =        28.5149 E_angle  =        34.1735 
E_dihed  =        39.5521 E_impro  =         0.0000 E_vdwl   =        -7.8733 
E_coul   =         0.0000 E_long   =         0.0000 Press    =         1.2458
------------ Step          32220 ----- CPU =     1.741279 (sec) -------------
TotEng   =       181.9605 KinEng   =        85.7260 Temp     =       290.4980 
PotEng   =        96.2344 E_bond   =        29.7942 E_angle  =        33.6068 
E_dihed  =        40.0693 E_impro  =         0.0000 E_vdwl   =        -7.2359 
E_coul   =         0.0000 E_long   =         0.0000 Press    =        -3.3994
------------ Step          32240 ----- CPU =     1.742203 (sec) -------------
TotEng   =       182.8197 KinEng   =        89.2966 Temp     =       302.5976 
PotEng   =        93.5230 E_bond   =        27.7828 E_angle  =        31.4356 
E_dihed  =        42.8959 E_impro  =         0.0000 E_vdwl   =        -8.5913 
E_coul   =         0.0000 E_long   =         0.0000 Press    =         2.5703
------------ Step          32260 ----- CPU =     1.743436 (sec) -------------
TotEng   =       183.8310 KinEng   =        82.9536 Temp     =       281.1031 
PotEng   =       100.8774 E_bond   =        29.3775 E_angle  =        36.6817 
E_dihed  =        42.7280 E_impro  =         0.0000 E_vdwl   =        -7.9098 
E_coul   =         0.0000 E_long   =         0.0000 Press    =         3.9855
------------ Step          32280 ----- CPU =     1.744735 (sec) -------------
TotEng   =       184.9387 KinEng   =        90.0719 Temp     =       305.2248 
PotEng   =        94.8668 E_bond   =        28.2389 E_angle  =        34.3097 
E_dihed  =        39.9360 E_impro  =         0.0000 E_vdwl   =        -7.6178 
E_coul   =         0.0000 E_long   =         0.0000 Press    =        -2.6555
------------ Step          32300 ----- CPU =     1.746794 (sec) -------------
TotEng   =       186.0932 KinEng   =        84.2294 Temp     =       285.4266 
PotEng   =       101.8638 E_bond   =        29.7282 E_angle  =        35.6753 
E_dihed  =        45.8045 E_impro  =         0.0000 E_vdwl   =        -9.3442 
E_coul   =         0.0000 E_long   =         0.0000 Press    =         1.4143
------------ Step          32320 ----- CPU =     1.747918 (sec) -------------
TotEng   =       187.3929 KinEng   =        86.1890 Temp     =       292.0670 
PotEng   =       101.2039 E_bond   =        34.8666 E_angle  =        27.8510 
E_dihed  =        47.7341 E_impro  =         0.0000 E_vdwl   =        -9.2478 
E_coul   =         0.0000 E_long   =         0.0000 Press    =         1.4264
------------ Step          32340 ----- CPU =     1.748821 (sec) -------------
TotEng   =       188.5208 KinEng   =        88.9761 Temp     =       301.5115 
PotEng   =        99.5447 E_bond   =        33.7735 E_angle  =        27.0930 
E_dihed  =        47.5046 E_impro  =         0.0000 E_vdwl   =        -8.8264 
E_coul   =         0.0000 E_long   =         0.0000 Press    =        -1.4082
------------ Step          32360 ----- CPU =     1.749723 (sec) -------------
TotEng   =       189.4442 KinEng   =        91.0273 Temp     =       308.4623 
PotEng   =        98.4169 E_bond   =        26.3081 E_angle  =        34.0963 
E_dihed  =        47.1265 E_impro  =         0.0000 E_vdwl   =        -9.1141 
E_coul   =         0.0000 E_long   =         0.0000 Press    =         2.2569
------------ Step          32380 ----- CPU =     1.750562 (sec) -------------
TotEng   =       190.2769 KinEng   =        90.1045 Temp     =       305.3353 
PotEng   =       100.1724 E_bond   =        31.6930 E_angle  =        32.1396 
E_dihed  =        46.1249 E_impro  =         0.0000 E_vdwl   =        -9.7852 
E_coul   =         0.0000 E_long   =         0.0000 Press    =         1.3834
------------ Step          32400 ----- CPU =     1.751352 (sec) -------------
TotEng   =       190.7685 KinEng   =        93.0727 Temp     =       315.3935 
PotEng   =        97.6958 E_bond   =        31.2018 E_angle  =        29.2890 
E_dihed  =        46.1941 E_impro  =         0.0000 E_vdwl   =        -8.9890 
E_coul   =         0.0000 E_long   =         0.0000 Press    =        -0.5580
------------ Step          32420 ----- CPU =     1.755448 (sec) -------------
TotEng   =       191.0005 KinEng   =        87.5730 Temp     =       296.7567 
PotEng   =       103.4276 E_bond   =        35.2956 E_angle  =        32.7672 
E_dihed  =        43.9112 E_impro  =         0.0000 E_vdwl   =        -8.5464 
E_coul   =         0.0000 E_long   =         0.0000 Press    =         3.9198
------------ Step          32440 ----- CPU =     1.756457 (sec) -------------
TotEng   =       190.8852 KinEng   =       101.8555 Temp     =       345.1557 
PotEng   =        89.0297 E_bond   =        27.6026 E_angle  =        28.1997 
E_dihed  =        41.7258 E_impro  =         0.0000 E_vdwl   =        -8.4984 
E_coul   =         0.0000 E_long   =         0.0000 Press    =         1.7544
------------ Step          32460 ----- CPU =     1.757277 (sec) -------------
TotEng   =       190.1355 KinEng   =        91.6544 Temp     =       310.5875 
PotEng   =        98.4810 E_bond   =        23.3643 E_angle  =        36.3508 
E_dihed  =        48.2833 E_impro  =         0.0000 E_vdwl   =        -9.5173 
E_coul   =         0.0000 E_long   =         0.0000 Press    =         0.4266
------------ Step          32480 ----- CPU =     1.758203 (sec) -------------
TotEng   =       189.6765 KinEng   =        84.6605 Temp     =       286.8873 
PotEng   =       105.0160 E_bond   =        31.8953 E_angle  =        31.2231 
E_dihed  =        50.3334 E_impro  =         0.0000 E_vdwl   =        -8.4359 
E_coul   =         0.0000 E_long   =         0.0000 Press    =         0.9699
------------ Step          32500 ----- CPU =     1.759482 (sec) -------------
TotEng   =       189.4695 KinEng   =        78.2572 Temp     =       265.1885 
PotEng   =       111.2124 E_bond   =        39.3369 E_angle  =        29.9257 
E_dihed  =        49.3096 E_impro  =         0.0000 E_vdwl   =        -7.3598 
E_coul   =         0.0000 E_long   =         0.0000 Press    =        -3.5288
------------ Step          32520 ----- CPU =     1.760886 (sec) -------------
TotEng   =       189.5915 KinEng   =        90.8190 Temp     =       307.7565 
PotEng   =        98.7725 E_bond   =        30.3889 E_angle  =        31.2250 
E_dihed  =        46.0766 E_impro  =         0.0000 E_vdwl   =        -8.9180 
E_coul   =         0.0000 E_long   =         0.0000 Press    =        -0.3727
------------ Step          32540 ----- CPU =     1.763107 (sec) -------------
TotEng   =       189.5896 KinEng   =        94.8658 Temp     =       321.4697 
PotEng   =        94.7238 E_bond   =        27.3841 E_angle  =        30.5582 
E_dihed  =        45.3275 E_impro  =         0.0000 E_vdwl   =        -8.5459 
E_coul   =         0.0000 E_long   =         0.0000 Press    =        -0.7721
------------ Step          32560 ----- CPU =     1.764001 (sec) -------------
TotEng   =       189.3084 KinEng   =        89.0907 Temp     =       301.8998 
PotEng   =       100.2177 E_bond   =        33.2579 E_angle  =        30.7623 
E_dihed  =        44.4200 E_impro  =         0.0000 E_vdwl   =        -8.2224 
E_coul   =         0.0000 E_long   =         0.0000 Press    =        -2.3602
------------ Step          32580 ----- CPU =     1.764907 (sec) -------------
TotEng   =       187.9053 KinEng   =        91.0939 Temp     =       308.6882 
PotEng   =        96.8113 E_bond   =        32.1775 E_angle  =        26.5167 
E_dihed  =        46.1971 E_impro  =         0.0000 E_vdwl   =        -8.0800 
E_coul   =         0.0000 E_long   =         0.0000 Press    =         1.0600
------------ Step          32600 ----- CPU =     1.765747 (sec) -------------
TotEng   =       185.1637 KinEng   =        84.7914 Temp     =       287.3310 
PotEng   =       100.3723 E_bond   =        30.2459 E_angle  =        30.8960 
E_dihed  =        47.3062 E_impro  =         0.0000 E_vdwl   =        -8.0758 
E_coul   =         0.0000 E_long   =         0.0000 Press    =        -1.9597
------------ Step          32620 ----- CPU =     1.766876 (sec) -------------
TotEng   =       181.1228 KinEng   =        82.6690 Temp     =       280.1387 
PotEng   =        98.4538 E_bond   =        35.5242 E_angle  =        26.0667 
E_dihed  =        45.4397 E_impro  =         0.0000 E_vdwl   =        -8.5768 
E_coul   =         0.0000 E_long   =         0.0000 Press    =        -0.7239
------------ Step          32640 ----- CPU =     1.767859 (sec) -------------
TotEng   =       176.8213 KinEng   =        87.2571 Temp     =       295.6862 
PotEng   =        89.5643 E_bond   =        26.3270 E_angle  =        29.1447 
E_dihed  =        42.1344 E_impro  =         0.0000 E_vdwl   =        -8.0418 
E_coul   =         0.0000 E_long   =         0.0000 Press    =         0.7039
------------ Step          32660 ----- CPU =     1.768772 (sec) -------------
TotEng   =       172.7468 KinEng   =        87.8948 Temp     =       297.8474 
PotEng   =        84.8520 E_bond   =        25.7230 E_angle  =        27.8273 
E_dihed  =        39.5870 E_impro  =         0.0000 E_vdwl   =        -8.2853 
E_coul   =         0.0000 E_long   =         0.0000 Press    =        -2.3512
------------ Step          32680 ----- CPU =     1.770259 (sec) -------------
TotEng   =       169.5771 KinEng   =        80.1603 Temp     =       271.6376 
PotEng   =        89.4168 E_bond   =        28.0735 E_angle  =        29.7972 
E_dihed  =        41.2661 E_impro  =         0.0000 E_vdwl   =        -9.7200 
E_coul   =         0.0000 E_long   =         0.0000 Press    =         0.7562
------------ Step          32700 ----- CPU =     1.771393 (sec) -------------
TotEng   =       167.4208 KinEng   =        84.2722 Temp     =       285.5713 
PotEng   =        83.1487 E_bond   =        27.1979 E_angle  =        23.8720 
E_dihed  =        41.4414 E_impro  =         0.0000 E_vdwl   =        -9.3626 
E_coul   =         0.0000 E_long   =         0.0000 Press    =        -1.3801
------------ Step          32720 ----- CPU =     1.773282 (sec) -------------
TotEng   =       165.8383 KinEng   =        77.2576 Temp     =       261.8013 
PotEng   =        88.5807 E_bond   =        27.1431 E_angle  =        24.4370 
E_dihed  =        44.7591 E_impro  =         0.0000 E_vdwl   =        -7.7586 
E_coul   =         0.0000 E_long   =         0.0000 Press    =         0.2315
------------ Step          32740 ----- CPU =     1.774106 (sec) -------------
TotEng   =       165.1246 KinEng   =        80.9752 Temp     =       274.3991 
PotEng   =        84.1494 E_bond   =        29.1364 E_angle  =        21.0886 
E_dihed  =        42.8945 E_impro  =         0.0000 E_vdwl   =        -8.9702 
E_coul   =         0.0000 E_long   =         0.0000 Press    =         1.3774
------------ Step          32760 ----- CPU =     1.774953 (sec) -------------
TotEng   =       165.0302 KinEng   =        80.0223 Temp     =       271.1701 
PotEng   =        85.0079 E_bond   =        25.4048 E_angle  =        25.7669 
E_dihed  =        42.5145 E_impro  =         0.0000 E_vdwl   =        -8.6783 
E_coul   =         0.0000 E_long   =         0.0000 Press    =        -0.4249
------------ Step          32780 ----- CPU =     1.775918 (sec) -------------
TotEng   =       165.5487 KinEng   =        81.4792 Temp     =       276.1070 
PotEng   =        84.0695 E_bond   =        30.3251 E_angle  =        20.8283 
E_dihed  =        42.2762 E_impro  =         0.0000 E_vdwl   =        -9.3600 
E_coul   =         0.0000 E_long   =         0.0000 Press    =         1.6927
------------ Step          32800 ----- CPU =     1.776844 (sec) -------------
TotEng   =       166.5135 KinEng   =        77.4064 Temp     =       262.3055 
PotEng   =        89.1071 E_bond   =        26.0682 E_angle  =        26.4071 
E_dihed  =        46.9555 E_impro  =         0.0000 E_vdwl   =       -10.3237 
E_coul   =         0.0000 E_long   =         0.0000 Press    =         1.1290
------------ Step          32820 ----- CPU =     1.779229 (sec) -------------
TotEng   =       168.4595 KinEng   =        79.5676 Temp     =       269.6290 
PotEng   =        88.8919 E_bond   =        29.7723 E_angle  =        25.8161 
E_dihed  =        43.8128 E_impro  =         0.0000 E_vdwl   =       -10.5092 
E_coul   =         0.0000 E_long   =         0.0000 Press    =        -0.2079
------------ Step          32840 ----- CPU =      1.78008 (sec) -------------
TotEng   =       171.0004 KinEng   =        75.7944 Temp     =       256.8431 
PotEng   =        95.2060 E_bond   =        31.9093 E_angle  =        31.8745 
E_dihed  =        41.5125 E_impro  =         0.0000 E_vdwl   =       -10.0903 
E_coul   =         0.0000 E_long   =         0.0000 Press    =         1.2919
------------ Step          32860 ----- CPU =     1.781071 (sec) -------------
TotEng   =       174.1715 KinEng   =        80.4286 Temp     =       272.5469 
PotEng   =        93.7428 E_bond   =        35.8592 E_angle  =        29.2927 
E_dihed  =        40.4027 E_impro  =         0.0000 E_vdwl   =       -11.8116 
E_coul   =         0.0000 E_long   =         0.0000 Press    =        -0.4736
------------ Step          32880 ----- CPU =     1.781918 (sec) -------------
TotEng   =       177.7264 KinEng   =        94.9319 Temp     =       321.6937 
PotEng   =        82.7945 E_bond   =        24.3248 E_angle  =        23.1513 
E_dihed  =        46.0288 E_impro  =         0.0000 E_vdwl   =       -10.7105 
E_coul   =         0.0000 E_long   =         0.0000 Press    =         1.9119
------------ Step          32900 ----- CPU =      1.78309 (sec) -------------
TotEng   =       180.8484 KinEng   =        89.6391 Temp     =       303.7583 
PotEng   =        91.2092 E_bond   =        30.3508 E_angle  =        23.7130 
E_dihed  =        48.4712 E_impro  =         0.0000 E_vdwl   =       -11.3258 
E_coul   =         0.0000 E_long   =         0.0000 Press    =        -0.3817
------------ Step          32920 ----- CPU =     1.784049 (sec) -------------
TotEng   =       183.2992 KinEng   =        96.0058 Temp     =       325.3330 
PotEng   =        87.2934 E_bond   =        25.4984 E_angle  =        28.6883 
E_dihed  =        43.7381 E_impro  =         0.0000 E_vdwl   =       -10.6314 
E_coul   =         0.0000 E_long   =         0.0000 Press    =         1.1682
------------ Step          32940 ----- CPU =     1.784907 (sec) -------------
TotEng   =       185.2568 KinEng   =        96.7789 Temp     =       327.9528 
PotEng   =        88.4779 E_bond   =        33.0221 E_angle  =        27.2123 
E_dihed  =        39.1926 E_impro  =         0.0000 E_vdwl   =       -10.9491 
E_coul   =         0.0000 E_long   =         0.0000 Press    =         2.5765
------------ Step          32960 ----- CPU =     1.785745 (sec) -------------
TotEng   =       186.5397 KinEng   =        89.1755 Temp     =       302.1871 
PotEng   =        97.3642 E_bond   =        31.7812 E_angle  =        32.0228 
E_dihed  =        44.1289 E_impro  =         0.0000 E_vdwl   =       -10.5686 
E_coul   =         0.0000 E_long   =         0.0000 Press    =        -3.1942
------------ Step          32980 ----- CPU =     1.788112 (sec) -------------
TotEng   =       187.4856 KinEng   =        90.3969 Temp     =       306.3262 
PotEng   =        97.0886 E_bond   =        29.7663 E_angle  =        30.8481 
E_dihed  =        47.3536 E_impro  =         0.0000 E_vdwl   =       -10.8793 
E_coul   =         0.0000 E_long   =         0.0000 Press    =        -0.7880
------------ Step          33000 ----- CPU =     1.789276 (sec) -------------
TotEng   =       188.3391 KinEng   =        91.7270 Temp     =       310.8333 
PotEng   =        96.6121 E_bond   =        25.1032 E_angle  =        32.7974 
E_dihed  =        48.5365 E_impro  =         0.0000 E_vdwl   =        -9.8250 
E_coul   =         0.0000 E_long   =         0.0000 Press    =        -1.1925
------------ Step          33020 ----- CPU =     1.790301 (sec) -------------
TotEng   =       189.4756 KinEng   =        83.6896 Temp     =       283.5973 
PotEng   =       105.7859 E_bond   =        35.8660 E_angle  =        33.9748 
E_dihed  =        45.4782 E_impro  =         0.0000 E_vdwl   =        -9.5331 
E_coul   =         0.0000 E_long   =         0.0000 Press    =        -0.6594
------------ Step          33040 ----- CPU =      1.79114 (sec) -------------
TotEng   =       190.3043 KinEng   =        93.4965 Temp     =       316.8295 
PotEng   =        96.8079 E_bond   =        35.9729 E_angle  =        25.3704 
E_dihed  =        45.7036 E_impro  =         0.0000 E_vdwl   =       -10.2390 
E_coul   =         0.0000 E_long   =         0.0000 Press    =         3.4395
------------ Step          33060 ----- CPU =     1.792031 (sec) -------------
TotEng   =       190.8546 KinEng   =        91.5229 Temp     =       310.1418 
PotEng   =        99.3317 E_bond   =        31.0474 E_angle  =        32.4091 
E_dihed  =        46.0376 E_impro  =         0.0000 E_vdwl   =       -10.1623 
E_coul   =         0.0000 E_long   =         0.0000 Press    =        -1.3270
------------ Step          33080 ----- CPU =     1.792987 (sec) -------------
TotEng   =       191.0727 KinEng   =        93.2075 Temp     =       315.8503 
PotEng   =        97.8652 E_bond   =        28.2262 E_angle  =        30.9228 
E_dihed  =        48.6012 E_impro  =         0.0000 E_vdwl   =        -9.8851 
E_coul   =         0.0000 E_long   =         0.0000 Press    =        -0.8905
------------ Step          33100 ----- CPU =     1.793791 (sec) -------------
TotEng   =       191.3971 KinEng   =        82.0017 Temp     =       277.8776 
PotEng   =       109.3953 E_bond   =        36.8638 E_angle  =        32.6813 
E_dihed  =        50.3204 E_impro  =         0.0000 E_vdwl   =       -10.4702 
E_coul   =         0.0000 E_long   =         0.0000 Press    =        -0.6384
------------ Step          33120 ----- CPU =     1.795095 (sec) -------------
TotEng   =       191.3438 KinEng   =        95.5208 Temp     =       323.6894 
PotEng   =        95.8230 E_bond   =        27.9400 E_angle  =        31.8242 
E_dihed  =        46.3141 E_impro  =         0.0000 E_vdwl   =       -10.2553 
E_coul   =         0.0000 E_long   =         0.0000 Press    =        -2.7025
------------ Step          33140 ----- CPU =     1.795936 (sec) -------------
TotEng   =       191.1636 KinEng   =        92.6856 Temp     =       314.0819 
PotEng   =        98.4780 E_bond   =        27.9846 E_angle  =        33.3809 
E_dihed  =        47.0460 E_impro  =         0.0000 E_vdwl   =        -9.9335 
E_coul   =         0.0000 E_long   =         0.0000 Press    =         0.2323
------------ Step          33160 ----- CPU =     1.796782 (sec) -------------
TotEng   =       190.5200 KinEng   =        91.5619 Temp     =       310.2738 
PotEng   =        98.9581 E_bond   =        28.9211 E_angle  =        34.9109 
E_dihed  =        45.2735 E_impro  =         0.0000 E_vdwl   =       -10.1473 
E_coul   =         0.0000 E_long   =         0.0000 Press    =         0.6836
------------ Step          33180 ----- CPU =     1.797581 (sec) -------------
TotEng   =       189.3184 KinEng   =        95.7410 Temp     =       324.4355 
PotEng   =        93.5775 E_bond   =        27.7549 E_angle  =        33.2895 
E_dihed  =        42.9738 E_impro  =         0.0000 E_vdwl   =       -10.4407 
E_coul   =         0.0000 E_long   =         0.0000 Press    =        -0.5745
------------ Step          33200 ----- CPU =     1.798471 (sec) -------------
TotEng   =       187.1190 KinEng   =        91.9966 Temp     =       311.7470 
PotEng   =        95.1224 E_bond   =        30.4036 E_angle  =        27.3361 
E_dihed  =        47.7605 E_impro  =         0.0000 E_vdwl   =       -10.3779 
E_coul   =         0.0000 E_long   =         0.0000 Press    =         1.6224
------------ Step          33220 ----- CPU =     1.799461 (sec) -------------
TotEng   =       184.2020 KinEng   =        85.9792 Temp     =       291.3558 
PotEng   =        98.2228 E_bond   =        26.7497 E_angle  =        30.2109 
E_dihed  =        50.8010 E_impro  =         0.0000 E_vdwl   =        -9.5388 
E_coul   =         0.0000 E_long   =         0.0000 Press    =        -0.0445
------------ Step          33240 ----- CPU =     1.800248 (sec) -------------
TotEng   =       180.9514 KinEng   =        88.2099 Temp     =       298.9152 
PotEng   =        92.7414 E_bond   =        29.9987 E_angle  =        23.5875 
E_dihed  =        47.2204 E_impro  =         0.0000 E_vdwl   =        -8.0652 
E_coul   =         0.0000 E_long   =         0.0000 Press    =        -1.5359
------------ Step          33260 ----- CPU =     1.801221 (sec) -------------
TotEng   =       177.5648 KinEng   =        80.0838 Temp     =       271.3785 
PotEng   =        97.4810 E_bond   =        29.6509 E_angle  =        28.5533 
E_dihed  =        47.9026 E_impro  =         0.0000 E_vdwl   =        -8.6258 
E_coul   =         0.0000 E_long   =         0.0000 Press    =         1.5901
------------ Step          33280 ----- CPU =      1.80212 (sec) -------------
TotEng   =       174.9774 KinEng   =        80.2314 Temp     =       271.8784 
PotEng   =        94.7460 E_bond   =        32.0967 E_angle  =        29.2478 
E_dihed  =        43.4388 E_impro  =         0.0000 E_vdwl   =       -10.0372 
E_coul   =         0.0000 E_long   =         0.0000 Press    =         0.1580
------------ Step          33300 ----- CPU =     1.802936 (sec) -------------
TotEng   =       172.6179 KinEng   =        85.2926 Temp     =       289.0294 
PotEng   =        87.3253 E_bond   =        30.7416 E_angle  =        27.7121 
E_dihed  =        39.4178 E_impro  =         0.0000 E_vdwl   =       -10.5462 
E_coul   =         0.0000 E_long   =         0.0000 Press    =         0.1442
------------ Step          33320 ----- CPU =     1.803822 (sec) -------------
TotEng   =       170.7193 KinEng   =        84.0746 Temp     =       284.9017 
PotEng   =        86.6447 E_bond   =        26.1085 E_angle  =        30.6472 
E_dihed  =        40.9497 E_impro  =         0.0000 E_vdwl   =       -11.0606 
E_coul   =         0.0000 E_long   =         0.0000 Press    =         3.9417
------------ Step          33340 ----- CPU =     1.805041 (sec) -------------
TotEng   =       169.3927 KinEng   =        77.9769 Temp     =       264.2387 
PotEng   =        91.4158 E_bond   =        32.7754 E_angle  =        26.6503 
E_dihed  =        43.3221 E_impro  =         0.0000 E_vdwl   =       -11.3321 
E_coul   =         0.0000 E_long   =         0.0000 Press    =         1.0934
------------ Step          33360 ----- CPU =     1.806186 (sec) -------------
TotEng   =       168.6082 KinEng   =        78.9226 Temp     =       267.4434 
PotEng   =        89.6856 E_bond   =        28.0394 E_angle  =        25.7808 
E_dihed  =        46.2307 E_impro  =         0.0000 E_vdwl   =       -10.3652 
E_coul   =         0.0000 E_long   =         0.0000 Press    =         0.9025
------------ Step          33380 ----- CPU =     1.807036 (sec) -------------
TotEng   =       168.3415 KinEng   =        86.8622 Temp     =       294.3481 
PotEng   =        81.4794 E_bond   =        22.1556 E_angle  =        25.7195 
E_dihed  =        43.9750 E_impro  =         0.0000 E_vdwl   =       -10.3706 
E_coul   =         0.0000 E_long   =         0.0000 Press    =         0.7985
------------ Step          33400 ----- CPU =     1.807826 (sec) -------------
TotEng   =       168.8720 KinEng   =        80.8803 Temp     =       274.0774 
PotEng   =        87.9917 E_bond   =        28.6689 E_angle  =        30.1088 
E_dihed  =        39.4769 E_impro  =         0.0000 E_vdwl   =       -10.2630 
E_coul   =         0.0000 E_long   =         0.0000 Press    =        -2.1040
------------ Step          33420 ----- CPU =     1.808751 (sec) -------------
TotEng   =       169.7264 KinEng   =        78.9804 Temp     =       267.6394 
PotEng   =        90.7460 E_bond   =        25.2218 E_angle  =        33.8777 
E_dihed  =        42.2502 E_impro  =         0.0000 E_vdwl   =       -10.6038 
E_coul   =         0.0000 E_long   =         0.0000 Press    =        -0.3223
------------ Step          33440 ----- CPU =     1.809745 (sec) -------------
TotEng   =       171.5687 KinEng   =        82.1696 Temp     =       278.4463 
PotEng   =        89.3992 E_bond   =        31.1375 E_angle  =        25.9894 
E_dihed  =        42.4324 E_impro  =         0.0000 E_vdwl   =       -10.1601 
E_coul   =         0.0000 E_long   =         0.0000 Press    =         0.5388
------------ Step          33460 ----- CPU =     1.810837 (sec) -------------
TotEng   =       174.1449 KinEng   =        93.9265 Temp     =       318.2867 
PotEng   =        80.2184 E_bond   =        26.8313 E_angle  =        23.2948 
E_dihed  =        39.4574 E_impro  =         0.0000 E_vdwl   =        -9.3652 
E_coul   =         0.0000 E_long   =         0.0000 Press    =         0.6148
------------ Step          33480 ----- CPU =     1.812095 (sec) -------------
TotEng   =       177.3406 KinEng   =        91.5606 Temp     =       310.2694 
PotEng   =        85.7800 E_bond   =        30.0673 E_angle  =        28.2801 
E_dihed  =        36.2691 E_impro  =         0.0000 E_vdwl   =        -8.8364 
E_coul   =         0.0000 E_long   =         0.0000 Press    =         2.2030
------------ Step          33500 ----- CPU =     1.812928 (sec) -------------
TotEng   =       180.3567 KinEng   =        88.3015 Temp     =       299.2256 
PotEng   =        92.0552 E_bond   =        33.5256 E_angle  =        27.1300 
E_dihed  =        38.2866 E_impro  =         0.0000 E_vdwl   =        -6.8871 
E_coul   =         0.0000 E_long   =         0.0000 Press    =        -0.1650
------------ Step          33520 ----- CPU =     1.813864 (sec) -------------
TotEng   =       183.5930 KinEng   =        94.9693 Temp     =       321.8206 
PotEng   =        88.6237 E_bond   =        30.4379 E_angle  =        26.4331 
E_dihed  =        40.0582 E_impro  =         0.0000 E_vdwl   =        -8.3054 
E_coul   =         0.0000 E_long   =         0.0000 Press    =         0.9373
------------ Step          33540 ----- CPU =     1.814858 (sec) -------------
TotEng   =       186.3696 KinEng   =        88.3298 Temp     =       299.3214 
PotEng   =        98.0398 E_bond   =        27.6656 E_angle  =        36.7261 
E_dihed  =        43.2536 E_impro  =         0.0000 E_vdwl   =        -9.6054 
E_coul   =         0.0000 E_long   =         0.0000 Press    =        -0.1082
------------ Step          33560 ----- CPU =     1.815657 (sec) -------------
TotEng   =       189.3283 KinEng   =        89.1270 Temp     =       302.0230 
PotEng   =       100.2012 E_bond   =        35.9938 E_angle  =        25.0558 
E_dihed  =        48.3170 E_impro  =         0.0000 E_vdwl   =        -9.1655 
E_coul   =         0.0000 E_long   =         0.0000 Press    =        -2.7051
------------ Step          33580 ----- CPU =     1.816523 (sec) -------------
TotEng   =       192.1858 KinEng   =        87.6342 Temp     =       296.9641 
PotEng   =       104.5516 E_bond   =        34.1187 E_angle  =        31.7140 
E_dihed  =        49.0718 E_impro  =         0.0000 E_vdwl   =       -10.3529 
E_coul   =         0.0000 E_long   =         0.0000 Press    =         0.2208
------------ Step          33600 ----- CPU =     1.817335 (sec) -------------
TotEng   =       195.3166 KinEng   =        94.5779 Temp     =       320.4941 
PotEng   =       100.7387 E_bond   =        33.9265 E_angle  =        29.0062 
E_dihed  =        48.0452 E_impro  =         0.0000 E_vdwl   =       -10.2393 
E_coul   =         0.0000 E_long   =         0.0000 Press    =        -1.9242
------------ Step          33620 ----- CPU =      1.81825 (sec) -------------
TotEng   =       197.8433 KinEng   =        96.8960 Temp     =       328.3494 
PotEng   =       100.9473 E_bond   =        32.6306 E_angle  =        27.2637 
E_dihed  =        49.3816 E_impro  =         0.0000 E_vdwl   =        -8.3286 
E_coul   =         0.0000 E_long   =         0.0000 Press    =        -0.7549
------------ Step          33640 ----- CPU =      1.81903 (sec) -------------
TotEng   =       199.3309 KinEng   =        95.9387 Temp     =       325.1057 
PotEng   =       103.3921 E_bond   =        32.0919 E_angle  =        31.5839 
E_dihed  =        49.1528 E_impro  =         0.0000 E_vdwl   =        -9.4364 
E_coul   =         0.0000 E_long   =         0.0000 Press    =         0.1905
------------ Step          33660 ----- CPU =     1.819819 (sec) -------------
TotEng   =       200.0621 KinEng   =        99.7821 Temp     =       338.1297 
PotEng   =       100.2800 E_bond   =        34.4777 E_angle  =        27.0864 
E_dihed  =        48.6638 E_impro  =         0.0000 E_vdwl   =        -9.9479 
E_coul   =         0.0000 E_long   =         0.0000 Press    =        -0.3089
------------ Step          33680 ----- CPU =     1.820599 (sec) -------------
TotEng   =       199.8319 KinEng   =       100.4031 Temp     =       340.2340 
PotEng   =        99.4288 E_bond   =        36.0851 E_angle  =        24.2942 
E_dihed  =        48.4079 E_impro  =         0.0000 E_vdwl   =        -9.3585 
E_coul   =         0.0000 E_long   =         0.0000 Press    =         3.6433
------------ Step          33700 ----- CPU =     1.821417 (sec) -------------
TotEng   =       198.3971 KinEng   =       101.9331 Temp     =       345.4186 
PotEng   =        96.4640 E_bond   =        27.4489 E_angle  =        26.5675 
E_dihed  =        51.8292 E_impro  =         0.0000 E_vdwl   =        -9.3816 
E_coul   =         0.0000 E_long   =         0.0000 Press    =         0.6546
------------ Step          33720 ----- CPU =     1.822851 (sec) -------------
TotEng   =       196.9906 KinEng   =        90.9370 Temp     =       308.1565 
PotEng   =       106.0535 E_bond   =        37.4601 E_angle  =        25.1328 
E_dihed  =        53.0505 E_impro  =         0.0000 E_vdwl   =        -9.5898 
E_coul   =         0.0000 E_long   =         0.0000 Press    =         2.2514
------------ Step          33740 ----- CPU =     1.823665 (sec) -------------
TotEng   =       195.2002 KinEng   =        92.8353 Temp     =       314.5892 
PotEng   =       102.3649 E_bond   =        32.3116 E_angle  =        26.2500 
E_dihed  =        50.9334 E_impro  =         0.0000 E_vdwl   =        -7.1301 
E_coul   =         0.0000 E_long   =         0.0000 Press    =         0.9780
------------ Step          33760 ----- CPU =     1.824621 (sec) -------------
TotEng   =       193.8147 KinEng   =        93.9767 Temp     =       318.4569 
PotEng   =        99.8380 E_bond   =        30.9367 E_angle  =        28.6024 
E_dihed  =        47.7200 E_impro  =         0.0000 E_vdwl   =        -7.4210 
E_coul   =         0.0000 E_long   =         0.0000 Press    =        -1.8976
------------ Step          33780 ----- CPU =     1.825878 (sec) -------------
TotEng   =       192.6630 KinEng   =        97.9537 Temp     =       331.9336 
PotEng   =        94.7093 E_bond   =        32.0495 E_angle  =        24.6871 
E_dihed  =        46.9310 E_impro  =         0.0000 E_vdwl   =        -8.9583 
E_coul   =         0.0000 E_long   =         0.0000 Press    =         3.9671
------------ Step          33800 ----- CPU =     1.827178 (sec) -------------
TotEng   =       191.6238 KinEng   =        90.0297 Temp     =       305.0819 
PotEng   =       101.5941 E_bond   =        33.4895 E_angle  =        25.7511 
E_dihed  =        50.7834 E_impro  =         0.0000 E_vdwl   =        -8.4299 
E_coul   =         0.0000 E_long   =         0.0000 Press    =         0.3162
------------ Step          33820 ----- CPU =      1.82842 (sec) -------------
TotEng   =       190.7979 KinEng   =        84.9716 Temp     =       287.9415 
PotEng   =       105.8263 E_bond   =        33.0813 E_angle  =        28.0167 
E_dihed  =        54.1478 E_impro  =         0.0000 E_vdwl   =        -9.4195 
E_coul   =         0.0000 E_long   =         0.0000 Press    =         1.8933
------------ Step          33840 ----- CPU =     1.829236 (sec) -------------
TotEng   =       190.3324 KinEng   =        92.2452 Temp     =       312.5895 
PotEng   =        98.0872 E_bond   =        31.1234 E_angle  =        24.8962 
E_dihed  =        51.0199 E_impro  =         0.0000 E_vdwl   =        -8.9524 
E_coul   =         0.0000 E_long   =         0.0000 Press    =         4.3586
------------ Step          33860 ----- CPU =     1.830007 (sec) -------------
TotEng   =       189.9851 KinEng   =        85.7843 Temp     =       290.6955 
PotEng   =       104.2008 E_bond   =        33.6097 E_angle  =        29.9092 
E_dihed  =        48.0567 E_impro  =         0.0000 E_vdwl   =        -7.3748 
E_coul   =         0.0000 E_long   =         0.0000 Press    =        -1.7677
------------ Step          33880 ----- CPU =     1.830906 (sec) -------------
TotEng   =       189.4226 KinEng   =        91.2608 Temp     =       309.2536 
PotEng   =        98.1618 E_bond   =        29.3155 E_angle  =        32.0716 
E_dihed  =        45.2299 E_impro  =         0.0000 E_vdwl   =        -8.4552 
E_coul   =         0.0000 E_long   =         0.0000 Press    =         2.2491
------------ Step          33900 ----- CPU =      1.83268 (sec) -------------
TotEng   =       188.5001 KinEng   =       103.1996 Temp     =       349.7103 
PotEng   =        85.3006 E_bond   =        29.7300 E_angle  =        25.4739 
E_dihed  =        38.4126 E_impro  =         0.0000 E_vdwl   =        -8.3159 
E_coul   =         0.0000 E_long   =         0.0000 Press    =        -0.7764
------------ Step          33920 ----- CPU =     1.833662 (sec) -------------
TotEng   =       186.5890 KinEng   =        92.4386 Temp     =       313.2448 
PotEng   =        94.1504 E_bond   =        30.1820 E_angle  =        27.4822 
E_dihed  =        43.8462 E_impro  =         0.0000 E_vdwl   =        -7.3600 
E_coul   =         0.0000 E_long   =         0.0000 Press    =        -4.5553
------------ Step          33940 ----- CPU =     1.834492 (sec) -------------
TotEng   =       184.7230 KinEng   =        81.3728 Temp     =       275.7463 
PotEng   =       103.3502 E_bond   =        33.3707 E_angle  =        30.2308 
E_dihed  =        47.2097 E_impro  =         0.0000 E_vdwl   =        -7.4610 
E_coul   =         0.0000 E_long   =         0.0000 Press    =        -0.6738
------------ Step          33960 ----- CPU =      1.83528 (sec) -------------
TotEng   =       182.9674 KinEng   =        89.0273 Temp     =       301.6848 
PotEng   =        93.9401 E_bond   =        30.6882 E_angle  =        25.9585 
E_dihed  =        45.7952 E_impro  =         0.0000 E_vdwl   =        -8.5017 
E_coul   =         0.0000 E_long   =         0.0000 Press    =        -1.1829
------------ Step          33980 ----- CPU =     1.836052 (sec) -------------
TotEng   =       181.7449 KinEng   =        80.8098 Temp     =       273.8384 
PotEng   =       100.9351 E_bond   =        29.1490 E_angle  =        31.0419 
E_dihed  =        48.6110 E_impro  =         0.0000 E_vdwl   =        -7.8668 
E_coul   =         0.0000 E_long   =         0.0000 Press    =        -2.5641
------------ Step          34000 ----- CPU =     1.836905 (sec) -------------
TotEng   =       180.7444 KinEng   =        82.4045 Temp     =       279.2423 
PotEng   =        98.3399 E_bond   =        25.9442 E_angle  =        27.9505 
E_dihed  =        52.6094 E_impro  =         0.0000 E_vdwl   =        -8.1642 
E_coul   =         0.0000 E_long   =         0.0000 Press    =         0.3177
------------ Step          34020 ----- CPU =     1.837834 (sec) -------------
TotEng   =       180.5378 KinEng   =        85.0139 Temp     =       288.0848 
PotEng   =        95.5239 E_bond   =        30.2501 E_angle  =        22.7195 
E_dihed  =        49.6347 E_impro  =         0.0000 E_vdwl   =        -7.0804 
E_coul   =         0.0000 E_long   =         0.0000 Press    =        -1.2660
------------ Step          34040 ----- CPU =     1.838655 (sec) -------------
TotEng   =       180.5901 KinEng   =        82.3890 Temp     =       279.1898 
PotEng   =        98.2011 E_bond   =        29.2880 E_angle  =        30.4764 
E_dihed  =        44.3963 E_impro  =         0.0000 E_vdwl   =        -5.9596 
E_coul   =         0.0000 E_long   =         0.0000 Press    =        -4.2915
------------ Step          34060 ----- CPU =     1.839844 (sec) -------------
TotEng   =       181.1208 KinEng   =        83.9306 Temp     =       284.4138 
PotEng   =        97.1903 E_bond   =        31.4704 E_angle  =        25.6113 
E_dihed  =        46.2702 E_impro  =         0.0000 E_vdwl   =        -6.1616 
E_coul   =         0.0000 E_long   =         0.0000 Press    =        -1.4929
------------ Step          34080 ----- CPU =     1.840634 (sec) -------------
TotEng   =       181.9465 KinEng   =        84.0380 Temp     =       284.7779 
PotEng   =        97.9085 E_bond   =        35.0009 E_angle  =        22.7523 
E_dihed  =        47.0887 E_impro  =         0.0000 E_vdwl   =        -6.9334 
E_coul   =         0.0000 E_long   =         0.0000 Press    =        -1.6558
------------ Step          34100 ----- CPU =     1.841455 (sec) -------------
TotEng   =       183.0379 KinEng   =        88.9670 Temp     =       301.4806 
PotEng   =        94.0709 E_bond   =        24.1133 E_angle  =        32.1482 
E_dihed  =        45.4086 E_impro  =         0.0000 E_vdwl   =        -7.5992 
E_coul   =         0.0000 E_long   =         0.0000 Press    =        -1.6481
------------ Step          34120 ----- CPU =     1.842605 (sec) -------------
TotEng   =       184.7642 KinEng   =        83.6939 Temp     =       283.6119 
PotEng   =       101.0703 E_bond   =        34.8614 E_angle  =        26.1386 
E_dihed  =        48.5453 E_impro  =         0.0000 E_vdwl   =        -8.4750 
E_coul   =         0.0000 E_long   =         0.0000 Press    =         1.6501
------------ Step          34140 ----- CPU =     1.843467 (sec) -------------
TotEng   =       187.1727 KinEng   =        82.6496 Temp     =       280.0729 
PotEng   =       104.5231 E_bond   =        33.7731 E_angle  =        31.7248 
E_dihed  =        47.9396 E_impro  =         0.0000 E_vdwl   =        -8.9144 
E_coul   =         0.0000 E_long   =         0.0000 Press    =        -0.7891
------------ Step          34160 ----- CPU =     1.844334 (sec) -------------
TotEng   =       190.3589 KinEng   =        92.9472 Temp     =       314.9682 
PotEng   =        97.4118 E_bond   =        33.5503 E_angle  =        27.1872 
E_dihed  =        45.6409 E_impro  =         0.0000 E_vdwl   =        -8.9667 
E_coul   =         0.0000 E_long   =         0.0000 Press    =        -0.3564
------------ Step          34180 ----- CPU =     1.845303 (sec) -------------
TotEng   =       194.1203 KinEng   =        93.3751 Temp     =       316.4182 
PotEng   =       100.7452 E_bond   =        31.0873 E_angle  =        31.3683 
E_dihed  =        46.9219 E_impro  =         0.0000 E_vdwl   =        -8.6324 
E_coul   =         0.0000 E_long   =         0.0000 Press    =         1.1973
------------ Step          34200 ----- CPU =     1.846112 (sec) -------------
TotEng   =       197.7548 KinEng   =        96.5759 Temp     =       327.2649 
PotEng   =       101.1788 E_bond   =        29.7223 E_angle  =        29.7653 
E_dihed  =        49.5234 E_impro  =         0.0000 E_vdwl   =        -7.8323 
E_coul   =         0.0000 E_long   =         0.0000 Press    =        -1.4846
------------ Step          34220 ----- CPU =     1.847106 (sec) -------------
TotEng   =       200.9331 KinEng   =        95.5344 Temp     =       323.7354 
PotEng   =       105.3987 E_bond   =        38.0639 E_angle  =        28.5828 
E_dihed  =        48.3562 E_impro  =         0.0000 E_vdwl   =        -9.6041 
E_coul   =         0.0000 E_long   =         0.0000 Press    =        -0.6198
------------ Step          34240 ----- CPU =     1.847946 (sec) -------------
TotEng   =       203.1706 KinEng   =       100.3048 Temp     =       339.9008 
PotEng   =       102.8658 E_bond   =        33.9535 E_angle  =        29.2040 
E_dihed  =        48.9502 E_impro  =         0.0000 E_vdwl   =        -9.2419 
E_coul   =         0.0000 E_long   =         0.0000 Press    =         2.3123
------------ Step          34260 ----- CPU =     1.848733 (sec) -------------
TotEng   =       204.3790 KinEng   =        97.0892 Temp     =       329.0043 
PotEng   =       107.2898 E_bond   =        31.8029 E_angle  =        34.9710 
E_dihed  =        48.9506 E_impro  =         0.0000 E_vdwl   =        -8.4347 
E_coul   =         0.0000 E_long   =         0.0000 Press    =         0.6776
------------ Step          34280 ----- CPU =     1.849504 (sec) -------------
TotEng   =       204.9302 KinEng   =       100.1200 Temp     =       339.2744 
PotEng   =       104.8103 E_bond   =        39.1255 E_angle  =        27.4580 
E_dihed  =        47.9859 E_impro  =         0.0000 E_vdwl   =        -9.7590 
E_coul   =         0.0000 E_long   =         0.0000 Press    =        -0.1420
------------ Step          34300 ----- CPU =     1.850315 (sec) -------------
TotEng   =       204.2120 KinEng   =        96.6035 Temp     =       327.3584 
PotEng   =       107.6085 E_bond   =        35.9963 E_angle  =        31.6097 
E_dihed  =        50.4579 E_impro  =         0.0000 E_vdwl   =       -10.4554 
E_coul   =         0.0000 E_long   =         0.0000 Press    =         1.0684
------------ Step          34320 ----- CPU =     1.851252 (sec) -------------
TotEng   =       202.5310 KinEng   =        98.3792 Temp     =       333.3755 
PotEng   =       104.1518 E_bond   =        33.1074 E_angle  =        29.0467 
E_dihed  =        51.9024 E_impro  =         0.0000 E_vdwl   =        -9.9048 
E_coul   =         0.0000 E_long   =         0.0000 Press    =         0.6093
------------ Step          34340 ----- CPU =     1.852199 (sec) -------------
TotEng   =       200.3844 KinEng   =        93.9045 Temp     =       318.2121 
PotEng   =       106.4799 E_bond   =        38.3195 E_angle  =        24.7446 
E_dihed  =        52.8694 E_impro  =         0.0000 E_vdwl   =        -9.4536 
E_coul   =         0.0000 E_long   =         0.0000 Press    =        -0.4244
------------ Step          34360 ----- CPU =     1.853015 (sec) -------------
TotEng   =       197.4155 KinEng   =        89.2486 Temp     =       302.4349 
PotEng   =       108.1669 E_bond   =        37.6188 E_angle  =        28.2226 
E_dihed  =        52.4318 E_impro  =         0.0000 E_vdwl   =       -10.1064 
E_coul   =         0.0000 E_long   =         0.0000 Press    =         2.9134
------------ Step          34380 ----- CPU =     1.853797 (sec) -------------
TotEng   =       194.0825 KinEng   =        92.8721 Temp     =       314.7139 
PotEng   =       101.2104 E_bond   =        30.9799 E_angle  =        29.0092 
E_dihed  =        50.3140 E_impro  =         0.0000 E_vdwl   =        -9.0926 
E_coul   =         0.0000 E_long   =         0.0000 Press    =         0.6155
------------ Step          34400 ----- CPU =     1.854653 (sec) -------------
TotEng   =       190.8377 KinEng   =        91.3154 Temp     =       309.4387 
PotEng   =        99.5223 E_bond   =        33.0708 E_angle  =        26.8437 
E_dihed  =        48.8638 E_impro  =         0.0000 E_vdwl   =        -9.2560 
E_coul   =         0.0000 E_long   =         0.0000 Press    =        -2.2780
------------ Step          34420 ----- CPU =     1.855942 (sec) -------------
TotEng   =       187.8449 KinEng   =        94.9446 Temp     =       321.7369 
PotEng   =        92.9003 E_bond   =        26.9959 E_angle  =        27.6603 
E_dihed  =        47.9283 E_impro  =         0.0000 E_vdwl   =        -9.6842 
E_coul   =         0.0000 E_long   =         0.0000 Press    =         1.4112
------------ Step          34440 ----- CPU =     1.856925 (sec) -------------
TotEng   =       185.6198 KinEng   =        85.6548 Temp     =       290.2568 
PotEng   =        99.9650 E_bond   =        34.4171 E_angle  =        30.1690 
E_dihed  =        44.9892 E_impro  =         0.0000 E_vdwl   =        -9.6103 
E_coul   =         0.0000 E_long   =         0.0000 Press    =        -2.9000
------------ Step          34460 ----- CPU =     1.857714 (sec) -------------
TotEng   =       184.1173 KinEng   =        89.4022 Temp     =       302.9553 
PotEng   =        94.7151 E_bond   =        27.1946 E_angle  =        33.1404 
E_dihed  =        44.3860 E_impro  =         0.0000 E_vdwl   =       -10.0058 
E_coul   =         0.0000 E_long   =         0.0000 Press    =        -0.1494
------------ Step          34480 ----- CPU =     1.858489 (sec) -------------
TotEng   =       183.2520 KinEng   =        91.4422 Temp     =       309.8684 
PotEng   =        91.8098 E_bond   =        32.3145 E_angle  =        25.1317 
E_dihed  =        44.5820 E_impro  =         0.0000 E_vdwl   =       -10.2185 
E_coul   =         0.0000 E_long   =         0.0000 Press    =         3.5903
------------ Step          34500 ----- CPU =     1.859351 (sec) -------------
TotEng   =       182.5434 KinEng   =        91.1113 Temp     =       308.7469 
PotEng   =        91.4322 E_bond   =        26.9643 E_angle  =        30.5798 
E_dihed  =        44.4908 E_impro  =         0.0000 E_vdwl   =       -10.6027 
E_coul   =         0.0000 E_long   =         0.0000 Press    =        -1.9202
------------ Step          34520 ----- CPU =     1.860358 (sec) -------------
TotEng   =       182.0205 KinEng   =        88.6187 Temp     =       300.3003 
PotEng   =        93.4018 E_bond   =        34.7370 E_angle  =        28.4168 
E_dihed  =        40.7112 E_impro  =         0.0000 E_vdwl   =       -10.4632 
E_coul   =         0.0000 E_long   =         0.0000 Press    =         2.2373
------------ Step          34540 ----- CPU =     1.861512 (sec) -------------
TotEng   =       181.1810 KinEng   =        94.0830 Temp     =       318.8172 
PotEng   =        87.0980 E_bond   =        29.8913 E_angle  =        27.8126 
E_dihed  =        39.3257 E_impro  =         0.0000 E_vdwl   =        -9.9316 
E_coul   =         0.0000 E_long   =         0.0000 Press    =        -1.1919
------------ Step          34560 ----- CPU =     1.862403 (sec) -------------
TotEng   =       180.0552 KinEng   =        89.5408 Temp     =       303.4251 
PotEng   =        90.5144 E_bond   =        32.8078 E_angle  =        23.5592 
E_dihed  =        43.6933 E_impro  =         0.0000 E_vdwl   =        -9.5459 
E_coul   =         0.0000 E_long   =         0.0000 Press    =        -5.4710
------------ Step          34580 ----- CPU =     1.863228 (sec) -------------
TotEng   =       178.9192 KinEng   =        88.7003 Temp     =       300.5768 
PotEng   =        90.2189 E_bond   =        31.5272 E_angle  =        19.4647 
E_dihed  =        48.9624 E_impro  =         0.0000 E_vdwl   =        -9.7353 
E_coul   =         0.0000 E_long   =         0.0000 Press    =         0.3611
------------ Step          34600 ----- CPU =     1.864173 (sec) -------------
TotEng   =       177.9566 KinEng   =        84.7910 Temp     =       287.3294 
PotEng   =        93.1656 E_bond   =        27.0614 E_angle  =        27.9123 
E_dihed  =        48.2405 E_impro  =         0.0000 E_vdwl   =       -10.0486 
E_coul   =         0.0000 E_long   =         0.0000 Press    =        -1.2389
------------ Step          34620 ----- CPU =     1.865548 (sec) -------------
TotEng   =       177.3851 KinEng   =        84.8027 Temp     =       287.3692 
PotEng   =        92.5824 E_bond   =        30.3181 E_angle  =        25.0749 
E_dihed  =        47.6042 E_impro  =         0.0000 E_vdwl   =       -10.4148 
E_coul   =         0.0000 E_long   =         0.0000 Press    =        -2.9325
------------ Step          34640 ----- CPU =     1.866353 (sec) -------------
TotEng   =       176.9656 KinEng   =        84.6524 Temp     =       286.8599 
PotEng   =        92.3132 E_bond   =        25.4926 E_angle  =        25.0418 
E_dihed  =        51.7043 E_impro  =         0.0000 E_vdwl   =        -9.9255 
E_coul   =         0.0000 E_long   =         0.0000 Press    =         0.9670
------------ Step          34660 ----- CPU =     1.867149 (sec) -------------
TotEng   =       177.0516 KinEng   =        83.4140 Temp     =       282.6633 
PotEng   =        93.6376 E_bond   =        27.5319 E_angle  =        25.5240 
E_dihed  =        50.3332 E_impro  =         0.0000 E_vdwl   =        -9.7516 
E_coul   =         0.0000 E_long   =         0.0000 Press    =         0.7267
------------ Step          34680 ----- CPU =     1.868108 (sec) -------------
TotEng   =       177.8238 KinEng   =        80.8069 Temp     =       273.8287 
PotEng   =        97.0169 E_bond   =        27.9640 E_angle  =        27.7355 
E_dihed  =        50.0681 E_impro  =         0.0000 E_vdwl   =        -8.7507 
E_coul   =         0.0000 E_long   =         0.0000 Press    =        -0.5296
------------ Step          34700 ----- CPU =     1.868907 (sec) -------------
TotEng   =       179.1425 KinEng   =        78.2501 Temp     =       265.1646 
PotEng   =       100.8924 E_bond   =        27.5631 E_angle  =        28.5234 
E_dihed  =        53.7060 E_impro  =         0.0000 E_vdwl   =        -8.9000 
E_coul   =         0.0000 E_long   =         0.0000 Press    =         4.1709
------------ Step          34720 ----- CPU =     1.869828 (sec) -------------
TotEng   =       181.6682 KinEng   =        79.6211 Temp     =       269.8103 
PotEng   =       102.0471 E_bond   =        32.2921 E_angle  =        26.7578 
E_dihed  =        51.3818 E_impro  =         0.0000 E_vdwl   =        -8.3845 
E_coul   =         0.0000 E_long   =         0.0000 Press    =         1.2556
------------ Step          34740 ----- CPU =     1.870669 (sec) -------------
TotEng   =       185.0045 KinEng   =        83.3050 Temp     =       282.2939 
PotEng   =       101.6995 E_bond   =        33.4192 E_angle  =        26.0173 
E_dihed  =        50.9764 E_impro  =         0.0000 E_vdwl   =        -8.7134 
E_coul   =         0.0000 E_long   =         0.0000 Press    =         0.3280
------------ Step          34760 ----- CPU =     1.871628 (sec) -------------
TotEng   =       188.7499 KinEng   =        97.7114 Temp     =       331.1126 
PotEng   =        91.0385 E_bond   =        30.6890 E_angle  =        19.6916 
E_dihed  =        49.2908 E_impro  =         0.0000 E_vdwl   =        -8.6328 
E_coul   =         0.0000 E_long   =         0.0000 Press    =         4.2435
------------ Step          34780 ----- CPU =     1.872472 (sec) -------------
TotEng   =       192.0060 KinEng   =        94.3836 Temp     =       319.8358 
PotEng   =        97.6224 E_bond   =        33.8505 E_angle  =        29.9099 
E_dihed  =        44.5829 E_impro  =         0.0000 E_vdwl   =       -10.7209 
E_coul   =         0.0000 E_long   =         0.0000 Press    =         0.8588
------------ Step          34800 ----- CPU =      1.87346 (sec) -------------
TotEng   =       194.3064 KinEng   =        93.1366 Temp     =       315.6101 
PotEng   =       101.1698 E_bond   =        36.0444 E_angle  =        28.0790 
E_dihed  =        46.8584 E_impro  =         0.0000 E_vdwl   =        -9.8119 
E_coul   =         0.0000 E_long   =         0.0000 Press    =         1.3102
------------ Step          34820 ----- CPU =     1.874783 (sec) -------------
TotEng   =       195.6769 KinEng   =        89.4095 Temp     =       302.9801 
PotEng   =       106.2674 E_bond   =        38.2178 E_angle  =        29.7434 
E_dihed  =        48.6333 E_impro  =         0.0000 E_vdwl   =       -10.3271 
E_coul   =         0.0000 E_long   =         0.0000 Press    =         2.7518
------------ Step          34840 ----- CPU =     1.875944 (sec) -------------
TotEng   =       196.4551 KinEng   =        97.1595 Temp     =       329.2423 
PotEng   =        99.2957 E_bond   =        29.6827 E_angle  =        27.1514 
E_dihed  =        53.0607 E_impro  =         0.0000 E_vdwl   =       -10.5992 
E_coul   =         0.0000 E_long   =         0.0000 Press    =        -0.7412
------------ Step          34860 ----- CPU =     1.876988 (sec) -------------
TotEng   =       196.8410 KinEng   =        93.2023 Temp     =       315.8329 
PotEng   =       103.6386 E_bond   =        32.3763 E_angle  =        29.7068 
E_dihed  =        51.7155 E_impro  =         0.0000 E_vdwl   =       -10.1600 
E_coul   =         0.0000 E_long   =         0.0000 Press    =        -0.4349
------------ Step          34880 ----- CPU =     1.878199 (sec) -------------
TotEng   =       196.9587 KinEng   =        92.4309 Temp     =       313.2188 
PotEng   =       104.5278 E_bond   =        34.6344 E_angle  =        32.0745 
E_dihed  =        47.0624 E_impro  =         0.0000 E_vdwl   =        -9.2435 
E_coul   =         0.0000 E_long   =         0.0000 Press    =         3.2734
------------ Step          34900 ----- CPU =     1.879123 (sec) -------------
TotEng   =       196.2876 KinEng   =       103.7608 Temp     =       351.6120 
PotEng   =        92.5269 E_bond   =        29.0780 E_angle  =        28.7576 
E_dihed  =        45.0101 E_impro  =         0.0000 E_vdwl   =       -10.3188 
E_coul   =         0.0000 E_long   =         0.0000 Press    =        -2.4965
------------ Step          34920 ----- CPU =     1.880178 (sec) -------------
TotEng   =       195.1341 KinEng   =        91.8516 Temp     =       311.2555 
PotEng   =       103.2826 E_bond   =        31.2199 E_angle  =        35.4549 
E_dihed  =        46.8835 E_impro  =         0.0000 E_vdwl   =       -10.2757 
E_coul   =         0.0000 E_long   =         0.0000 Press    =         0.2749
------------ Step          34940 ----- CPU =     1.897191 (sec) -------------
TotEng   =       193.8344 KinEng   =        90.2988 Temp     =       305.9937 
PotEng   =       103.5356 E_bond   =        36.2989 E_angle  =        28.8515 
E_dihed  =        48.2855 E_impro  =         0.0000 E_vdwl   =        -9.9003 
E_coul   =         0.0000 E_long   =         0.0000 Press    =         2.3795
------------ Step          34960 ----- CPU =     1.898144 (sec) -------------
TotEng   =       192.2716 KinEng   =        86.1064 Temp     =       291.7870 
PotEng   =       106.1652 E_bond   =        31.6194 E_angle  =        35.9464 
E_dihed  =        48.0098 E_impro  =         0.0000 E_vdwl   =        -9.4104 
E_coul   =         0.0000 E_long   =         0.0000 Press    =        -3.7190
------------ Step          34980 ----- CPU =     1.899087 (sec) -------------
TotEng   =       190.6826 KinEng   =       103.6286 Temp     =       351.1640 
PotEng   =        87.0540 E_bond   =        30.3338 E_angle  =        22.3808 
E_dihed  =        43.5371 E_impro  =         0.0000 E_vdwl   =        -9.1976 
E_coul   =         0.0000 E_long   =         0.0000 Press    =         1.2380
------------ Step          35000 ----- CPU =     1.900034 (sec) -------------
TotEng   =       188.1536 KinEng   =        90.4344 Temp     =       306.4532 
PotEng   =        97.7192 E_bond   =        38.4017 E_angle  =        28.2255 
E_dihed  =        41.1506 E_impro  =         0.0000 E_vdwl   =       -10.0586 
E_coul   =         0.0000 E_long   =         0.0000 Press    =        -2.3449
------------ Step          35020 ----- CPU =     1.901319 (sec) -------------
TotEng   =       184.8218 KinEng   =        93.5122 Temp     =       316.8830 
PotEng   =        91.3096 E_bond   =        29.6285 E_angle  =        30.4361 
E_dihed  =        40.7482 E_impro  =         0.0000 E_vdwl   =        -9.5033 
E_coul   =         0.0000 E_long   =         0.0000 Press    =        -3.7159
------------ Step          35040 ----- CPU =      1.90236 (sec) -------------
TotEng   =       181.2405 KinEng   =        87.8572 Temp     =       297.7198 
PotEng   =        93.3834 E_bond   =        29.5443 E_angle  =        29.1447 
E_dihed  =        44.4322 E_impro  =         0.0000 E_vdwl   =        -9.7380 
E_coul   =         0.0000 E_long   =         0.0000 Press    =         1.2874
------------ Step          35060 ----- CPU =     1.903368 (sec) -------------
TotEng   =       178.9156 KinEng   =        76.8606 Temp     =       260.4561 
PotEng   =       102.0550 E_bond   =        31.8220 E_angle  =        30.9762 
E_dihed  =        49.1246 E_impro  =         0.0000 E_vdwl   =        -9.8678 
E_coul   =         0.0000 E_long   =         0.0000 Press    =        -2.9017
------------ Step          35080 ----- CPU =     1.904402 (sec) -------------
TotEng   =       177.4386 KinEng   =        80.0785 Temp     =       271.3602 
PotEng   =        97.3601 E_bond   =        30.1365 E_angle  =        29.7577 
E_dihed  =        47.5507 E_impro  =         0.0000 E_vdwl   =       -10.0848 
E_coul   =         0.0000 E_long   =         0.0000 Press    =        -0.9266
------------ Step          35100 ----- CPU =     1.905533 (sec) -------------
TotEng   =       176.8944 KinEng   =        91.3798 Temp     =       309.6570 
PotEng   =        85.5146 E_bond   =        25.6556 E_angle  =        26.6478 
E_dihed  =        43.8521 E_impro  =         0.0000 E_vdwl   =       -10.6409 
E_coul   =         0.0000 E_long   =         0.0000 Press    =         1.9250
------------ Step          35120 ----- CPU =     1.907681 (sec) -------------
TotEng   =       176.8238 KinEng   =        84.4657 Temp     =       286.2271 
PotEng   =        92.3581 E_bond   =        29.1235 E_angle  =        31.2356 
E_dihed  =        41.8205 E_impro  =         0.0000 E_vdwl   =        -9.8215 
E_coul   =         0.0000 E_long   =         0.0000 Press    =        -0.3877
------------ Step          35140 ----- CPU =     1.908685 (sec) -------------
TotEng   =       176.8196 KinEng   =        91.1072 Temp     =       308.7331 
PotEng   =        85.7124 E_bond   =        27.2712 E_angle  =        28.1106 
E_dihed  =        39.6777 E_impro  =         0.0000 E_vdwl   =        -9.3471 
E_coul   =         0.0000 E_long   =         0.0000 Press    =        -0.1950
------------ Step          35160 ----- CPU =     1.909729 (sec) -------------
TotEng   =       176.8383 KinEng   =        90.2411 Temp     =       305.7981 
PotEng   =        86.5972 E_bond   =        30.3560 E_angle  =        27.8127 
E_dihed  =        39.0242 E_impro  =         0.0000 E_vdwl   =       -10.5958 
E_coul   =         0.0000 E_long   =         0.0000 Press    =         3.3416
------------ Step          35180 ----- CPU =     1.910558 (sec) -------------
TotEng   =       176.7300 KinEng   =        88.0149 Temp     =       298.2544 
PotEng   =        88.7151 E_bond   =        28.1184 E_angle  =        31.3724 
E_dihed  =        39.4801 E_impro  =         0.0000 E_vdwl   =       -10.2557 
E_coul   =         0.0000 E_long   =         0.0000 Press    =         0.3640
------------ Step          35200 ----- CPU =     1.911911 (sec) -------------
TotEng   =       176.8458 KinEng   =        88.3201 Temp     =       299.2885 
PotEng   =        88.5256 E_bond   =        30.4612 E_angle  =        29.2070 
E_dihed  =        39.2422 E_impro  =         0.0000 E_vdwl   =       -10.3847 
E_coul   =         0.0000 E_long   =         0.0000 Press    =        -1.0163
------------ Step          35220 ----- CPU =     1.912957 (sec) -------------
TotEng   =       177.0293 KinEng   =        78.4082 Temp     =       265.7002 
PotEng   =        98.6211 E_bond   =        32.7336 E_angle  =        37.3315 
E_dihed  =        39.0779 E_impro  =         0.0000 E_vdwl   =       -10.5218 
E_coul   =         0.0000 E_long   =         0.0000 Press    =         2.9974
------------ Step          35240 ----- CPU =      1.91378 (sec) -------------
TotEng   =       177.4906 KinEng   =        94.3677 Temp     =       319.7819 
PotEng   =        83.1229 E_bond   =        29.3719 E_angle  =        23.3419 
E_dihed  =        41.3639 E_impro  =         0.0000 E_vdwl   =       -10.9548 
E_coul   =         0.0000 E_long   =         0.0000 Press    =        -1.0478
------------ Step          35260 ----- CPU =     1.914751 (sec) -------------
TotEng   =       178.0072 KinEng   =        92.1350 Temp     =       312.2160 
PotEng   =        85.8722 E_bond   =        27.0478 E_angle  =        23.6561 
E_dihed  =        46.2676 E_impro  =         0.0000 E_vdwl   =       -11.0993 
E_coul   =         0.0000 E_long   =         0.0000 Press    =         1.4177
------------ Step          35280 ----- CPU =     1.915574 (sec) -------------
TotEng   =       178.4993 KinEng   =        82.1464 Temp     =       278.3678 
PotEng   =        96.3529 E_bond   =        36.8149 E_angle  =        24.6398 
E_dihed  =        45.6604 E_impro  =         0.0000 E_vdwl   =       -10.7623 
E_coul   =         0.0000 E_long   =         0.0000 Press    =         2.6829
------------ Step          35300 ----- CPU =     1.916497 (sec) -------------
TotEng   =       178.6451 KinEng   =        93.1416 Temp     =       315.6271 
PotEng   =        85.5035 E_bond   =        28.9947 E_angle  =        24.5881 
E_dihed  =        42.0594 E_impro  =         0.0000 E_vdwl   =       -10.1387 
E_coul   =         0.0000 E_long   =         0.0000 Press    =        -1.6250
------------ Step          35320 ----- CPU =     1.917601 (sec) -------------
TotEng   =       179.0154 KinEng   =        86.9371 Temp     =       294.6019 
PotEng   =        92.0784 E_bond   =        30.1899 E_angle  =        31.0241 
E_dihed  =        41.6574 E_impro  =         0.0000 E_vdwl   =       -10.7931 
E_coul   =         0.0000 E_long   =         0.0000 Press    =        -0.1753
------------ Step          35340 ----- CPU =     1.918511 (sec) -------------
TotEng   =       179.7915 KinEng   =        83.1192 Temp     =       281.6642 
PotEng   =        96.6724 E_bond   =        34.9045 E_angle  =        27.8101 
E_dihed  =        44.7444 E_impro  =         0.0000 E_vdwl   =       -10.7866 
E_coul   =         0.0000 E_long   =         0.0000 Press    =        -0.4882
------------ Step          35360 ----- CPU =     1.919447 (sec) -------------
TotEng   =       180.7263 KinEng   =        87.5297 Temp     =       296.6102 
PotEng   =        93.1965 E_bond   =        30.7568 E_angle  =        23.6273 
E_dihed  =        48.5468 E_impro  =         0.0000 E_vdwl   =        -9.7344 
E_coul   =         0.0000 E_long   =         0.0000 Press    =        -3.7535
------------ Step          35380 ----- CPU =     1.921149 (sec) -------------
TotEng   =       182.1187 KinEng   =        88.4461 Temp     =       299.7156 
PotEng   =        93.6726 E_bond   =        26.6171 E_angle  =        28.3886 
E_dihed  =        49.3963 E_impro  =         0.0000 E_vdwl   =       -10.7295 
E_coul   =         0.0000 E_long   =         0.0000 Press    =        -3.0221
------------ Step          35400 ----- CPU =     1.922549 (sec) -------------
TotEng   =       184.0600 KinEng   =        80.5635 Temp     =       273.0039 
PotEng   =       103.4965 E_bond   =        37.5734 E_angle  =        25.5279 
E_dihed  =        49.6390 E_impro  =         0.0000 E_vdwl   =        -9.2439 
E_coul   =         0.0000 E_long   =         0.0000 Press    =         2.3723
------------ Step          35420 ----- CPU =     1.923848 (sec) -------------
TotEng   =       186.8382 KinEng   =        84.4073 Temp     =       286.0293 
PotEng   =       102.4309 E_bond   =        29.5410 E_angle  =        32.8833 
E_dihed  =        50.1388 E_impro  =         0.0000 E_vdwl   =       -10.1323 
E_coul   =         0.0000 E_long   =         0.0000 Press    =        -0.2500
------------ Step          35440 ----- CPU =     1.924733 (sec) -------------
TotEng   =       190.1909 KinEng   =        97.1625 Temp     =       329.2525 
PotEng   =        93.0284 E_bond   =        33.0215 E_angle  =        24.7840 
E_dihed  =        45.0894 E_impro  =         0.0000 E_vdwl   =        -9.8664 
E_coul   =         0.0000 E_long   =         0.0000 Press    =         0.7391
------------ Step          35460 ----- CPU =     1.925621 (sec) -------------
TotEng   =       193.7258 KinEng   =        93.0052 Temp     =       315.1650 
PotEng   =       100.7205 E_bond   =        38.1632 E_angle  =        24.8445 
E_dihed  =        47.1872 E_impro  =         0.0000 E_vdwl   =        -9.4743 
E_coul   =         0.0000 E_long   =         0.0000 Press    =         4.1919
------------ Step          35480 ----- CPU =     1.926971 (sec) -------------
TotEng   =       196.3030 KinEng   =        95.0415 Temp     =       322.0651 
PotEng   =       101.2615 E_bond   =        34.7477 E_angle  =        26.3661 
E_dihed  =        49.9137 E_impro  =         0.0000 E_vdwl   =        -9.7660 
E_coul   =         0.0000 E_long   =         0.0000 Press    =        -4.3786
------------ Step          35500 ----- CPU =     1.928046 (sec) -------------
TotEng   =       198.1993 KinEng   =        99.3296 Temp     =       336.5963 
PotEng   =        98.8697 E_bond   =        31.9684 E_angle  =        25.8749 
E_dihed  =        51.3901 E_impro  =         0.0000 E_vdwl   =       -10.3637 
E_coul   =         0.0000 E_long   =         0.0000 Press    =        -1.7622
------------ Step          35520 ----- CPU =     1.929543 (sec) -------------
TotEng   =       199.3099 KinEng   =        96.0248 Temp     =       325.3973 
PotEng   =       103.2851 E_bond   =        29.6849 E_angle  =        33.4542 
E_dihed  =        50.9894 E_impro  =         0.0000 E_vdwl   =       -10.8435 
E_coul   =         0.0000 E_long   =         0.0000 Press    =         1.3470
------------ Step          35540 ----- CPU =     1.930423 (sec) -------------
TotEng   =       199.7984 KinEng   =        98.6206 Temp     =       334.1936 
PotEng   =       101.1778 E_bond   =        33.6537 E_angle  =        31.4299 
E_dihed  =        47.5021 E_impro  =         0.0000 E_vdwl   =       -11.4079 
E_coul   =         0.0000 E_long   =         0.0000 Press    =        -3.9096
------------ Step          35560 ----- CPU =     1.931547 (sec) -------------
TotEng   =       199.3918 KinEng   =        91.4928 Temp     =       310.0397 
PotEng   =       107.8991 E_bond   =        40.3354 E_angle  =        25.5073 
E_dihed  =        51.3688 E_impro  =         0.0000 E_vdwl   =        -9.3124 
E_coul   =         0.0000 E_long   =         0.0000 Press    =        -0.2289
------------ Step          35580 ----- CPU =     1.932439 (sec) -------------
TotEng   =       198.0737 KinEng   =        98.3665 Temp     =       333.3325 
PotEng   =        99.7072 E_bond   =        32.8885 E_angle  =        31.0363 
E_dihed  =        47.1824 E_impro  =         0.0000 E_vdwl   =       -11.4001 
E_coul   =         0.0000 E_long   =         0.0000 Press    =         1.5021
------------ Step          35600 ----- CPU =     1.933326 (sec) -------------
TotEng   =       196.0209 KinEng   =        91.8097 Temp     =       311.1137 
PotEng   =       104.2112 E_bond   =        37.6076 E_angle  =        28.4325 
E_dihed  =        48.4301 E_impro  =         0.0000 E_vdwl   =       -10.2589 
E_coul   =         0.0000 E_long   =         0.0000 Press    =        -2.1895
------------ Step          35620 ----- CPU =      1.93461 (sec) -------------
TotEng   =       192.7212 KinEng   =        93.3029 Temp     =       316.1737 
PotEng   =        99.4183 E_bond   =        31.9233 E_angle  =        31.5009 
E_dihed  =        45.6718 E_impro  =         0.0000 E_vdwl   =        -9.6776 
E_coul   =         0.0000 E_long   =         0.0000 Press    =         1.1625
------------ Step          35640 ----- CPU =     1.935508 (sec) -------------
TotEng   =       188.1061 KinEng   =        94.3963 Temp     =       319.8787 
PotEng   =        93.7098 E_bond   =        33.4852 E_angle  =        30.1746 
E_dihed  =        41.0085 E_impro  =         0.0000 E_vdwl   =       -10.9585 
E_coul   =         0.0000 E_long   =         0.0000 Press    =         1.6340
------------ Step          35660 ----- CPU =     1.936416 (sec) -------------
TotEng   =       182.8143 KinEng   =        89.8283 Temp     =       304.3994 
PotEng   =        92.9860 E_bond   =        32.7362 E_angle  =        29.8241 
E_dihed  =        40.6859 E_impro  =         0.0000 E_vdwl   =       -10.2601 
E_coul   =         0.0000 E_long   =         0.0000 Press    =        -0.0851
------------ Step          35680 ----- CPU =     1.938133 (sec) -------------
TotEng   =       177.8132 KinEng   =        85.4712 Temp     =       289.6345 
PotEng   =        92.3420 E_bond   =        32.8103 E_angle  =        32.3308 
E_dihed  =        37.8021 E_impro  =         0.0000 E_vdwl   =       -10.6012 
E_coul   =         0.0000 E_long   =         0.0000 Press    =         1.8529
------------ Step          35700 ----- CPU =     1.940123 (sec) -------------
TotEng   =       174.1732 KinEng   =        93.1054 Temp     =       315.5044 
PotEng   =        81.0678 E_bond   =        24.0377 E_angle  =        27.3766 
E_dihed  =        40.0773 E_impro  =         0.0000 E_vdwl   =       -10.4238 
E_coul   =         0.0000 E_long   =         0.0000 Press    =         0.4323
------------ Step          35720 ----- CPU =     1.941141 (sec) -------------
TotEng   =       172.2613 KinEng   =        78.8128 Temp     =       267.0714 
PotEng   =        93.4485 E_bond   =        33.4642 E_angle  =        25.8962 
E_dihed  =        44.6019 E_impro  =         0.0000 E_vdwl   =       -10.5139 
E_coul   =         0.0000 E_long   =         0.0000 Press    =         0.1928
------------ Step          35740 ----- CPU =      1.94202 (sec) -------------
TotEng   =       171.4265 KinEng   =        84.4501 Temp     =       286.1744 
PotEng   =        86.9764 E_bond   =        31.4048 E_angle  =        24.2539 
E_dihed  =        41.1262 E_impro  =         0.0000 E_vdwl   =        -9.8085 
E_coul   =         0.0000 E_long   =         0.0000 Press    =         2.2823
------------ Step          35760 ----- CPU =     1.943063 (sec) -------------
TotEng   =       171.0660 KinEng   =        80.9483 Temp     =       274.3078 
PotEng   =        90.1177 E_bond   =        30.4145 E_angle  =        26.7965 
E_dihed  =        42.7438 E_impro  =         0.0000 E_vdwl   =        -9.8371 
E_coul   =         0.0000 E_long   =         0.0000 Press    =        -1.3783
------------ Step          35780 ----- CPU =     1.945298 (sec) -------------
TotEng   =       171.0610 KinEng   =        84.1931 Temp     =       285.3033 
PotEng   =        86.8680 E_bond   =        28.1406 E_angle  =        27.9296 
E_dihed  =        41.2569 E_impro  =         0.0000 E_vdwl   =       -10.4591 
E_coul   =         0.0000 E_long   =         0.0000 Press    =        -0.2342
------------ Step          35800 ----- CPU =     1.946395 (sec) -------------
TotEng   =       171.6074 KinEng   =        86.4587 Temp     =       292.9808 
PotEng   =        85.1487 E_bond   =        29.1100 E_angle  =        28.9750 
E_dihed  =        37.7421 E_impro  =         0.0000 E_vdwl   =       -10.6784 
E_coul   =         0.0000 E_long   =         0.0000 Press    =         0.5482
------------ Step          35820 ----- CPU =     1.947416 (sec) -------------
TotEng   =       172.5490 KinEng   =        80.2773 Temp     =       272.0339 
PotEng   =        92.2717 E_bond   =        30.8986 E_angle  =        29.9022 
E_dihed  =        41.7384 E_impro  =         0.0000 E_vdwl   =       -10.2674 
E_coul   =         0.0000 E_long   =         0.0000 Press    =        -0.5281
------------ Step          35840 ----- CPU =     1.948452 (sec) -------------
TotEng   =       173.5906 KinEng   =        85.4768 Temp     =       289.6534 
PotEng   =        88.1138 E_bond   =        34.5497 E_angle  =        20.1684 
E_dihed  =        44.0233 E_impro  =         0.0000 E_vdwl   =       -10.6276 
E_coul   =         0.0000 E_long   =         0.0000 Press    =         1.2840
------------ Step          35860 ----- CPU =     1.951679 (sec) -------------
TotEng   =       174.8274 KinEng   =        90.6092 Temp     =       307.0454 
PotEng   =        84.2183 E_bond   =        25.0943 E_angle  =        25.7763 
E_dihed  =        42.9932 E_impro  =         0.0000 E_vdwl   =        -9.6454 
E_coul   =         0.0000 E_long   =         0.0000 Press    =         0.6919
------------ Step          35880 ----- CPU =     1.952579 (sec) -------------
TotEng   =       176.2986 KinEng   =        85.0764 Temp     =       288.2966 
PotEng   =        91.2222 E_bond   =        32.2165 E_angle  =        27.5532 
E_dihed  =        41.7350 E_impro  =         0.0000 E_vdwl   =       -10.2825 
E_coul   =         0.0000 E_long   =         0.0000 Press    =        -0.4749
------------ Step          35900 ----- CPU =     1.955688 (sec) -------------
TotEng   =       178.1145 KinEng   =        86.5414 Temp     =       293.2612 
PotEng   =        91.5731 E_bond   =        32.9414 E_angle  =        27.9064 
E_dihed  =        40.6999 E_impro  =         0.0000 E_vdwl   =        -9.9746 
E_coul   =         0.0000 E_long   =         0.0000 Press    =        -2.1032
------------ Step          35920 ----- CPU =     1.957432 (sec) -------------
TotEng   =       180.0733 KinEng   =        92.9038 Temp     =       314.8213 
PotEng   =        87.1695 E_bond   =        29.0797 E_angle  =        28.0868 
E_dihed  =        40.0290 E_impro  =         0.0000 E_vdwl   =       -10.0259 
E_coul   =         0.0000 E_long   =         0.0000 Press    =        -1.1703
------------ Step          35940 ----- CPU =     1.958343 (sec) -------------
TotEng   =       182.1143 KinEng   =        90.9825 Temp     =       308.3106 
PotEng   =        91.1318 E_bond   =        28.7448 E_angle  =        30.2293 
E_dihed  =        42.2877 E_impro  =         0.0000 E_vdwl   =       -10.1300 
E_coul   =         0.0000 E_long   =         0.0000 Press    =        -2.3442
------------ Step          35960 ----- CPU =     1.959387 (sec) -------------
TotEng   =       184.1348 KinEng   =        91.9127 Temp     =       311.4625 
PotEng   =        92.2222 E_bond   =        31.9212 E_angle  =        25.3857 
E_dihed  =        44.7794 E_impro  =         0.0000 E_vdwl   =        -9.8642 
E_coul   =         0.0000 E_long   =         0.0000 Press    =        -2.1690
------------ Step          35980 ----- CPU =     1.961483 (sec) -------------
TotEng   =       186.0941 KinEng   =        89.8974 Temp     =       304.6335 
PotEng   =        96.1967 E_bond   =        32.4531 E_angle  =        26.3033 
E_dihed  =        47.2579 E_impro  =         0.0000 E_vdwl   =        -9.8176 
E_coul   =         0.0000 E_long   =         0.0000 Press    =         1.6117
------------ Step          36000 ----- CPU =     1.962876 (sec) -------------
TotEng   =       188.1085 KinEng   =        92.3502 Temp     =       312.9452 
PotEng   =        95.7583 E_bond   =        35.1717 E_angle  =        26.7183 
E_dihed  =        44.3110 E_impro  =         0.0000 E_vdwl   =       -10.4427 
E_coul   =         0.0000 E_long   =         0.0000 Press    =        -1.6441
------------ Step          36020 ----- CPU =     1.963935 (sec) -------------
TotEng   =       189.5882 KinEng   =        88.0330 Temp     =       298.3157 
PotEng   =       101.5552 E_bond   =        33.9644 E_angle  =        29.1064 
E_dihed  =        48.6589 E_impro  =         0.0000 E_vdwl   =       -10.1745 
E_coul   =         0.0000 E_long   =         0.0000 Press    =         1.7519
------------ Step          36040 ----- CPU =      1.96493 (sec) -------------
TotEng   =       191.0206 KinEng   =        96.8931 Temp     =       328.3396 
PotEng   =        94.1275 E_bond   =        32.4669 E_angle  =        20.7692 
E_dihed  =        49.4628 E_impro  =         0.0000 E_vdwl   =        -8.5714 
E_coul   =         0.0000 E_long   =         0.0000 Press    =         0.6750
------------ Step          36060 ----- CPU =     1.965828 (sec) -------------
TotEng   =       192.2899 KinEng   =        86.7683 Temp     =       294.0300 
PotEng   =       105.5216 E_bond   =        37.0416 E_angle  =        30.1864 
E_dihed  =        48.2342 E_impro  =         0.0000 E_vdwl   =        -9.9406 
E_coul   =         0.0000 E_long   =         0.0000 Press    =        -1.2418
------------ Step          36080 ----- CPU =     1.966728 (sec) -------------
TotEng   =       193.2125 KinEng   =        94.3266 Temp     =       319.6426 
PotEng   =        98.8859 E_bond   =        33.8906 E_angle  =        27.7281 
E_dihed  =        46.6751 E_impro  =         0.0000 E_vdwl   =        -9.4079 
E_coul   =         0.0000 E_long   =         0.0000 Press    =         0.9898
------------ Step          36100 ----- CPU =     1.967929 (sec) -------------
TotEng   =       193.9500 KinEng   =        94.5199 Temp     =       320.2978 
PotEng   =        99.4300 E_bond   =        37.0313 E_angle  =        28.6594 
E_dihed  =        43.3029 E_impro  =         0.0000 E_vdwl   =        -9.5635 
E_coul   =         0.0000 E_long   =         0.0000 Press    =         0.6348
------------ Step          36120 ----- CPU =     1.968919 (sec) -------------
TotEng   =       194.1928 KinEng   =        96.8110 Temp     =       328.0616 
PotEng   =        97.3818 E_bond   =        36.1001 E_angle  =        27.8784 
E_dihed  =        43.6303 E_impro  =         0.0000 E_vdwl   =       -10.2271 
E_coul   =         0.0000 E_long   =         0.0000 Press    =        -0.7891
------------ Step          36140 ----- CPU =     1.969808 (sec) -------------
TotEng   =       193.8232 KinEng   =        97.0793 Temp     =       328.9706 
PotEng   =        96.7439 E_bond   =        33.4776 E_angle  =        27.6719 
E_dihed  =        46.1529 E_impro  =         0.0000 E_vdwl   =       -10.5585 
E_coul   =         0.0000 E_long   =         0.0000 Press    =        -1.2370
------------ Step          36160 ----- CPU =     1.971463 (sec) -------------
TotEng   =       192.4552 KinEng   =        94.9940 Temp     =       321.9042 
PotEng   =        97.4612 E_bond   =        30.2573 E_angle  =        30.9489 
E_dihed  =        46.8400 E_impro  =         0.0000 E_vdwl   =       -10.5850 
E_coul   =         0.0000 E_long   =         0.0000 Press    =         1.7250
------------ Step          36180 ----- CPU =     1.972796 (sec) -------------
TotEng   =       190.0512 KinEng   =        93.3196 Temp     =       316.2303 
PotEng   =        96.7315 E_bond   =        34.2279 E_angle  =        27.4277 
E_dihed  =        46.2441 E_impro  =         0.0000 E_vdwl   =       -11.1681 
E_coul   =         0.0000 E_long   =         0.0000 Press    =        -0.1953
------------ Step          36200 ----- CPU =     1.974287 (sec) -------------
TotEng   =       186.4148 KinEng   =        96.3023 Temp     =       326.3377 
PotEng   =        90.1125 E_bond   =        25.4034 E_angle  =        28.6371 
E_dihed  =        46.8381 E_impro  =         0.0000 E_vdwl   =       -10.7661 
E_coul   =         0.0000 E_long   =         0.0000 Press    =        -0.0547
------------ Step          36220 ----- CPU =     1.975296 (sec) -------------
TotEng   =       182.5474 KinEng   =        82.0560 Temp     =       278.0615 
PotEng   =       100.4914 E_bond   =        37.0916 E_angle  =        26.4988 
E_dihed  =        47.6067 E_impro  =         0.0000 E_vdwl   =       -10.7056 
E_coul   =         0.0000 E_long   =         0.0000 Press    =         2.8860
------------ Step          36240 ----- CPU =     1.976305 (sec) -------------
TotEng   =       178.6252 KinEng   =        83.6310 Temp     =       283.3988 
PotEng   =        94.9942 E_bond   =        29.9856 E_angle  =        27.2733 
E_dihed  =        48.3475 E_impro  =         0.0000 E_vdwl   =       -10.6122 
E_coul   =         0.0000 E_long   =         0.0000 Press    =        -1.1147
------------ Step          36260 ----- CPU =     1.977215 (sec) -------------
TotEng   =       175.3673 KinEng   =        85.7213 Temp     =       290.4822 
PotEng   =        89.6460 E_bond   =        29.9769 E_angle  =        21.9588 
E_dihed  =        48.4907 E_impro  =         0.0000 E_vdwl   =       -10.7805 
E_coul   =         0.0000 E_long   =         0.0000 Press    =         3.5084
------------ Step          36280 ----- CPU =     1.978448 (sec) -------------
TotEng   =       173.0056 KinEng   =        79.5056 Temp     =       269.4189 
PotEng   =        93.5000 E_bond   =        32.1713 E_angle  =        23.5006 
E_dihed  =        47.7561 E_impro  =         0.0000 E_vdwl   =        -9.9281 
E_coul   =         0.0000 E_long   =         0.0000 Press    =         3.7240
------------ Step          36300 ----- CPU =     1.979744 (sec) -------------
TotEng   =       171.5282 KinEng   =        76.4793 Temp     =       259.1638 
PotEng   =        95.0489 E_bond   =        31.3549 E_angle  =        25.2836 
E_dihed  =        48.7501 E_impro  =         0.0000 E_vdwl   =       -10.3398 
E_coul   =         0.0000 E_long   =         0.0000 Press    =        -1.1046
------------ Step          36320 ----- CPU =     1.980802 (sec) -------------
TotEng   =       170.7552 KinEng   =        79.5620 Temp     =       269.6100 
PotEng   =        91.1932 E_bond   =        32.4814 E_angle  =        19.7407 
E_dihed  =        48.4036 E_impro  =         0.0000 E_vdwl   =        -9.4324 
E_coul   =         0.0000 E_long   =         0.0000 Press    =         3.0141
------------ Step          36340 ----- CPU =     1.981728 (sec) -------------
TotEng   =       170.6734 KinEng   =        78.2447 Temp     =       265.1463 
PotEng   =        92.4287 E_bond   =        30.0307 E_angle  =        26.7425 
E_dihed  =        44.8060 E_impro  =         0.0000 E_vdwl   =        -9.1505 
E_coul   =         0.0000 E_long   =         0.0000 Press    =         0.1278
------------ Step          36360 ----- CPU =     1.982619 (sec) -------------
TotEng   =       171.2160 KinEng   =        81.8927 Temp     =       277.5081 
PotEng   =        89.3233 E_bond   =        29.2515 E_angle  =        25.8625 
E_dihed  =        44.3738 E_impro  =         0.0000 E_vdwl   =       -10.1646 
E_coul   =         0.0000 E_long   =         0.0000 Press    =        -2.1297
------------ Step          36380 ----- CPU =     1.983512 (sec) -------------
TotEng   =       172.4179 KinEng   =        90.8318 Temp     =       307.8000 
PotEng   =        81.5861 E_bond   =        24.5579 E_angle  =        22.4063 
E_dihed  =        45.0552 E_impro  =         0.0000 E_vdwl   =       -10.4333 
E_coul   =         0.0000 E_long   =         0.0000 Press    =         1.5524
------------ Step          36400 ----- CPU =     1.984835 (sec) -------------
TotEng   =       174.0766 KinEng   =        76.4192 Temp     =       258.9600 
PotEng   =        97.6575 E_bond   =        34.0431 E_angle  =        28.8040 
E_dihed  =        44.3079 E_impro  =         0.0000 E_vdwl   =        -9.4975 
E_coul   =         0.0000 E_long   =         0.0000 Press    =         0.1036
------------ Step          36420 ----- CPU =     1.985831 (sec) -------------
TotEng   =       176.2463 KinEng   =        91.0542 Temp     =       308.5536 
PotEng   =        85.1921 E_bond   =        27.0532 E_angle  =        24.7932 
E_dihed  =        42.6561 E_impro  =         0.0000 E_vdwl   =        -9.3105 
E_coul   =         0.0000 E_long   =         0.0000 Press    =        -1.9124
------------ Step          36440 ----- CPU =     1.986718 (sec) -------------
TotEng   =       178.9970 KinEng   =        82.6576 Temp     =       280.1001 
PotEng   =        96.3394 E_bond   =        31.5329 E_angle  =        32.5749 
E_dihed  =        43.0821 E_impro  =         0.0000 E_vdwl   =       -10.8505 
E_coul   =         0.0000 E_long   =         0.0000 Press    =        -1.0965
------------ Step          36460 ----- CPU =     1.988277 (sec) -------------
TotEng   =       182.0270 KinEng   =        92.5895 Temp     =       313.7562 
PotEng   =        89.4375 E_bond   =        34.9906 E_angle  =        20.2678 
E_dihed  =        45.2482 E_impro  =         0.0000 E_vdwl   =       -11.0690 
E_coul   =         0.0000 E_long   =         0.0000 Press    =        -1.6986
------------ Step          36480 ----- CPU =     1.989429 (sec) -------------
TotEng   =       185.1011 KinEng   =        85.7920 Temp     =       290.7217 
PotEng   =        99.3091 E_bond   =        33.5911 E_angle  =        25.5306 
E_dihed  =        50.5845 E_impro  =         0.0000 E_vdwl   =       -10.3971 
E_coul   =         0.0000 E_long   =         0.0000 Press    =        -1.5735
------------ Step          36500 ----- CPU =     1.990619 (sec) -------------
TotEng   =       187.8257 KinEng   =        84.7674 Temp     =       287.2497 
PotEng   =       103.0583 E_bond   =        36.7996 E_angle  =        26.5482 
E_dihed  =        48.2984 E_impro  =         0.0000 E_vdwl   =        -8.5878 
E_coul   =         0.0000 E_long   =         0.0000 Press    =        -1.5491
------------ Step          36520 ----- CPU =     1.991597 (sec) -------------
TotEng   =       190.3825 KinEng   =        90.3218 Temp     =       306.0715 
PotEng   =       100.0607 E_bond   =        31.9489 E_angle  =        32.0062 
E_dihed  =        45.1238 E_impro  =         0.0000 E_vdwl   =        -9.0181 
E_coul   =         0.0000 E_long   =         0.0000 Press    =        -2.5100
------------ Step          36540 ----- CPU =     1.992597 (sec) -------------
TotEng   =       192.3456 KinEng   =        97.9964 Temp     =       332.0785 
PotEng   =        94.3491 E_bond   =        31.9213 E_angle  =        25.6587 
E_dihed  =        46.9674 E_impro  =         0.0000 E_vdwl   =       -10.1982 
E_coul   =         0.0000 E_long   =         0.0000 Press    =        -1.4458
------------ Step          36560 ----- CPU =     1.993451 (sec) -------------
TotEng   =       193.4802 KinEng   =        92.2988 Temp     =       312.7710 
PotEng   =       101.1814 E_bond   =        35.2003 E_angle  =        29.0571 
E_dihed  =        46.3954 E_impro  =         0.0000 E_vdwl   =        -9.4714 
E_coul   =         0.0000 E_long   =         0.0000 Press    =        -1.8955
------------ Step          36580 ----- CPU =     1.994872 (sec) -------------
TotEng   =       194.0028 KinEng   =        90.7509 Temp     =       307.5259 
PotEng   =       103.2519 E_bond   =        40.6810 E_angle  =        24.8884 
E_dihed  =        47.0831 E_impro  =         0.0000 E_vdwl   =        -9.4007 
E_coul   =         0.0000 E_long   =         0.0000 Press    =        -0.9632
------------ Step          36600 ----- CPU =     1.996639 (sec) -------------
TotEng   =       193.6649 KinEng   =       102.9153 Temp     =       348.7468 
PotEng   =        90.7496 E_bond   =        28.4970 E_angle  =        26.7822 
E_dihed  =        45.0210 E_impro  =         0.0000 E_vdwl   =        -9.5506 
E_coul   =         0.0000 E_long   =         0.0000 Press    =         4.0820
------------ Step          36620 ----- CPU =     1.997631 (sec) -------------
TotEng   =       192.9897 KinEng   =        96.5657 Temp     =       327.2304 
PotEng   =        96.4240 E_bond   =        33.9327 E_angle  =        28.4272 
E_dihed  =        44.5254 E_impro  =         0.0000 E_vdwl   =       -10.4614 
E_coul   =         0.0000 E_long   =         0.0000 Press    =         0.0048
------------ Step          36640 ----- CPU =     1.998512 (sec) -------------
TotEng   =       191.6884 KinEng   =        98.5465 Temp     =       333.9426 
PotEng   =        93.1418 E_bond   =        32.3619 E_angle  =        24.6695 
E_dihed  =        46.2746 E_impro  =         0.0000 E_vdwl   =       -10.1642 
E_coul   =         0.0000 E_long   =         0.0000 Press    =         2.3907
------------ Step          36660 ----- CPU =     1.999387 (sec) -------------
TotEng   =       190.0817 KinEng   =        95.5210 Temp     =       323.6902 
PotEng   =        94.5607 E_bond   =        35.6158 E_angle  =        24.0954 
E_dihed  =        44.9089 E_impro  =         0.0000 E_vdwl   =       -10.0593 
E_coul   =         0.0000 E_long   =         0.0000 Press    =         2.1748
------------ Step          36680 ----- CPU =     2.000269 (sec) -------------
TotEng   =       187.9988 KinEng   =        96.2601 Temp     =       326.1946 
PotEng   =        91.7387 E_bond   =        34.6274 E_angle  =        22.7677 
E_dihed  =        45.0350 E_impro  =         0.0000 E_vdwl   =       -10.6914 
E_coul   =         0.0000 E_long   =         0.0000 Press    =        -3.6038
------------ Step          36700 ----- CPU =     2.001445 (sec) -------------
TotEng   =       185.9289 KinEng   =        90.2532 Temp     =       305.8391 
PotEng   =        95.6758 E_bond   =        33.0997 E_angle  =        27.1231 
E_dihed  =        45.0195 E_impro  =         0.0000 E_vdwl   =        -9.5665 
E_coul   =         0.0000 E_long   =         0.0000 Press    =         2.1957
------------ Step          36720 ----- CPU =     2.002433 (sec) -------------
TotEng   =       184.2476 KinEng   =        89.5501 Temp     =       303.4565 
PotEng   =        94.6976 E_bond   =        32.9197 E_angle  =        27.6699 
E_dihed  =        44.0915 E_impro  =         0.0000 E_vdwl   =        -9.9835 
E_coul   =         0.0000 E_long   =         0.0000 Press    =         0.1891
------------ Step          36740 ----- CPU =     2.004174 (sec) -------------
TotEng   =       182.6662 KinEng   =        83.1324 Temp     =       281.7092 
PotEng   =        99.5338 E_bond   =        34.1948 E_angle  =        27.3482 
E_dihed  =        47.4911 E_impro  =         0.0000 E_vdwl   =        -9.5003 
E_coul   =         0.0000 E_long   =         0.0000 Press    =        -1.0025
------------ Step          36760 ----- CPU =     2.005131 (sec) -------------
TotEng   =       181.6197 KinEng   =        87.8910 Temp     =       297.8346 
PotEng   =        93.7286 E_bond   =        34.7161 E_angle  =        20.4970 
E_dihed  =        47.4291 E_impro  =         0.0000 E_vdwl   =        -8.9135 
E_coul   =         0.0000 E_long   =         0.0000 Press    =         3.3220
------------ Step          36780 ----- CPU =     2.007089 (sec) -------------
TotEng   =       180.8421 KinEng   =        83.9044 Temp     =       284.3251 
PotEng   =        96.9377 E_bond   =        29.3588 E_angle  =        28.6361 
E_dihed  =        47.9897 E_impro  =         0.0000 E_vdwl   =        -9.0468 
E_coul   =         0.0000 E_long   =         0.0000 Press    =         0.4523
------------ Step          36800 ----- CPU =     2.008369 (sec) -------------
TotEng   =       180.6145 KinEng   =        85.1136 Temp     =       288.4226 
PotEng   =        95.5009 E_bond   =        29.7082 E_angle  =        28.9013 
E_dihed  =        46.0324 E_impro  =         0.0000 E_vdwl   =        -9.1410 
E_coul   =         0.0000 E_long   =         0.0000 Press    =         0.1508
------------ Step          36820 ----- CPU =     2.009518 (sec) -------------
TotEng   =       180.7844 KinEng   =        82.3538 Temp     =       279.0707 
PotEng   =        98.4306 E_bond   =        31.1243 E_angle  =        30.6849 
E_dihed  =        44.4977 E_impro  =         0.0000 E_vdwl   =        -7.8764 
E_coul   =         0.0000 E_long   =         0.0000 Press    =        -1.6724
------------ Step          36840 ----- CPU =     2.010415 (sec) -------------
TotEng   =       181.1366 KinEng   =        87.9094 Temp     =       297.8968 
PotEng   =        93.2271 E_bond   =        32.9935 E_angle  =        25.1145 
E_dihed  =        44.1800 E_impro  =         0.0000 E_vdwl   =        -9.0608 
E_coul   =         0.0000 E_long   =         0.0000 Press    =        -1.9795
------------ Step          36860 ----- CPU =     2.012008 (sec) -------------
TotEng   =       181.4786 KinEng   =        90.8646 Temp     =       307.9111 
PotEng   =        90.6140 E_bond   =        30.7700 E_angle  =        27.7392 
E_dihed  =        41.5041 E_impro  =         0.0000 E_vdwl   =        -9.3992 
E_coul   =         0.0000 E_long   =         0.0000 Press    =        -0.8957
------------ Step          36880 ----- CPU =     2.012883 (sec) -------------
TotEng   =       181.8800 KinEng   =        82.5361 Temp     =       279.6885 
PotEng   =        99.3439 E_bond   =        35.3935 E_angle  =        23.5895 
E_dihed  =        49.4310 E_impro  =         0.0000 E_vdwl   =        -9.0702 
E_coul   =         0.0000 E_long   =         0.0000 Press    =        -1.2452
------------ Step          36900 ----- CPU =     2.013752 (sec) -------------
TotEng   =       182.8626 KinEng   =        75.6336 Temp     =       256.2981 
PotEng   =       107.2289 E_bond   =        35.6144 E_angle  =        27.6074 
E_dihed  =        53.5080 E_impro  =         0.0000 E_vdwl   =        -9.5008 
E_coul   =         0.0000 E_long   =         0.0000 Press    =        -2.5140
------------ Step          36920 ----- CPU =     2.014933 (sec) -------------
TotEng   =       184.6221 KinEng   =        87.6388 Temp     =       296.9799 
PotEng   =        96.9833 E_bond   =        35.9127 E_angle  =        25.3985 
E_dihed  =        45.6505 E_impro  =         0.0000 E_vdwl   =        -9.9783 
E_coul   =         0.0000 E_long   =         0.0000 Press    =        -0.5614
------------ Step          36940 ----- CPU =     2.015815 (sec) -------------
TotEng   =       186.6565 KinEng   =        93.4542 Temp     =       316.6863 
PotEng   =        93.2023 E_bond   =        29.4238 E_angle  =        30.4450 
E_dihed  =        43.3047 E_impro  =         0.0000 E_vdwl   =        -9.9711 
E_coul   =         0.0000 E_long   =         0.0000 Press    =         0.0707
------------ Step          36960 ----- CPU =     2.016997 (sec) -------------
TotEng   =       189.0226 KinEng   =        91.5368 Temp     =       310.1889 
PotEng   =        97.4858 E_bond   =        38.4169 E_angle  =        25.3662 
E_dihed  =        43.7653 E_impro  =         0.0000 E_vdwl   =       -10.0627 
E_coul   =         0.0000 E_long   =         0.0000 Press    =        -0.6664
------------ Step          36980 ----- CPU =     2.017994 (sec) -------------
TotEng   =       191.7403 KinEng   =        88.3250 Temp     =       299.3050 
PotEng   =       103.4153 E_bond   =        37.2456 E_angle  =        29.7695 
E_dihed  =        45.6020 E_impro  =         0.0000 E_vdwl   =        -9.2018 
E_coul   =         0.0000 E_long   =         0.0000 Press    =         2.2546
------------ Step          37000 ----- CPU =     2.018969 (sec) -------------
TotEng   =       195.2786 KinEng   =       100.7166 Temp     =       341.2963 
PotEng   =        94.5620 E_bond   =        36.6069 E_angle  =        28.1181 
E_dihed  =        39.8662 E_impro  =         0.0000 E_vdwl   =       -10.0292 
E_coul   =         0.0000 E_long   =         0.0000 Press    =        -0.5360
------------ Step          37020 ----- CPU =     2.022141 (sec) -------------
TotEng   =       198.9515 KinEng   =       103.7464 Temp     =       351.5632 
PotEng   =        95.2051 E_bond   =        30.7583 E_angle  =        36.5649 
E_dihed  =        38.1187 E_impro  =         0.0000 E_vdwl   =       -10.2367 
E_coul   =         0.0000 E_long   =         0.0000 Press    =        -1.5385
------------ Step          37040 ----- CPU =     2.023076 (sec) -------------
TotEng   =       202.5187 KinEng   =        99.9844 Temp     =       338.8151 
PotEng   =       102.5343 E_bond   =        38.2845 E_angle  =        34.2275 
E_dihed  =        41.6801 E_impro  =         0.0000 E_vdwl   =       -11.6578 
E_coul   =         0.0000 E_long   =         0.0000 Press    =         2.8524
------------ Step          37060 ----- CPU =     2.023934 (sec) -------------
TotEng   =       206.1042 KinEng   =        93.5243 Temp     =       316.9238 
PotEng   =       112.5799 E_bond   =        43.4461 E_angle  =        35.8347 
E_dihed  =        44.4797 E_impro  =         0.0000 E_vdwl   =       -11.1806 
E_coul   =         0.0000 E_long   =         0.0000 Press    =        -4.3856
------------ Step          37080 ----- CPU =      2.02482 (sec) -------------
TotEng   =       209.3542 KinEng   =        98.5008 Temp     =       333.7878 
PotEng   =       110.8534 E_bond   =        33.7419 E_angle  =        39.4638 
E_dihed  =        48.3992 E_impro  =         0.0000 E_vdwl   =       -10.7516 
E_coul   =         0.0000 E_long   =         0.0000 Press    =        -1.0574
------------ Step          37100 ----- CPU =     2.025809 (sec) -------------
TotEng   =       212.4170 KinEng   =       119.4532 Temp     =       404.7887 
PotEng   =        92.9638 E_bond   =        27.4039 E_angle  =        28.1094 
E_dihed  =        47.9664 E_impro  =         0.0000 E_vdwl   =       -10.5160 
E_coul   =         0.0000 E_long   =         0.0000 Press    =         3.5538
------------ Step          37120 ----- CPU =     2.027011 (sec) -------------
TotEng   =       214.0884 KinEng   =        99.3886 Temp     =       336.7962 
PotEng   =       114.6997 E_bond   =        42.2694 E_angle  =        34.2879 
E_dihed  =        49.0220 E_impro  =         0.0000 E_vdwl   =       -10.8796 
E_coul   =         0.0000 E_long   =         0.0000 Press    =        -0.2908
------------ Step          37140 ----- CPU =     2.029165 (sec) -------------
TotEng   =       214.4141 KinEng   =        98.1687 Temp     =       332.6622 
PotEng   =       116.2455 E_bond   =        41.1408 E_angle  =        35.8198 
E_dihed  =        49.9685 E_impro  =         0.0000 E_vdwl   =       -10.6836 
E_coul   =         0.0000 E_long   =         0.0000 Press    =         3.9224
------------ Step          37160 ----- CPU =     2.030075 (sec) -------------
TotEng   =       213.3489 KinEng   =       104.1794 Temp     =       353.0306 
PotEng   =       109.1695 E_bond   =        39.4423 E_angle  =        30.7410 
E_dihed  =        49.5975 E_impro  =         0.0000 E_vdwl   =       -10.6113 
E_coul   =         0.0000 E_long   =         0.0000 Press    =         5.0094
------------ Step          37180 ----- CPU =     2.030956 (sec) -------------
TotEng   =       210.2545 KinEng   =       106.8599 Temp     =       362.1140 
PotEng   =       103.3946 E_bond   =        28.9192 E_angle  =        32.1179 
E_dihed  =        50.2695 E_impro  =         0.0000 E_vdwl   =        -7.9121 
E_coul   =         0.0000 E_long   =         0.0000 Press    =         0.4301
------------ Step          37200 ----- CPU =     2.031977 (sec) -------------
TotEng   =       205.1929 KinEng   =        93.5640 Temp     =       317.0584 
PotEng   =       111.6289 E_bond   =        40.6243 E_angle  =        30.1051 
E_dihed  =        48.5048 E_impro  =         0.0000 E_vdwl   =        -7.6053 
E_coul   =         0.0000 E_long   =         0.0000 Press    =         0.2900
------------ Step          37220 ----- CPU =     2.033156 (sec) -------------
TotEng   =       198.8377 KinEng   =        91.9095 Temp     =       311.4518 
PotEng   =       106.9282 E_bond   =        35.6061 E_angle  =        30.0528 
E_dihed  =        49.1822 E_impro  =         0.0000 E_vdwl   =        -7.9128 
E_coul   =         0.0000 E_long   =         0.0000 Press    =         0.8683
------------ Step          37240 ----- CPU =     2.034074 (sec) -------------
TotEng   =       193.2457 KinEng   =        94.5959 Temp     =       320.5552 
PotEng   =        98.6498 E_bond   =        36.3778 E_angle  =        25.3232 
E_dihed  =        45.9841 E_impro  =         0.0000 E_vdwl   =        -9.0354 
E_coul   =         0.0000 E_long   =         0.0000 Press    =        -4.5490
------------ Step          37260 ----- CPU =     2.034954 (sec) -------------
TotEng   =       188.6456 KinEng   =        98.0550 Temp     =       332.2770 
PotEng   =        90.5906 E_bond   =        28.0109 E_angle  =        28.4930 
E_dihed  =        43.9949 E_impro  =         0.0000 E_vdwl   =        -9.9082 
E_coul   =         0.0000 E_long   =         0.0000 Press    =        -0.7922
------------ Step          37280 ----- CPU =     2.035829 (sec) -------------
TotEng   =       185.6387 KinEng   =        86.0736 Temp     =       291.6757 
PotEng   =        99.5652 E_bond   =        34.9471 E_angle  =        30.9195 
E_dihed  =        43.7072 E_impro  =         0.0000 E_vdwl   =       -10.0087 
E_coul   =         0.0000 E_long   =         0.0000 Press    =         1.6524
------------ Step          37300 ----- CPU =     2.037767 (sec) -------------
TotEng   =       183.4919 KinEng   =        92.0482 Temp     =       311.9217 
PotEng   =        91.4437 E_bond   =        35.1493 E_angle  =        23.1970 
E_dihed  =        42.1267 E_impro  =         0.0000 E_vdwl   =        -9.0292 
E_coul   =         0.0000 E_long   =         0.0000 Press    =        -2.6381
------------ Step          37320 ----- CPU =     2.039694 (sec) -------------
TotEng   =       181.8009 KinEng   =        85.3839 Temp     =       289.3387 
PotEng   =        96.4170 E_bond   =        30.0617 E_angle  =        29.7419 
E_dihed  =        43.7662 E_impro  =         0.0000 E_vdwl   =        -7.1528 
E_coul   =         0.0000 E_long   =         0.0000 Press    =         0.4325
------------ Step          37340 ----- CPU =     2.040585 (sec) -------------
TotEng   =       180.6089 KinEng   =        93.8846 Temp     =       318.1448 
PotEng   =        86.7243 E_bond   =        31.7710 E_angle  =        21.1335 
E_dihed  =        42.1249 E_impro  =         0.0000 E_vdwl   =        -8.3052 
E_coul   =         0.0000 E_long   =         0.0000 Press    =         0.4760
------------ Step          37360 ----- CPU =     2.041483 (sec) -------------
TotEng   =       179.1016 KinEng   =        84.2074 Temp     =       285.3519 
PotEng   =        94.8942 E_bond   =        31.8629 E_angle  =        27.7299 
E_dihed  =        44.2387 E_impro  =         0.0000 E_vdwl   =        -8.9372 
E_coul   =         0.0000 E_long   =         0.0000 Press    =        -3.6844
------------ Step          37380 ----- CPU =     2.042429 (sec) -------------
TotEng   =       177.9162 KinEng   =        92.1403 Temp     =       312.2340 
PotEng   =        85.7759 E_bond   =        29.2836 E_angle  =        23.2568 
E_dihed  =        42.2804 E_impro  =         0.0000 E_vdwl   =        -9.0449 
E_coul   =         0.0000 E_long   =         0.0000 Press    =        -0.2754
------------ Step          37400 ----- CPU =     2.043429 (sec) -------------
TotEng   =       176.6420 KinEng   =        89.6731 Temp     =       303.8735 
PotEng   =        86.9689 E_bond   =        32.6274 E_angle  =        26.2965 
E_dihed  =        37.6065 E_impro  =         0.0000 E_vdwl   =        -9.5615 
E_coul   =         0.0000 E_long   =         0.0000 Press    =        -0.6776
------------ Step          37420 ----- CPU =      2.04482 (sec) -------------
TotEng   =       175.0705 KinEng   =        88.3536 Temp     =       299.4022 
PotEng   =        86.7168 E_bond   =        30.3603 E_angle  =        27.1524 
E_dihed  =        39.9945 E_impro  =         0.0000 E_vdwl   =       -10.7904 
E_coul   =         0.0000 E_long   =         0.0000 Press    =        -2.8964
------------ Step          37440 ----- CPU =     2.045794 (sec) -------------
TotEng   =       173.5431 KinEng   =        78.9998 Temp     =       267.7051 
PotEng   =        94.5433 E_bond   =        34.3536 E_angle  =        24.5567 
E_dihed  =        44.3254 E_impro  =         0.0000 E_vdwl   =        -8.6924 
E_coul   =         0.0000 E_long   =         0.0000 Press    =         1.2460
------------ Step          37460 ----- CPU =     2.046658 (sec) -------------
TotEng   =       172.2461 KinEng   =        85.9518 Temp     =       291.2631 
PotEng   =        86.2943 E_bond   =        24.3555 E_angle  =        26.0159 
E_dihed  =        45.5522 E_impro  =         0.0000 E_vdwl   =        -9.6293 
E_coul   =         0.0000 E_long   =         0.0000 Press    =         0.6227
------------ Step          37480 ----- CPU =     2.047543 (sec) -------------
TotEng   =       171.5833 KinEng   =        79.0291 Temp     =       267.8043 
PotEng   =        92.5541 E_bond   =        34.4357 E_angle  =        25.4393 
E_dihed  =        42.0606 E_impro  =         0.0000 E_vdwl   =        -9.3815 
E_coul   =         0.0000 E_long   =         0.0000 Press    =        -2.7250
------------ Step          37500 ----- CPU =     2.048442 (sec) -------------
TotEng   =       171.1327 KinEng   =        82.4924 Temp     =       279.5404 
PotEng   =        88.6402 E_bond   =        27.0680 E_angle  =        31.3435 
E_dihed  =        38.0681 E_impro  =         0.0000 E_vdwl   =        -7.8394 
E_coul   =         0.0000 E_long   =         0.0000 Press    =         1.3653
------------ Step          37520 ----- CPU =      2.04943 (sec) -------------
TotEng   =       171.1597 KinEng   =        77.3858 Temp     =       262.2358 
PotEng   =        93.7739 E_bond   =        34.2961 E_angle  =        29.0250 
E_dihed  =        39.5935 E_impro  =         0.0000 E_vdwl   =        -9.1407 
E_coul   =         0.0000 E_long   =         0.0000 Press    =        -2.0313
------------ Step          37540 ----- CPU =     2.050405 (sec) -------------
TotEng   =       171.5021 KinEng   =        88.2519 Temp     =       299.0574 
PotEng   =        83.2502 E_bond   =        20.3160 E_angle  =        32.6654 
E_dihed  =        39.6256 E_impro  =         0.0000 E_vdwl   =        -9.3567 
E_coul   =         0.0000 E_long   =         0.0000 Press    =        -2.9488
------------ Step          37560 ----- CPU =     2.051292 (sec) -------------
TotEng   =       172.8725 KinEng   =        79.8582 Temp     =       270.6137 
PotEng   =        93.0143 E_bond   =        34.0346 E_angle  =        32.0420 
E_dihed  =        36.5697 E_impro  =         0.0000 E_vdwl   =        -9.6320 
E_coul   =         0.0000 E_long   =         0.0000 Press    =         0.9437
------------ Step          37580 ----- CPU =     2.052147 (sec) -------------
TotEng   =       174.9550 KinEng   =        94.2892 Temp     =       319.5160 
PotEng   =        80.6658 E_bond   =        31.1087 E_angle  =        21.4494 
E_dihed  =        38.2218 E_impro  =         0.0000 E_vdwl   =       -10.1141 
E_coul   =         0.0000 E_long   =         0.0000 Press    =         0.2633
------------ Step          37600 ----- CPU =     2.053156 (sec) -------------
TotEng   =       177.1125 KinEng   =        81.3608 Temp     =       275.7058 
PotEng   =        95.7517 E_bond   =        29.8705 E_angle  =        31.0305 
E_dihed  =        43.3391 E_impro  =         0.0000 E_vdwl   =        -8.4884 
E_coul   =         0.0000 E_long   =         0.0000 Press    =        -0.0567
------------ Step          37620 ----- CPU =     2.054417 (sec) -------------
TotEng   =       180.0465 KinEng   =        86.8932 Temp     =       294.4531 
PotEng   =        93.1533 E_bond   =        31.5089 E_angle  =        24.6601 
E_dihed  =        44.9015 E_impro  =         0.0000 E_vdwl   =        -7.9171 
E_coul   =         0.0000 E_long   =         0.0000 Press    =         3.9976
------------ Step          37640 ----- CPU =     2.055933 (sec) -------------
TotEng   =       183.6719 KinEng   =        90.2604 Temp     =       305.8636 
PotEng   =        93.4115 E_bond   =        27.6302 E_angle  =        29.4688 
E_dihed  =        46.4423 E_impro  =         0.0000 E_vdwl   =       -10.1298 
E_coul   =         0.0000 E_long   =         0.0000 Press    =         2.1144
------------ Step          37660 ----- CPU =     2.056915 (sec) -------------
TotEng   =       187.6732 KinEng   =        88.2311 Temp     =       298.9870 
PotEng   =        99.4421 E_bond   =        34.2000 E_angle  =        26.2415 
E_dihed  =        49.1810 E_impro  =         0.0000 E_vdwl   =       -10.1804 
E_coul   =         0.0000 E_long   =         0.0000 Press    =         1.0126
------------ Step          37680 ----- CPU =     2.057792 (sec) -------------
TotEng   =       191.2317 KinEng   =        92.9344 Temp     =       314.9248 
PotEng   =        98.2973 E_bond   =        38.1987 E_angle  =        21.0434 
E_dihed  =        49.1027 E_impro  =         0.0000 E_vdwl   =       -10.0474 
E_coul   =         0.0000 E_long   =         0.0000 Press    =         3.9833
------------ Step          37700 ----- CPU =     2.058748 (sec) -------------
TotEng   =       193.9504 KinEng   =        91.1506 Temp     =       308.8802 
PotEng   =       102.7998 E_bond   =        35.2892 E_angle  =        26.4372 
E_dihed  =        50.6407 E_impro  =         0.0000 E_vdwl   =        -9.5672 
E_coul   =         0.0000 E_long   =         0.0000 Press    =         1.1621
------------ Step          37720 ----- CPU =     2.059966 (sec) -------------
TotEng   =       195.7995 KinEng   =       100.1782 Temp     =       339.4717 
PotEng   =        95.6213 E_bond   =        32.8822 E_angle  =        22.7932 
E_dihed  =        49.5909 E_impro  =         0.0000 E_vdwl   =        -9.6449 
E_coul   =         0.0000 E_long   =         0.0000 Press    =        -0.5885
------------ Step          37740 ----- CPU =     2.061496 (sec) -------------
TotEng   =       196.7525 KinEng   =        92.2381 Temp     =       312.5654 
PotEng   =       104.5144 E_bond   =        37.4284 E_angle  =        30.2536 
E_dihed  =        46.3612 E_impro  =         0.0000 E_vdwl   =        -9.5289 
E_coul   =         0.0000 E_long   =         0.0000 Press    =         3.2767
------------ Step          37760 ----- CPU =     2.062494 (sec) -------------
TotEng   =       196.5669 KinEng   =       101.9430 Temp     =       345.4520 
PotEng   =        94.6239 E_bond   =        30.0179 E_angle  =        30.1257 
E_dihed  =        43.7990 E_impro  =         0.0000 E_vdwl   =        -9.3186 
E_coul   =         0.0000 E_long   =         0.0000 Press    =        -0.8430
------------ Step          37780 ----- CPU =     2.063396 (sec) -------------
TotEng   =       195.7698 KinEng   =        97.9129 Temp     =       331.7954 
PotEng   =        97.8569 E_bond   =        34.9888 E_angle  =        26.4125 
E_dihed  =        46.2087 E_impro  =         0.0000 E_vdwl   =        -9.7531 
E_coul   =         0.0000 E_long   =         0.0000 Press    =         0.4524
------------ Step          37800 ----- CPU =     2.064271 (sec) -------------
TotEng   =       194.4680 KinEng   =        91.5320 Temp     =       310.1725 
PotEng   =       102.9360 E_bond   =        34.5543 E_angle  =        31.8549 
E_dihed  =        46.5307 E_impro  =         0.0000 E_vdwl   =       -10.0038 
E_coul   =         0.0000 E_long   =         0.0000 Press    =         2.6111
------------ Step          37820 ----- CPU =     2.065332 (sec) -------------
TotEng   =       193.0995 KinEng   =        89.9483 Temp     =       304.8061 
PotEng   =       103.1512 E_bond   =        31.6172 E_angle  =        32.0222 
E_dihed  =        48.2336 E_impro  =         0.0000 E_vdwl   =        -8.7218 
E_coul   =         0.0000 E_long   =         0.0000 Press    =        -3.6896
------------ Step          37840 ----- CPU =     2.066266 (sec) -------------
TotEng   =       191.8934 KinEng   =        95.9789 Temp     =       325.2418 
PotEng   =        95.9145 E_bond   =        27.4309 E_angle  =        25.5262 
E_dihed  =        52.2089 E_impro  =         0.0000 E_vdwl   =        -9.2515 
E_coul   =         0.0000 E_long   =         0.0000 Press    =         1.2335
------------ Step          37860 ----- CPU =     2.067389 (sec) -------------
TotEng   =       190.7122 KinEng   =        88.4330 Temp     =       299.6712 
PotEng   =       102.2792 E_bond   =        34.3650 E_angle  =        23.7792 
E_dihed  =        52.8504 E_impro  =         0.0000 E_vdwl   =        -8.7154 
E_coul   =         0.0000 E_long   =         0.0000 Press    =         1.0339
------------ Step          37880 ----- CPU =     2.068288 (sec) -------------
TotEng   =       189.5286 KinEng   =        91.2533 Temp     =       309.2281 
PotEng   =        98.2753 E_bond   =        31.1865 E_angle  =        23.6439 
E_dihed  =        50.4978 E_impro  =         0.0000 E_vdwl   =        -7.0529 
E_coul   =         0.0000 E_long   =         0.0000 Press    =        -3.7140
------------ Step          37900 ----- CPU =      2.06916 (sec) -------------
TotEng   =       188.4714 KinEng   =        85.3930 Temp     =       289.3696 
PotEng   =       103.0783 E_bond   =        34.2620 E_angle  =        27.0140 
E_dihed  =        49.7877 E_impro  =         0.0000 E_vdwl   =        -7.9853 
E_coul   =         0.0000 E_long   =         0.0000 Press    =         2.0415
------------ Step          37920 ----- CPU =     2.070162 (sec) -------------
TotEng   =       187.8360 KinEng   =        77.5803 Temp     =       262.8947 
PotEng   =       110.2557 E_bond   =        33.2878 E_angle  =        34.1653 
E_dihed  =        50.1596 E_impro  =         0.0000 E_vdwl   =        -7.3570 
E_coul   =         0.0000 E_long   =         0.0000 Press    =        -1.0169
------------ Step          37940 ----- CPU =     2.071177 (sec) -------------
TotEng   =       187.4839 KinEng   =        86.8696 Temp     =       294.3734 
PotEng   =       100.6143 E_bond   =        28.5632 E_angle  =        31.3896 
E_dihed  =        47.8952 E_impro  =         0.0000 E_vdwl   =        -7.2337 
E_coul   =         0.0000 E_long   =         0.0000 Press    =        -3.3843
------------ Step          37960 ----- CPU =     2.072221 (sec) -------------
TotEng   =       187.6096 KinEng   =        81.1979 Temp     =       275.1535 
PotEng   =       106.4117 E_bond   =        36.4678 E_angle  =        28.5659 
E_dihed  =        49.3246 E_impro  =         0.0000 E_vdwl   =        -7.9466 
E_coul   =         0.0000 E_long   =         0.0000 Press    =         2.0380
------------ Step          37980 ----- CPU =     2.073194 (sec) -------------
TotEng   =       187.8128 KinEng   =        85.9406 Temp     =       291.2251 
PotEng   =       101.8722 E_bond   =        39.2021 E_angle  =        28.3635 
E_dihed  =        42.3439 E_impro  =         0.0000 E_vdwl   =        -8.0372 
E_coul   =         0.0000 E_long   =         0.0000 Press    =        -3.3546
------------ Step          38000 ----- CPU =     2.074626 (sec) -------------
TotEng   =       187.9339 KinEng   =        93.5696 Temp     =       317.0775 
PotEng   =        94.3642 E_bond   =        33.1607 E_angle  =        29.9188 
E_dihed  =        39.9252 E_impro  =         0.0000 E_vdwl   =        -8.6404 
E_coul   =         0.0000 E_long   =         0.0000 Press    =        -3.4349
------------ Step          38020 ----- CPU =     2.075721 (sec) -------------
TotEng   =       187.8331 KinEng   =        88.3679 Temp     =       299.4505 
PotEng   =        99.4652 E_bond   =        32.2742 E_angle  =        31.3203 
E_dihed  =        43.8593 E_impro  =         0.0000 E_vdwl   =        -7.9885 
E_coul   =         0.0000 E_long   =         0.0000 Press    =         1.8845
------------ Step          38040 ----- CPU =     2.084936 (sec) -------------
TotEng   =       187.6245 KinEng   =        87.6148 Temp     =       296.8983 
PotEng   =       100.0098 E_bond   =        30.4806 E_angle  =        31.0165 
E_dihed  =        46.5296 E_impro  =         0.0000 E_vdwl   =        -8.0169 
E_coul   =         0.0000 E_long   =         0.0000 Press    =        -0.6166
------------ Step          38060 ----- CPU =     2.085894 (sec) -------------
TotEng   =       187.3114 KinEng   =        90.1078 Temp     =       305.3466 
PotEng   =        97.2035 E_bond   =        31.7214 E_angle  =        28.1195 
E_dihed  =        45.7509 E_impro  =         0.0000 E_vdwl   =        -8.3883 
E_coul   =         0.0000 E_long   =         0.0000 Press    =         5.7371
------------ Step          38080 ----- CPU =     2.086773 (sec) -------------
TotEng   =       187.1153 KinEng   =        97.0900 Temp     =       329.0070 
PotEng   =        90.0252 E_bond   =        28.6477 E_angle  =        27.2646 
E_dihed  =        42.4921 E_impro  =         0.0000 E_vdwl   =        -8.3792 
E_coul   =         0.0000 E_long   =         0.0000 Press    =         4.2255
------------ Step          38100 ----- CPU =     2.096917 (sec) -------------
TotEng   =       186.7712 KinEng   =        85.9744 Temp     =       291.3397 
PotEng   =       100.7969 E_bond   =        35.1169 E_angle  =        31.7601 
E_dihed  =        41.9866 E_impro  =         0.0000 E_vdwl   =        -8.0668 
E_coul   =         0.0000 E_long   =         0.0000 Press    =        -1.8929
------------ Step          38120 ----- CPU =     2.097946 (sec) -------------
TotEng   =       185.9916 KinEng   =        90.8242 Temp     =       307.7743 
PotEng   =        95.1673 E_bond   =        30.9763 E_angle  =        30.1995 
E_dihed  =        42.1972 E_impro  =         0.0000 E_vdwl   =        -8.2058 
E_coul   =         0.0000 E_long   =         0.0000 Press    =         2.7366
------------ Step          38140 ----- CPU =     2.102043 (sec) -------------
TotEng   =       184.6571 KinEng   =        85.9750 Temp     =       291.3416 
PotEng   =        98.6822 E_bond   =        33.9529 E_angle  =        31.0640 
E_dihed  =        42.7492 E_impro  =         0.0000 E_vdwl   =        -9.0839 
E_coul   =         0.0000 E_long   =         0.0000 Press    =        -1.9955
------------ Step          38160 ----- CPU =     2.103049 (sec) -------------
TotEng   =       182.2964 KinEng   =        83.9709 Temp     =       284.5505 
PotEng   =        98.3255 E_bond   =        34.0681 E_angle  =        29.1339 
E_dihed  =        43.8698 E_impro  =         0.0000 E_vdwl   =        -8.7463 
E_coul   =         0.0000 E_long   =         0.0000 Press    =        -2.0975
------------ Step          38180 ----- CPU =     2.104483 (sec) -------------
TotEng   =       179.2985 KinEng   =        79.3304 Temp     =       268.8254 
PotEng   =        99.9681 E_bond   =        32.0102 E_angle  =        32.5665 
E_dihed  =        44.8867 E_impro  =         0.0000 E_vdwl   =        -9.4954 
E_coul   =         0.0000 E_long   =         0.0000 Press    =         3.1294
------------ Step          38200 ----- CPU =     2.115222 (sec) -------------
TotEng   =       175.5590 KinEng   =        84.5139 Temp     =       286.3905 
PotEng   =        91.0451 E_bond   =        33.0048 E_angle  =        25.2099 
E_dihed  =        42.3186 E_impro  =         0.0000 E_vdwl   =        -9.4882 
E_coul   =         0.0000 E_long   =         0.0000 Press    =        -0.5811
------------ Step          38220 ----- CPU =      2.11692 (sec) -------------
TotEng   =       171.6663 KinEng   =        88.6482 Temp     =       300.4002 
PotEng   =        83.0181 E_bond   =        26.1035 E_angle  =        24.5699 
E_dihed  =        40.7203 E_impro  =         0.0000 E_vdwl   =        -8.3756 
E_coul   =         0.0000 E_long   =         0.0000 Press    =         2.5165
------------ Step          38240 ----- CPU =     2.130167 (sec) -------------
TotEng   =       168.5145 KinEng   =        78.3894 Temp     =       265.6365 
PotEng   =        90.1251 E_bond   =        35.6246 E_angle  =        24.8341 
E_dihed  =        38.9470 E_impro  =         0.0000 E_vdwl   =        -9.2805 
E_coul   =         0.0000 E_long   =         0.0000 Press    =         3.3891
------------ Step          38260 ----- CPU =     2.131057 (sec) -------------
TotEng   =       165.7169 KinEng   =        84.4564 Temp     =       286.1955 
PotEng   =        81.2606 E_bond   =        24.8293 E_angle  =        23.1015 
E_dihed  =        42.5064 E_impro  =         0.0000 E_vdwl   =        -9.1766 
E_coul   =         0.0000 E_long   =         0.0000 Press    =        -1.9229
------------ Step          38280 ----- CPU =     2.136366 (sec) -------------
TotEng   =       164.0534 KinEng   =        73.1898 Temp     =       248.0168 
PotEng   =        90.8635 E_bond   =        30.4693 E_angle  =        24.4441 
E_dihed  =        46.0286 E_impro  =         0.0000 E_vdwl   =       -10.0784 
E_coul   =         0.0000 E_long   =         0.0000 Press    =         0.9402
------------ Step          38300 ----- CPU =     2.160223 (sec) -------------
TotEng   =       163.3810 KinEng   =        79.5295 Temp     =       269.5001 
PotEng   =        83.8515 E_bond   =        28.2321 E_angle  =        20.1172 
E_dihed  =        46.1220 E_impro  =         0.0000 E_vdwl   =       -10.6198 
E_coul   =         0.0000 E_long   =         0.0000 Press    =         0.1467
------------ Step          38320 ----- CPU =     2.161279 (sec) -------------
TotEng   =       163.4157 KinEng   =        79.3514 Temp     =       268.8963 
PotEng   =        84.0644 E_bond   =        26.0464 E_angle  =        21.7114 
E_dihed  =        46.4043 E_impro  =         0.0000 E_vdwl   =       -10.0977 
E_coul   =         0.0000 E_long   =         0.0000 Press    =        -4.3522
------------ Step          38340 ----- CPU =      2.16278 (sec) -------------
TotEng   =       164.2165 KinEng   =        79.9433 Temp     =       270.9024 
PotEng   =        84.2732 E_bond   =        28.2270 E_angle  =        24.3899 
E_dihed  =        40.7426 E_impro  =         0.0000 E_vdwl   =        -9.0863 
E_coul   =         0.0000 E_long   =         0.0000 Press    =         2.0401
------------ Step          38360 ----- CPU =     2.163683 (sec) -------------
TotEng   =       165.6796 KinEng   =        83.9648 Temp     =       284.5298 
PotEng   =        81.7148 E_bond   =        27.0398 E_angle  =        22.5844 
E_dihed  =        42.2329 E_impro  =         0.0000 E_vdwl   =       -10.1422 
E_coul   =         0.0000 E_long   =         0.0000 Press    =        -1.3670
------------ Step          38380 ----- CPU =     2.164563 (sec) -------------
TotEng   =       167.9609 KinEng   =        75.1202 Temp     =       254.5585 
PotEng   =        92.8406 E_bond   =        32.8754 E_angle  =        24.9636 
E_dihed  =        45.1291 E_impro  =         0.0000 E_vdwl   =       -10.1275 
E_coul   =         0.0000 E_long   =         0.0000 Press    =        -3.6413
------------ Step          38400 ----- CPU =     2.191336 (sec) -------------
TotEng   =       170.7234 KinEng   =        81.1287 Temp     =       274.9191 
PotEng   =        89.5947 E_bond   =        24.2653 E_angle  =        25.3661 
E_dihed  =        50.3623 E_impro  =         0.0000 E_vdwl   =       -10.3989 
E_coul   =         0.0000 E_long   =         0.0000 Press    =         4.3861
------------ Step          38420 ----- CPU =     2.195208 (sec) -------------
TotEng   =       174.2095 KinEng   =        71.6796 Temp     =       242.8991 
PotEng   =       102.5300 E_bond   =        36.6316 E_angle  =        26.5892 
E_dihed  =        50.1196 E_impro  =         0.0000 E_vdwl   =       -10.8103 
E_coul   =         0.0000 E_long   =         0.0000 Press    =        -3.8192
------------ Step          38440 ----- CPU =     2.197755 (sec) -------------
TotEng   =       177.9966 KinEng   =        89.5751 Temp     =       303.5415 
PotEng   =        88.4214 E_bond   =        27.6573 E_angle  =        25.0849 
E_dihed  =        46.1680 E_impro  =         0.0000 E_vdwl   =       -10.4889 
E_coul   =         0.0000 E_long   =         0.0000 Press    =        -0.5695
------------ Step          38460 ----- CPU =     2.199359 (sec) -------------
TotEng   =       181.5073 KinEng   =        90.4967 Temp     =       306.6642 
PotEng   =        91.0107 E_bond   =        31.1464 E_angle  =        23.4476 
E_dihed  =        46.1021 E_impro  =         0.0000 E_vdwl   =        -9.6854 
E_coul   =         0.0000 E_long   =         0.0000 Press    =         2.0346
------------ Step          38480 ----- CPU =     2.200583 (sec) -------------
TotEng   =       184.1407 KinEng   =        77.9888 Temp     =       264.2790 
PotEng   =       106.1519 E_bond   =        38.6687 E_angle  =        26.3824 
E_dihed  =        51.0932 E_impro  =         0.0000 E_vdwl   =        -9.9924 
E_coul   =         0.0000 E_long   =         0.0000 Press    =        -7.2560
------------ Step          38500 ----- CPU =     2.201709 (sec) -------------
TotEng   =       186.3788 KinEng   =        87.6236 Temp     =       296.9283 
PotEng   =        98.7552 E_bond   =        33.5969 E_angle  =        28.6571 
E_dihed  =        47.3911 E_impro  =         0.0000 E_vdwl   =       -10.8899 
E_coul   =         0.0000 E_long   =         0.0000 Press    =         1.6084
------------ Step          38520 ----- CPU =     2.204755 (sec) -------------
TotEng   =       188.2259 KinEng   =        96.3652 Temp     =       326.5507 
PotEng   =        91.8607 E_bond   =        30.5331 E_angle  =        27.3340 
E_dihed  =        45.1072 E_impro  =         0.0000 E_vdwl   =       -11.1135 
E_coul   =         0.0000 E_long   =         0.0000 Press    =        -0.5184
------------ Step          38540 ----- CPU =      2.20613 (sec) -------------
TotEng   =       189.2848 KinEng   =        96.4148 Temp     =       326.7189 
PotEng   =        92.8700 E_bond   =        30.8564 E_angle  =        27.5865 
E_dihed  =        45.3179 E_impro  =         0.0000 E_vdwl   =       -10.8908 
E_coul   =         0.0000 E_long   =         0.0000 Press    =        -3.1327
------------ Step          38560 ----- CPU =     2.235448 (sec) -------------
TotEng   =       189.9175 KinEng   =        96.9361 Temp     =       328.4855 
PotEng   =        92.9813 E_bond   =        35.3853 E_angle  =        27.1743 
E_dihed  =        41.2985 E_impro  =         0.0000 E_vdwl   =       -10.8767 
E_coul   =         0.0000 E_long   =         0.0000 Press    =         4.9571
------------ Step          38580 ----- CPU =     2.236801 (sec) -------------
TotEng   =       189.8136 KinEng   =        90.3385 Temp     =       306.1282 
PotEng   =        99.4752 E_bond   =        32.3505 E_angle  =        32.5381 
E_dihed  =        45.6419 E_impro  =         0.0000 E_vdwl   =       -11.0553 
E_coul   =         0.0000 E_long   =         0.0000 Press    =         2.2439
------------ Step          38600 ----- CPU =     2.238163 (sec) -------------
TotEng   =       189.5926 KinEng   =        88.0219 Temp     =       298.2779 
PotEng   =       101.5707 E_bond   =        30.4722 E_angle  =        32.7862 
E_dihed  =        49.6622 E_impro  =         0.0000 E_vdwl   =       -11.3499 
E_coul   =         0.0000 E_long   =         0.0000 Press    =         0.1050
------------ Step          38620 ----- CPU =     2.239512 (sec) -------------
TotEng   =       189.5076 KinEng   =        85.9677 Temp     =       291.3171 
PotEng   =       103.5399 E_bond   =        33.4597 E_angle  =        28.7217 
E_dihed  =        53.1951 E_impro  =         0.0000 E_vdwl   =       -11.8366 
E_coul   =         0.0000 E_long   =         0.0000 Press    =         3.3012
------------ Step          38640 ----- CPU =     2.240532 (sec) -------------
TotEng   =       189.6840 KinEng   =        91.8801 Temp     =       311.3523 
PotEng   =        97.8039 E_bond   =        35.9512 E_angle  =        27.1074 
E_dihed  =        47.1372 E_impro  =         0.0000 E_vdwl   =       -12.3920 
E_coul   =         0.0000 E_long   =         0.0000 Press    =         1.9684
------------ Step          38660 ----- CPU =     2.241761 (sec) -------------
TotEng   =       189.2341 KinEng   =        98.0439 Temp     =       332.2392 
PotEng   =        91.1902 E_bond   =        26.6523 E_angle  =        31.3853 
E_dihed  =        44.2345 E_impro  =         0.0000 E_vdwl   =       -11.0818 
E_coul   =         0.0000 E_long   =         0.0000 Press    =        -0.3506
------------ Step          38680 ----- CPU =     2.242709 (sec) -------------
TotEng   =       188.2654 KinEng   =        92.5663 Temp     =       313.6774 
PotEng   =        95.6992 E_bond   =        35.4107 E_angle  =        25.0613 
E_dihed  =        46.3098 E_impro  =         0.0000 E_vdwl   =       -11.0827 
E_coul   =         0.0000 E_long   =         0.0000 Press    =        -0.6642
------------ Step          38700 ----- CPU =     2.243663 (sec) -------------
TotEng   =       186.3066 KinEng   =        92.7021 Temp     =       314.1378 
PotEng   =        93.6045 E_bond   =        32.5460 E_angle  =        25.3348 
E_dihed  =        46.3396 E_impro  =         0.0000 E_vdwl   =       -10.6159 
E_coul   =         0.0000 E_long   =         0.0000 Press    =        -1.6396
------------ Step          38720 ----- CPU =     2.244653 (sec) -------------
TotEng   =       183.8020 KinEng   =        80.6036 Temp     =       273.1397 
PotEng   =       103.1984 E_bond   =        37.3918 E_angle  =        29.9720 
E_dihed  =        47.5781 E_impro  =         0.0000 E_vdwl   =       -11.7435 
E_coul   =         0.0000 E_long   =         0.0000 Press    =        -2.0293
------------ Step          38740 ----- CPU =     2.245537 (sec) -------------
TotEng   =       180.7224 KinEng   =        95.5328 Temp     =       323.7299 
PotEng   =        85.1897 E_bond   =        28.5246 E_angle  =        26.8672 
E_dihed  =        41.3642 E_impro  =         0.0000 E_vdwl   =       -11.5663 
E_coul   =         0.0000 E_long   =         0.0000 Press    =         1.5166
------------ Step          38760 ----- CPU =     2.247088 (sec) -------------
TotEng   =       176.6487 KinEng   =        95.6428 Temp     =       324.1030 
PotEng   =        81.0058 E_bond   =        27.4790 E_angle  =        24.5198 
E_dihed  =        39.7079 E_impro  =         0.0000 E_vdwl   =       -10.7008 
E_coul   =         0.0000 E_long   =         0.0000 Press    =        -0.3505
------------ Step          38780 ----- CPU =     2.248289 (sec) -------------
TotEng   =       172.5367 KinEng   =        79.6731 Temp     =       269.9865 
PotEng   =        92.8636 E_bond   =        31.0624 E_angle  =        30.2660 
E_dihed  =        40.6467 E_impro  =         0.0000 E_vdwl   =        -9.1115 
E_coul   =         0.0000 E_long   =         0.0000 Press    =        -0.3885
------------ Step          38800 ----- CPU =     2.249568 (sec) -------------
TotEng   =       168.8711 KinEng   =        84.8655 Temp     =       287.5819 
PotEng   =        84.0056 E_bond   =        31.5079 E_angle  =        23.3658 
E_dihed  =        42.0733 E_impro  =         0.0000 E_vdwl   =       -12.9414 
E_coul   =         0.0000 E_long   =         0.0000 Press    =        -0.8762
------------ Step          38820 ----- CPU =     2.250647 (sec) -------------
TotEng   =       166.4289 KinEng   =        82.3704 Temp     =       279.1269 
PotEng   =        84.0585 E_bond   =        25.6812 E_angle  =        27.4790 
E_dihed  =        43.2270 E_impro  =         0.0000 E_vdwl   =       -12.3287 
E_coul   =         0.0000 E_long   =         0.0000 Press    =        -1.6212
------------ Step          38840 ----- CPU =     2.251692 (sec) -------------
TotEng   =       164.7782 KinEng   =        92.7305 Temp     =       314.2339 
PotEng   =        72.0477 E_bond   =        26.7183 E_angle  =        22.2423 
E_dihed  =        35.1719 E_impro  =         0.0000 E_vdwl   =       -12.0849 
E_coul   =         0.0000 E_long   =         0.0000 Press    =        -1.4569
------------ Step          38860 ----- CPU =     2.253612 (sec) -------------
TotEng   =       163.5642 KinEng   =        81.4200 Temp     =       275.9061 
PotEng   =        82.1443 E_bond   =        32.5676 E_angle  =        26.1828 
E_dihed  =        35.3731 E_impro  =         0.0000 E_vdwl   =       -11.9792 
E_coul   =         0.0000 E_long   =         0.0000 Press    =        -2.7007
------------ Step          38880 ----- CPU =     2.254717 (sec) -------------
TotEng   =       162.8367 KinEng   =        81.9237 Temp     =       277.6132 
PotEng   =        80.9129 E_bond   =        28.8300 E_angle  =        21.9240 
E_dihed  =        40.5227 E_impro  =         0.0000 E_vdwl   =       -10.3638 
E_coul   =         0.0000 E_long   =         0.0000 Press    =         1.8434
------------ Step          38900 ----- CPU =     2.256294 (sec) -------------
TotEng   =       162.6798 KinEng   =        81.3251 Temp     =       275.5848 
PotEng   =        81.3547 E_bond   =        24.7715 E_angle  =        28.2337 
E_dihed  =        40.6106 E_impro  =         0.0000 E_vdwl   =       -12.2610 
E_coul   =         0.0000 E_long   =         0.0000 Press    =        -1.0722
------------ Step          38920 ----- CPU =     2.257463 (sec) -------------
TotEng   =       163.1320 KinEng   =        84.3749 Temp     =       285.9193 
PotEng   =        78.7572 E_bond   =        28.6029 E_angle  =        23.0647 
E_dihed  =        38.3380 E_impro  =         0.0000 E_vdwl   =       -11.2484 
E_coul   =         0.0000 E_long   =         0.0000 Press    =        -0.2464
------------ Step          38940 ----- CPU =      2.25892 (sec) -------------
TotEng   =       163.8236 KinEng   =        78.7014 Temp     =       266.6938 
PotEng   =        85.1222 E_bond   =        26.4644 E_angle  =        27.5005 
E_dihed  =        41.3174 E_impro  =         0.0000 E_vdwl   =       -10.1602 
E_coul   =         0.0000 E_long   =         0.0000 Press    =         3.9297
------------ Step          38960 ----- CPU =     2.259821 (sec) -------------
TotEng   =       165.0589 KinEng   =        84.9058 Temp     =       287.7185 
PotEng   =        80.1531 E_bond   =        31.6623 E_angle  =        19.8585 
E_dihed  =        37.9746 E_impro  =         0.0000 E_vdwl   =        -9.3422 
E_coul   =         0.0000 E_long   =         0.0000 Press    =        -0.9891
------------ Step          38980 ----- CPU =     2.260718 (sec) -------------
TotEng   =       166.3801 KinEng   =        84.6893 Temp     =       286.9848 
PotEng   =        81.6908 E_bond   =        29.0873 E_angle  =        25.3450 
E_dihed  =        37.8006 E_impro  =         0.0000 E_vdwl   =       -10.5421 
E_coul   =         0.0000 E_long   =         0.0000 Press    =         1.5432
------------ Step          39000 ----- CPU =     2.261616 (sec) -------------
TotEng   =       167.7279 KinEng   =        81.1944 Temp     =       275.1420 
PotEng   =        86.5335 E_bond   =        30.8255 E_angle  =        28.6174 
E_dihed  =        38.3236 E_impro  =         0.0000 E_vdwl   =       -11.2331 
E_coul   =         0.0000 E_long   =         0.0000 Press    =         1.1026
------------ Step          39020 ----- CPU =     2.262675 (sec) -------------
TotEng   =       169.3642 KinEng   =        86.4851 Temp     =       293.0704 
PotEng   =        82.8791 E_bond   =        30.0311 E_angle  =        25.1639 
E_dihed  =        39.3399 E_impro  =         0.0000 E_vdwl   =       -11.6558 
E_coul   =         0.0000 E_long   =         0.0000 Press    =        -3.7469
------------ Step          39040 ----- CPU =     2.263962 (sec) -------------
TotEng   =       171.1600 KinEng   =        89.1980 Temp     =       302.2636 
PotEng   =        81.9620 E_bond   =        28.8280 E_angle  =        24.6478 
E_dihed  =        39.9435 E_impro  =         0.0000 E_vdwl   =       -11.4573 
E_coul   =         0.0000 E_long   =         0.0000 Press    =         0.2203
------------ Step          39060 ----- CPU =     2.264995 (sec) -------------
TotEng   =       172.6329 KinEng   =        89.8957 Temp     =       304.6278 
PotEng   =        82.7372 E_bond   =        27.5863 E_angle  =        28.0611 
E_dihed  =        38.6914 E_impro  =         0.0000 E_vdwl   =       -11.6016 
E_coul   =         0.0000 E_long   =         0.0000 Press    =         0.5553
------------ Step          39080 ----- CPU =     2.266256 (sec) -------------
TotEng   =       173.9750 KinEng   =        91.1792 Temp     =       308.9771 
PotEng   =        82.7958 E_bond   =        29.5958 E_angle  =        29.6839 
E_dihed  =        38.0342 E_impro  =         0.0000 E_vdwl   =       -14.5182 
E_coul   =         0.0000 E_long   =         0.0000 Press    =        -1.9232
------------ Step          39100 ----- CPU =     2.267243 (sec) -------------
TotEng   =       175.1488 KinEng   =        90.7839 Temp     =       307.6376 
PotEng   =        84.3649 E_bond   =        30.7347 E_angle  =        30.7548 
E_dihed  =        38.2350 E_impro  =         0.0000 E_vdwl   =       -15.3596 
E_coul   =         0.0000 E_long   =         0.0000 Press    =         1.1392
------------ Step          39120 ----- CPU =     2.268339 (sec) -------------
TotEng   =       175.8699 KinEng   =        94.2001 Temp     =       319.2138 
PotEng   =        81.6699 E_bond   =        25.8426 E_angle  =        30.8579 
E_dihed  =        39.5881 E_impro  =         0.0000 E_vdwl   =       -14.6188 
E_coul   =         0.0000 E_long   =         0.0000 Press    =        -1.4405
------------ Step          39140 ----- CPU =     2.270734 (sec) -------------
TotEng   =       176.4091 KinEng   =        90.1108 Temp     =       305.3568 
PotEng   =        86.2983 E_bond   =        33.1106 E_angle  =        26.5381 
E_dihed  =        39.8866 E_impro  =         0.0000 E_vdwl   =       -13.2371 
E_coul   =         0.0000 E_long   =         0.0000 Press    =        -1.6997
------------ Step          39160 ----- CPU =     2.272067 (sec) -------------
TotEng   =       176.5346 KinEng   =        91.5186 Temp     =       310.1272 
PotEng   =        85.0160 E_bond   =        25.7863 E_angle  =        32.6887 
E_dihed  =        43.3099 E_impro  =         0.0000 E_vdwl   =       -16.7689 
E_coul   =         0.0000 E_long   =         0.0000 Press    =         2.9334
------------ Step          39180 ----- CPU =      2.27329 (sec) -------------
TotEng   =       176.4882 KinEng   =        89.6954 Temp     =       303.9490 
PotEng   =        86.7928 E_bond   =        33.5286 E_angle  =        27.2880 
E_dihed  =        43.3384 E_impro  =         0.0000 E_vdwl   =       -17.3623 
E_coul   =         0.0000 E_long   =         0.0000 Press    =        -2.7044
------------ Step          39200 ----- CPU =     2.274454 (sec) -------------
TotEng   =       176.2658 KinEng   =        84.9292 Temp     =       287.7979 
PotEng   =        91.3366 E_bond   =        31.8907 E_angle  =        34.3910 
E_dihed  =        41.8609 E_impro  =         0.0000 E_vdwl   =       -16.8060 
E_coul   =         0.0000 E_long   =         0.0000 Press    =        -0.9536
------------ Step          39220 ----- CPU =     2.275569 (sec) -------------
TotEng   =       176.1165 KinEng   =        94.2434 Temp     =       319.3606 
PotEng   =        81.8731 E_bond   =        31.6679 E_angle  =        27.2065 
E_dihed  =        37.4235 E_impro  =         0.0000 E_vdwl   =       -14.4248 
E_coul   =         0.0000 E_long   =         0.0000 Press    =         3.5471
------------ Step          39240 ----- CPU =     2.276479 (sec) -------------
TotEng   =       175.3492 KinEng   =        89.6917 Temp     =       303.9365 
PotEng   =        85.6575 E_bond   =        31.5494 E_angle  =        29.9038 
E_dihed  =        42.7275 E_impro  =         0.0000 E_vdwl   =       -18.5232 
E_coul   =         0.0000 E_long   =         0.0000 Press    =        -3.3166
------------ Step          39260 ----- CPU =     2.277374 (sec) -------------
TotEng   =       174.2771 KinEng   =        83.5071 Temp     =       282.9789 
PotEng   =        90.7700 E_bond   =        32.0527 E_angle  =        28.9188 
E_dihed  =        49.9474 E_impro  =         0.0000 E_vdwl   =       -20.1489 
E_coul   =         0.0000 E_long   =         0.0000 Press    =         1.2565
------------ Step          39280 ----- CPU =     2.278266 (sec) -------------
TotEng   =       173.1281 KinEng   =        93.0819 Temp     =       315.4247 
PotEng   =        80.0462 E_bond   =        27.8217 E_angle  =        24.0799 
E_dihed  =        49.1557 E_impro  =         0.0000 E_vdwl   =       -21.0112 
E_coul   =         0.0000 E_long   =         0.0000 Press    =         1.9597
------------ Step          39300 ----- CPU =     2.279433 (sec) -------------
TotEng   =       171.4235 KinEng   =        84.6802 Temp     =       286.9540 
PotEng   =        86.7433 E_bond   =        30.0154 E_angle  =        30.5629 
E_dihed  =        45.1517 E_impro  =         0.0000 E_vdwl   =       -18.9867 
E_coul   =         0.0000 E_long   =         0.0000 Press    =        -3.6809
------------ Step          39320 ----- CPU =     2.280509 (sec) -------------
TotEng   =       168.5895 KinEng   =        95.0030 Temp     =       321.9346 
PotEng   =        73.5865 E_bond   =        25.9052 E_angle  =        24.1788 
E_dihed  =        44.8204 E_impro  =         0.0000 E_vdwl   =       -21.3180 
E_coul   =         0.0000 E_long   =         0.0000 Press    =         0.8590
------------ Step          39340 ----- CPU =     2.281666 (sec) -------------
TotEng   =       163.6736 KinEng   =        85.8673 Temp     =       290.9769 
PotEng   =        77.8063 E_bond   =        28.9390 E_angle  =        22.7882 
E_dihed  =        47.0951 E_impro  =         0.0000 E_vdwl   =       -21.0161 
E_coul   =         0.0000 E_long   =         0.0000 Press    =         2.2041
------------ Step          39360 ----- CPU =      2.28305 (sec) -------------
TotEng   =       157.6235 KinEng   =        76.7371 Temp     =       260.0375 
PotEng   =        80.8864 E_bond   =        29.7000 E_angle  =        25.2193 
E_dihed  =        45.8919 E_impro  =         0.0000 E_vdwl   =       -19.9247 
E_coul   =         0.0000 E_long   =         0.0000 Press    =        -0.1690
------------ Step          39380 ----- CPU =     2.284304 (sec) -------------
TotEng   =       152.4640 KinEng   =        82.5784 Temp     =       279.8318 
PotEng   =        69.8856 E_bond   =        27.7891 E_angle  =        20.2076 
E_dihed  =        42.7435 E_impro  =         0.0000 E_vdwl   =       -20.8546 
E_coul   =         0.0000 E_long   =         0.0000 Press    =         2.7185
------------ Step          39400 ----- CPU =     2.285241 (sec) -------------
TotEng   =       149.3115 KinEng   =        74.8678 Temp     =       253.7028 
PotEng   =        74.4437 E_bond   =        23.2941 E_angle  =        28.4069 
E_dihed  =        42.6287 E_impro  =         0.0000 E_vdwl   =       -19.8860 
E_coul   =         0.0000 E_long   =         0.0000 Press    =         2.3003
------------ Step          39420 ----- CPU =     2.286338 (sec) -------------
TotEng   =       147.7068 KinEng   =        77.4385 Temp     =       262.4141 
PotEng   =        70.2683 E_bond   =        26.0658 E_angle  =        18.6322 
E_dihed  =        45.4802 E_impro  =         0.0000 E_vdwl   =       -19.9099 
E_coul   =         0.0000 E_long   =         0.0000 Press    =        -2.3851
------------ Step          39440 ----- CPU =     2.287249 (sec) -------------
TotEng   =       147.1962 KinEng   =        68.4023 Temp     =       231.7936 
PotEng   =        78.7938 E_bond   =        24.5339 E_angle  =        31.3067 
E_dihed  =        43.6066 E_impro  =         0.0000 E_vdwl   =       -20.6534 
E_coul   =         0.0000 E_long   =         0.0000 Press    =        -0.6922
------------ Step          39460 ----- CPU =     2.288179 (sec) -------------
TotEng   =       147.8944 KinEng   =        76.1880 Temp     =       258.1769 
PotEng   =        71.7063 E_bond   =        30.9163 E_angle  =        23.1187 
E_dihed  =        39.3063 E_impro  =         0.0000 E_vdwl   =       -21.6350 
E_coul   =         0.0000 E_long   =         0.0000 Press    =        -1.2230
------------ Step          39480 ----- CPU =     2.290115 (sec) -------------
TotEng   =       149.2949 KinEng   =        75.3254 Temp     =       255.2536 
PotEng   =        73.9695 E_bond   =        24.1684 E_angle  =        31.0070 
E_dihed  =        41.3538 E_impro  =         0.0000 E_vdwl   =       -22.5597 
E_coul   =         0.0000 E_long   =         0.0000 Press    =        -2.2889
------------ Step          39500 ----- CPU =     2.291635 (sec) -------------
TotEng   =       151.5781 KinEng   =        82.5406 Temp     =       279.7037 
PotEng   =        69.0375 E_bond   =        26.8011 E_angle  =        22.2473 
E_dihed  =        45.7801 E_impro  =         0.0000 E_vdwl   =       -25.7910 
E_coul   =         0.0000 E_long   =         0.0000 Press    =         1.1024
------------ Step          39520 ----- CPU =      2.29278 (sec) -------------
TotEng   =       154.2524 KinEng   =        71.7224 Temp     =       243.0443 
PotEng   =        82.5299 E_bond   =        25.7660 E_angle  =        35.8022 
E_dihed  =        45.7984 E_impro  =         0.0000 E_vdwl   =       -24.8367 
E_coul   =         0.0000 E_long   =         0.0000 Press    =         0.8909
------------ Step          39540 ----- CPU =     2.293952 (sec) -------------
TotEng   =       157.6060 KinEng   =        94.2766 Temp     =       319.4733 
PotEng   =        63.3293 E_bond   =        25.7827 E_angle  =        25.7577 
E_dihed  =        38.2586 E_impro  =         0.0000 E_vdwl   =       -26.4697 
E_coul   =         0.0000 E_long   =         0.0000 Press    =         0.7124
------------ Step          39560 ----- CPU =      2.29495 (sec) -------------
TotEng   =       160.5194 KinEng   =        82.3225 Temp     =       278.9646 
PotEng   =        78.1969 E_bond   =        28.1168 E_angle  =        35.0416 
E_dihed  =        40.3654 E_impro  =         0.0000 E_vdwl   =       -25.3269 
E_coul   =         0.0000 E_long   =         0.0000 Press    =         1.1161
------------ Step          39580 ----- CPU =     2.295879 (sec) -------------
TotEng   =       163.2440 KinEng   =        92.1988 Temp     =       312.4320 
PotEng   =        71.0452 E_bond   =        31.0712 E_angle  =        23.2115 
E_dihed  =        41.4582 E_impro  =         0.0000 E_vdwl   =       -24.6957 
E_coul   =         0.0000 E_long   =         0.0000 Press    =        -1.1767
------------ Step          39600 ----- CPU =     2.296804 (sec) -------------
TotEng   =       165.3847 KinEng   =        85.9226 Temp     =       291.1642 
PotEng   =        79.4621 E_bond   =        28.0215 E_angle  =        29.4478 
E_dihed  =        46.1377 E_impro  =         0.0000 E_vdwl   =       -24.1449 
E_coul   =         0.0000 E_long   =         0.0000 Press    =        -0.9161
------------ Step          39620 ----- CPU =     2.298036 (sec) -------------
TotEng   =       167.3911 KinEng   =        92.1320 Temp     =       312.2058 
PotEng   =        75.2591 E_bond   =        28.7877 E_angle  =        25.9473 
E_dihed  =        43.1443 E_impro  =         0.0000 E_vdwl   =       -22.6202 
E_coul   =         0.0000 E_long   =         0.0000 Press    =        -2.2266
------------ Step          39640 ----- CPU =     2.299532 (sec) -------------
TotEng   =       168.9409 KinEng   =        91.3415 Temp     =       309.5270 
PotEng   =        77.5994 E_bond   =        29.3001 E_angle  =        30.3035 
E_dihed  =        41.4177 E_impro  =         0.0000 E_vdwl   =       -23.4219 
E_coul   =         0.0000 E_long   =         0.0000 Press    =        -1.9167
------------ Step          39660 ----- CPU =     2.300652 (sec) -------------
TotEng   =       169.9104 KinEng   =        85.1847 Temp     =       288.6636 
PotEng   =        84.7257 E_bond   =        28.5251 E_angle  =        37.8346 
E_dihed  =        43.0532 E_impro  =         0.0000 E_vdwl   =       -24.6872 
E_coul   =         0.0000 E_long   =         0.0000 Press    =        -1.8385
------------ Step          39680 ----- CPU =     2.301626 (sec) -------------
TotEng   =       170.9987 KinEng   =        94.6360 Temp     =       320.6912 
PotEng   =        76.3626 E_bond   =        36.7825 E_angle  =        25.5635 
E_dihed  =        39.8748 E_impro  =         0.0000 E_vdwl   =       -25.8582 
E_coul   =         0.0000 E_long   =         0.0000 Press    =         0.1820
------------ Step          39700 ----- CPU =     2.302549 (sec) -------------
TotEng   =       171.4036 KinEng   =        96.4388 Temp     =       326.8001 
PotEng   =        74.9648 E_bond   =        27.5648 E_angle  =        27.8061 
E_dihed  =        43.9193 E_impro  =         0.0000 E_vdwl   =       -24.3254 
E_coul   =         0.0000 E_long   =         0.0000 Press    =         0.3558
------------ Step          39720 ----- CPU =      2.30365 (sec) -------------
TotEng   =       171.3989 KinEng   =        92.1778 Temp     =       312.3612 
PotEng   =        79.2211 E_bond   =        34.2388 E_angle  =        25.6067 
E_dihed  =        44.5380 E_impro  =         0.0000 E_vdwl   =       -25.1624 
E_coul   =         0.0000 E_long   =         0.0000 Press    =         0.5860
------------ Step          39740 ----- CPU =     2.304734 (sec) -------------
TotEng   =       171.0957 KinEng   =        81.7902 Temp     =       277.1607 
PotEng   =        89.3055 E_bond   =        33.6148 E_angle  =        31.8381 
E_dihed  =        48.5434 E_impro  =         0.0000 E_vdwl   =       -24.6908 
E_coul   =         0.0000 E_long   =         0.0000 Press    =         0.5195
------------ Step          39760 ----- CPU =     2.305671 (sec) -------------
TotEng   =       171.2529 KinEng   =        82.2972 Temp     =       278.8788 
PotEng   =        88.9558 E_bond   =        34.2505 E_angle  =        29.9151 
E_dihed  =        49.0842 E_impro  =         0.0000 E_vdwl   =       -24.2940 
E_coul   =         0.0000 E_long   =         0.0000 Press    =        -1.5397
------------ Step          39780 ----- CPU =     2.307009 (sec) -------------
TotEng   =       171.3122 KinEng   =       100.8902 Temp     =       341.8845 
PotEng   =        70.4220 E_bond   =        23.9785 E_angle  =        24.5997 
E_dihed  =        46.8429 E_impro  =         0.0000 E_vdwl   =       -24.9991 
E_coul   =         0.0000 E_long   =         0.0000 Press    =         1.6208
------------ Step          39800 ----- CPU =     2.308102 (sec) -------------
TotEng   =       171.4155 KinEng   =        80.3044 Temp     =       272.1258 
PotEng   =        91.1112 E_bond   =        31.9633 E_angle  =        32.7823 
E_dihed  =        49.8586 E_impro  =         0.0000 E_vdwl   =       -23.4931 
E_coul   =         0.0000 E_long   =         0.0000 Press    =         0.6441
------------ Step          39820 ----- CPU =     2.309199 (sec) -------------
TotEng   =       171.3384 KinEng   =        87.7437 Temp     =       297.3354 
PotEng   =        83.5947 E_bond   =        32.1208 E_angle  =        25.3061 
E_dihed  =        49.5895 E_impro  =         0.0000 E_vdwl   =       -23.4217 
E_coul   =         0.0000 E_long   =         0.0000 Press    =        -0.2711
------------ Step          39840 ----- CPU =      2.31026 (sec) -------------
TotEng   =       171.3797 KinEng   =        92.4565 Temp     =       313.3054 
PotEng   =        78.9232 E_bond   =        29.6063 E_angle  =        25.4103 
E_dihed  =        45.4094 E_impro  =         0.0000 E_vdwl   =       -21.5028 
E_coul   =         0.0000 E_long   =         0.0000 Press    =         0.8907
------------ Step          39860 ----- CPU =     2.311233 (sec) -------------
TotEng   =       171.1042 KinEng   =        87.9306 Temp     =       297.9687 
PotEng   =        83.1736 E_bond   =        30.2023 E_angle  =        26.9266 
E_dihed  =        47.7177 E_impro  =         0.0000 E_vdwl   =       -21.6731 
E_coul   =         0.0000 E_long   =         0.0000 Press    =         0.5654
------------ Step          39880 ----- CPU =     2.312177 (sec) -------------
TotEng   =       171.0684 KinEng   =        82.5399 Temp     =       279.7014 
PotEng   =        88.5285 E_bond   =        33.1777 E_angle  =        27.5935 
E_dihed  =        47.0288 E_impro  =         0.0000 E_vdwl   =       -19.2715 
E_coul   =         0.0000 E_long   =         0.0000 Press    =         0.1510
------------ Step          39900 ----- CPU =     2.313113 (sec) -------------
TotEng   =       171.0761 KinEng   =        85.2135 Temp     =       288.7613 
PotEng   =        85.8626 E_bond   =        28.1709 E_angle  =        31.8961 
E_dihed  =        43.8470 E_impro  =         0.0000 E_vdwl   =       -18.0514 
E_coul   =         0.0000 E_long   =         0.0000 Press    =         0.0865
------------ Step          39920 ----- CPU =     2.314282 (sec) -------------
TotEng   =       171.4240 KinEng   =        92.4078 Temp     =       313.1403 
PotEng   =        79.0162 E_bond   =        29.7051 E_angle  =        26.6871 
E_dihed  =        40.9805 E_impro  =         0.0000 E_vdwl   =       -18.3565 
E_coul   =         0.0000 E_long   =         0.0000 Press    =         1.3354
------------ Step          39940 ----- CPU =     2.315691 (sec) -------------
TotEng   =       171.6789 KinEng   =        87.1136 Temp     =       295.2002 
PotEng   =        84.5653 E_bond   =        28.2618 E_angle  =        28.8763 
E_dihed  =        43.5828 E_impro  =         0.0000 E_vdwl   =       -16.1557 
E_coul   =         0.0000 E_long   =         0.0000 Press    =         1.0641
------------ Step          39960 ----- CPU =     2.317072 (sec) -------------
TotEng   =       171.9963 KinEng   =        82.9419 Temp     =       281.0634 
PotEng   =        89.0545 E_bond   =        34.1825 E_angle  =        24.9967 
E_dihed  =        48.4361 E_impro  =         0.0000 E_vdwl   =       -18.5607 
E_coul   =         0.0000 E_long   =         0.0000 Press    =         1.6090
------------ Step          39980 ----- CPU =     2.318016 (sec) -------------
TotEng   =       172.3662 KinEng   =        97.2753 Temp     =       329.6350 
PotEng   =        75.0908 E_bond   =        25.6232 E_angle  =        22.7121 
E_dihed  =        47.6881 E_impro  =         0.0000 E_vdwl   =       -20.9326 
E_coul   =         0.0000 E_long   =         0.0000 Press    =         1.1468
------------ Step          40000 ----- CPU =     2.318976 (sec) -------------
TotEng   =       172.8014 KinEng   =        79.5280 Temp     =       269.4948 
PotEng   =        93.2735 E_bond   =        34.2058 E_angle  =        32.4664 
E_dihed  =        45.4242 E_impro  =         0.0000 E_vdwl   =       -18.8229 
E_coul   =         0.0000 E_long   =         0.0000 Press    =        -3.2766
------------ Step          40020 ----- CPU =     2.320584 (sec) -------------
TotEng   =       173.5276 KinEng   =        85.8380 Temp     =       290.8776 
PotEng   =        87.6896 E_bond   =        28.9619 E_angle  =        33.5548 
E_dihed  =        41.8551 E_impro  =         0.0000 E_vdwl   =       -16.6822 
E_coul   =         0.0000 E_long   =         0.0000 Press    =         0.3868
------------ Step          40040 ----- CPU =     2.321675 (sec) -------------
TotEng   =       174.1707 KinEng   =        99.3304 Temp     =       336.5987 
PotEng   =        74.8403 E_bond   =        25.0342 E_angle  =        25.4724 
E_dihed  =        43.4087 E_impro  =         0.0000 E_vdwl   =       -19.0750 
E_coul   =         0.0000 E_long   =         0.0000 Press    =        -2.2981
------------ Step          40060 ----- CPU =     2.323396 (sec) -------------
TotEng   =       174.8085 KinEng   =        94.7035 Temp     =       320.9199 
PotEng   =        80.1050 E_bond   =        29.8230 E_angle  =        21.0425 
E_dihed  =        49.7346 E_impro  =         0.0000 E_vdwl   =       -20.4951 
E_coul   =         0.0000 E_long   =         0.0000 Press    =         0.1167
------------ Step          40080 ----- CPU =     2.324518 (sec) -------------
TotEng   =       175.0797 KinEng   =        77.9691 Temp     =       264.2122 
PotEng   =        97.1106 E_bond   =        31.4738 E_angle  =        34.6020 
E_dihed  =        52.4633 E_impro  =         0.0000 E_vdwl   =       -21.4284 
E_coul   =         0.0000 E_long   =         0.0000 Press    =         3.5432
------------ Step          40100 ----- CPU =     2.325471 (sec) -------------
TotEng   =       175.6913 KinEng   =        91.2802 Temp     =       309.3193 
PotEng   =        84.4111 E_bond   =        28.4850 E_angle  =        30.1451 
E_dihed  =        48.6856 E_impro  =         0.0000 E_vdwl   =       -22.9046 
E_coul   =         0.0000 E_long   =         0.0000 Press    =        -2.5819
------------ Step          40120 ----- CPU =     2.326687 (sec) -------------
TotEng   =       176.6262 KinEng   =        88.2963 Temp     =       299.2080 
PotEng   =        88.3299 E_bond   =        33.3205 E_angle  =        30.8351 
E_dihed  =        46.4593 E_impro  =         0.0000 E_vdwl   =       -22.2850 
E_coul   =         0.0000 E_long   =         0.0000 Press    =         3.9607
------------ Step          40140 ----- CPU =      2.32782 (sec) -------------
TotEng   =       177.0598 KinEng   =       102.8196 Temp     =       348.4226 
PotEng   =        74.2402 E_bond   =        27.4536 E_angle  =        25.3753 
E_dihed  =        44.5958 E_impro  =         0.0000 E_vdwl   =       -23.1845 
E_coul   =         0.0000 E_long   =         0.0000 Press    =         1.1731
------------ Step          40160 ----- CPU =     2.328828 (sec) -------------
TotEng   =       176.7828 KinEng   =        96.1172 Temp     =       325.7104 
PotEng   =        80.6656 E_bond   =        30.4167 E_angle  =        29.8826 
E_dihed  =        44.3046 E_impro  =         0.0000 E_vdwl   =       -23.9383 
E_coul   =         0.0000 E_long   =         0.0000 Press    =        -1.9000
------------ Step          40180 ----- CPU =     2.329768 (sec) -------------
TotEng   =       175.5878 KinEng   =       102.1512 Temp     =       346.1577 
PotEng   =        73.4366 E_bond   =        29.7673 E_angle  =        24.7636 
E_dihed  =        45.4248 E_impro  =         0.0000 E_vdwl   =       -26.5191 
E_coul   =         0.0000 E_long   =         0.0000 Press    =         3.2903
------------ Step          40200 ----- CPU =     2.330811 (sec) -------------
TotEng   =       173.4329 KinEng   =        85.2246 Temp     =       288.7988 
PotEng   =        88.2083 E_bond   =        34.7836 E_angle  =        31.1275 
E_dihed  =        45.6365 E_impro  =         0.0000 E_vdwl   =       -23.3394 
E_coul   =         0.0000 E_long   =         0.0000 Press    =        -1.1307
------------ Step          40220 ----- CPU =     2.332246 (sec) -------------
TotEng   =       170.3227 KinEng   =        90.2502 Temp     =       305.8289 
PotEng   =        80.0726 E_bond   =        28.4056 E_angle  =        28.4478 
E_dihed  =        47.8095 E_impro  =         0.0000 E_vdwl   =       -24.5903 
E_coul   =         0.0000 E_long   =         0.0000 Press    =        -1.2330
------------ Step          40240 ----- CPU =     2.333883 (sec) -------------
TotEng   =       167.2575 KinEng   =        85.5871 Temp     =       290.0271 
PotEng   =        81.6704 E_bond   =        23.8430 E_angle  =        29.0008 
E_dihed  =        51.1392 E_impro  =         0.0000 E_vdwl   =       -22.3126 
E_coul   =         0.0000 E_long   =         0.0000 Press    =        -0.8618
------------ Step          40260 ----- CPU =     2.334936 (sec) -------------
TotEng   =       164.8542 KinEng   =        82.2591 Temp     =       278.7496 
PotEng   =        82.5951 E_bond   =        30.9046 E_angle  =        22.5978 
E_dihed  =        51.4957 E_impro  =         0.0000 E_vdwl   =       -22.4030 
E_coul   =         0.0000 E_long   =         0.0000 Press    =        -3.2640
------------ Step          40280 ----- CPU =     2.335898 (sec) -------------
TotEng   =       162.9410 KinEng   =        81.8779 Temp     =       277.4581 
PotEng   =        81.0631 E_bond   =        30.5699 E_angle  =        25.1391 
E_dihed  =        47.9465 E_impro  =         0.0000 E_vdwl   =       -22.5924 
E_coul   =         0.0000 E_long   =         0.0000 Press    =        -2.3304
------------ Step          40300 ----- CPU =     2.336966 (sec) -------------
TotEng   =       161.2253 KinEng   =        87.1117 Temp     =       295.1935 
PotEng   =        74.1136 E_bond   =        28.4791 E_angle  =        22.6274 
E_dihed  =        45.5975 E_impro  =         0.0000 E_vdwl   =       -22.5904 
E_coul   =         0.0000 E_long   =         0.0000 Press    =         1.9587
------------ Step          40320 ----- CPU =      2.33804 (sec) -------------
TotEng   =       159.5720 KinEng   =        90.1784 Temp     =       305.5857 
PotEng   =        69.3936 E_bond   =        23.5877 E_angle  =        23.8615 
E_dihed  =        46.1575 E_impro  =         0.0000 E_vdwl   =       -24.2132 
E_coul   =         0.0000 E_long   =         0.0000 Press    =         0.3809
------------ Step          40340 ----- CPU =     2.339185 (sec) -------------
TotEng   =       158.4879 KinEng   =        79.9698 Temp     =       270.9919 
PotEng   =        78.5181 E_bond   =        30.7768 E_angle  =        26.3265 
E_dihed  =        45.4144 E_impro  =         0.0000 E_vdwl   =       -23.9997 
E_coul   =         0.0000 E_long   =         0.0000 Press    =        -1.6044
------------ Step          40360 ----- CPU =     2.340696 (sec) -------------
TotEng   =       157.7277 KinEng   =        86.7582 Temp     =       293.9957 
PotEng   =        70.9695 E_bond   =        27.2110 E_angle  =        25.1919 
E_dihed  =        43.6087 E_impro  =         0.0000 E_vdwl   =       -25.0421 
E_coul   =         0.0000 E_long   =         0.0000 Press    =         4.6739
------------ Step          40380 ----- CPU =     2.341794 (sec) -------------
TotEng   =       157.3090 KinEng   =        76.0957 Temp     =       257.8639 
PotEng   =        81.2134 E_bond   =        26.1546 E_angle  =        35.8161 
E_dihed  =        43.3254 E_impro  =         0.0000 E_vdwl   =       -24.0827 
E_coul   =         0.0000 E_long   =         0.0000 Press    =        -0.8078
------------ Step          40400 ----- CPU =     2.342789 (sec) -------------
TotEng   =       157.4960 KinEng   =        77.6099 Temp     =       262.9952 
PotEng   =        79.8861 E_bond   =        24.8545 E_angle  =        31.2833 
E_dihed  =        46.5035 E_impro  =         0.0000 E_vdwl   =       -22.7553 
E_coul   =         0.0000 E_long   =         0.0000 Press    =        -3.3501
------------ Step          40420 ----- CPU =     2.343958 (sec) -------------
TotEng   =       158.7614 KinEng   =        74.0177 Temp     =       250.8224 
PotEng   =        84.7436 E_bond   =        28.4040 E_angle  =        25.9061 
E_dihed  =        51.0589 E_impro  =         0.0000 E_vdwl   =       -20.6253 
E_coul   =         0.0000 E_long   =         0.0000 Press    =         1.3468
------------ Step          40440 ----- CPU =     2.344918 (sec) -------------
TotEng   =       161.4533 KinEng   =        79.1064 Temp     =       268.0661 
PotEng   =        82.3469 E_bond   =        30.1169 E_angle  =        23.4508 
E_dihed  =        47.6103 E_impro  =         0.0000 E_vdwl   =       -18.8311 
E_coul   =         0.0000 E_long   =         0.0000 Press    =        -4.9087
------------ Step          40460 ----- CPU =     2.345876 (sec) -------------
TotEng   =       166.1721 KinEng   =        87.0981 Temp     =       295.1477 
PotEng   =        79.0739 E_bond   =        30.2853 E_angle  =        25.2222 
E_dihed  =        42.6659 E_impro  =         0.0000 E_vdwl   =       -19.0995 
E_coul   =         0.0000 E_long   =         0.0000 Press    =        -0.2322
------------ Step          40480 ----- CPU =     2.346838 (sec) -------------
TotEng   =       171.6657 KinEng   =        85.7037 Temp     =       290.4224 
PotEng   =        85.9620 E_bond   =        27.8376 E_angle  =        31.4366 
E_dihed  =        45.0965 E_impro  =         0.0000 E_vdwl   =       -18.4087 
E_coul   =         0.0000 E_long   =         0.0000 Press    =         3.4829
------------ Step          40500 ----- CPU =     2.347938 (sec) -------------
TotEng   =       176.5057 KinEng   =        97.4554 Temp     =       330.2450 
PotEng   =        79.0503 E_bond   =        25.3698 E_angle  =        25.2626 
E_dihed  =        47.6205 E_impro  =         0.0000 E_vdwl   =       -19.2026 
E_coul   =         0.0000 E_long   =         0.0000 Press    =        -3.2939
------------ Step          40520 ----- CPU =     2.349481 (sec) -------------
TotEng   =       179.7052 KinEng   =        85.2900 Temp     =       289.0204 
PotEng   =        94.4153 E_bond   =        34.2831 E_angle  =        28.9344 
E_dihed  =        49.9861 E_impro  =         0.0000 E_vdwl   =       -18.7883 
E_coul   =         0.0000 E_long   =         0.0000 Press    =         3.7844
------------ Step          40540 ----- CPU =     2.350646 (sec) -------------
TotEng   =       181.5098 KinEng   =        94.3520 Temp     =       319.7287 
PotEng   =        87.1578 E_bond   =        30.7202 E_angle  =        23.5469 
E_dihed  =        53.3259 E_impro  =         0.0000 E_vdwl   =       -20.4352 
E_coul   =         0.0000 E_long   =         0.0000 Press    =         3.2896
------------ Step          40560 ----- CPU =     2.351658 (sec) -------------
TotEng   =       182.8434 KinEng   =        86.0423 Temp     =       291.5697 
PotEng   =        96.8011 E_bond   =        35.5109 E_angle  =        29.6884 
E_dihed  =        50.5066 E_impro  =         0.0000 E_vdwl   =       -18.9048 
E_coul   =         0.0000 E_long   =         0.0000 Press    =        -3.2889
------------ Step          40580 ----- CPU =     2.352988 (sec) -------------
TotEng   =       183.4942 KinEng   =        93.2736 Temp     =       316.0743 
PotEng   =        90.2206 E_bond   =        28.3465 E_angle  =        36.0475 
E_dihed  =        47.2236 E_impro  =         0.0000 E_vdwl   =       -21.3969 
E_coul   =         0.0000 E_long   =         0.0000 Press    =         4.1504
------------ Step          40600 ----- CPU =     2.354587 (sec) -------------
TotEng   =       184.0226 KinEng   =        95.8147 Temp     =       324.6854 
PotEng   =        88.2079 E_bond   =        28.3802 E_angle  =        34.9262 
E_dihed  =        46.7511 E_impro  =         0.0000 E_vdwl   =       -21.8496 
E_coul   =         0.0000 E_long   =         0.0000 Press    =         0.3499
------------ Step          40620 ----- CPU =     2.355878 (sec) -------------
TotEng   =       184.1026 KinEng   =        86.1130 Temp     =       291.8092 
PotEng   =        97.9896 E_bond   =        39.9685 E_angle  =        27.5621 
E_dihed  =        51.6834 E_impro  =         0.0000 E_vdwl   =       -21.2244 
E_coul   =         0.0000 E_long   =         0.0000 Press    =        -2.8068
------------ Step          40640 ----- CPU =     2.357025 (sec) -------------
TotEng   =       183.8954 KinEng   =        90.6726 Temp     =       307.2604 
PotEng   =        93.2228 E_bond   =        30.5619 E_angle  =        26.5785 
E_dihed  =        53.9633 E_impro  =         0.0000 E_vdwl   =       -17.8809 
E_coul   =         0.0000 E_long   =         0.0000 Press    =         3.3858
------------ Step          40660 ----- CPU =     2.357982 (sec) -------------
TotEng   =       183.6654 KinEng   =        91.0257 Temp     =       308.4568 
PotEng   =        92.6397 E_bond   =        34.6313 E_angle  =        24.0453 
E_dihed  =        54.1123 E_impro  =         0.0000 E_vdwl   =       -20.1491 
E_coul   =         0.0000 E_long   =         0.0000 Press    =        -0.3959
------------ Step          40680 ----- CPU =     2.358935 (sec) -------------
TotEng   =       183.0415 KinEng   =        92.9242 Temp     =       314.8905 
PotEng   =        90.1173 E_bond   =        30.6976 E_angle  =        30.5434 
E_dihed  =        48.9078 E_impro  =         0.0000 E_vdwl   =       -20.0315 
E_coul   =         0.0000 E_long   =         0.0000 Press    =        -0.8334
------------ Step          40700 ----- CPU =     2.359975 (sec) -------------
TotEng   =       181.8721 KinEng   =        91.7033 Temp     =       310.7530 
PotEng   =        90.1689 E_bond   =        33.2609 E_angle  =        28.8254 
E_dihed  =        48.1136 E_impro  =         0.0000 E_vdwl   =       -20.0311 
E_coul   =         0.0000 E_long   =         0.0000 Press    =         2.6696
------------ Step          40720 ----- CPU =      2.36108 (sec) -------------
TotEng   =       179.9523 KinEng   =        94.0572 Temp     =       318.7299 
PotEng   =        85.8950 E_bond   =        27.7182 E_angle  =        30.1324 
E_dihed  =        47.1254 E_impro  =         0.0000 E_vdwl   =       -19.0810 
E_coul   =         0.0000 E_long   =         0.0000 Press    =         0.2258
------------ Step          40740 ----- CPU =     2.362042 (sec) -------------
TotEng   =       177.9428 KinEng   =        83.4542 Temp     =       282.7997 
PotEng   =        94.4886 E_bond   =        36.7156 E_angle  =        26.0821 
E_dihed  =        50.2772 E_impro  =         0.0000 E_vdwl   =       -18.5863 
E_coul   =         0.0000 E_long   =         0.0000 Press    =        -1.6547
------------ Step          40760 ----- CPU =      2.36299 (sec) -------------
TotEng   =       175.7807 KinEng   =        86.6816 Temp     =       293.7362 
PotEng   =        89.0991 E_bond   =        28.8001 E_angle  =        24.9670 
E_dihed  =        54.1785 E_impro  =         0.0000 E_vdwl   =       -18.8464 
E_coul   =         0.0000 E_long   =         0.0000 Press    =         0.8667
------------ Step          40780 ----- CPU =     2.364134 (sec) -------------
TotEng   =       174.0788 KinEng   =        79.3682 Temp     =       268.9533 
PotEng   =        94.7106 E_bond   =        31.6509 E_angle  =        28.9396 
E_dihed  =        51.3521 E_impro  =         0.0000 E_vdwl   =       -17.2319 
E_coul   =         0.0000 E_long   =         0.0000 Press    =        -1.5467
------------ Step          40800 ----- CPU =     2.365954 (sec) -------------
TotEng   =       172.6441 KinEng   =        90.9857 Temp     =       308.3214 
PotEng   =        81.6584 E_bond   =        26.3005 E_angle  =        28.5614 
E_dihed  =        45.5828 E_impro  =         0.0000 E_vdwl   =       -18.7863 
E_coul   =         0.0000 E_long   =         0.0000 Press    =        -2.3736
------------ Step          40820 ----- CPU =     2.367715 (sec) -------------
TotEng   =       171.1471 KinEng   =        85.1485 Temp     =       288.5409 
PotEng   =        85.9986 E_bond   =        30.4375 E_angle  =        29.5327 
E_dihed  =        44.3056 E_impro  =         0.0000 E_vdwl   =       -18.2772 
E_coul   =         0.0000 E_long   =         0.0000 Press    =         0.8392
------------ Step          40840 ----- CPU =     2.368718 (sec) -------------
TotEng   =       169.7229 KinEng   =        81.9324 Temp     =       277.6425 
PotEng   =        87.7905 E_bond   =        31.0290 E_angle  =        32.4934 
E_dihed  =        43.0642 E_impro  =         0.0000 E_vdwl   =       -18.7961 
E_coul   =         0.0000 E_long   =         0.0000 Press    =        -2.5168
------------ Step          40860 ----- CPU =     2.369673 (sec) -------------
TotEng   =       168.0952 KinEng   =        93.4072 Temp     =       316.5272 
PotEng   =        74.6880 E_bond   =        27.8778 E_angle  =        23.5047 
E_dihed  =        44.5270 E_impro  =         0.0000 E_vdwl   =       -21.2215 
E_coul   =         0.0000 E_long   =         0.0000 Press    =        -0.5192
------------ Step          40880 ----- CPU =     2.371184 (sec) -------------
TotEng   =       166.0190 KinEng   =        85.0784 Temp     =       288.3034 
PotEng   =        80.9407 E_bond   =        29.8185 E_angle  =        27.6463 
E_dihed  =        46.0318 E_impro  =         0.0000 E_vdwl   =       -22.5559 
E_coul   =         0.0000 E_long   =         0.0000 Press    =         2.9990
------------ Step          40900 ----- CPU =     2.372179 (sec) -------------
TotEng   =       163.6140 KinEng   =        78.7377 Temp     =       266.8167 
PotEng   =        84.8764 E_bond   =        31.7912 E_angle  =        32.3976 
E_dihed  =        44.7514 E_impro  =         0.0000 E_vdwl   =       -24.0638 
E_coul   =         0.0000 E_long   =         0.0000 Press    =        -3.7585
------------ Step          40920 ----- CPU =     2.373406 (sec) -------------
TotEng   =       160.5675 KinEng   =        90.7596 Temp     =       307.5553 
PotEng   =        69.8079 E_bond   =        26.2453 E_angle  =        22.1625 
E_dihed  =        44.8972 E_impro  =         0.0000 E_vdwl   =       -23.4970 
E_coul   =         0.0000 E_long   =         0.0000 Press    =        -0.2592
------------ Step          40940 ----- CPU =     2.374377 (sec) -------------
TotEng   =       157.0673 KinEng   =        81.8941 Temp     =       277.5130 
PotEng   =        75.1732 E_bond   =        30.6567 E_angle  =        22.4463 
E_dihed  =        46.0143 E_impro  =         0.0000 E_vdwl   =       -23.9441 
E_coul   =         0.0000 E_long   =         0.0000 Press    =         1.3050
------------ Step          40960 ----- CPU =     2.375567 (sec) -------------
TotEng   =       153.5801 KinEng   =        82.8156 Temp     =       280.6355 
PotEng   =        70.7645 E_bond   =        25.2542 E_angle  =        26.8317 
E_dihed  =        42.4203 E_impro  =         0.0000 E_vdwl   =       -23.7417 
E_coul   =         0.0000 E_long   =         0.0000 Press    =        -0.5913
------------ Step          40980 ----- CPU =     2.376678 (sec) -------------
TotEng   =       150.4525 KinEng   =        79.3288 Temp     =       268.8199 
PotEng   =        71.1237 E_bond   =        29.5688 E_angle  =        22.5579 
E_dihed  =        43.0882 E_impro  =         0.0000 E_vdwl   =       -24.0912 
E_coul   =         0.0000 E_long   =         0.0000 Press    =         3.7492
------------ Step          41000 ----- CPU =     2.377729 (sec) -------------
TotEng   =       147.9840 KinEng   =        74.8583 Temp     =       253.6707 
PotEng   =        73.1258 E_bond   =        25.2851 E_angle  =        26.2478 
E_dihed  =        46.8053 E_impro  =         0.0000 E_vdwl   =       -25.2125 
E_coul   =         0.0000 E_long   =         0.0000 Press    =         1.6210
------------ Step          41020 ----- CPU =     2.378841 (sec) -------------
TotEng   =       146.7865 KinEng   =        73.7909 Temp     =       250.0538 
PotEng   =        72.9956 E_bond   =        25.8780 E_angle  =        24.2079 
E_dihed  =        46.9463 E_impro  =         0.0000 E_vdwl   =       -24.0366 
E_coul   =         0.0000 E_long   =         0.0000 Press    =        -0.7226
------------ Step          41040 ----- CPU =     2.379777 (sec) -------------
TotEng   =       146.6234 KinEng   =        74.3783 Temp     =       252.0443 
PotEng   =        72.2450 E_bond   =        26.1981 E_angle  =        23.8596 
E_dihed  =        45.3187 E_impro  =         0.0000 E_vdwl   =       -23.1313 
E_coul   =         0.0000 E_long   =         0.0000 Press    =         1.3496
------------ Step          41060 ----- CPU =     2.380861 (sec) -------------
TotEng   =       147.5714 KinEng   =        78.8245 Temp     =       267.1110 
PotEng   =        68.7469 E_bond   =        29.2460 E_angle  =        22.0929 
E_dihed  =        41.6861 E_impro  =         0.0000 E_vdwl   =       -24.2782 
E_coul   =         0.0000 E_long   =         0.0000 Press    =        -0.9141
------------ Step          41080 ----- CPU =     2.381964 (sec) -------------
TotEng   =       149.1523 KinEng   =        80.9533 Temp     =       274.3247 
PotEng   =        68.1990 E_bond   =        24.4360 E_angle  =        23.4172 
E_dihed  =        45.3215 E_impro  =         0.0000 E_vdwl   =       -24.9757 
E_coul   =         0.0000 E_long   =         0.0000 Press    =        -1.8317
------------ Step          41100 ----- CPU =     2.383141 (sec) -------------
TotEng   =       151.5110 KinEng   =        75.8776 Temp     =       257.1247 
PotEng   =        75.6334 E_bond   =        28.5207 E_angle  =        23.2966 
E_dihed  =        47.4153 E_impro  =         0.0000 E_vdwl   =       -23.5992 
E_coul   =         0.0000 E_long   =         0.0000 Press    =         0.7921
------------ Step          41120 ----- CPU =     2.384578 (sec) -------------
TotEng   =       154.8610 KinEng   =        79.6134 Temp     =       269.7844 
PotEng   =        75.2476 E_bond   =        29.0361 E_angle  =        23.1921 
E_dihed  =        47.2466 E_impro  =         0.0000 E_vdwl   =       -24.2273 
E_coul   =         0.0000 E_long   =         0.0000 Press    =         0.7384
------------ Step          41140 ----- CPU =     2.385537 (sec) -------------
TotEng   =       158.7649 KinEng   =        82.3964 Temp     =       279.2151 
PotEng   =        76.3685 E_bond   =        29.7119 E_angle  =        22.9698 
E_dihed  =        46.9233 E_impro  =         0.0000 E_vdwl   =       -23.2366 
E_coul   =         0.0000 E_long   =         0.0000 Press    =        -2.1764
------------ Step          41160 ----- CPU =     2.386475 (sec) -------------
TotEng   =       162.5133 KinEng   =        84.4532 Temp     =       286.1847 
PotEng   =        78.0601 E_bond   =        30.7673 E_angle  =        25.2813 
E_dihed  =        46.2542 E_impro  =         0.0000 E_vdwl   =       -24.2427 
E_coul   =         0.0000 E_long   =         0.0000 Press    =         1.3368
------------ Step          41180 ----- CPU =     2.387505 (sec) -------------
TotEng   =       165.2112 KinEng   =        82.4856 Temp     =       279.5174 
PotEng   =        82.7255 E_bond   =        30.0342 E_angle  =        32.2535 
E_dihed  =        44.2094 E_impro  =         0.0000 E_vdwl   =       -23.7715 
E_coul   =         0.0000 E_long   =         0.0000 Press    =        -0.0118
------------ Step          41200 ----- CPU =     2.390747 (sec) -------------
TotEng   =       167.0749 KinEng   =        89.7286 Temp     =       304.0615 
PotEng   =        77.3463 E_bond   =        31.5617 E_angle  =        25.1880 
E_dihed  =        44.7094 E_impro  =         0.0000 E_vdwl   =       -24.1128 
E_coul   =         0.0000 E_long   =         0.0000 Press    =        -2.2019
------------ Step          41220 ----- CPU =     2.391901 (sec) -------------
TotEng   =       168.2635 KinEng   =        93.0227 Temp     =       315.2241 
PotEng   =        75.2408 E_bond   =        33.8343 E_angle  =        24.4091 
E_dihed  =        39.5711 E_impro  =         0.0000 E_vdwl   =       -22.5736 
E_coul   =         0.0000 E_long   =         0.0000 Press    =         2.0035
------------ Step          41240 ----- CPU =     2.392906 (sec) -------------
TotEng   =       168.7982 KinEng   =        88.1158 Temp     =       298.5963 
PotEng   =        80.6824 E_bond   =        31.3781 E_angle  =        33.3212 
E_dihed  =        39.4309 E_impro  =         0.0000 E_vdwl   =       -23.4478 
E_coul   =         0.0000 E_long   =         0.0000 Press    =        -2.4329
------------ Step          41260 ----- CPU =     2.393838 (sec) -------------
TotEng   =       168.9780 KinEng   =        93.0632 Temp     =       315.3615 
PotEng   =        75.9148 E_bond   =        28.6250 E_angle  =        27.4840 
E_dihed  =        42.0611 E_impro  =         0.0000 E_vdwl   =       -22.2553 
E_coul   =         0.0000 E_long   =         0.0000 Press    =        -1.5720
------------ Step          41280 ----- CPU =     2.394841 (sec) -------------
TotEng   =       169.2927 KinEng   =        86.5269 Temp     =       293.2119 
PotEng   =        82.7658 E_bond   =        28.7963 E_angle  =        32.7187 
E_dihed  =        41.8049 E_impro  =         0.0000 E_vdwl   =       -20.5540 
E_coul   =         0.0000 E_long   =         0.0000 Press    =         0.9210
------------ Step          41300 ----- CPU =     2.396027 (sec) -------------
TotEng   =       169.6359 KinEng   =        88.5955 Temp     =       300.2217 
PotEng   =        81.0404 E_bond   =        32.2986 E_angle  =        24.7454 
E_dihed  =        46.4196 E_impro  =         0.0000 E_vdwl   =       -22.4232 
E_coul   =         0.0000 E_long   =         0.0000 Press    =        -3.2156
------------ Step          41320 ----- CPU =     2.398017 (sec) -------------
TotEng   =       169.9865 KinEng   =        92.1678 Temp     =       312.3272 
PotEng   =        77.8187 E_bond   =        29.2102 E_angle  =        26.4726 
E_dihed  =        47.1943 E_impro  =         0.0000 E_vdwl   =       -25.0584 
E_coul   =         0.0000 E_long   =         0.0000 Press    =         0.4375
------------ Step          41340 ----- CPU =     2.399492 (sec) -------------
TotEng   =       170.1904 KinEng   =        86.8241 Temp     =       294.2192 
PotEng   =        83.3663 E_bond   =        32.2953 E_angle  =        29.2661 
E_dihed  =        45.5815 E_impro  =         0.0000 E_vdwl   =       -23.7767 
E_coul   =         0.0000 E_long   =         0.0000 Press    =        -0.4173
------------ Step          41360 ----- CPU =      2.40121 (sec) -------------
TotEng   =       170.4472 KinEng   =        82.2848 Temp     =       278.8367 
PotEng   =        88.1625 E_bond   =        32.4117 E_angle  =        30.9725 
E_dihed  =        49.0285 E_impro  =         0.0000 E_vdwl   =       -24.2503 
E_coul   =         0.0000 E_long   =         0.0000 Press    =        -0.6841
------------ Step          41380 ----- CPU =      2.40246 (sec) -------------
TotEng   =       171.0612 KinEng   =        80.5021 Temp     =       272.7958 
PotEng   =        90.5591 E_bond   =        37.9030 E_angle  =        26.8708 
E_dihed  =        49.8444 E_impro  =         0.0000 E_vdwl   =       -24.0590 
E_coul   =         0.0000 E_long   =         0.0000 Press    =         4.0763
------------ Step          41400 ----- CPU =     2.404726 (sec) -------------
TotEng   =       171.8869 KinEng   =        86.2059 Temp     =       292.1243 
PotEng   =        85.6810 E_bond   =        33.0144 E_angle  =        29.7578 
E_dihed  =        44.5162 E_impro  =         0.0000 E_vdwl   =       -21.6074 
E_coul   =         0.0000 E_long   =         0.0000 Press    =        -1.6621
------------ Step          41420 ----- CPU =     2.406266 (sec) -------------
TotEng   =       172.8940 KinEng   =        93.9094 Temp     =       318.2288 
PotEng   =        78.9846 E_bond   =        28.6991 E_angle  =        29.5105 
E_dihed  =        42.9389 E_impro  =         0.0000 E_vdwl   =       -22.1639 
E_coul   =         0.0000 E_long   =         0.0000 Press    =        -0.7325
------------ Step          41440 ----- CPU =       2.4072 (sec) -------------
TotEng   =       174.1891 KinEng   =        85.9127 Temp     =       291.1305 
PotEng   =        88.2764 E_bond   =        36.0359 E_angle  =        30.9168 
E_dihed  =        42.0124 E_impro  =         0.0000 E_vdwl   =       -20.6886 
E_coul   =         0.0000 E_long   =         0.0000 Press    =         0.3966
------------ Step          41460 ----- CPU =     2.408106 (sec) -------------
TotEng   =       175.3111 KinEng   =        88.7686 Temp     =       300.8084 
PotEng   =        86.5425 E_bond   =        32.3973 E_angle  =        33.1102 
E_dihed  =        41.8884 E_impro  =         0.0000 E_vdwl   =       -20.8534 
E_coul   =         0.0000 E_long   =         0.0000 Press    =        -2.7885
------------ Step          41480 ----- CPU =     2.410947 (sec) -------------
TotEng   =       176.4395 KinEng   =        88.6990 Temp     =       300.5725 
PotEng   =        87.7405 E_bond   =        32.8029 E_angle  =        31.8791 
E_dihed  =        42.9784 E_impro  =         0.0000 E_vdwl   =       -19.9198 
E_coul   =         0.0000 E_long   =         0.0000 Press    =         1.1944
------------ Step          41500 ----- CPU =     2.411899 (sec) -------------
TotEng   =       177.7342 KinEng   =        98.2785 Temp     =       333.0343 
PotEng   =        79.4557 E_bond   =        30.1393 E_angle  =        26.7467 
E_dihed  =        42.2637 E_impro  =         0.0000 E_vdwl   =       -19.6939 
E_coul   =         0.0000 E_long   =         0.0000 Press    =         0.1727
------------ Step          41520 ----- CPU =     2.412924 (sec) -------------
TotEng   =       179.1368 KinEng   =        87.7565 Temp     =       297.3788 
PotEng   =        91.3803 E_bond   =        29.8607 E_angle  =        30.8959 
E_dihed  =        49.5461 E_impro  =         0.0000 E_vdwl   =       -18.9224 
E_coul   =         0.0000 E_long   =         0.0000 Press    =        -0.4717
------------ Step          41540 ----- CPU =     2.413834 (sec) -------------
TotEng   =       180.9992 KinEng   =        88.6442 Temp     =       300.3869 
PotEng   =        92.3550 E_bond   =        34.2203 E_angle  =        25.5594 
E_dihed  =        52.1121 E_impro  =         0.0000 E_vdwl   =       -19.5368 
E_coul   =         0.0000 E_long   =         0.0000 Press    =         2.2253
------------ Step          41560 ----- CPU =     2.415074 (sec) -------------
TotEng   =       183.2073 KinEng   =        90.6072 Temp     =       307.0387 
PotEng   =        92.6002 E_bond   =        36.2843 E_angle  =        29.9130 
E_dihed  =        47.8700 E_impro  =         0.0000 E_vdwl   =       -21.4671 
E_coul   =         0.0000 E_long   =         0.0000 Press    =         0.0379
------------ Step          41580 ----- CPU =     2.416135 (sec) -------------
TotEng   =       185.4934 KinEng   =        84.3781 Temp     =       285.9302 
PotEng   =       101.1153 E_bond   =        34.3305 E_angle  =        43.2023 
E_dihed  =        44.7898 E_impro  =         0.0000 E_vdwl   =       -21.2074 
E_coul   =         0.0000 E_long   =         0.0000 Press    =         0.8567
------------ Step          41600 ----- CPU =     2.417334 (sec) -------------
TotEng   =       188.3564 KinEng   =       104.1346 Temp     =       352.8788 
PotEng   =        84.2218 E_bond   =        33.8063 E_angle  =        21.6048 
E_dihed  =        48.0861 E_impro  =         0.0000 E_vdwl   =       -19.2754 
E_coul   =         0.0000 E_long   =         0.0000 Press    =         3.9436
------------ Step          41620 ----- CPU =     2.418505 (sec) -------------
TotEng   =       190.7280 KinEng   =        90.5665 Temp     =       306.9008 
PotEng   =       100.1615 E_bond   =        32.1501 E_angle  =        32.2891 
E_dihed  =        56.1990 E_impro  =         0.0000 E_vdwl   =       -20.4767 
E_coul   =         0.0000 E_long   =         0.0000 Press    =        -0.3078
------------ Step          41640 ----- CPU =     2.419518 (sec) -------------
TotEng   =       192.9525 KinEng   =        86.9580 Temp     =       294.6727 
PotEng   =       105.9946 E_bond   =        41.8555 E_angle  =        31.1336 
E_dihed  =        52.3637 E_impro  =         0.0000 E_vdwl   =       -19.3582 
E_coul   =         0.0000 E_long   =         0.0000 Press    =        -0.4247
------------ Step          41660 ----- CPU =     2.421695 (sec) -------------
TotEng   =       194.9049 KinEng   =       104.3524 Temp     =       353.6168 
PotEng   =        90.5526 E_bond   =        33.2402 E_angle  =        28.6861 
E_dihed  =        47.9284 E_impro  =         0.0000 E_vdwl   =       -19.3021 
E_coul   =         0.0000 E_long   =         0.0000 Press    =         1.1327
------------ Step          41680 ----- CPU =     2.423543 (sec) -------------
TotEng   =       196.3723 KinEng   =        96.5964 Temp     =       327.3342 
PotEng   =        99.7760 E_bond   =        34.6379 E_angle  =        37.0196 
E_dihed  =        47.8047 E_impro  =         0.0000 E_vdwl   =       -19.6862 
E_coul   =         0.0000 E_long   =         0.0000 Press    =        -2.2519
------------ Step          41700 ----- CPU =     2.424547 (sec) -------------
TotEng   =       197.5496 KinEng   =       100.8297 Temp     =       341.6795 
PotEng   =        96.7200 E_bond   =        35.2287 E_angle  =        32.7137 
E_dihed  =        46.9960 E_impro  =         0.0000 E_vdwl   =       -18.2185 
E_coul   =         0.0000 E_long   =         0.0000 Press    =        -1.4293
------------ Step          41720 ----- CPU =     2.425651 (sec) -------------
TotEng   =       198.1892 KinEng   =        95.3332 Temp     =       323.0536 
PotEng   =       102.8561 E_bond   =        39.5727 E_angle  =        34.0573 
E_dihed  =        49.5499 E_impro  =         0.0000 E_vdwl   =       -20.3238 
E_coul   =         0.0000 E_long   =         0.0000 Press    =        -0.4541
------------ Step          41740 ----- CPU =     2.427056 (sec) -------------
TotEng   =       197.8342 KinEng   =       108.8928 Temp     =       369.0028 
PotEng   =        88.9414 E_bond   =        27.9189 E_angle  =        30.6227 
E_dihed  =        51.4912 E_impro  =         0.0000 E_vdwl   =       -21.0913 
E_coul   =         0.0000 E_long   =         0.0000 Press    =        -0.0118
------------ Step          41760 ----- CPU =     2.428145 (sec) -------------
TotEng   =       196.6429 KinEng   =        95.5028 Temp     =       323.6285 
PotEng   =       101.1401 E_bond   =        37.3118 E_angle  =        32.4737 
E_dihed  =        52.8950 E_impro  =         0.0000 E_vdwl   =       -21.5404 
E_coul   =         0.0000 E_long   =         0.0000 Press    =         0.6920
------------ Step          41780 ----- CPU =     2.429158 (sec) -------------
TotEng   =       193.7769 KinEng   =        95.7912 Temp     =       324.6058 
PotEng   =        97.9856 E_bond   =        38.2760 E_angle  =        32.3685 
E_dihed  =        47.8428 E_impro  =         0.0000 E_vdwl   =       -20.5017 
E_coul   =         0.0000 E_long   =         0.0000 Press    =        -0.0587
------------ Step          41800 ----- CPU =     2.430178 (sec) -------------
TotEng   =       189.0548 KinEng   =        94.8891 Temp     =       321.5487 
PotEng   =        94.1657 E_bond   =        29.8320 E_angle  =        37.8041 
E_dihed  =        49.3673 E_impro  =         0.0000 E_vdwl   =       -22.8377 
E_coul   =         0.0000 E_long   =         0.0000 Press    =         0.2747
------------ Step          41820 ----- CPU =     2.431507 (sec) -------------
TotEng   =       183.4545 KinEng   =        97.4815 Temp     =       330.3334 
PotEng   =        85.9731 E_bond   =        35.5979 E_angle  =        25.1969 
E_dihed  =        46.2955 E_impro  =         0.0000 E_vdwl   =       -21.1173 
E_coul   =         0.0000 E_long   =         0.0000 Press    =        -1.7790
------------ Step          41840 ----- CPU =     2.433867 (sec) -------------
TotEng   =       177.9283 KinEng   =        78.3508 Temp     =       265.5058 
PotEng   =        99.5775 E_bond   =        43.9320 E_angle  =        31.6508 
E_dihed  =        45.3877 E_impro  =         0.0000 E_vdwl   =       -21.3930 
E_coul   =         0.0000 E_long   =         0.0000 Press    =        -1.3668
------------ Step          41860 ----- CPU =     2.434859 (sec) -------------
TotEng   =       173.9649 KinEng   =        89.9297 Temp     =       304.7429 
PotEng   =        84.0352 E_bond   =        30.1899 E_angle  =        26.6129 
E_dihed  =        49.3357 E_impro  =         0.0000 E_vdwl   =       -22.1033 
E_coul   =         0.0000 E_long   =         0.0000 Press    =        -1.4982
------------ Step          41880 ----- CPU =     2.435999 (sec) -------------
TotEng   =       171.5363 KinEng   =        82.7035 Temp     =       280.2556 
PotEng   =        88.8328 E_bond   =        32.0829 E_angle  =        27.3216 
E_dihed  =        49.9240 E_impro  =         0.0000 E_vdwl   =       -20.4956 
E_coul   =         0.0000 E_long   =         0.0000 Press    =        -2.2664
------------ Step          41900 ----- CPU =     2.439027 (sec) -------------
TotEng   =       170.2006 KinEng   =        84.9327 Temp     =       287.8096 
PotEng   =        85.2680 E_bond   =        29.7097 E_angle  =        33.5068 
E_dihed  =        42.2499 E_impro  =         0.0000 E_vdwl   =       -20.1984 
E_coul   =         0.0000 E_long   =         0.0000 Press    =        -0.0071
------------ Step          41920 ----- CPU =     2.440176 (sec) -------------
TotEng   =       169.3666 KinEng   =        84.5004 Temp     =       286.3448 
PotEng   =        84.8662 E_bond   =        37.0188 E_angle  =        28.0680 
E_dihed  =        42.5294 E_impro  =         0.0000 E_vdwl   =       -22.7500 
E_coul   =         0.0000 E_long   =         0.0000 Press    =         0.3933
------------ Step          41940 ----- CPU =     2.441174 (sec) -------------
TotEng   =       168.3901 KinEng   =        94.9621 Temp     =       321.7963 
PotEng   =        73.4280 E_bond   =        22.0189 E_angle  =        27.3517 
E_dihed  =        46.6353 E_impro  =         0.0000 E_vdwl   =       -22.5779 
E_coul   =         0.0000 E_long   =         0.0000 Press    =         2.6362
------------ Step          41960 ----- CPU =     2.442184 (sec) -------------
TotEng   =       168.0009 KinEng   =        80.2310 Temp     =       271.8771 
PotEng   =        87.7699 E_bond   =        37.3086 E_angle  =        26.9474 
E_dihed  =        45.6168 E_impro  =         0.0000 E_vdwl   =       -22.1028 
E_coul   =         0.0000 E_long   =         0.0000 Press    =         3.0752
------------ Step          41980 ----- CPU =     2.443189 (sec) -------------
TotEng   =       167.5929 KinEng   =        84.7722 Temp     =       287.2658 
PotEng   =        82.8207 E_bond   =        29.2874 E_angle  =        33.1324 
E_dihed  =        45.6094 E_impro  =         0.0000 E_vdwl   =       -25.2085 
E_coul   =         0.0000 E_long   =         0.0000 Press    =         0.5765
------------ Step          42000 ----- CPU =     2.444363 (sec) -------------
TotEng   =       167.4711 KinEng   =        87.9810 Temp     =       298.1393 
PotEng   =        79.4901 E_bond   =        31.5730 E_angle  =        26.4938 
E_dihed  =        45.9662 E_impro  =         0.0000 E_vdwl   =       -24.5428 
E_coul   =         0.0000 E_long   =         0.0000 Press    =         1.3301
------------ Step          42020 ----- CPU =      2.44651 (sec) -------------
TotEng   =       167.3402 KinEng   =        85.8411 Temp     =       290.8879 
PotEng   =        81.4991 E_bond   =        30.1330 E_angle  =        33.5912 
E_dihed  =        42.1822 E_impro  =         0.0000 E_vdwl   =       -24.4073 
E_coul   =         0.0000 E_long   =         0.0000 Press    =         2.5476
------------ Step          42040 ----- CPU =     2.447634 (sec) -------------
TotEng   =       167.4772 KinEng   =        81.6067 Temp     =       276.5389 
PotEng   =        85.8705 E_bond   =        34.3949 E_angle  =        38.4200 
E_dihed  =        39.6669 E_impro  =         0.0000 E_vdwl   =       -26.6113 
E_coul   =         0.0000 E_long   =         0.0000 Press    =        -1.0278
------------ Step          42060 ----- CPU =     2.448789 (sec) -------------
TotEng   =       167.5945 KinEng   =        92.0121 Temp     =       311.7994 
PotEng   =        75.5824 E_bond   =        28.2441 E_angle  =        31.2855 
E_dihed  =        41.7843 E_impro  =         0.0000 E_vdwl   =       -25.7314 
E_coul   =         0.0000 E_long   =         0.0000 Press    =        -1.7356
------------ Step          42080 ----- CPU =     2.450065 (sec) -------------
TotEng   =       167.9648 KinEng   =        87.8420 Temp     =       297.6683 
PotEng   =        80.1228 E_bond   =        32.8697 E_angle  =        27.4282 
E_dihed  =        45.8346 E_impro  =         0.0000 E_vdwl   =       -26.0098 
E_coul   =         0.0000 E_long   =         0.0000 Press    =        -0.6796
------------ Step          42100 ----- CPU =     2.451626 (sec) -------------
TotEng   =       168.3617 KinEng   =        85.1912 Temp     =       288.6855 
PotEng   =        83.1705 E_bond   =        35.1501 E_angle  =        29.6581 
E_dihed  =        44.3247 E_impro  =         0.0000 E_vdwl   =       -25.9624 
E_coul   =         0.0000 E_long   =         0.0000 Press    =        -3.6394
------------ Step          42120 ----- CPU =     2.452701 (sec) -------------
TotEng   =       168.8322 KinEng   =        89.1167 Temp     =       301.9879 
PotEng   =        79.7155 E_bond   =        27.3740 E_angle  =        33.3161 
E_dihed  =        45.6816 E_impro  =         0.0000 E_vdwl   =       -26.6562 
E_coul   =         0.0000 E_long   =         0.0000 Press    =        -0.7028
------------ Step          42140 ----- CPU =     2.453763 (sec) -------------
TotEng   =       169.5531 KinEng   =        89.0120 Temp     =       301.6332 
PotEng   =        80.5411 E_bond   =        29.1256 E_angle  =        29.1732 
E_dihed  =        46.4415 E_impro  =         0.0000 E_vdwl   =       -24.1991 
E_coul   =         0.0000 E_long   =         0.0000 Press    =         2.9106
------------ Step          42160 ----- CPU =     2.456873 (sec) -------------
TotEng   =       170.6306 KinEng   =        88.3109 Temp     =       299.2573 
PotEng   =        82.3198 E_bond   =        30.4770 E_angle  =        32.1487 
E_dihed  =        45.2160 E_impro  =         0.0000 E_vdwl   =       -25.5220 
E_coul   =         0.0000 E_long   =         0.0000 Press    =         1.9219
------------ Step          42180 ----- CPU =     2.457963 (sec) -------------
TotEng   =       172.1719 KinEng   =        92.3640 Temp     =       312.9919 
PotEng   =        79.8079 E_bond   =        31.1207 E_angle  =        29.1156 
E_dihed  =        45.9687 E_impro  =         0.0000 E_vdwl   =       -26.3971 
E_coul   =         0.0000 E_long   =         0.0000 Press    =         2.2103
------------ Step          42200 ----- CPU =     2.459003 (sec) -------------
TotEng   =       173.9705 KinEng   =        90.7642 Temp     =       307.5708 
PotEng   =        83.2063 E_bond   =        32.6435 E_angle  =        28.2908 
E_dihed  =        44.9906 E_impro  =         0.0000 E_vdwl   =       -22.7187 
E_coul   =         0.0000 E_long   =         0.0000 Press    =         0.2649
------------ Step          42220 ----- CPU =     2.460114 (sec) -------------
TotEng   =       176.1982 KinEng   =        95.0004 Temp     =       321.9261 
PotEng   =        81.1978 E_bond   =        30.3578 E_angle  =        31.6153 
E_dihed  =        43.9888 E_impro  =         0.0000 E_vdwl   =       -24.7641 
E_coul   =         0.0000 E_long   =         0.0000 Press    =        -1.8469
------------ Step          42240 ----- CPU =     2.461145 (sec) -------------
TotEng   =       178.5472 KinEng   =        94.5183 Temp     =       320.2924 
PotEng   =        84.0289 E_bond   =        30.4479 E_angle  =        29.4919 
E_dihed  =        45.9625 E_impro  =         0.0000 E_vdwl   =       -21.8734 
E_coul   =         0.0000 E_long   =         0.0000 Press    =         0.2623
------------ Step          42260 ----- CPU =     2.462166 (sec) -------------
TotEng   =       180.9129 KinEng   =        95.9411 Temp     =       325.1136 
PotEng   =        84.9718 E_bond   =        33.9970 E_angle  =        28.6777 
E_dihed  =        45.5267 E_impro  =         0.0000 E_vdwl   =       -23.2296 
E_coul   =         0.0000 E_long   =         0.0000 Press    =        -1.6167
------------ Step          42280 ----- CPU =      2.46359 (sec) -------------
TotEng   =       182.9236 KinEng   =        99.6660 Temp     =       337.7361 
PotEng   =        83.2576 E_bond   =        32.7905 E_angle  =        27.8952 
E_dihed  =        45.5397 E_impro  =         0.0000 E_vdwl   =       -22.9678 
E_coul   =         0.0000 E_long   =         0.0000 Press    =        -1.8606
------------ Step          42300 ----- CPU =     2.464774 (sec) -------------
TotEng   =       184.4772 KinEng   =        92.7795 Temp     =       314.4000 
PotEng   =        91.6977 E_bond   =        36.7205 E_angle  =        25.4661 
E_dihed  =        50.2309 E_impro  =         0.0000 E_vdwl   =       -20.7199 
E_coul   =         0.0000 E_long   =         0.0000 Press    =         0.4970
------------ Step          42320 ----- CPU =     2.466118 (sec) -------------
TotEng   =       185.6060 KinEng   =        93.9394 Temp     =       318.3307 
PotEng   =        91.6665 E_bond   =        34.4096 E_angle  =        27.6299 
E_dihed  =        50.0598 E_impro  =         0.0000 E_vdwl   =       -20.4327 
E_coul   =         0.0000 E_long   =         0.0000 Press    =        -0.4893
------------ Step          42340 ----- CPU =     2.467189 (sec) -------------
TotEng   =       186.3239 KinEng   =       103.3153 Temp     =       350.1023 
PotEng   =        83.0086 E_bond   =        30.5258 E_angle  =        29.0358 
E_dihed  =        45.5180 E_impro  =         0.0000 E_vdwl   =       -22.0710 
E_coul   =         0.0000 E_long   =         0.0000 Press    =         1.1671
------------ Step          42360 ----- CPU =     2.468606 (sec) -------------
TotEng   =       185.9485 KinEng   =        99.2809 Temp     =       336.4312 
PotEng   =        86.6676 E_bond   =        33.7722 E_angle  =        29.6206 
E_dihed  =        46.1518 E_impro  =         0.0000 E_vdwl   =       -22.8770 
E_coul   =         0.0000 E_long   =         0.0000 Press    =         1.5379
------------ Step          42380 ----- CPU =     2.469723 (sec) -------------
TotEng   =       184.3622 KinEng   =       100.3061 Temp     =       339.9054 
PotEng   =        84.0561 E_bond   =        31.8890 E_angle  =        27.7515 
E_dihed  =        46.0795 E_impro  =         0.0000 E_vdwl   =       -21.6639 
E_coul   =         0.0000 E_long   =         0.0000 Press    =         1.1831
------------ Step          42400 ----- CPU =      2.47073 (sec) -------------
TotEng   =       181.4765 KinEng   =        93.3365 Temp     =       316.2874 
PotEng   =        88.1400 E_bond   =        32.4386 E_angle  =        33.0976 
E_dihed  =        45.6630 E_impro  =         0.0000 E_vdwl   =       -23.0592 
E_coul   =         0.0000 E_long   =         0.0000 Press    =         4.6296
------------ Step          42420 ----- CPU =     2.471854 (sec) -------------
TotEng   =       177.9762 KinEng   =        87.8427 Temp     =       297.6708 
PotEng   =        90.1335 E_bond   =        33.6717 E_angle  =        33.6217 
E_dihed  =        48.4434 E_impro  =         0.0000 E_vdwl   =       -25.6032 
E_coul   =         0.0000 E_long   =         0.0000 Press    =        -1.4343
------------ Step          42440 ----- CPU =     2.474129 (sec) -------------
TotEng   =       173.8799 KinEng   =        92.4946 Temp     =       313.4344 
PotEng   =        81.3854 E_bond   =        32.1583 E_angle  =        24.4563 
E_dihed  =        49.2640 E_impro  =         0.0000 E_vdwl   =       -24.4932 
E_coul   =         0.0000 E_long   =         0.0000 Press    =        -1.4384
------------ Step          42460 ----- CPU =     2.475928 (sec) -------------
TotEng   =       169.7594 KinEng   =        86.0546 Temp     =       291.6114 
PotEng   =        83.7048 E_bond   =        27.8976 E_angle  =        30.0702 
E_dihed  =        49.4712 E_impro  =         0.0000 E_vdwl   =       -23.7341 
E_coul   =         0.0000 E_long   =         0.0000 Press    =         2.5642
------------ Step          42480 ----- CPU =      2.47698 (sec) -------------
TotEng   =       166.2968 KinEng   =        86.7115 Temp     =       293.8373 
PotEng   =        79.5854 E_bond   =        27.6530 E_angle  =        29.2073 
E_dihed  =        48.2960 E_impro  =         0.0000 E_vdwl   =       -25.5709 
E_coul   =         0.0000 E_long   =         0.0000 Press    =        -3.5347
------------ Step          42500 ----- CPU =     2.478141 (sec) -------------
TotEng   =       164.0902 KinEng   =        78.8757 Temp     =       267.2846 
PotEng   =        85.2144 E_bond   =        31.7165 E_angle  =        33.6816 
E_dihed  =        45.6561 E_impro  =         0.0000 E_vdwl   =       -25.8397 
E_coul   =         0.0000 E_long   =         0.0000 Press    =        -1.1664
------------ Step          42520 ----- CPU =     2.479291 (sec) -------------
TotEng   =       162.7158 KinEng   =        84.4802 Temp     =       286.2765 
PotEng   =        78.2356 E_bond   =        29.2081 E_angle  =        29.8370 
E_dihed  =        43.0083 E_impro  =         0.0000 E_vdwl   =       -23.8179 
E_coul   =         0.0000 E_long   =         0.0000 Press    =         1.2782
------------ Step          42540 ----- CPU =     2.480317 (sec) -------------
TotEng   =       161.8692 KinEng   =        74.7526 Temp     =       253.3125 
PotEng   =        87.1166 E_bond   =        33.0146 E_angle  =        36.9282 
E_dihed  =        43.8036 E_impro  =         0.0000 E_vdwl   =       -26.6298 
E_coul   =         0.0000 E_long   =         0.0000 Press    =        -4.0683
------------ Step          42560 ----- CPU =     2.481959 (sec) -------------
TotEng   =       161.7279 KinEng   =        91.2627 Temp     =       309.2600 
PotEng   =        70.4652 E_bond   =        24.4323 E_angle  =        26.4983 
E_dihed  =        45.5921 E_impro  =         0.0000 E_vdwl   =       -26.0575 
E_coul   =         0.0000 E_long   =         0.0000 Press    =        -0.1812
------------ Step          42580 ----- CPU =     2.483921 (sec) -------------
TotEng   =       162.0913 KinEng   =        78.3667 Temp     =       265.5598 
PotEng   =        83.7245 E_bond   =        32.8607 E_angle  =        31.1857 
E_dihed  =        44.1798 E_impro  =         0.0000 E_vdwl   =       -24.5017 
E_coul   =         0.0000 E_long   =         0.0000 Press    =        -0.0324
------------ Step          42600 ----- CPU =     2.484942 (sec) -------------
TotEng   =       162.8701 KinEng   =        79.7506 Temp     =       270.2493 
PotEng   =        83.1194 E_bond   =        35.3936 E_angle  =        29.6195 
E_dihed  =        42.3117 E_impro  =         0.0000 E_vdwl   =       -24.2054 
E_coul   =         0.0000 E_long   =         0.0000 Press    =        -2.4719
------------ Step          42620 ----- CPU =     2.486054 (sec) -------------
TotEng   =       163.8785 KinEng   =        81.2711 Temp     =       275.4016 
PotEng   =        82.6075 E_bond   =        32.1742 E_angle  =        32.4605 
E_dihed  =        42.4764 E_impro  =         0.0000 E_vdwl   =       -24.5036 
E_coul   =         0.0000 E_long   =         0.0000 Press    =        -1.1652
------------ Step          42640 ----- CPU =     2.488189 (sec) -------------
TotEng   =       165.0797 KinEng   =        92.2785 Temp     =       312.7024 
PotEng   =        72.8012 E_bond   =        21.4396 E_angle  =        30.6502 
E_dihed  =        43.7801 E_impro  =         0.0000 E_vdwl   =       -23.0686 
E_coul   =         0.0000 E_long   =         0.0000 Press    =         0.4847
------------ Step          42660 ----- CPU =      2.48997 (sec) -------------
TotEng   =       166.7053 KinEng   =        86.7741 Temp     =       294.0496 
PotEng   =        79.9312 E_bond   =        34.6271 E_angle  =        23.7820 
E_dihed  =        45.0343 E_impro  =         0.0000 E_vdwl   =       -23.5121 
E_coul   =         0.0000 E_long   =         0.0000 Press    =        -1.3833
------------ Step          42680 ----- CPU =     2.491048 (sec) -------------
TotEng   =       168.0981 KinEng   =        84.7269 Temp     =       287.1122 
PotEng   =        83.3712 E_bond   =        32.8694 E_angle  =        23.4208 
E_dihed  =        49.5939 E_impro  =         0.0000 E_vdwl   =       -22.5129 
E_coul   =         0.0000 E_long   =         0.0000 Press    =         2.3659
------------ Step          42700 ----- CPU =     2.492087 (sec) -------------
TotEng   =       169.6075 KinEng   =        84.5104 Temp     =       286.3786 
PotEng   =        85.0971 E_bond   =        28.2823 E_angle  =        30.6468 
E_dihed  =        48.2239 E_impro  =         0.0000 E_vdwl   =       -22.0558 
E_coul   =         0.0000 E_long   =         0.0000 Press    =         2.6075
------------ Step          42720 ----- CPU =     2.493196 (sec) -------------
TotEng   =       171.5900 KinEng   =        78.6765 Temp     =       266.6094 
PotEng   =        92.9135 E_bond   =        29.9350 E_angle  =        35.5477 
E_dihed  =        44.6980 E_impro  =         0.0000 E_vdwl   =       -17.2671 
E_coul   =         0.0000 E_long   =         0.0000 Press    =        -3.3051
------------ Step          42740 ----- CPU =     2.494365 (sec) -------------
TotEng   =       173.9877 KinEng   =        92.1809 Temp     =       312.3714 
PotEng   =        81.8068 E_bond   =        24.5455 E_angle  =        27.8581 
E_dihed  =        46.1954 E_impro  =         0.0000 E_vdwl   =       -16.7922 
E_coul   =         0.0000 E_long   =         0.0000 Press    =         2.8272
------------ Step          42760 ----- CPU =      2.49546 (sec) -------------
TotEng   =       176.4203 KinEng   =        92.9365 Temp     =       314.9319 
PotEng   =        83.4838 E_bond   =        31.8808 E_angle  =        23.0335 
E_dihed  =        44.8893 E_impro  =         0.0000 E_vdwl   =       -16.3199 
E_coul   =         0.0000 E_long   =         0.0000 Press    =        -0.5512
------------ Step          42780 ----- CPU =     2.496491 (sec) -------------
TotEng   =       178.2632 KinEng   =        93.6695 Temp     =       317.4159 
PotEng   =        84.5937 E_bond   =        25.1724 E_angle  =        30.4781 
E_dihed  =        48.4959 E_impro  =         0.0000 E_vdwl   =       -19.5527 
E_coul   =         0.0000 E_long   =         0.0000 Press    =         0.0078
------------ Step          42800 ----- CPU =     2.497582 (sec) -------------
TotEng   =       179.7522 KinEng   =        82.6988 Temp     =       280.2396 
PotEng   =        97.0534 E_bond   =        40.2481 E_angle  =        24.8850 
E_dihed  =        52.5784 E_impro  =         0.0000 E_vdwl   =       -20.6580 
E_coul   =         0.0000 E_long   =         0.0000 Press    =         5.4577
------------ Step          42820 ----- CPU =     2.498862 (sec) -------------
TotEng   =       180.9777 KinEng   =        94.0722 Temp     =       318.7806 
PotEng   =        86.9054 E_bond   =        28.8038 E_angle  =        31.3980 
E_dihed  =        50.0428 E_impro  =         0.0000 E_vdwl   =       -23.3392 
E_coul   =         0.0000 E_long   =         0.0000 Press    =        -0.6182
------------ Step          42840 ----- CPU =     2.500465 (sec) -------------
TotEng   =       181.6145 KinEng   =       106.9376 Temp     =       362.3772 
PotEng   =        74.6769 E_bond   =        27.5903 E_angle  =        23.8267 
E_dihed  =        46.9119 E_impro  =         0.0000 E_vdwl   =       -23.6519 
E_coul   =         0.0000 E_long   =         0.0000 Press    =         1.2376
------------ Step          42860 ----- CPU =       2.5016 (sec) -------------
TotEng   =       181.7591 KinEng   =        84.6412 Temp     =       286.8221 
PotEng   =        97.1179 E_bond   =        37.7278 E_angle  =        30.8158 
E_dihed  =        52.4170 E_impro  =         0.0000 E_vdwl   =       -23.8428 
E_coul   =         0.0000 E_long   =         0.0000 Press    =        -0.5484
------------ Step          42880 ----- CPU =     2.503446 (sec) -------------
TotEng   =       181.3431 KinEng   =        92.6150 Temp     =       313.8427 
PotEng   =        88.7281 E_bond   =        31.0219 E_angle  =        28.7598 
E_dihed  =        53.5945 E_impro  =         0.0000 E_vdwl   =       -24.6480 
E_coul   =         0.0000 E_long   =         0.0000 Press    =        -2.2831
------------ Step          42900 ----- CPU =     2.505004 (sec) -------------
TotEng   =       180.8653 KinEng   =        96.1598 Temp     =       325.8546 
PotEng   =        84.7055 E_bond   =        31.3749 E_angle  =        22.9071 
E_dihed  =        53.7530 E_impro  =         0.0000 E_vdwl   =       -23.3295 
E_coul   =         0.0000 E_long   =         0.0000 Press    =         0.9417
------------ Step          42920 ----- CPU =      2.50665 (sec) -------------
TotEng   =       180.3783 KinEng   =        94.7695 Temp     =       321.1435 
PotEng   =        85.6088 E_bond   =        32.5140 E_angle  =        23.2747 
E_dihed  =        53.8323 E_impro  =         0.0000 E_vdwl   =       -24.0123 
E_coul   =         0.0000 E_long   =         0.0000 Press    =        -1.8153
------------ Step          42940 ----- CPU =     2.507648 (sec) -------------
TotEng   =       179.6105 KinEng   =        92.4938 Temp     =       313.4317 
PotEng   =        87.1168 E_bond   =        33.7022 E_angle  =        28.1653 
E_dihed  =        50.5153 E_impro  =         0.0000 E_vdwl   =       -25.2661 
E_coul   =         0.0000 E_long   =         0.0000 Press    =         0.1550
------------ Step          42960 ----- CPU =     2.508771 (sec) -------------
TotEng   =       178.5249 KinEng   =        99.0821 Temp     =       335.7575 
PotEng   =        79.4428 E_bond   =        29.7734 E_angle  =        29.6156 
E_dihed  =        44.5978 E_impro  =         0.0000 E_vdwl   =       -24.5440 
E_coul   =         0.0000 E_long   =         0.0000 Press    =        -1.0331
------------ Step          42980 ----- CPU =     2.509796 (sec) -------------
TotEng   =       177.1016 KinEng   =        98.6145 Temp     =       334.1729 
PotEng   =        78.4871 E_bond   =        27.2251 E_angle  =        31.2013 
E_dihed  =        43.9453 E_impro  =         0.0000 E_vdwl   =       -23.8846 
E_coul   =         0.0000 E_long   =         0.0000 Press    =         0.3296
------------ Step          43000 ----- CPU =     2.511085 (sec) -------------
TotEng   =       175.5659 KinEng   =        89.8822 Temp     =       304.5818 
PotEng   =        85.6838 E_bond   =        34.0949 E_angle  =        29.7898 
E_dihed  =        46.1338 E_impro  =         0.0000 E_vdwl   =       -24.3348 
E_coul   =         0.0000 E_long   =         0.0000 Press    =        -0.1860
------------ Step          43020 ----- CPU =     2.512254 (sec) -------------
TotEng   =       173.7853 KinEng   =        91.7556 Temp     =       310.9305 
PotEng   =        82.0297 E_bond   =        29.5418 E_angle  =        26.5326 
E_dihed  =        48.6010 E_impro  =         0.0000 E_vdwl   =       -22.6457 
E_coul   =         0.0000 E_long   =         0.0000 Press    =        -1.1916
------------ Step          43040 ----- CPU =      2.51329 (sec) -------------
TotEng   =       172.0989 KinEng   =        89.0651 Temp     =       301.8131 
PotEng   =        83.0338 E_bond   =        32.1836 E_angle  =        27.1846 
E_dihed  =        48.1635 E_impro  =         0.0000 E_vdwl   =       -24.4979 
E_coul   =         0.0000 E_long   =         0.0000 Press    =         0.7180
------------ Step          43060 ----- CPU =     2.514421 (sec) -------------
TotEng   =       170.5598 KinEng   =        86.5063 Temp     =       293.1422 
PotEng   =        84.0535 E_bond   =        35.9150 E_angle  =        23.1380 
E_dihed  =        47.5290 E_impro  =         0.0000 E_vdwl   =       -22.5285 
E_coul   =         0.0000 E_long   =         0.0000 Press    =        -2.8139
------------ Step          43080 ----- CPU =     2.515681 (sec) -------------
TotEng   =       168.8175 KinEng   =        85.6614 Temp     =       290.2791 
PotEng   =        83.1561 E_bond   =        33.4313 E_angle  =        21.9989 
E_dihed  =        49.2989 E_impro  =         0.0000 E_vdwl   =       -21.5730 
E_coul   =         0.0000 E_long   =         0.0000 Press    =        -0.7300
------------ Step          43100 ----- CPU =     2.517985 (sec) -------------
TotEng   =       167.1542 KinEng   =        85.9166 Temp     =       291.1439 
PotEng   =        81.2376 E_bond   =        28.5714 E_angle  =        29.1470 
E_dihed  =        47.5074 E_impro  =         0.0000 E_vdwl   =       -23.9883 
E_coul   =         0.0000 E_long   =         0.0000 Press    =        -1.0672
------------ Step          43120 ----- CPU =     2.519137 (sec) -------------
TotEng   =       165.8403 KinEng   =        82.6485 Temp     =       280.0694 
PotEng   =        83.1917 E_bond   =        33.8355 E_angle  =        28.8035 
E_dihed  =        44.9223 E_impro  =         0.0000 E_vdwl   =       -24.3696 
E_coul   =         0.0000 E_long   =         0.0000 Press    =        -2.9299
------------ Step          43140 ----- CPU =     2.520266 (sec) -------------
TotEng   =       165.0503 KinEng   =        80.8289 Temp     =       273.9033 
PotEng   =        84.2214 E_bond   =        32.1856 E_angle  =        28.8568 
E_dihed  =        46.0453 E_impro  =         0.0000 E_vdwl   =       -22.8662 
E_coul   =         0.0000 E_long   =         0.0000 Press    =         1.5454
------------ Step          43160 ----- CPU =     2.521291 (sec) -------------
TotEng   =       164.3111 KinEng   =        88.7043 Temp     =       300.5905 
PotEng   =        75.6068 E_bond   =        27.8596 E_angle  =        22.2467 
E_dihed  =        48.3721 E_impro  =         0.0000 E_vdwl   =       -22.8717 
E_coul   =         0.0000 E_long   =         0.0000 Press    =        -0.9700
------------ Step          43180 ----- CPU =     2.524679 (sec) -------------
TotEng   =       163.9367 KinEng   =        80.9603 Temp     =       274.3486 
PotEng   =        82.9764 E_bond   =        29.3502 E_angle  =        28.2608 
E_dihed  =        48.6354 E_impro  =         0.0000 E_vdwl   =       -23.2700 
E_coul   =         0.0000 E_long   =         0.0000 Press    =        -0.8743
------------ Step          43200 ----- CPU =     2.525752 (sec) -------------
TotEng   =       164.0072 KinEng   =        83.2792 Temp     =       282.2065 
PotEng   =        80.7280 E_bond   =        35.6532 E_angle  =        24.2953 
E_dihed  =        44.2083 E_impro  =         0.0000 E_vdwl   =       -23.4288 
E_coul   =         0.0000 E_long   =         0.0000 Press    =         2.3323
------------ Step          43220 ----- CPU =     2.526957 (sec) -------------
TotEng   =       164.4663 KinEng   =        87.6345 Temp     =       296.9653 
PotEng   =        76.8318 E_bond   =        29.4428 E_angle  =        27.8983 
E_dihed  =        42.4802 E_impro  =         0.0000 E_vdwl   =       -22.9896 
E_coul   =         0.0000 E_long   =         0.0000 Press    =         0.6620
------------ Step          43240 ----- CPU =     2.528199 (sec) -------------
TotEng   =       165.3356 KinEng   =        89.1410 Temp     =       302.0702 
PotEng   =        76.1946 E_bond   =        26.5306 E_angle  =        27.1744 
E_dihed  =        45.6680 E_impro  =         0.0000 E_vdwl   =       -23.1784 
E_coul   =         0.0000 E_long   =         0.0000 Press    =        -0.3572
------------ Step          43260 ----- CPU =     2.529195 (sec) -------------
TotEng   =       166.6992 KinEng   =        81.8304 Temp     =       277.2970 
PotEng   =        84.8688 E_bond   =        32.8755 E_angle  =        26.1147 
E_dihed  =        48.5659 E_impro  =         0.0000 E_vdwl   =       -22.6872 
E_coul   =         0.0000 E_long   =         0.0000 Press    =        -0.4158
------------ Step          43280 ----- CPU =     2.530336 (sec) -------------
TotEng   =       168.7990 KinEng   =        82.5815 Temp     =       279.8421 
PotEng   =        86.2175 E_bond   =        30.2505 E_angle  =        29.8041 
E_dihed  =        48.2856 E_impro  =         0.0000 E_vdwl   =       -22.1226 
E_coul   =         0.0000 E_long   =         0.0000 Press    =        -1.3241
------------ Step          43300 ----- CPU =     2.531749 (sec) -------------
TotEng   =       172.3701 KinEng   =        94.2068 Temp     =       319.2367 
PotEng   =        78.1632 E_bond   =        33.4777 E_angle  =        22.2911 
E_dihed  =        45.6554 E_impro  =         0.0000 E_vdwl   =       -23.2610 
E_coul   =         0.0000 E_long   =         0.0000 Press    =        -0.3365
------------ Step          43320 ----- CPU =     2.534306 (sec) -------------
TotEng   =       176.8247 KinEng   =        86.1491 Temp     =       291.9317 
PotEng   =        90.6757 E_bond   =        36.4183 E_angle  =        30.3330 
E_dihed  =        45.7219 E_impro  =         0.0000 E_vdwl   =       -21.7975 
E_coul   =         0.0000 E_long   =         0.0000 Press    =         1.9057
------------ Step          43340 ----- CPU =     2.535357 (sec) -------------
TotEng   =       181.3601 KinEng   =        97.2044 Temp     =       329.3946 
PotEng   =        84.1557 E_bond   =        31.0330 E_angle  =        27.7725 
E_dihed  =        46.9129 E_impro  =         0.0000 E_vdwl   =       -21.5626 
E_coul   =         0.0000 E_long   =         0.0000 Press    =         3.6283
------------ Step          43360 ----- CPU =     2.537547 (sec) -------------
TotEng   =       185.0821 KinEng   =        88.8724 Temp     =       301.1600 
PotEng   =        96.2097 E_bond   =        35.5197 E_angle  =        32.0302 
E_dihed  =        49.6605 E_impro  =         0.0000 E_vdwl   =       -21.0007 
E_coul   =         0.0000 E_long   =         0.0000 Press    =         0.7973
------------ Step          43380 ----- CPU =     2.539036 (sec) -------------
TotEng   =       188.0463 KinEng   =        99.1675 Temp     =       336.0469 
PotEng   =        88.8788 E_bond   =        36.5714 E_angle  =        26.2671 
E_dihed  =        47.1646 E_impro  =         0.0000 E_vdwl   =       -21.1243 
E_coul   =         0.0000 E_long   =         0.0000 Press    =         0.6630
------------ Step          43400 ----- CPU =     2.540633 (sec) -------------
TotEng   =       190.1277 KinEng   =       104.3245 Temp     =       353.5222 
PotEng   =        85.8032 E_bond   =        33.2713 E_angle  =        29.2014 
E_dihed  =        44.1769 E_impro  =         0.0000 E_vdwl   =       -20.8464 
E_coul   =         0.0000 E_long   =         0.0000 Press    =         1.7069
------------ Step          43420 ----- CPU =     2.541775 (sec) -------------
TotEng   =       190.6715 KinEng   =       104.9082 Temp     =       355.5002 
PotEng   =        85.7634 E_bond   =        30.2818 E_angle  =        32.2958 
E_dihed  =        45.1238 E_impro  =         0.0000 E_vdwl   =       -21.9382 
E_coul   =         0.0000 E_long   =         0.0000 Press    =        -2.0079
------------ Step          43440 ----- CPU =     2.542815 (sec) -------------
TotEng   =       190.0222 KinEng   =        97.9198 Temp     =       331.8188 
PotEng   =        92.1024 E_bond   =        35.3901 E_angle  =        26.6118 
E_dihed  =        50.4737 E_impro  =         0.0000 E_vdwl   =       -20.3731 
E_coul   =         0.0000 E_long   =         0.0000 Press    =        -0.9138
------------ Step          43460 ----- CPU =     2.543867 (sec) -------------
TotEng   =       188.5051 KinEng   =        93.6673 Temp     =       317.4085 
PotEng   =        94.8378 E_bond   =        33.4375 E_angle  =        28.0402 
E_dihed  =        54.0963 E_impro  =         0.0000 E_vdwl   =       -20.7362 
E_coul   =         0.0000 E_long   =         0.0000 Press    =         1.1953
------------ Step          43480 ----- CPU =     2.545073 (sec) -------------
TotEng   =       186.9710 KinEng   =        87.6747 Temp     =       297.1015 
PotEng   =        99.2963 E_bond   =        34.1517 E_angle  =        28.9877 
E_dihed  =        56.7869 E_impro  =         0.0000 E_vdwl   =       -20.6301 
E_coul   =         0.0000 E_long   =         0.0000 Press    =        -2.1668
------------ Step          43500 ----- CPU =     2.546032 (sec) -------------
TotEng   =       185.6563 KinEng   =        88.4349 Temp     =       299.6774 
PotEng   =        97.2215 E_bond   =        36.0087 E_angle  =        25.7333 
E_dihed  =        55.9550 E_impro  =         0.0000 E_vdwl   =       -20.4755 
E_coul   =         0.0000 E_long   =         0.0000 Press    =         0.1500
------------ Step          43520 ----- CPU =     2.547169 (sec) -------------
TotEng   =       184.5316 KinEng   =        94.3856 Temp     =       319.8426 
PotEng   =        90.1460 E_bond   =        30.8527 E_angle  =        28.5780 
E_dihed  =        51.4880 E_impro  =         0.0000 E_vdwl   =       -20.7728 
E_coul   =         0.0000 E_long   =         0.0000 Press    =         1.5328
------------ Step          43540 ----- CPU =      2.54845 (sec) -------------
TotEng   =       183.1445 KinEng   =        84.5290 Temp     =       286.4417 
PotEng   =        98.6155 E_bond   =        40.6756 E_angle  =        28.5520 
E_dihed  =        51.2643 E_impro  =         0.0000 E_vdwl   =       -21.8765 
E_coul   =         0.0000 E_long   =         0.0000 Press    =        -1.9429
------------ Step          43560 ----- CPU =     2.550599 (sec) -------------
TotEng   =       181.3122 KinEng   =       100.7144 Temp     =       341.2887 
PotEng   =        80.5978 E_bond   =        28.8192 E_angle  =        25.1923 
E_dihed  =        49.1122 E_impro  =         0.0000 E_vdwl   =       -22.5259 
E_coul   =         0.0000 E_long   =         0.0000 Press    =         0.6863
------------ Step          43580 ----- CPU =     2.551659 (sec) -------------
TotEng   =       179.4267 KinEng   =        85.0778 Temp     =       288.3014 
PotEng   =        94.3489 E_bond   =        37.7232 E_angle  =        30.5785 
E_dihed  =        46.5467 E_impro  =         0.0000 E_vdwl   =       -20.4995 
E_coul   =         0.0000 E_long   =         0.0000 Press    =        -2.3405
------------ Step          43600 ----- CPU =     2.553753 (sec) -------------
TotEng   =       177.7382 KinEng   =        84.1316 Temp     =       285.0950 
PotEng   =        93.6066 E_bond   =        38.0939 E_angle  =        28.2820 
E_dihed  =        48.2071 E_impro  =         0.0000 E_vdwl   =       -20.9765 
E_coul   =         0.0000 E_long   =         0.0000 Press    =        -0.6100
------------ Step          43620 ----- CPU =     2.555332 (sec) -------------
TotEng   =       176.2633 KinEng   =        82.4319 Temp     =       279.3352 
PotEng   =        93.8314 E_bond   =        31.7125 E_angle  =        33.8131 
E_dihed  =        50.3202 E_impro  =         0.0000 E_vdwl   =       -22.0144 
E_coul   =         0.0000 E_long   =         0.0000 Press    =        -0.2245
------------ Step          43640 ----- CPU =     2.556574 (sec) -------------
TotEng   =       175.1949 KinEng   =        94.5142 Temp     =       320.2785 
PotEng   =        80.6807 E_bond   =        28.1758 E_angle  =        27.5496 
E_dihed  =        47.6731 E_impro  =         0.0000 E_vdwl   =       -22.7178 
E_coul   =         0.0000 E_long   =         0.0000 Press    =        -0.3323
------------ Step          43660 ----- CPU =     2.557661 (sec) -------------
TotEng   =       174.1840 KinEng   =        79.1889 Temp     =       268.3459 
PotEng   =        94.9951 E_bond   =        38.8938 E_angle  =        27.9334 
E_dihed  =        48.9283 E_impro  =         0.0000 E_vdwl   =       -20.7605 
E_coul   =         0.0000 E_long   =         0.0000 Press    =         2.2450
------------ Step          43680 ----- CPU =     2.558696 (sec) -------------
TotEng   =       173.2082 KinEng   =        85.2975 Temp     =       289.0458 
PotEng   =        87.9107 E_bond   =        36.9666 E_angle  =        23.2265 
E_dihed  =        48.1656 E_impro  =         0.0000 E_vdwl   =       -20.4479 
E_coul   =         0.0000 E_long   =         0.0000 Press    =         0.7268
------------ Step          43700 ----- CPU =     2.559825 (sec) -------------
TotEng   =       172.0446 KinEng   =        85.3586 Temp     =       289.2528 
PotEng   =        86.6860 E_bond   =        35.7334 E_angle  =        22.0697 
E_dihed  =        50.2556 E_impro  =         0.0000 E_vdwl   =       -21.3726 
E_coul   =         0.0000 E_long   =         0.0000 Press    =         1.4790
------------ Step          43720 ----- CPU =     2.561086 (sec) -------------
TotEng   =       170.9351 KinEng   =        77.9851 Temp     =       264.2665 
PotEng   =        92.9500 E_bond   =        36.6872 E_angle  =        23.0636 
E_dihed  =        54.1477 E_impro  =         0.0000 E_vdwl   =       -20.9484 
E_coul   =         0.0000 E_long   =         0.0000 Press    =        -0.6983
------------ Step          43740 ----- CPU =     2.562193 (sec) -------------
TotEng   =       169.8061 KinEng   =        78.8366 Temp     =       267.1521 
PotEng   =        90.9695 E_bond   =        34.7903 E_angle  =        23.6574 
E_dihed  =        52.8177 E_impro  =         0.0000 E_vdwl   =       -20.2959 
E_coul   =         0.0000 E_long   =         0.0000 Press    =         1.4039
------------ Step          43760 ----- CPU =     2.563241 (sec) -------------
TotEng   =       168.5240 KinEng   =        84.3951 Temp     =       285.9881 
PotEng   =        84.1289 E_bond   =        34.2237 E_angle  =        24.1772 
E_dihed  =        47.5046 E_impro  =         0.0000 E_vdwl   =       -21.7766 
E_coul   =         0.0000 E_long   =         0.0000 Press    =         3.0395
------------ Step          43780 ----- CPU =     2.564357 (sec) -------------
TotEng   =       167.0254 KinEng   =        73.1927 Temp     =       248.0266 
PotEng   =        93.8327 E_bond   =        39.3900 E_angle  =        26.5265 
E_dihed  =        48.3104 E_impro  =         0.0000 E_vdwl   =       -20.3944 
E_coul   =         0.0000 E_long   =         0.0000 Press    =         0.3426
------------ Step          43800 ----- CPU =     2.565565 (sec) -------------
TotEng   =       165.4618 KinEng   =        80.1958 Temp     =       271.7579 
PotEng   =        85.2660 E_bond   =        31.8484 E_angle  =        25.4866 
E_dihed  =        50.3379 E_impro  =         0.0000 E_vdwl   =       -22.4069 
E_coul   =         0.0000 E_long   =         0.0000 Press    =         3.6282
------------ Step          43820 ----- CPU =     2.567368 (sec) -------------
TotEng   =       164.4993 KinEng   =        84.5053 Temp     =       286.3613 
PotEng   =        79.9940 E_bond   =        27.6172 E_angle  =        24.0049 
E_dihed  =        50.0537 E_impro  =         0.0000 E_vdwl   =       -21.6818 
E_coul   =         0.0000 E_long   =         0.0000 Press    =        -0.5481
------------ Step          43840 ----- CPU =     2.568423 (sec) -------------
TotEng   =       164.1158 KinEng   =        79.4346 Temp     =       269.1785 
PotEng   =        84.6812 E_bond   =        37.3458 E_angle  =        19.2562 
E_dihed  =        51.6800 E_impro  =         0.0000 E_vdwl   =       -23.6009 
E_coul   =         0.0000 E_long   =         0.0000 Press    =        -1.7051
------------ Step          43860 ----- CPU =     2.569564 (sec) -------------
TotEng   =       164.2069 KinEng   =        80.2199 Temp     =       271.8394 
PotEng   =        83.9870 E_bond   =        33.5042 E_angle  =        26.9107 
E_dihed  =        47.3988 E_impro  =         0.0000 E_vdwl   =       -23.8266 
E_coul   =         0.0000 E_long   =         0.0000 Press    =         1.9771
------------ Step          43880 ----- CPU =     2.572712 (sec) -------------
TotEng   =       164.8987 KinEng   =        80.1395 Temp     =       271.5670 
PotEng   =        84.7592 E_bond   =        32.8315 E_angle  =        28.2415 
E_dihed  =        44.5247 E_impro  =         0.0000 E_vdwl   =       -20.8385 
E_coul   =         0.0000 E_long   =         0.0000 Press    =        -2.4584
------------ Step          43900 ----- CPU =     2.574249 (sec) -------------
TotEng   =       166.3554 KinEng   =        83.1806 Temp     =       281.8723 
PotEng   =        83.1748 E_bond   =        34.3950 E_angle  =        27.4845 
E_dihed  =        44.7608 E_impro  =         0.0000 E_vdwl   =       -23.4656 
E_coul   =         0.0000 E_long   =         0.0000 Press    =         3.1915
------------ Step          43920 ----- CPU =     2.575387 (sec) -------------
TotEng   =       168.2773 KinEng   =        83.4925 Temp     =       282.9294 
PotEng   =        84.7848 E_bond   =        33.7196 E_angle  =        26.9350 
E_dihed  =        46.6883 E_impro  =         0.0000 E_vdwl   =       -22.5581 
E_coul   =         0.0000 E_long   =         0.0000 Press    =         1.1758
------------ Step          43940 ----- CPU =     2.576439 (sec) -------------
TotEng   =       170.6665 KinEng   =        85.8027 Temp     =       290.7580 
PotEng   =        84.8638 E_bond   =        30.9407 E_angle  =        28.1892 
E_dihed  =        48.4751 E_impro  =         0.0000 E_vdwl   =       -22.7413 
E_coul   =         0.0000 E_long   =         0.0000 Press    =        -0.8364
------------ Step          43960 ----- CPU =     2.577492 (sec) -------------
TotEng   =       173.2846 KinEng   =        86.0334 Temp     =       291.5396 
PotEng   =        87.2512 E_bond   =        37.7566 E_angle  =        23.2007 
E_dihed  =        47.5328 E_impro  =         0.0000 E_vdwl   =       -21.2390 
E_coul   =         0.0000 E_long   =         0.0000 Press    =         0.2409
------------ Step          43980 ----- CPU =     2.578549 (sec) -------------
TotEng   =       176.1181 KinEng   =        96.0586 Temp     =       325.5118 
PotEng   =        80.0595 E_bond   =        35.1931 E_angle  =        26.4083 
E_dihed  =        41.0903 E_impro  =         0.0000 E_vdwl   =       -22.6322 
E_coul   =         0.0000 E_long   =         0.0000 Press    =        -2.2077
------------ Step          44000 ----- CPU =     2.579831 (sec) -------------
TotEng   =       178.4613 KinEng   =       102.2482 Temp     =       346.4863 
PotEng   =        76.2132 E_bond   =        36.3487 E_angle  =        23.9663 
E_dihed  =        39.9187 E_impro  =         0.0000 E_vdwl   =       -24.0205 
E_coul   =         0.0000 E_long   =         0.0000 Press    =        -1.0353
------------ Step          44020 ----- CPU =     2.581097 (sec) -------------
TotEng   =       179.5926 KinEng   =        99.0138 Temp     =       335.5261 
PotEng   =        80.5788 E_bond   =        32.1912 E_angle  =        25.7857 
E_dihed  =        44.7916 E_impro  =         0.0000 E_vdwl   =       -22.1897 
E_coul   =         0.0000 E_long   =         0.0000 Press    =        -2.2454
------------ Step          44040 ----- CPU =      2.58229 (sec) -------------
TotEng   =       179.9865 KinEng   =        86.8225 Temp     =       294.2136 
PotEng   =        93.1640 E_bond   =        40.2726 E_angle  =        24.9596 
E_dihed  =        50.4759 E_impro  =         0.0000 E_vdwl   =       -22.5442 
E_coul   =         0.0000 E_long   =         0.0000 Press    =         2.0932
------------ Step          44060 ----- CPU =     2.583539 (sec) -------------
TotEng   =       180.1510 KinEng   =        96.3793 Temp     =       326.5987 
PotEng   =        83.7717 E_bond   =        28.3784 E_angle  =        25.6741 
E_dihed  =        52.8126 E_impro  =         0.0000 E_vdwl   =       -23.0935 
E_coul   =         0.0000 E_long   =         0.0000 Press    =         0.1291
------------ Step          44080 ----- CPU =     2.584595 (sec) -------------
TotEng   =       180.3810 KinEng   =        95.9966 Temp     =       325.3016 
PotEng   =        84.3844 E_bond   =        32.9398 E_angle  =        21.6042 
E_dihed  =        52.7879 E_impro  =         0.0000 E_vdwl   =       -22.9474 
E_coul   =         0.0000 E_long   =         0.0000 Press    =        -3.3405
------------ Step          44100 ----- CPU =     2.587873 (sec) -------------
TotEng   =       180.1289 KinEng   =        93.6003 Temp     =       317.1814 
PotEng   =        86.5286 E_bond   =        32.7905 E_angle  =        28.3953 
E_dihed  =        50.0605 E_impro  =         0.0000 E_vdwl   =       -24.7176 
E_coul   =         0.0000 E_long   =         0.0000 Press    =         2.5959
------------ Step          44120 ----- CPU =      2.58968 (sec) -------------
TotEng   =       179.4256 KinEng   =        90.7358 Temp     =       307.4745 
PotEng   =        88.6898 E_bond   =        38.7288 E_angle  =        27.3897 
E_dihed  =        45.8491 E_impro  =         0.0000 E_vdwl   =       -23.2779 
E_coul   =         0.0000 E_long   =         0.0000 Press    =        -0.7946
------------ Step          44140 ----- CPU =      2.59087 (sec) -------------
TotEng   =       178.2220 KinEng   =        93.8288 Temp     =       317.9557 
PotEng   =        84.3932 E_bond   =        37.0483 E_angle  =        23.3294 
E_dihed  =        47.7892 E_impro  =         0.0000 E_vdwl   =       -23.7736 
E_coul   =         0.0000 E_long   =         0.0000 Press    =         0.3427
------------ Step          44160 ----- CPU =     2.592043 (sec) -------------
TotEng   =       176.6565 KinEng   =        83.4433 Temp     =       282.7626 
PotEng   =        93.2132 E_bond   =        39.9261 E_angle  =        25.3429 
E_dihed  =        51.7321 E_impro  =         0.0000 E_vdwl   =       -23.7879 
E_coul   =         0.0000 E_long   =         0.0000 Press    =         1.7966
------------ Step          44180 ----- CPU =     2.593058 (sec) -------------
TotEng   =       174.8778 KinEng   =        85.3525 Temp     =       289.2323 
PotEng   =        89.5253 E_bond   =        36.9684 E_angle  =        30.0457 
E_dihed  =        45.8126 E_impro  =         0.0000 E_vdwl   =       -23.3015 
E_coul   =         0.0000 E_long   =         0.0000 Press    =        -1.3364
------------ Step          44200 ----- CPU =     2.594131 (sec) -------------
TotEng   =       172.6945 KinEng   =        92.9889 Temp     =       315.1095 
PotEng   =        79.7056 E_bond   =        32.8204 E_angle  =        26.2924 
E_dihed  =        41.9820 E_impro  =         0.0000 E_vdwl   =       -21.3892 
E_coul   =         0.0000 E_long   =         0.0000 Press    =         0.5260
------------ Step          44220 ----- CPU =     2.595262 (sec) -------------
TotEng   =       169.7365 KinEng   =        98.2935 Temp     =       333.0853 
PotEng   =        71.4429 E_bond   =        30.0860 E_angle  =        23.5882 
E_dihed  =        41.4014 E_impro  =         0.0000 E_vdwl   =       -23.6327 
E_coul   =         0.0000 E_long   =         0.0000 Press    =         1.9800
------------ Step          44240 ----- CPU =     2.596279 (sec) -------------
TotEng   =       165.9831 KinEng   =        86.0140 Temp     =       291.4740 
PotEng   =        79.9691 E_bond   =        36.3181 E_angle  =        25.0985 
E_dihed  =        43.3337 E_impro  =         0.0000 E_vdwl   =       -24.7812 
E_coul   =         0.0000 E_long   =         0.0000 Press    =         1.8741
------------ Step          44260 ----- CPU =     2.597592 (sec) -------------
TotEng   =       162.0067 KinEng   =        82.2159 Temp     =       278.6035 
PotEng   =        79.7908 E_bond   =        38.3066 E_angle  =        18.8638 
E_dihed  =        47.7999 E_impro  =         0.0000 E_vdwl   =       -25.1796 
E_coul   =         0.0000 E_long   =         0.0000 Press    =        -0.7206
------------ Step          44280 ----- CPU =     2.598786 (sec) -------------
TotEng   =       158.5140 KinEng   =        83.0701 Temp     =       281.4980 
PotEng   =        75.4439 E_bond   =        28.1679 E_angle  =        25.8609 
E_dihed  =        46.8700 E_impro  =         0.0000 E_vdwl   =       -25.4549 
E_coul   =         0.0000 E_long   =         0.0000 Press    =         0.0318
------------ Step          44300 ----- CPU =     2.600032 (sec) -------------
TotEng   =       155.9828 KinEng   =        84.1417 Temp     =       285.1293 
PotEng   =        71.8410 E_bond   =        30.1141 E_angle  =        24.2816 
E_dihed  =        43.3832 E_impro  =         0.0000 E_vdwl   =       -25.9379 
E_coul   =         0.0000 E_long   =         0.0000 Press    =        -1.6007
------------ Step          44320 ----- CPU =     2.601286 (sec) -------------
TotEng   =       154.4519 KinEng   =        81.1355 Temp     =       274.9423 
PotEng   =        73.3164 E_bond   =        31.9674 E_angle  =        23.7154 
E_dihed  =        42.4977 E_impro  =         0.0000 E_vdwl   =       -24.8640 
E_coul   =         0.0000 E_long   =         0.0000 Press    =        -2.5213
------------ Step          44340 ----- CPU =     2.603728 (sec) -------------
TotEng   =       153.6577 KinEng   =        76.4522 Temp     =       259.0719 
PotEng   =        77.2056 E_bond   =        36.0202 E_angle  =        23.8830 
E_dihed  =        42.6321 E_impro  =         0.0000 E_vdwl   =       -25.3297 
E_coul   =         0.0000 E_long   =         0.0000 Press    =        -0.6045
------------ Step          44360 ----- CPU =     2.605897 (sec) -------------
TotEng   =       153.4303 KinEng   =        76.0278 Temp     =       257.6340 
PotEng   =        77.4025 E_bond   =        31.7209 E_angle  =        24.4098 
E_dihed  =        45.6605 E_impro  =         0.0000 E_vdwl   =       -24.3887 
E_coul   =         0.0000 E_long   =         0.0000 Press    =        -0.6532
------------ Step          44380 ----- CPU =     2.607061 (sec) -------------
TotEng   =       154.1258 KinEng   =        75.7539 Temp     =       256.7058 
PotEng   =        78.3719 E_bond   =        29.6855 E_angle  =        27.0272 
E_dihed  =        47.4712 E_impro  =         0.0000 E_vdwl   =       -25.8120 
E_coul   =         0.0000 E_long   =         0.0000 Press    =        -0.5904
------------ Step          44400 ----- CPU =     2.607954 (sec) -------------
TotEng   =       155.6302 KinEng   =        76.5857 Temp     =       259.5245 
PotEng   =        79.0444 E_bond   =        35.4671 E_angle  =        22.5093 
E_dihed  =        46.3675 E_impro  =         0.0000 E_vdwl   =       -25.2995 
E_coul   =         0.0000 E_long   =         0.0000 Press    =         0.7703
------------ Step          44420 ----- CPU =     2.609099 (sec) -------------
TotEng   =       157.5567 KinEng   =        81.0157 Temp     =       274.5361 
PotEng   =        76.5410 E_bond   =        30.4410 E_angle  =        26.0389 
E_dihed  =        45.9542 E_impro  =         0.0000 E_vdwl   =       -25.8932 
E_coul   =         0.0000 E_long   =         0.0000 Press    =         2.6704
------------ Step          44440 ----- CPU =     2.610096 (sec) -------------
TotEng   =       159.8949 KinEng   =        79.7843 Temp     =       270.3633 
PotEng   =        80.1106 E_bond   =        37.6594 E_angle  =        24.5207 
E_dihed  =        45.3262 E_impro  =         0.0000 E_vdwl   =       -27.3957 
E_coul   =         0.0000 E_long   =         0.0000 Press    =        -2.3172
------------ Step          44460 ----- CPU =     2.611163 (sec) -------------
TotEng   =       161.9822 KinEng   =        85.0573 Temp     =       288.2319 
PotEng   =        76.9249 E_bond   =        34.2159 E_angle  =        21.8750 
E_dihed  =        46.3301 E_impro  =         0.0000 E_vdwl   =       -25.4961 
E_coul   =         0.0000 E_long   =         0.0000 Press    =         1.9607
------------ Step          44480 ----- CPU =     2.612514 (sec) -------------
TotEng   =       163.7107 KinEng   =        88.5983 Temp     =       300.2312 
PotEng   =        75.1124 E_bond   =        30.3008 E_angle  =        22.7883 
E_dihed  =        49.5993 E_impro  =         0.0000 E_vdwl   =       -27.5760 
E_coul   =         0.0000 E_long   =         0.0000 Press    =        -0.1837
------------ Step          44500 ----- CPU =     2.613494 (sec) -------------
TotEng   =       165.3515 KinEng   =        80.8706 Temp     =       274.0445 
PotEng   =        84.4809 E_bond   =        35.3798 E_angle  =        26.9409 
E_dihed  =        49.5385 E_impro  =         0.0000 E_vdwl   =       -27.3782 
E_coul   =         0.0000 E_long   =         0.0000 Press    =        -4.4147
------------ Step          44520 ----- CPU =     2.614717 (sec) -------------
TotEng   =       166.9752 KinEng   =        84.5354 Temp     =       286.4634 
PotEng   =        82.4398 E_bond   =        37.9515 E_angle  =        23.8162 
E_dihed  =        46.5607 E_impro  =         0.0000 E_vdwl   =       -25.8886 
E_coul   =         0.0000 E_long   =         0.0000 Press    =         2.3573
------------ Step          44540 ----- CPU =     2.615789 (sec) -------------
TotEng   =       168.1836 KinEng   =        88.1033 Temp     =       298.5537 
PotEng   =        80.0803 E_bond   =        32.7282 E_angle  =        28.2422 
E_dihed  =        45.8810 E_impro  =         0.0000 E_vdwl   =       -26.7711 
E_coul   =         0.0000 E_long   =         0.0000 Press    =        -1.5711
------------ Step          44560 ----- CPU =     2.617558 (sec) -------------
TotEng   =       169.2704 KinEng   =        89.9066 Temp     =       304.6647 
PotEng   =        79.3638 E_bond   =        31.2920 E_angle  =        27.4084 
E_dihed  =        46.6974 E_impro  =         0.0000 E_vdwl   =       -26.0340 
E_coul   =         0.0000 E_long   =         0.0000 Press    =         0.2187
------------ Step          44580 ----- CPU =      2.61862 (sec) -------------
TotEng   =       170.1205 KinEng   =        87.8851 Temp     =       297.8145 
PotEng   =        82.2354 E_bond   =        32.1504 E_angle  =        30.3409 
E_dihed  =        47.9139 E_impro  =         0.0000 E_vdwl   =       -28.1698 
E_coul   =         0.0000 E_long   =         0.0000 Press    =         3.1248
------------ Step          44600 ----- CPU =     2.619654 (sec) -------------
TotEng   =       170.8868 KinEng   =        90.8039 Temp     =       307.7053 
PotEng   =        80.0829 E_bond   =        29.6131 E_angle  =        30.9879 
E_dihed  =        44.3242 E_impro  =         0.0000 E_vdwl   =       -24.8423 
E_coul   =         0.0000 E_long   =         0.0000 Press    =        -2.1975
------------ Step          44620 ----- CPU =     2.620883 (sec) -------------
TotEng   =       171.6984 KinEng   =        81.3001 Temp     =       275.5000 
PotEng   =        90.3983 E_bond   =        35.2861 E_angle  =        39.1790 
E_dihed  =        41.3997 E_impro  =         0.0000 E_vdwl   =       -25.4665 
E_coul   =         0.0000 E_long   =         0.0000 Press    =         3.7331
------------ Step          44640 ----- CPU =     2.623182 (sec) -------------
TotEng   =       172.5167 KinEng   =        90.4032 Temp     =       306.3475 
PotEng   =        82.1135 E_bond   =        32.3666 E_angle  =        34.4304 
E_dihed  =        38.9694 E_impro  =         0.0000 E_vdwl   =       -23.6528 
E_coul   =         0.0000 E_long   =         0.0000 Press    =         2.1475
------------ Step          44660 ----- CPU =     2.625184 (sec) -------------
TotEng   =       173.2383 KinEng   =        94.7335 Temp     =       321.0215 
PotEng   =        78.5048 E_bond   =        33.4325 E_angle  =        28.3580 
E_dihed  =        43.0382 E_impro  =         0.0000 E_vdwl   =       -26.3239 
E_coul   =         0.0000 E_long   =         0.0000 Press    =        -2.5379
------------ Step          44680 ----- CPU =     2.626224 (sec) -------------
TotEng   =       173.8362 KinEng   =        95.0465 Temp     =       322.0822 
PotEng   =        78.7896 E_bond   =        31.2600 E_angle  =        27.8954 
E_dihed  =        46.2265 E_impro  =         0.0000 E_vdwl   =       -26.5923 
E_coul   =         0.0000 E_long   =         0.0000 Press    =         2.5454
------------ Step          44700 ----- CPU =     2.627695 (sec) -------------
TotEng   =       174.2964 KinEng   =        85.1280 Temp     =       288.4716 
PotEng   =        89.1683 E_bond   =        36.5278 E_angle  =        35.8964 
E_dihed  =        44.5944 E_impro  =         0.0000 E_vdwl   =       -27.8502 
E_coul   =         0.0000 E_long   =         0.0000 Press    =        -2.2577
------------ Step          44720 ----- CPU =     2.628832 (sec) -------------
TotEng   =       174.2782 KinEng   =        94.3576 Temp     =       319.7478 
PotEng   =        79.9206 E_bond   =        34.9040 E_angle  =        28.6940 
E_dihed  =        44.5840 E_impro  =         0.0000 E_vdwl   =       -28.2615 
E_coul   =         0.0000 E_long   =         0.0000 Press    =        -1.6727
------------ Step          44740 ----- CPU =     2.629931 (sec) -------------
TotEng   =       173.6878 KinEng   =        89.8939 Temp     =       304.6217 
PotEng   =        83.7939 E_bond   =        33.0018 E_angle  =        26.7767 
E_dihed  =        49.0386 E_impro  =         0.0000 E_vdwl   =       -25.0232 
E_coul   =         0.0000 E_long   =         0.0000 Press    =        -0.4457
------------ Step          44760 ----- CPU =     2.631102 (sec) -------------
TotEng   =       173.1716 KinEng   =        86.9303 Temp     =       294.5791 
PotEng   =        86.2413 E_bond   =        39.5804 E_angle  =        25.1954 
E_dihed  =        49.6205 E_impro  =         0.0000 E_vdwl   =       -28.1549 
E_coul   =         0.0000 E_long   =         0.0000 Press    =        -1.0065
------------ Step          44780 ----- CPU =     2.634129 (sec) -------------
TotEng   =       172.4157 KinEng   =        87.6099 Temp     =       296.8820 
PotEng   =        84.8058 E_bond   =        28.4607 E_angle  =        31.7116 
E_dihed  =        51.7382 E_impro  =         0.0000 E_vdwl   =       -27.1047 
E_coul   =         0.0000 E_long   =         0.0000 Press    =         0.3361
------------ Step          44800 ----- CPU =     2.635362 (sec) -------------
TotEng   =       171.4289 KinEng   =        92.9199 Temp     =       314.8757 
PotEng   =        78.5090 E_bond   =        33.6296 E_angle  =        21.3308 
E_dihed  =        51.0128 E_impro  =         0.0000 E_vdwl   =       -27.4642 
E_coul   =         0.0000 E_long   =         0.0000 Press    =        -0.6543
------------ Step          44820 ----- CPU =     2.636709 (sec) -------------
TotEng   =       169.6314 KinEng   =        87.6046 Temp     =       296.8637 
PotEng   =        82.0269 E_bond   =        34.1541 E_angle  =        22.6405 
E_dihed  =        51.2092 E_impro  =         0.0000 E_vdwl   =       -25.9769 
E_coul   =         0.0000 E_long   =         0.0000 Press    =         1.1860
------------ Step          44840 ----- CPU =      2.64054 (sec) -------------
TotEng   =       166.9549 KinEng   =        92.2285 Temp     =       312.5327 
PotEng   =        74.7265 E_bond   =        31.4498 E_angle  =        22.1535 
E_dihed  =        48.3805 E_impro  =         0.0000 E_vdwl   =       -27.2573 
E_coul   =         0.0000 E_long   =         0.0000 Press    =        -0.1403
------------ Step          44860 ----- CPU =     2.643601 (sec) -------------
TotEng   =       163.6630 KinEng   =        83.3358 Temp     =       282.3982 
PotEng   =        80.3272 E_bond   =        32.8168 E_angle  =        24.6555 
E_dihed  =        49.0111 E_impro  =         0.0000 E_vdwl   =       -26.1561 
E_coul   =         0.0000 E_long   =         0.0000 Press    =        -0.5290
------------ Step          44880 ----- CPU =     2.644906 (sec) -------------
TotEng   =       160.2186 KinEng   =        79.9987 Temp     =       271.0898 
PotEng   =        80.2200 E_bond   =        31.7709 E_angle  =        26.3127 
E_dihed  =        47.5305 E_impro  =         0.0000 E_vdwl   =       -25.3941 
E_coul   =         0.0000 E_long   =         0.0000 Press    =         0.7411
------------ Step          44900 ----- CPU =     2.645911 (sec) -------------
TotEng   =       156.8974 KinEng   =        86.3549 Temp     =       292.6291 
PotEng   =        70.5425 E_bond   =        27.9986 E_angle  =        24.6299 
E_dihed  =        45.0455 E_impro  =         0.0000 E_vdwl   =       -27.1315 
E_coul   =         0.0000 E_long   =         0.0000 Press    =        -0.6454
------------ Step          44920 ----- CPU =     2.646984 (sec) -------------
TotEng   =       153.9036 KinEng   =        79.0681 Temp     =       267.9366 
PotEng   =        74.8355 E_bond   =        31.1583 E_angle  =        24.7827 
E_dihed  =        44.8687 E_impro  =         0.0000 E_vdwl   =       -25.9742 
E_coul   =         0.0000 E_long   =         0.0000 Press    =        -0.0871
------------ Step          44940 ----- CPU =     2.650571 (sec) -------------
TotEng   =       151.7115 KinEng   =        78.0108 Temp     =       264.3537 
PotEng   =        73.7007 E_bond   =        33.0484 E_angle  =        24.5289 
E_dihed  =        42.0804 E_impro  =         0.0000 E_vdwl   =       -25.9569 
E_coul   =         0.0000 E_long   =         0.0000 Press    =         1.4827
------------ Step          44960 ----- CPU =     2.652141 (sec) -------------
TotEng   =       150.2576 KinEng   =        75.0976 Temp     =       254.4816 
PotEng   =        75.1600 E_bond   =        30.9297 E_angle  =        24.8303 
E_dihed  =        42.0995 E_impro  =         0.0000 E_vdwl   =       -22.6995 
E_coul   =         0.0000 E_long   =         0.0000 Press    =         0.7858
------------ Step          44980 ----- CPU =     2.656346 (sec) -------------
TotEng   =       149.5773 KinEng   =        81.0530 Temp     =       274.6627 
PotEng   =        68.5243 E_bond   =        30.3337 E_angle  =        18.3288 
E_dihed  =        43.4719 E_impro  =         0.0000 E_vdwl   =       -23.6102 
E_coul   =         0.0000 E_long   =         0.0000 Press    =         0.0453
------------ Step          45000 ----- CPU =      2.65839 (sec) -------------
TotEng   =       149.5095 KinEng   =        82.2564 Temp     =       278.7406 
PotEng   =        67.2531 E_bond   =        26.3844 E_angle  =        21.2914 
E_dihed  =        43.1903 E_impro  =         0.0000 E_vdwl   =       -23.6129 
E_coul   =         0.0000 E_long   =         0.0000 Press    =        -0.5291
------------ Step          45020 ----- CPU =     2.659679 (sec) -------------
TotEng   =       150.1653 KinEng   =        72.2163 Temp     =       244.7179 
PotEng   =        77.9490 E_bond   =        33.3525 E_angle  =        25.3462 
E_dihed  =        42.8176 E_impro  =         0.0000 E_vdwl   =       -23.5672 
E_coul   =         0.0000 E_long   =         0.0000 Press    =        -1.2103
------------ Step          45040 ----- CPU =     2.660707 (sec) -------------
TotEng   =       151.4244 KinEng   =        77.1069 Temp     =       261.2906 
PotEng   =        74.3175 E_bond   =        29.7292 E_angle  =        25.4165 
E_dihed  =        42.4133 E_impro  =         0.0000 E_vdwl   =       -23.2414 
E_coul   =         0.0000 E_long   =         0.0000 Press    =        -1.1617
------------ Step          45060 ----- CPU =     2.661755 (sec) -------------
TotEng   =       153.7444 KinEng   =        86.2944 Temp     =       292.4242 
PotEng   =        67.4499 E_bond   =        24.2209 E_angle  =        27.3724 
E_dihed  =        41.3460 E_impro  =         0.0000 E_vdwl   =       -25.4894 
E_coul   =         0.0000 E_long   =         0.0000 Press    =         1.8096
------------ Step          45080 ----- CPU =     2.663007 (sec) -------------
TotEng   =       157.0150 KinEng   =        81.3073 Temp     =       275.5245 
PotEng   =        75.7077 E_bond   =        26.5773 E_angle  =        33.2344 
E_dihed  =        42.3883 E_impro  =         0.0000 E_vdwl   =       -26.4924 
E_coul   =         0.0000 E_long   =         0.0000 Press    =         1.3195
------------ Step          45100 ----- CPU =     2.663963 (sec) -------------
TotEng   =       160.8153 KinEng   =        76.1353 Temp     =       257.9980 
PotEng   =        84.6801 E_bond   =        36.1930 E_angle  =        28.2995 
E_dihed  =        45.6782 E_impro  =         0.0000 E_vdwl   =       -25.4906 
E_coul   =         0.0000 E_long   =         0.0000 Press    =        -0.5501
------------ Step          45120 ----- CPU =      2.66516 (sec) -------------
TotEng   =       164.7973 KinEng   =        85.2659 Temp     =       288.9387 
PotEng   =        79.5315 E_bond   =        32.5949 E_angle  =        26.5007 
E_dihed  =        48.5552 E_impro  =         0.0000 E_vdwl   =       -28.1193 
E_coul   =         0.0000 E_long   =         0.0000 Press    =         0.5167
------------ Step          45140 ----- CPU =     2.666388 (sec) -------------
TotEng   =       167.9660 KinEng   =        84.9613 Temp     =       287.9066 
PotEng   =        83.0047 E_bond   =        30.9664 E_angle  =        30.0429 
E_dihed  =        48.9855 E_impro  =         0.0000 E_vdwl   =       -26.9900 
E_coul   =         0.0000 E_long   =         0.0000 Press    =         0.5662
------------ Step          45160 ----- CPU =     2.669059 (sec) -------------
TotEng   =       170.3872 KinEng   =        88.6859 Temp     =       300.5280 
PotEng   =        81.7013 E_bond   =        37.2228 E_angle  =        24.8656 
E_dihed  =        46.1698 E_impro  =         0.0000 E_vdwl   =       -26.5569 
E_coul   =         0.0000 E_long   =         0.0000 Press    =        -0.7216
------------ Step          45180 ----- CPU =     2.671112 (sec) -------------
TotEng   =       171.9167 KinEng   =        90.1438 Temp     =       305.4683 
PotEng   =        81.7730 E_bond   =        33.9062 E_angle  =        27.5402 
E_dihed  =        45.2617 E_impro  =         0.0000 E_vdwl   =       -24.9350 
E_coul   =         0.0000 E_long   =         0.0000 Press    =         0.4311
------------ Step          45200 ----- CPU =      2.67252 (sec) -------------
TotEng   =       172.8859 KinEng   =        79.7592 Temp     =       270.2783 
PotEng   =        93.1268 E_bond   =        44.6141 E_angle  =        26.7192 
E_dihed  =        47.4195 E_impro  =         0.0000 E_vdwl   =       -25.6260 
E_coul   =         0.0000 E_long   =         0.0000 Press    =         0.2699
------------ Step          45220 ----- CPU =     2.673736 (sec) -------------
TotEng   =       173.4749 KinEng   =        87.9603 Temp     =       298.0691 
PotEng   =        85.5147 E_bond   =        36.7192 E_angle  =        25.5221 
E_dihed  =        48.9093 E_impro  =         0.0000 E_vdwl   =       -25.6359 
E_coul   =         0.0000 E_long   =         0.0000 Press    =        -0.6668
------------ Step          45240 ----- CPU =     2.675467 (sec) -------------
TotEng   =       174.0295 KinEng   =        89.3123 Temp     =       302.6508 
PotEng   =        84.7172 E_bond   =        30.8745 E_angle  =        31.6247 
E_dihed  =        47.3708 E_impro  =         0.0000 E_vdwl   =       -25.1528 
E_coul   =         0.0000 E_long   =         0.0000 Press    =        -1.8617
------------ Step          45260 ----- CPU =     2.676464 (sec) -------------
TotEng   =       174.6777 KinEng   =        90.7544 Temp     =       307.5375 
PotEng   =        83.9233 E_bond   =        32.3619 E_angle  =        31.9845 
E_dihed  =        45.1524 E_impro  =         0.0000 E_vdwl   =       -25.5754 
E_coul   =         0.0000 E_long   =         0.0000 Press    =        -0.1323
------------ Step          45280 ----- CPU =     2.677504 (sec) -------------
TotEng   =       175.5762 KinEng   =        91.6163 Temp     =       310.4583 
PotEng   =        83.9598 E_bond   =        40.5901 E_angle  =        24.9178 
E_dihed  =        44.0930 E_impro  =         0.0000 E_vdwl   =       -25.6410 
E_coul   =         0.0000 E_long   =         0.0000 Press    =        -2.3589
------------ Step          45300 ----- CPU =     2.678525 (sec) -------------
TotEng   =       175.8948 KinEng   =        84.4041 Temp     =       286.0186 
PotEng   =        91.4906 E_bond   =        36.1775 E_angle  =        33.2674 
E_dihed  =        45.7381 E_impro  =         0.0000 E_vdwl   =       -23.6924 
E_coul   =         0.0000 E_long   =         0.0000 Press    =        -0.0336
------------ Step          45320 ----- CPU =     2.679662 (sec) -------------
TotEng   =       176.2580 KinEng   =       100.3776 Temp     =       340.1475 
PotEng   =        75.8804 E_bond   =        33.1996 E_angle  =        26.2351 
E_dihed  =        43.3752 E_impro  =         0.0000 E_vdwl   =       -26.9294 
E_coul   =         0.0000 E_long   =         0.0000 Press    =        -0.7677
------------ Step          45340 ----- CPU =     2.681132 (sec) -------------
TotEng   =       176.3303 KinEng   =        92.0855 Temp     =       312.0482 
PotEng   =        84.2448 E_bond   =        33.6453 E_angle  =        31.3721 
E_dihed  =        47.2835 E_impro  =         0.0000 E_vdwl   =       -28.0561 
E_coul   =         0.0000 E_long   =         0.0000 Press    =        -1.7377
------------ Step          45360 ----- CPU =       2.6827 (sec) -------------
TotEng   =       176.1178 KinEng   =        89.6554 Temp     =       303.8133 
PotEng   =        86.4624 E_bond   =        32.0699 E_angle  =        28.2950 
E_dihed  =        50.5835 E_impro  =         0.0000 E_vdwl   =       -24.4859 
E_coul   =         0.0000 E_long   =         0.0000 Press    =         4.5368
------------ Step          45380 ----- CPU =     2.683795 (sec) -------------
TotEng   =       175.9417 KinEng   =        87.5695 Temp     =       296.7451 
PotEng   =        88.3721 E_bond   =        42.9927 E_angle  =        24.5848 
E_dihed  =        45.3093 E_impro  =         0.0000 E_vdwl   =       -24.5147 
E_coul   =         0.0000 E_long   =         0.0000 Press    =        -0.5326
------------ Step          45400 ----- CPU =      2.68484 (sec) -------------
TotEng   =       175.2126 KinEng   =        93.5109 Temp     =       316.8785 
PotEng   =        81.7017 E_bond   =        32.1374 E_angle  =        32.1092 
E_dihed  =        42.2719 E_impro  =         0.0000 E_vdwl   =       -24.8168 
E_coul   =         0.0000 E_long   =         0.0000 Press    =        -1.1010
------------ Step          45420 ----- CPU =     2.687502 (sec) -------------
TotEng   =       174.3204 KinEng   =        86.6988 Temp     =       293.7946 
PotEng   =        87.6216 E_bond   =        36.9365 E_angle  =        28.6281 
E_dihed  =        45.3608 E_impro  =         0.0000 E_vdwl   =       -23.3038 
E_coul   =         0.0000 E_long   =         0.0000 Press    =         0.6313
------------ Step          45440 ----- CPU =     2.689039 (sec) -------------
TotEng   =       173.3481 KinEng   =        84.6309 Temp     =       286.7869 
PotEng   =        88.7173 E_bond   =        38.9984 E_angle  =        29.6212 
E_dihed  =        44.7970 E_impro  =         0.0000 E_vdwl   =       -24.6993 
E_coul   =         0.0000 E_long   =         0.0000 Press    =        -4.7259
------------ Step          45460 ----- CPU =     2.690107 (sec) -------------
TotEng   =       172.1059 KinEng   =        96.1966 Temp     =       325.9795 
PotEng   =        75.9093 E_bond   =        32.3122 E_angle  =        25.5483 
E_dihed  =        43.5975 E_impro  =         0.0000 E_vdwl   =       -25.5487 
E_coul   =         0.0000 E_long   =         0.0000 Press    =         0.4117
------------ Step          45480 ----- CPU =     2.691111 (sec) -------------
TotEng   =       170.3425 KinEng   =        87.7026 Temp     =       297.1959 
PotEng   =        82.6399 E_bond   =        37.3632 E_angle  =        27.6437 
E_dihed  =        43.0332 E_impro  =         0.0000 E_vdwl   =       -25.4002 
E_coul   =         0.0000 E_long   =         0.0000 Press    =         2.1626
------------ Step          45500 ----- CPU =     2.692134 (sec) -------------
TotEng   =       167.9476 KinEng   =        81.4859 Temp     =       276.1296 
PotEng   =        86.4617 E_bond   =        39.5688 E_angle  =        27.3129 
E_dihed  =        45.5003 E_impro  =         0.0000 E_vdwl   =       -25.9202 
E_coul   =         0.0000 E_long   =         0.0000 Press    =        -0.9613
------------ Step          45520 ----- CPU =     2.693584 (sec) -------------
TotEng   =       165.6101 KinEng   =        83.0018 Temp     =       281.2665 
PotEng   =        82.6083 E_bond   =        32.9851 E_angle  =        29.9781 
E_dihed  =        48.0131 E_impro  =         0.0000 E_vdwl   =       -28.3680 
E_coul   =         0.0000 E_long   =         0.0000 Press    =         3.9372
------------ Step          45540 ----- CPU =     2.694825 (sec) -------------
TotEng   =       163.6673 KinEng   =        80.0726 Temp     =       271.3404 
PotEng   =        83.5947 E_bond   =        36.8439 E_angle  =        23.6052 
E_dihed  =        48.5505 E_impro  =         0.0000 E_vdwl   =       -25.4050 
E_coul   =         0.0000 E_long   =         0.0000 Press    =         2.2366
------------ Step          45560 ----- CPU =     2.695872 (sec) -------------
TotEng   =       161.8600 KinEng   =        80.1556 Temp     =       271.6215 
PotEng   =        81.7044 E_bond   =        35.1108 E_angle  =        25.9398 
E_dihed  =        48.0865 E_impro  =         0.0000 E_vdwl   =       -27.4326 
E_coul   =         0.0000 E_long   =         0.0000 Press    =        -1.2475
------------ Step          45580 ----- CPU =     2.696972 (sec) -------------
TotEng   =       160.0947 KinEng   =        88.4887 Temp     =       299.8598 
PotEng   =        71.6060 E_bond   =        22.0958 E_angle  =        24.5982 
E_dihed  =        48.9782 E_impro  =         0.0000 E_vdwl   =       -24.0662 
E_coul   =         0.0000 E_long   =         0.0000 Press    =         2.5891
------------ Step          45600 ----- CPU =      2.69853 (sec) -------------
TotEng   =       159.1263 KinEng   =        72.5740 Temp     =       245.9300 
PotEng   =        86.5523 E_bond   =        40.1884 E_angle  =        22.8846 
E_dihed  =        48.9498 E_impro  =         0.0000 E_vdwl   =       -25.4704 
E_coul   =         0.0000 E_long   =         0.0000 Press    =        -2.3589
------------ Step          45620 ----- CPU =     2.699947 (sec) -------------
TotEng   =       158.3552 KinEng   =        77.5443 Temp     =       262.7727 
PotEng   =        80.8110 E_bond   =        34.1531 E_angle  =        25.8206 
E_dihed  =        48.6817 E_impro  =         0.0000 E_vdwl   =       -27.8445 
E_coul   =         0.0000 E_long   =         0.0000 Press    =        -1.7434
------------ Step          45640 ----- CPU =     2.701045 (sec) -------------
TotEng   =       158.2499 KinEng   =        89.0932 Temp     =       301.9084 
PotEng   =        69.1567 E_bond   =        29.5922 E_angle  =        20.7352 
E_dihed  =        47.7870 E_impro  =         0.0000 E_vdwl   =       -28.9576 
E_coul   =         0.0000 E_long   =         0.0000 Press    =         2.8126
------------ Step          45660 ----- CPU =     2.702085 (sec) -------------
TotEng   =       158.8434 KinEng   =        82.4466 Temp     =       279.3852 
PotEng   =        76.3968 E_bond   =        35.0035 E_angle  =        25.5272 
E_dihed  =        44.0637 E_impro  =         0.0000 E_vdwl   =       -28.1976 
E_coul   =         0.0000 E_long   =         0.0000 Press    =        -0.3168
------------ Step          45680 ----- CPU =     2.704123 (sec) -------------
TotEng   =       160.0948 KinEng   =        77.6656 Temp     =       263.1837 
PotEng   =        82.4293 E_bond   =        37.8619 E_angle  =        26.0778 
E_dihed  =        45.4183 E_impro  =         0.0000 E_vdwl   =       -26.9287 
E_coul   =         0.0000 E_long   =         0.0000 Press    =         1.7681
------------ Step          45700 ----- CPU =     2.705171 (sec) -------------
TotEng   =       161.9860 KinEng   =        88.3490 Temp     =       299.3864 
PotEng   =        73.6371 E_bond   =        31.4713 E_angle  =        27.9458 
E_dihed  =        42.5057 E_impro  =         0.0000 E_vdwl   =       -28.2857 
E_coul   =         0.0000 E_long   =         0.0000 Press    =         2.3942
------------ Step          45720 ----- CPU =     2.706966 (sec) -------------
TotEng   =       164.9456 KinEng   =        87.7995 Temp     =       297.5244 
PotEng   =        77.1461 E_bond   =        36.3108 E_angle  =        25.8729 
E_dihed  =        43.8763 E_impro  =         0.0000 E_vdwl   =       -28.9138 
E_coul   =         0.0000 E_long   =         0.0000 Press    =         0.1574
------------ Step          45740 ----- CPU =     2.708759 (sec) -------------
TotEng   =       168.3425 KinEng   =        88.1457 Temp     =       298.6975 
PotEng   =        80.1968 E_bond   =        35.3053 E_angle  =        26.6668 
E_dihed  =        46.9800 E_impro  =         0.0000 E_vdwl   =       -28.7552 
E_coul   =         0.0000 E_long   =         0.0000 Press    =         0.8000
------------ Step          45760 ----- CPU =     2.709786 (sec) -------------
TotEng   =       172.1344 KinEng   =        92.6191 Temp     =       313.8564 
PotEng   =        79.5154 E_bond   =        33.8439 E_angle  =        27.0864 
E_dihed  =        46.2396 E_impro  =         0.0000 E_vdwl   =       -27.6546 
E_coul   =         0.0000 E_long   =         0.0000 Press    =        -0.5603
------------ Step          45780 ----- CPU =     2.710866 (sec) -------------
TotEng   =       175.8302 KinEng   =        99.0881 Temp     =       335.7779 
PotEng   =        76.7421 E_bond   =        33.7505 E_angle  =        27.2644 
E_dihed  =        42.6754 E_impro  =         0.0000 E_vdwl   =       -26.9481 
E_coul   =         0.0000 E_long   =         0.0000 Press    =         0.5308
------------ Step          45800 ----- CPU =     2.711924 (sec) -------------
TotEng   =       179.0433 KinEng   =        91.6606 Temp     =       310.6082 
PotEng   =        87.3828 E_bond   =        44.0549 E_angle  =        33.7642 
E_dihed  =        38.6562 E_impro  =         0.0000 E_vdwl   =       -29.0925 
E_coul   =         0.0000 E_long   =         0.0000 Press    =        -0.9055
------------ Step          45820 ----- CPU =     2.713218 (sec) -------------
TotEng   =       181.0605 KinEng   =       101.3126 Temp     =       343.3160 
PotEng   =        79.7479 E_bond   =        35.5664 E_angle  =        29.2142 
E_dihed  =        42.5389 E_impro  =         0.0000 E_vdwl   =       -27.5715 
E_coul   =         0.0000 E_long   =         0.0000 Press    =         0.4776
------------ Step          45840 ----- CPU =     2.714486 (sec) -------------
TotEng   =       182.0967 KinEng   =       101.2616 Temp     =       343.1433 
PotEng   =        80.8350 E_bond   =        34.3115 E_angle  =        31.1897 
E_dihed  =        43.5176 E_impro  =         0.0000 E_vdwl   =       -28.1837 
E_coul   =         0.0000 E_long   =         0.0000 Press    =        -0.9746
------------ Step          45860 ----- CPU =     2.715655 (sec) -------------
TotEng   =       182.2544 KinEng   =        99.9917 Temp     =       338.8400 
PotEng   =        82.2627 E_bond   =        36.6976 E_angle  =        28.8400 
E_dihed  =        43.8962 E_impro  =         0.0000 E_vdwl   =       -27.1711 
E_coul   =         0.0000 E_long   =         0.0000 Press    =        -4.8356
------------ Step          45880 ----- CPU =     2.716984 (sec) -------------
TotEng   =       181.7140 KinEng   =        85.8085 Temp     =       290.7775 
PotEng   =        95.9055 E_bond   =        42.5574 E_angle  =        33.9305 
E_dihed  =        45.4737 E_impro  =         0.0000 E_vdwl   =       -26.0560 
E_coul   =         0.0000 E_long   =         0.0000 Press    =        -0.3257
------------ Step          45900 ----- CPU =     2.718383 (sec) -------------
TotEng   =       180.4660 KinEng   =       104.9336 Temp     =       355.5863 
PotEng   =        75.5325 E_bond   =        28.4926 E_angle  =        25.8782 
E_dihed  =        45.4729 E_impro  =         0.0000 E_vdwl   =       -24.3112 
E_coul   =         0.0000 E_long   =         0.0000 Press    =        -2.9392
------------ Step          45920 ----- CPU =     2.719555 (sec) -------------
TotEng   =       178.6335 KinEng   =        92.5143 Temp     =       313.5014 
PotEng   =        86.1192 E_bond   =        40.1735 E_angle  =        24.6869 
E_dihed  =        45.7939 E_impro  =         0.0000 E_vdwl   =       -24.5352 
E_coul   =         0.0000 E_long   =         0.0000 Press    =        -0.7540
------------ Step          45940 ----- CPU =     2.722018 (sec) -------------
TotEng   =       176.1020 KinEng   =        88.8515 Temp     =       301.0894 
PotEng   =        87.2504 E_bond   =        36.7006 E_angle  =        29.8936 
E_dihed  =        45.1861 E_impro  =         0.0000 E_vdwl   =       -24.5298 
E_coul   =         0.0000 E_long   =         0.0000 Press    =         3.1090
------------ Step          45960 ----- CPU =     2.723908 (sec) -------------
TotEng   =       173.3789 KinEng   =        85.1629 Temp     =       288.5898 
PotEng   =        88.2160 E_bond   =        39.0875 E_angle  =        29.9951 
E_dihed  =        45.3657 E_impro  =         0.0000 E_vdwl   =       -26.2324 
E_coul   =         0.0000 E_long   =         0.0000 Press    =        -0.6533
------------ Step          45980 ----- CPU =     2.724929 (sec) -------------
TotEng   =       170.8053 KinEng   =        91.7506 Temp     =       310.9133 
PotEng   =        79.0548 E_bond   =        27.9050 E_angle  =        28.9708 
E_dihed  =        47.7381 E_impro  =         0.0000 E_vdwl   =       -25.5591 
E_coul   =         0.0000 E_long   =         0.0000 Press    =         0.9167
------------ Step          46000 ----- CPU =     2.726036 (sec) -------------
TotEng   =       168.7519 KinEng   =        82.5214 Temp     =       279.6385 
PotEng   =        86.2306 E_bond   =        40.3418 E_angle  =        25.3053 
E_dihed  =        46.6518 E_impro  =         0.0000 E_vdwl   =       -26.0683 
E_coul   =         0.0000 E_long   =         0.0000 Press    =        -0.9864
------------ Step          46020 ----- CPU =     2.727292 (sec) -------------
TotEng   =       166.4999 KinEng   =        93.0510 Temp     =       315.3202 
PotEng   =        73.4489 E_bond   =        34.3753 E_angle  =        19.6774 
E_dihed  =        46.7121 E_impro  =         0.0000 E_vdwl   =       -27.3158 
E_coul   =         0.0000 E_long   =         0.0000 Press    =        -2.9362
------------ Step          46040 ----- CPU =     2.728779 (sec) -------------
TotEng   =       164.2701 KinEng   =        94.6567 Temp     =       320.7613 
PotEng   =        69.6134 E_bond   =        24.6835 E_angle  =        20.1892 
E_dihed  =        50.6918 E_impro  =         0.0000 E_vdwl   =       -25.9510 
E_coul   =         0.0000 E_long   =         0.0000 Press    =         0.1299
------------ Step          46060 ----- CPU =     2.729888 (sec) -------------
TotEng   =       162.6593 KinEng   =        83.0570 Temp     =       281.4535 
PotEng   =        79.6023 E_bond   =        33.0087 E_angle  =        25.9988 
E_dihed  =        47.3693 E_impro  =         0.0000 E_vdwl   =       -26.7745 
E_coul   =         0.0000 E_long   =         0.0000 Press    =        -3.2634
------------ Step          46080 ----- CPU =     2.731133 (sec) -------------
TotEng   =       161.4382 KinEng   =        89.0078 Temp     =       301.6188 
PotEng   =        72.4304 E_bond   =        27.7390 E_angle  =        27.1609 
E_dihed  =        43.6640 E_impro  =         0.0000 E_vdwl   =       -26.1335 
E_coul   =         0.0000 E_long   =         0.0000 Press    =        -0.3167
------------ Step          46100 ----- CPU =     2.732267 (sec) -------------
TotEng   =       160.8713 KinEng   =        79.5770 Temp     =       269.6609 
PotEng   =        81.2943 E_bond   =        35.8849 E_angle  =        24.6570 
E_dihed  =        48.7575 E_impro  =         0.0000 E_vdwl   =       -28.0051 
E_coul   =         0.0000 E_long   =         0.0000 Press    =         0.6079
------------ Step          46120 ----- CPU =     2.734859 (sec) -------------
TotEng   =       160.7530 KinEng   =        80.2645 Temp     =       271.9906 
PotEng   =        80.4885 E_bond   =        32.2626 E_angle  =        25.3632 
E_dihed  =        50.2563 E_impro  =         0.0000 E_vdwl   =       -27.3937 
E_coul   =         0.0000 E_long   =         0.0000 Press    =        -1.2492
------------ Step          46140 ----- CPU =     2.736029 (sec) -------------
TotEng   =       161.1369 KinEng   =        82.3898 Temp     =       279.1926 
PotEng   =        78.7471 E_bond   =        33.8420 E_angle  =        29.3525 
E_dihed  =        47.2811 E_impro  =         0.0000 E_vdwl   =       -31.7286 
E_coul   =         0.0000 E_long   =         0.0000 Press    =         2.6897
------------ Step          46160 ----- CPU =     2.737058 (sec) -------------
TotEng   =       161.6438 KinEng   =        84.0829 Temp     =       284.9300 
PotEng   =        77.5610 E_bond   =        32.8712 E_angle  =        24.6667 
E_dihed  =        51.7249 E_impro  =         0.0000 E_vdwl   =       -31.7019 
E_coul   =         0.0000 E_long   =         0.0000 Press    =         1.7212
------------ Step          46180 ----- CPU =     2.738017 (sec) -------------
TotEng   =       162.2799 KinEng   =        84.9278 Temp     =       287.7931 
PotEng   =        77.3521 E_bond   =        35.1764 E_angle  =        18.5409 
E_dihed  =        54.6287 E_impro  =         0.0000 E_vdwl   =       -30.9938 
E_coul   =         0.0000 E_long   =         0.0000 Press    =         1.3258
------------ Step          46200 ----- CPU =     2.740964 (sec) -------------
TotEng   =       162.9622 KinEng   =        82.2539 Temp     =       278.7321 
PotEng   =        80.7083 E_bond   =        32.0815 E_angle  =        25.5669 
E_dihed  =        53.0664 E_impro  =         0.0000 E_vdwl   =       -30.0065 
E_coul   =         0.0000 E_long   =         0.0000 Press    =         3.7350
------------ Step          46220 ----- CPU =     2.742514 (sec) -------------
TotEng   =       164.0037 KinEng   =        87.4369 Temp     =       296.2955 
PotEng   =        76.5668 E_bond   =        31.3008 E_angle  =        24.7598 
E_dihed  =        52.7827 E_impro  =         0.0000 E_vdwl   =       -32.2765 
E_coul   =         0.0000 E_long   =         0.0000 Press    =        -0.3469
------------ Step          46240 ----- CPU =     2.743613 (sec) -------------
TotEng   =       165.1263 KinEng   =        83.9429 Temp     =       284.4555 
PotEng   =        81.1835 E_bond   =        35.7021 E_angle  =        25.7669 
E_dihed  =        50.8654 E_impro  =         0.0000 E_vdwl   =       -31.1509 
E_coul   =         0.0000 E_long   =         0.0000 Press    =         0.5203
------------ Step          46260 ----- CPU =     2.744672 (sec) -------------
TotEng   =       166.5375 KinEng   =        84.7021 Temp     =       287.0281 
PotEng   =        81.8354 E_bond   =        29.9432 E_angle  =        31.8173 
E_dihed  =        50.8759 E_impro  =         0.0000 E_vdwl   =       -30.8010 
E_coul   =         0.0000 E_long   =         0.0000 Press    =         0.3888
------------ Step          46280 ----- CPU =     2.746124 (sec) -------------
TotEng   =       168.2651 KinEng   =        86.6277 Temp     =       293.5536 
PotEng   =        81.6373 E_bond   =        30.8741 E_angle  =        25.1273 
E_dihed  =        52.4842 E_impro  =         0.0000 E_vdwl   =       -26.8483 
E_coul   =         0.0000 E_long   =         0.0000 Press    =        -2.2576
------------ Step          46300 ----- CPU =      2.74741 (sec) -------------
TotEng   =       170.3365 KinEng   =        75.3246 Temp     =       255.2509 
PotEng   =        95.0119 E_bond   =        33.7884 E_angle  =        31.9822 
E_dihed  =        56.9863 E_impro  =         0.0000 E_vdwl   =       -27.7450 
E_coul   =         0.0000 E_long   =         0.0000 Press    =         1.0903
------------ Step          46320 ----- CPU =     2.749691 (sec) -------------
TotEng   =       172.8579 KinEng   =        88.5409 Temp     =       300.0367 
PotEng   =        84.3170 E_bond   =        37.4968 E_angle  =        18.5520 
E_dihed  =        57.3618 E_impro  =         0.0000 E_vdwl   =       -29.0936 
E_coul   =         0.0000 E_long   =         0.0000 Press    =         2.0056
------------ Step          46340 ----- CPU =     2.750845 (sec) -------------
TotEng   =       175.4349 KinEng   =        89.9666 Temp     =       304.8680 
PotEng   =        85.4683 E_bond   =        32.4611 E_angle  =        27.2122 
E_dihed  =        54.1226 E_impro  =         0.0000 E_vdwl   =       -28.3276 
E_coul   =         0.0000 E_long   =         0.0000 Press    =         0.2826
------------ Step          46360 ----- CPU =     2.754443 (sec) -------------
TotEng   =       177.8124 KinEng   =        90.5051 Temp     =       306.6926 
PotEng   =        87.3074 E_bond   =        36.3410 E_angle  =        27.2820 
E_dihed  =        51.6274 E_impro  =         0.0000 E_vdwl   =       -27.9431 
E_coul   =         0.0000 E_long   =         0.0000 Press    =         0.2972
------------ Step          46380 ----- CPU =     2.755903 (sec) -------------
TotEng   =       179.8598 KinEng   =        90.0720 Temp     =       305.2252 
PotEng   =        89.7878 E_bond   =        40.7374 E_angle  =        22.8655 
E_dihed  =        54.2776 E_impro  =         0.0000 E_vdwl   =       -28.0926 
E_coul   =         0.0000 E_long   =         0.0000 Press    =         1.9812
------------ Step          46400 ----- CPU =     2.757181 (sec) -------------
TotEng   =       181.5769 KinEng   =        87.4541 Temp     =       296.3538 
PotEng   =        94.1229 E_bond   =        34.3888 E_angle  =        30.4473 
E_dihed  =        56.2190 E_impro  =         0.0000 E_vdwl   =       -26.9323 
E_coul   =         0.0000 E_long   =         0.0000 Press    =        -1.2110
------------ Step          46420 ----- CPU =     2.758362 (sec) -------------
TotEng   =       182.9428 KinEng   =        95.7144 Temp     =       324.3454 
PotEng   =        87.2284 E_bond   =        31.2059 E_angle  =        29.8981 
E_dihed  =        53.8937 E_impro  =         0.0000 E_vdwl   =       -27.7694 
E_coul   =         0.0000 E_long   =         0.0000 Press    =        -0.7589
------------ Step          46440 ----- CPU =     2.759408 (sec) -------------
TotEng   =       184.1598 KinEng   =        91.3093 Temp     =       309.4181 
PotEng   =        92.8505 E_bond   =        36.3758 E_angle  =        28.6660 
E_dihed  =        53.4171 E_impro  =         0.0000 E_vdwl   =       -25.6085 
E_coul   =         0.0000 E_long   =         0.0000 Press    =        -0.3701
------------ Step          46460 ----- CPU =     2.760458 (sec) -------------
TotEng   =       185.0168 KinEng   =        88.5432 Temp     =       300.0445 
PotEng   =        96.4736 E_bond   =        37.3766 E_angle  =        29.7386 
E_dihed  =        51.9472 E_impro  =         0.0000 E_vdwl   =       -22.5889 
E_coul   =         0.0000 E_long   =         0.0000 Press    =        -2.3302
------------ Step          46480 ----- CPU =     2.761502 (sec) -------------
TotEng   =       185.8179 KinEng   =        89.2840 Temp     =       302.5550 
PotEng   =        96.5339 E_bond   =        39.7173 E_angle  =        29.9709 
E_dihed  =        49.9574 E_impro  =         0.0000 E_vdwl   =       -23.1117 
E_coul   =         0.0000 E_long   =         0.0000 Press    =        -0.9745
------------ Step          46500 ----- CPU =      2.76277 (sec) -------------
TotEng   =       186.3169 KinEng   =        93.4920 Temp     =       316.8144 
PotEng   =        92.8249 E_bond   =        36.3616 E_angle  =        28.3557 
E_dihed  =        50.8990 E_impro  =         0.0000 E_vdwl   =       -22.7913 
E_coul   =         0.0000 E_long   =         0.0000 Press    =        -3.3179
------------ Step          46520 ----- CPU =     2.763939 (sec) -------------
TotEng   =       186.6116 KinEng   =        91.7918 Temp     =       311.0530 
PotEng   =        94.8198 E_bond   =        38.8233 E_angle  =        27.5062 
E_dihed  =        51.7737 E_impro  =         0.0000 E_vdwl   =       -23.2834 
E_coul   =         0.0000 E_long   =         0.0000 Press    =        -3.9183
------------ Step          46540 ----- CPU =     2.765252 (sec) -------------
TotEng   =       186.8529 KinEng   =        92.4030 Temp     =       313.1241 
PotEng   =        94.4499 E_bond   =        37.7391 E_angle  =        28.8683 
E_dihed  =        51.8631 E_impro  =         0.0000 E_vdwl   =       -24.0206 
E_coul   =         0.0000 E_long   =         0.0000 Press    =        -1.8768
------------ Step          46560 ----- CPU =     2.766517 (sec) -------------
TotEng   =       186.5067 KinEng   =        91.4651 Temp     =       309.9459 
PotEng   =        95.0416 E_bond   =        40.4093 E_angle  =        28.2978 
E_dihed  =        51.3642 E_impro  =         0.0000 E_vdwl   =       -25.0298 
E_coul   =         0.0000 E_long   =         0.0000 Press    =        -2.3083
------------ Step          46580 ----- CPU =     2.767987 (sec) -------------
TotEng   =       185.3747 KinEng   =        98.4633 Temp     =       333.6605 
PotEng   =        86.9115 E_bond   =        31.5132 E_angle  =        23.3635 
E_dihed  =        54.4649 E_impro  =         0.0000 E_vdwl   =       -22.4302 
E_coul   =         0.0000 E_long   =         0.0000 Press    =         0.3023
------------ Step          46600 ----- CPU =     2.769124 (sec) -------------
TotEng   =       183.0682 KinEng   =        91.6164 Temp     =       310.4587 
PotEng   =        91.4517 E_bond   =        36.9936 E_angle  =        25.5869 
E_dihed  =        52.6570 E_impro  =         0.0000 E_vdwl   =       -23.7858 
E_coul   =         0.0000 E_long   =         0.0000 Press    =        -1.7862
------------ Step          46620 ----- CPU =     2.770367 (sec) -------------
TotEng   =       179.1162 KinEng   =        88.4708 Temp     =       299.7993 
PotEng   =        90.6454 E_bond   =        32.3871 E_angle  =        30.9762 
E_dihed  =        52.0055 E_impro  =         0.0000 E_vdwl   =       -24.7234 
E_coul   =         0.0000 E_long   =         0.0000 Press    =         0.4781
------------ Step          46640 ----- CPU =     2.771426 (sec) -------------
TotEng   =       174.3167 KinEng   =        87.6782 Temp     =       297.1134 
PotEng   =        86.6385 E_bond   =        37.1434 E_angle  =        24.2737 
E_dihed  =        51.4003 E_impro  =         0.0000 E_vdwl   =       -26.1789 
E_coul   =         0.0000 E_long   =         0.0000 Press    =         1.7945
------------ Step          46660 ----- CPU =     2.772472 (sec) -------------
TotEng   =       168.9805 KinEng   =        86.9558 Temp     =       294.6654 
PotEng   =        82.0247 E_bond   =        31.5078 E_angle  =        26.9571 
E_dihed  =        49.1147 E_impro  =         0.0000 E_vdwl   =       -25.5548 
E_coul   =         0.0000 E_long   =         0.0000 Press    =         1.5394
------------ Step          46680 ----- CPU =     2.774675 (sec) -------------
TotEng   =       164.5336 KinEng   =        88.9310 Temp     =       301.3587 
PotEng   =        75.6026 E_bond   =        34.2669 E_angle  =        20.0190 
E_dihed  =        47.4586 E_impro  =         0.0000 E_vdwl   =       -26.1419 
E_coul   =         0.0000 E_long   =         0.0000 Press    =         4.4436
------------ Step          46700 ----- CPU =     2.776894 (sec) -------------
TotEng   =       161.2409 KinEng   =        81.9833 Temp     =       277.8152 
PotEng   =        79.2576 E_bond   =        31.5347 E_angle  =        25.1621 
E_dihed  =        48.9383 E_impro  =         0.0000 E_vdwl   =       -26.3775 
E_coul   =         0.0000 E_long   =         0.0000 Press    =         0.7235
------------ Step          46720 ----- CPU =     2.778062 (sec) -------------
TotEng   =       159.2272 KinEng   =        76.5320 Temp     =       259.3423 
PotEng   =        82.6953 E_bond   =        30.0095 E_angle  =        28.9769 
E_dihed  =        49.6253 E_impro  =         0.0000 E_vdwl   =       -25.9165 
E_coul   =         0.0000 E_long   =         0.0000 Press    =        -0.7498
------------ Step          46740 ----- CPU =     2.779362 (sec) -------------
TotEng   =       158.2558 KinEng   =        81.4061 Temp     =       275.8593 
PotEng   =        76.8496 E_bond   =        28.2925 E_angle  =        28.4688 
E_dihed  =        46.4249 E_impro  =         0.0000 E_vdwl   =       -26.3367 
E_coul   =         0.0000 E_long   =         0.0000 Press    =         2.2304
------------ Step          46760 ----- CPU =     2.780397 (sec) -------------
TotEng   =       158.1182 KinEng   =        83.9243 Temp     =       284.3927 
PotEng   =        74.1938 E_bond   =        30.7231 E_angle  =        22.2070 
E_dihed  =        47.7521 E_impro  =         0.0000 E_vdwl   =       -26.4883 
E_coul   =         0.0000 E_long   =         0.0000 Press    =        -4.2052
------------ Step          46780 ----- CPU =      2.78188 (sec) -------------
TotEng   =       158.3268 KinEng   =        75.8687 Temp     =       257.0946 
PotEng   =        82.4582 E_bond   =        33.8727 E_angle  =        24.5070 
E_dihed  =        50.6037 E_impro  =         0.0000 E_vdwl   =       -26.5252 
E_coul   =         0.0000 E_long   =         0.0000 Press    =         0.7944
------------ Step          46800 ----- CPU =     2.783206 (sec) -------------
TotEng   =       159.1174 KinEng   =        85.0426 Temp     =       288.1821 
PotEng   =        74.0748 E_bond   =        27.3360 E_angle  =        23.1140 
E_dihed  =        50.5272 E_impro  =         0.0000 E_vdwl   =       -26.9023 
E_coul   =         0.0000 E_long   =         0.0000 Press    =         2.6570
------------ Step          46820 ----- CPU =     2.784636 (sec) -------------
TotEng   =       160.5330 KinEng   =        82.0972 Temp     =       278.2010 
PotEng   =        78.4358 E_bond   =        23.8304 E_angle  =        32.2719 
E_dihed  =        50.4655 E_impro  =         0.0000 E_vdwl   =       -28.1319 
E_coul   =         0.0000 E_long   =         0.0000 Press    =        -3.7281
------------ Step          46840 ----- CPU =     2.785708 (sec) -------------
TotEng   =       163.0281 KinEng   =        75.5766 Temp     =       256.1047 
PotEng   =        87.4516 E_bond   =        36.4711 E_angle  =        27.9177 
E_dihed  =        51.3594 E_impro  =         0.0000 E_vdwl   =       -28.2966 
E_coul   =         0.0000 E_long   =         0.0000 Press    =         4.5591
------------ Step          46860 ----- CPU =     2.787889 (sec) -------------
TotEng   =       165.6379 KinEng   =        85.0814 Temp     =       288.3137 
PotEng   =        80.5565 E_bond   =        29.9487 E_angle  =        27.6524 
E_dihed  =        48.2864 E_impro  =         0.0000 E_vdwl   =       -25.3309 
E_coul   =         0.0000 E_long   =         0.0000 Press    =         0.5552
------------ Step          46880 ----- CPU =      2.78947 (sec) -------------
TotEng   =       168.9945 KinEng   =        95.4293 Temp     =       323.3792 
PotEng   =        73.5652 E_bond   =        30.5523 E_angle  =        25.6721 
E_dihed  =        47.2374 E_impro  =         0.0000 E_vdwl   =       -29.8966 
E_coul   =         0.0000 E_long   =         0.0000 Press    =        -0.7929
------------ Step          46900 ----- CPU =     2.790553 (sec) -------------
TotEng   =       171.6080 KinEng   =        97.1081 Temp     =       329.0684 
PotEng   =        74.4999 E_bond   =        27.7780 E_angle  =        23.2134 
E_dihed  =        51.0955 E_impro  =         0.0000 E_vdwl   =       -27.5871 
E_coul   =         0.0000 E_long   =         0.0000 Press    =         2.4818
------------ Step          46920 ----- CPU =     2.791729 (sec) -------------
TotEng   =       173.6283 KinEng   =        72.9774 Temp     =       247.2969 
PotEng   =       100.6509 E_bond   =        43.5619 E_angle  =        27.3275 
E_dihed  =        58.6194 E_impro  =         0.0000 E_vdwl   =       -28.8578 
E_coul   =         0.0000 E_long   =         0.0000 Press    =        -6.5230
------------ Step          46940 ----- CPU =     2.792804 (sec) -------------
TotEng   =       175.2333 KinEng   =        88.3093 Temp     =       299.2519 
PotEng   =        86.9240 E_bond   =        34.2945 E_angle  =        23.3086 
E_dihed  =        59.6604 E_impro  =         0.0000 E_vdwl   =       -30.3395 
E_coul   =         0.0000 E_long   =         0.0000 Press    =         0.4288
------------ Step          46960 ----- CPU =     2.794025 (sec) -------------
TotEng   =       176.9905 KinEng   =        86.2559 Temp     =       292.2936 
PotEng   =        90.7346 E_bond   =        29.2205 E_angle  =        33.9748 
E_dihed  =        54.8967 E_impro  =         0.0000 E_vdwl   =       -27.3574 
E_coul   =         0.0000 E_long   =         0.0000 Press    =         0.5103
------------ Step          46980 ----- CPU =     2.795106 (sec) -------------
TotEng   =       178.8123 KinEng   =        88.2019 Temp     =       298.8879 
PotEng   =        90.6104 E_bond   =        34.9308 E_angle  =        31.9176 
E_dihed  =        53.0301 E_impro  =         0.0000 E_vdwl   =       -29.2680 
E_coul   =         0.0000 E_long   =         0.0000 Press    =        -1.5298
------------ Step          47000 ----- CPU =     2.796142 (sec) -------------
TotEng   =       180.3121 KinEng   =        90.6734 Temp     =       307.2632 
PotEng   =        89.6387 E_bond   =        39.0221 E_angle  =        30.3564 
E_dihed  =        50.9916 E_impro  =         0.0000 E_vdwl   =       -30.7314 
E_coul   =         0.0000 E_long   =         0.0000 Press    =         2.9357
------------ Step          47020 ----- CPU =     2.797437 (sec) -------------
TotEng   =       181.1106 KinEng   =       100.2801 Temp     =       339.8171 
PotEng   =        80.8305 E_bond   =        29.5407 E_angle  =        29.0918 
E_dihed  =        50.6171 E_impro  =         0.0000 E_vdwl   =       -28.4192 
E_coul   =         0.0000 E_long   =         0.0000 Press    =        -1.2059
------------ Step          47040 ----- CPU =     2.798579 (sec) -------------
TotEng   =       181.3946 KinEng   =        99.8516 Temp     =       338.3649 
PotEng   =        81.5430 E_bond   =        31.9594 E_angle  =        28.2066 
E_dihed  =        50.5646 E_impro  =         0.0000 E_vdwl   =       -29.1876 
E_coul   =         0.0000 E_long   =         0.0000 Press    =         0.0324
------------ Step          47060 ----- CPU =     2.800029 (sec) -------------
TotEng   =       180.8326 KinEng   =        99.9114 Temp     =       338.5677 
PotEng   =        80.9212 E_bond   =        30.4827 E_angle  =        26.2013 
E_dihed  =        53.5406 E_impro  =         0.0000 E_vdwl   =       -29.3035 
E_coul   =         0.0000 E_long   =         0.0000 Press    =        -1.2446
------------ Step          47080 ----- CPU =     2.801095 (sec) -------------
TotEng   =       179.7942 KinEng   =        92.7815 Temp     =       314.4068 
PotEng   =        87.0127 E_bond   =        36.6592 E_angle  =        24.7851 
E_dihed  =        55.1184 E_impro  =         0.0000 E_vdwl   =       -29.5501 
E_coul   =         0.0000 E_long   =         0.0000 Press    =         0.8957
------------ Step          47100 ----- CPU =     2.802115 (sec) -------------
TotEng   =       178.2797 KinEng   =        92.7580 Temp     =       314.3271 
PotEng   =        85.5218 E_bond   =        33.3083 E_angle  =        22.8886 
E_dihed  =        57.0515 E_impro  =         0.0000 E_vdwl   =       -27.7266 
E_coul   =         0.0000 E_long   =         0.0000 Press    =         3.0216
------------ Step          47120 ----- CPU =     2.803326 (sec) -------------
TotEng   =       176.8538 KinEng   =        90.4904 Temp     =       306.6429 
PotEng   =        86.3634 E_bond   =        32.4248 E_angle  =        25.7737 
E_dihed  =        56.3167 E_impro  =         0.0000 E_vdwl   =       -28.1517 
E_coul   =         0.0000 E_long   =         0.0000 Press    =        -1.3615
------------ Step          47140 ----- CPU =     2.804331 (sec) -------------
TotEng   =       175.6762 KinEng   =        77.9944 Temp     =       264.2980 
PotEng   =        97.6819 E_bond   =        39.1901 E_angle  =        31.2901 
E_dihed  =        55.2929 E_impro  =         0.0000 E_vdwl   =       -28.0912 
E_coul   =         0.0000 E_long   =         0.0000 Press    =         2.8095
------------ Step          47160 ----- CPU =     2.805434 (sec) -------------
TotEng   =       174.8070 KinEng   =        85.6237 Temp     =       290.1513 
PotEng   =        89.1833 E_bond   =        35.2791 E_angle  =        26.6496 
E_dihed  =        55.2043 E_impro  =         0.0000 E_vdwl   =       -27.9498 
E_coul   =         0.0000 E_long   =         0.0000 Press    =        -1.8050
------------ Step          47180 ----- CPU =     2.806877 (sec) -------------
TotEng   =       174.1370 KinEng   =        85.7916 Temp     =       290.7202 
PotEng   =        88.3454 E_bond   =        33.9518 E_angle  =        25.9615 
E_dihed  =        55.8553 E_impro  =         0.0000 E_vdwl   =       -27.4232 
E_coul   =         0.0000 E_long   =         0.0000 Press    =        -0.4068
------------ Step          47200 ----- CPU =     2.808134 (sec) -------------
TotEng   =       173.8291 KinEng   =        84.6247 Temp     =       286.7661 
PotEng   =        89.2043 E_bond   =        28.2424 E_angle  =        33.3109 
E_dihed  =        57.3105 E_impro  =         0.0000 E_vdwl   =       -29.6594 
E_coul   =         0.0000 E_long   =         0.0000 Press    =         2.7513
------------ Step          47220 ----- CPU =     2.809551 (sec) -------------
TotEng   =       173.8237 KinEng   =        81.8743 Temp     =       277.4459 
PotEng   =        91.9493 E_bond   =        40.6498 E_angle  =        26.8071 
E_dihed  =        54.1082 E_impro  =         0.0000 E_vdwl   =       -29.6158 
E_coul   =         0.0000 E_long   =         0.0000 Press    =        -2.4828
------------ Step          47240 ----- CPU =     2.810825 (sec) -------------
TotEng   =       173.6676 KinEng   =        96.0889 Temp     =       325.6146 
PotEng   =        77.5787 E_bond   =        23.5467 E_angle  =        29.6908 
E_dihed  =        53.5893 E_impro  =         0.0000 E_vdwl   =       -29.2481 
E_coul   =         0.0000 E_long   =         0.0000 Press    =         2.3030
------------ Step          47260 ----- CPU =     2.811828 (sec) -------------
TotEng   =       173.5853 KinEng   =        90.1286 Temp     =       305.4168 
PotEng   =        83.4567 E_bond   =        32.6447 E_angle  =        26.8544 
E_dihed  =        54.0424 E_impro  =         0.0000 E_vdwl   =       -30.0847 
E_coul   =         0.0000 E_long   =         0.0000 Press    =         1.7277
------------ Step          47280 ----- CPU =     2.812824 (sec) -------------
TotEng   =       173.4852 KinEng   =        88.3754 Temp     =       299.4759 
PotEng   =        85.1098 E_bond   =        31.9742 E_angle  =        30.9319 
E_dihed  =        50.4111 E_impro  =         0.0000 E_vdwl   =       -28.2074 
E_coul   =         0.0000 E_long   =         0.0000 Press    =        -2.4071
------------ Step          47300 ----- CPU =     2.813823 (sec) -------------
TotEng   =       173.2693 KinEng   =        91.9080 Temp     =       311.4467 
PotEng   =        81.3614 E_bond   =        32.3707 E_angle  =        26.1752 
E_dihed  =        51.8992 E_impro  =         0.0000 E_vdwl   =       -29.0837 
E_coul   =         0.0000 E_long   =         0.0000 Press    =         2.4148
------------ Step          47320 ----- CPU =     2.815168 (sec) -------------
TotEng   =       172.9968 KinEng   =        92.9683 Temp     =       315.0399 
PotEng   =        80.0285 E_bond   =        31.6963 E_angle  =        27.1140 
E_dihed  =        51.2749 E_impro  =         0.0000 E_vdwl   =       -30.0568 
E_coul   =         0.0000 E_long   =         0.0000 Press    =        -0.2912
------------ Step          47340 ----- CPU =     2.816958 (sec) -------------
TotEng   =       172.8202 KinEng   =        83.0110 Temp     =       281.2978 
PotEng   =        89.8092 E_bond   =        38.3645 E_angle  =        29.5161 
E_dihed  =        52.9880 E_impro  =         0.0000 E_vdwl   =       -31.0595 
E_coul   =         0.0000 E_long   =         0.0000 Press    =        -1.7509
------------ Step          47360 ----- CPU =     2.818174 (sec) -------------
TotEng   =       172.5566 KinEng   =        88.3767 Temp     =       299.4804 
PotEng   =        84.1799 E_bond   =        30.4863 E_angle  =        28.2227 
E_dihed  =        55.0780 E_impro  =         0.0000 E_vdwl   =       -29.6070 
E_coul   =         0.0000 E_long   =         0.0000 Press    =         2.7962
------------ Step          47380 ----- CPU =      2.81921 (sec) -------------
TotEng   =       172.5825 KinEng   =        88.8990 Temp     =       301.2502 
PotEng   =        83.6836 E_bond   =        34.6002 E_angle  =        28.8273 
E_dihed  =        52.3551 E_impro  =         0.0000 E_vdwl   =       -32.0991 
E_coul   =         0.0000 E_long   =         0.0000 Press    =         0.0845
------------ Step          47400 ----- CPU =      2.82022 (sec) -------------
TotEng   =       172.6849 KinEng   =        82.3813 Temp     =       279.1638 
PotEng   =        90.3036 E_bond   =        36.5516 E_angle  =        30.6872 
E_dihed  =        53.8914 E_impro  =         0.0000 E_vdwl   =       -30.8266 
E_coul   =         0.0000 E_long   =         0.0000 Press    =        -1.3598
------------ Step          47420 ----- CPU =     2.821763 (sec) -------------
TotEng   =       172.7757 KinEng   =        88.2255 Temp     =       298.9681 
PotEng   =        84.5502 E_bond   =        34.1531 E_angle  =        27.3842 
E_dihed  =        54.2372 E_impro  =         0.0000 E_vdwl   =       -31.2244 
E_coul   =         0.0000 E_long   =         0.0000 Press    =         0.0025
------------ Step          47440 ----- CPU =     2.823025 (sec) -------------
TotEng   =       172.8910 KinEng   =        94.5007 Temp     =       320.2327 
PotEng   =        78.3903 E_bond   =        30.7558 E_angle  =        24.1968 
E_dihed  =        54.2416 E_impro  =         0.0000 E_vdwl   =       -30.8040 
E_coul   =         0.0000 E_long   =         0.0000 Press    =        -1.9670
------------ Step          47460 ----- CPU =     2.824217 (sec) -------------
TotEng   =       172.8015 KinEng   =        91.7958 Temp     =       311.0667 
PotEng   =        81.0056 E_bond   =        35.4220 E_angle  =        23.6549 
E_dihed  =        53.4022 E_impro  =         0.0000 E_vdwl   =       -31.4734 
E_coul   =         0.0000 E_long   =         0.0000 Press    =        -3.5454
------------ Step          47480 ----- CPU =     2.825359 (sec) -------------
TotEng   =       172.5575 KinEng   =        89.5672 Temp     =       303.5144 
PotEng   =        82.9904 E_bond   =        28.9566 E_angle  =        33.1665 
E_dihed  =        52.9392 E_impro  =         0.0000 E_vdwl   =       -32.0719 
E_coul   =         0.0000 E_long   =         0.0000 Press    =         2.6358
------------ Step          47500 ----- CPU =     2.826368 (sec) -------------
TotEng   =       172.2827 KinEng   =        92.8177 Temp     =       314.5295 
PotEng   =        79.4650 E_bond   =        31.4264 E_angle  =        25.7630 
E_dihed  =        53.3111 E_impro  =         0.0000 E_vdwl   =       -31.0355 
E_coul   =         0.0000 E_long   =         0.0000 Press    =        -0.6770
------------ Step          47520 ----- CPU =     2.827801 (sec) -------------
TotEng   =       171.9492 KinEng   =        88.1053 Temp     =       298.5607 
PotEng   =        83.8439 E_bond   =        31.9017 E_angle  =        28.1709 
E_dihed  =        54.4052 E_impro  =         0.0000 E_vdwl   =       -30.6340 
E_coul   =         0.0000 E_long   =         0.0000 Press    =        -0.4241
------------ Step          47540 ----- CPU =     2.828802 (sec) -------------
TotEng   =       171.4956 KinEng   =        90.6686 Temp     =       307.2467 
PotEng   =        80.8271 E_bond   =        31.0640 E_angle  =        26.5659 
E_dihed  =        52.9567 E_impro  =         0.0000 E_vdwl   =       -29.7595 
E_coul   =         0.0000 E_long   =         0.0000 Press    =         4.3533
------------ Step          47560 ----- CPU =     2.829787 (sec) -------------
TotEng   =       171.1405 KinEng   =        80.1297 Temp     =       271.5337 
PotEng   =        91.0109 E_bond   =        39.3660 E_angle  =        29.1181 
E_dihed  =        54.9794 E_impro  =         0.0000 E_vdwl   =       -32.4527 
E_coul   =         0.0000 E_long   =         0.0000 Press    =        -0.8591
------------ Step          47580 ----- CPU =     2.830875 (sec) -------------
TotEng   =       170.8941 KinEng   =        87.7332 Temp     =       297.2996 
PotEng   =        83.1610 E_bond   =        28.4824 E_angle  =        31.4160 
E_dihed  =        56.0203 E_impro  =         0.0000 E_vdwl   =       -32.7576 
E_coul   =         0.0000 E_long   =         0.0000 Press    =         2.4545
------------ Step          47600 ----- CPU =     2.832292 (sec) -------------
TotEng   =       171.0208 KinEng   =        86.8107 Temp     =       294.1735 
PotEng   =        84.2102 E_bond   =        30.8457 E_angle  =        32.3099 
E_dihed  =        52.8034 E_impro  =         0.0000 E_vdwl   =       -31.7489 
E_coul   =         0.0000 E_long   =         0.0000 Press    =         1.6620
------------ Step          47620 ----- CPU =     2.833864 (sec) -------------
TotEng   =       171.3199 KinEng   =        81.0242 Temp     =       274.5652 
PotEng   =        90.2957 E_bond   =        35.6527 E_angle  =        34.6884 
E_dihed  =        51.4849 E_impro  =         0.0000 E_vdwl   =       -31.5304 
E_coul   =         0.0000 E_long   =         0.0000 Press    =        -2.6035
------------ Step          47640 ----- CPU =     2.834902 (sec) -------------
TotEng   =       171.8097 KinEng   =        90.5779 Temp     =       306.9394 
PotEng   =        81.2318 E_bond   =        28.7775 E_angle  =        31.3410 
E_dihed  =        50.8656 E_impro  =         0.0000 E_vdwl   =       -29.7523 
E_coul   =         0.0000 E_long   =         0.0000 Press    =         2.5329
------------ Step          47660 ----- CPU =     2.836234 (sec) -------------
TotEng   =       172.8911 KinEng   =        88.5343 Temp     =       300.0143 
PotEng   =        84.3568 E_bond   =        34.5619 E_angle  =        28.8575 
E_dihed  =        49.6219 E_impro  =         0.0000 E_vdwl   =       -28.6845 
E_coul   =         0.0000 E_long   =         0.0000 Press    =         0.1376
------------ Step          47680 ----- CPU =     2.837897 (sec) -------------
TotEng   =       174.3696 KinEng   =        85.7853 Temp     =       290.6988 
PotEng   =        88.5843 E_bond   =        32.2728 E_angle  =        31.9749 
E_dihed  =        51.5460 E_impro  =         0.0000 E_vdwl   =       -27.2094 
E_coul   =         0.0000 E_long   =         0.0000 Press    =        -0.2650
------------ Step          47700 ----- CPU =     2.839289 (sec) -------------
TotEng   =       176.2298 KinEng   =        94.5011 Temp     =       320.2340 
PotEng   =        81.7287 E_bond   =        27.3248 E_angle  =        28.2642 
E_dihed  =        52.6561 E_impro  =         0.0000 E_vdwl   =       -26.5163 
E_coul   =         0.0000 E_long   =         0.0000 Press    =         0.7940
------------ Step          47720 ----- CPU =     2.840475 (sec) -------------
TotEng   =       178.4236 KinEng   =        82.5766 Temp     =       279.8258 
PotEng   =        95.8470 E_bond   =        33.4154 E_angle  =        29.6599 
E_dihed  =        59.6304 E_impro  =         0.0000 E_vdwl   =       -26.8588 
E_coul   =         0.0000 E_long   =         0.0000 Press    =        -1.0334
------------ Step          47740 ----- CPU =     2.841456 (sec) -------------
TotEng   =       181.4707 KinEng   =        89.5144 Temp     =       303.3355 
PotEng   =        91.9563 E_bond   =        32.8878 E_angle  =        23.2369 
E_dihed  =        62.8969 E_impro  =         0.0000 E_vdwl   =       -27.0652 
E_coul   =         0.0000 E_long   =         0.0000 Press    =        -0.3045
------------ Step          47760 ----- CPU =     2.842425 (sec) -------------
TotEng   =       185.2653 KinEng   =        85.8840 Temp     =       291.0332 
PotEng   =        99.3814 E_bond   =        38.4241 E_angle  =        25.3898 
E_dihed  =        64.2890 E_impro  =         0.0000 E_vdwl   =       -28.7215 
E_coul   =         0.0000 E_long   =         0.0000 Press    =        -3.3895
------------ Step          47780 ----- CPU =     2.843416 (sec) -------------
TotEng   =       188.8481 KinEng   =        89.3892 Temp     =       302.9114 
PotEng   =        99.4589 E_bond   =        30.3405 E_angle  =        35.1921 
E_dihed  =        63.6589 E_impro  =         0.0000 E_vdwl   =       -29.7326 
E_coul   =         0.0000 E_long   =         0.0000 Press    =        -1.0700
------------ Step          47800 ----- CPU =     2.844399 (sec) -------------
TotEng   =       192.3179 KinEng   =        94.7821 Temp     =       321.1862 
PotEng   =        97.5358 E_bond   =        34.4320 E_angle  =        28.1772 
E_dihed  =        64.8334 E_impro  =         0.0000 E_vdwl   =       -29.9067 
E_coul   =         0.0000 E_long   =         0.0000 Press    =        -2.6061
------------ Step          47820 ----- CPU =      2.84552 (sec) -------------
TotEng   =       195.1124 KinEng   =        95.3736 Temp     =       323.1905 
PotEng   =        99.7389 E_bond   =        39.8637 E_angle  =        32.1097 
E_dihed  =        60.6583 E_impro  =         0.0000 E_vdwl   =       -32.8929 
E_coul   =         0.0000 E_long   =         0.0000 Press    =        -4.1458
------------ Step          47840 ----- CPU =     2.846573 (sec) -------------
TotEng   =       196.6166 KinEng   =       100.3247 Temp     =       339.9683 
PotEng   =        96.2919 E_bond   =        37.8898 E_angle  =        34.2832 
E_dihed  =        58.2971 E_impro  =         0.0000 E_vdwl   =       -34.1782 
E_coul   =         0.0000 E_long   =         0.0000 Press    =         2.0803
------------ Step          47860 ----- CPU =     2.848208 (sec) -------------
TotEng   =       197.0432 KinEng   =        99.4157 Temp     =       336.8879 
PotEng   =        97.6275 E_bond   =        38.2338 E_angle  =        32.8410 
E_dihed  =        57.9552 E_impro  =         0.0000 E_vdwl   =       -31.4024 
E_coul   =         0.0000 E_long   =         0.0000 Press    =        -2.2044
------------ Step          47880 ----- CPU =     2.849443 (sec) -------------
TotEng   =       196.5332 KinEng   =        98.5009 Temp     =       333.7878 
PotEng   =        98.0323 E_bond   =        37.6555 E_angle  =        35.8086 
E_dihed  =        57.1243 E_impro  =         0.0000 E_vdwl   =       -32.5560 
E_coul   =         0.0000 E_long   =         0.0000 Press    =        -3.0514
------------ Step          47900 ----- CPU =      2.85046 (sec) -------------
TotEng   =       194.8265 KinEng   =       105.4589 Temp     =       357.3663 
PotEng   =        89.3676 E_bond   =        28.2936 E_angle  =        29.3289 
E_dihed  =        60.4042 E_impro  =         0.0000 E_vdwl   =       -28.6591 
E_coul   =         0.0000 E_long   =         0.0000 Press    =         2.2443
------------ Step          47920 ----- CPU =     2.851633 (sec) -------------
TotEng   =       192.0477 KinEng   =       100.0503 Temp     =       339.0383 
PotEng   =        91.9974 E_bond   =        36.0455 E_angle  =        27.5326 
E_dihed  =        57.2844 E_impro  =         0.0000 E_vdwl   =       -28.8651 
E_coul   =         0.0000 E_long   =         0.0000 Press    =        -2.4450
------------ Step          47940 ----- CPU =     2.852634 (sec) -------------
TotEng   =       188.6930 KinEng   =        87.0133 Temp     =       294.8601 
PotEng   =       101.6798 E_bond   =        38.4950 E_angle  =        38.1038 
E_dihed  =        53.9895 E_impro  =         0.0000 E_vdwl   =       -28.9086 
E_coul   =         0.0000 E_long   =         0.0000 Press    =         1.0387
------------ Step          47960 ----- CPU =     2.853792 (sec) -------------
TotEng   =       185.4713 KinEng   =        93.7017 Temp     =       317.5250 
PotEng   =        91.7696 E_bond   =        26.7563 E_angle  =        35.1528 
E_dihed  =        56.6863 E_impro  =         0.0000 E_vdwl   =       -26.8258 
E_coul   =         0.0000 E_long   =         0.0000 Press    =         0.8660
------------ Step          47980 ----- CPU =     2.854777 (sec) -------------
TotEng   =       182.6829 KinEng   =        88.7269 Temp     =       300.6671 
PotEng   =        93.9559 E_bond   =        37.3659 E_angle  =        27.6376 
E_dihed  =        59.6785 E_impro  =         0.0000 E_vdwl   =       -30.7261 
E_coul   =         0.0000 E_long   =         0.0000 Press    =        -0.1794
------------ Step          48000 ----- CPU =     2.856131 (sec) -------------
TotEng   =       180.2451 KinEng   =        96.6944 Temp     =       327.6665 
PotEng   =        83.5507 E_bond   =        28.9451 E_angle  =        25.7899 
E_dihed  =        58.7202 E_impro  =         0.0000 E_vdwl   =       -29.9044 
E_coul   =         0.0000 E_long   =         0.0000 Press    =         0.1609
------------ Step          48020 ----- CPU =      2.85734 (sec) -------------
TotEng   =       178.4070 KinEng   =        86.0092 Temp     =       291.4577 
PotEng   =        92.3978 E_bond   =        34.2183 E_angle  =        31.7140 
E_dihed  =        56.3675 E_impro  =         0.0000 E_vdwl   =       -29.9020 
E_coul   =         0.0000 E_long   =         0.0000 Press    =         0.2005
------------ Step          48040 ----- CPU =      2.85856 (sec) -------------
TotEng   =       176.6641 KinEng   =        92.0665 Temp     =       311.9838 
PotEng   =        84.5976 E_bond   =        31.9135 E_angle  =        25.6450 
E_dihed  =        56.2149 E_impro  =         0.0000 E_vdwl   =       -29.1758 
E_coul   =         0.0000 E_long   =         0.0000 Press    =         3.0074
------------ Step          48060 ----- CPU =     2.859663 (sec) -------------
TotEng   =       175.4733 KinEng   =        86.8480 Temp     =       294.3002 
PotEng   =        88.6253 E_bond   =        32.5206 E_angle  =        27.6542 
E_dihed  =        56.6778 E_impro  =         0.0000 E_vdwl   =       -28.2273 
E_coul   =         0.0000 E_long   =         0.0000 Press    =        -1.4135
------------ Step          48080 ----- CPU =     2.860807 (sec) -------------
TotEng   =       174.7667 KinEng   =        80.8052 Temp     =       273.8229 
PotEng   =        93.9616 E_bond   =        30.2238 E_angle  =        34.3981 
E_dihed  =        58.1462 E_impro  =         0.0000 E_vdwl   =       -28.8065 
E_coul   =         0.0000 E_long   =         0.0000 Press    =         0.3011
------------ Step          48100 ----- CPU =       2.8618 (sec) -------------
TotEng   =       174.5719 KinEng   =        88.4518 Temp     =       299.7348 
PotEng   =        86.1202 E_bond   =        32.3999 E_angle  =        24.7775 
E_dihed  =        55.6036 E_impro  =         0.0000 E_vdwl   =       -26.6608 
E_coul   =         0.0000 E_long   =         0.0000 Press    =         1.7062
------------ Step          48120 ----- CPU =     2.862978 (sec) -------------
TotEng   =       174.4954 KinEng   =        85.9022 Temp     =       291.0951 
PotEng   =        88.5932 E_bond   =        30.5086 E_angle  =        33.6763 
E_dihed  =        52.2891 E_impro  =         0.0000 E_vdwl   =       -27.8807 
E_coul   =         0.0000 E_long   =         0.0000 Press    =        -1.7537
------------ Step          48140 ----- CPU =     2.864026 (sec) -------------
TotEng   =       174.4809 KinEng   =        86.1948 Temp     =       292.0866 
PotEng   =        88.2861 E_bond   =        32.6123 E_angle  =        30.3108 
E_dihed  =        51.7793 E_impro  =         0.0000 E_vdwl   =       -26.4163 
E_coul   =         0.0000 E_long   =         0.0000 Press    =         2.9701
------------ Step          48160 ----- CPU =     2.865477 (sec) -------------
TotEng   =       174.6802 KinEng   =        90.1750 Temp     =       305.5741 
PotEng   =        84.5052 E_bond   =        33.0156 E_angle  =        24.7216 
E_dihed  =        53.6161 E_impro  =         0.0000 E_vdwl   =       -26.8481 
E_coul   =         0.0000 E_long   =         0.0000 Press    =         0.7682
------------ Step          48180 ----- CPU =     2.866926 (sec) -------------
TotEng   =       174.7618 KinEng   =        90.4990 Temp     =       306.6720 
PotEng   =        84.2628 E_bond   =        28.8502 E_angle  =        31.6196 
E_dihed  =        50.1728 E_impro  =         0.0000 E_vdwl   =       -26.3798 
E_coul   =         0.0000 E_long   =         0.0000 Press    =        -0.7170
------------ Step          48200 ----- CPU =     2.867955 (sec) -------------
TotEng   =       174.6507 KinEng   =        89.2731 Temp     =       302.5181 
PotEng   =        85.3775 E_bond   =        33.0139 E_angle  =        29.4163 
E_dihed  =        50.4259 E_impro  =         0.0000 E_vdwl   =       -27.4786 
E_coul   =         0.0000 E_long   =         0.0000 Press    =         1.1260
------------ Step          48220 ----- CPU =      2.86918 (sec) -------------
TotEng   =       174.3781 KinEng   =        90.6021 Temp     =       307.0213 
PotEng   =        83.7761 E_bond   =        31.2611 E_angle  =        28.6608 
E_dihed  =        51.3879 E_impro  =         0.0000 E_vdwl   =       -27.5337 
E_coul   =         0.0000 E_long   =         0.0000 Press    =        -1.1653
------------ Step          48240 ----- CPU =     2.870825 (sec) -------------
TotEng   =       173.5731 KinEng   =        89.9799 Temp     =       304.9130 
PotEng   =        83.5932 E_bond   =        30.1116 E_angle  =        29.7330 
E_dihed  =        52.1849 E_impro  =         0.0000 E_vdwl   =       -28.4362 
E_coul   =         0.0000 E_long   =         0.0000 Press    =        -1.8637
------------ Step          48260 ----- CPU =      2.87189 (sec) -------------
TotEng   =       172.9845 KinEng   =        82.4417 Temp     =       279.3685 
PotEng   =        90.5428 E_bond   =        35.1326 E_angle  =        31.2288 
E_dihed  =        51.8542 E_impro  =         0.0000 E_vdwl   =       -27.6728 
E_coul   =         0.0000 E_long   =         0.0000 Press    =        -2.2163
------------ Step          48280 ----- CPU =     2.873142 (sec) -------------
TotEng   =       172.4701 KinEng   =        95.7813 Temp     =       324.5720 
PotEng   =        76.6889 E_bond   =        24.1677 E_angle  =        31.9123 
E_dihed  =        48.8984 E_impro  =         0.0000 E_vdwl   =       -28.2896 
E_coul   =         0.0000 E_long   =         0.0000 Press    =        -1.0834
------------ Step          48300 ----- CPU =     2.874201 (sec) -------------
TotEng   =       171.6090 KinEng   =        79.6989 Temp     =       270.0741 
PotEng   =        91.9101 E_bond   =        36.3068 E_angle  =        30.9044 
E_dihed  =        53.3072 E_impro  =         0.0000 E_vdwl   =       -28.6083 
E_coul   =         0.0000 E_long   =         0.0000 Press    =        -0.9634
------------ Step          48320 ----- CPU =     2.875323 (sec) -------------
TotEng   =       170.4294 KinEng   =        93.7213 Temp     =       317.5913 
PotEng   =        76.7081 E_bond   =        26.9368 E_angle  =        24.0671 
E_dihed  =        52.8397 E_impro  =         0.0000 E_vdwl   =       -27.1355 
E_coul   =         0.0000 E_long   =         0.0000 Press    =         0.7579
------------ Step          48340 ----- CPU =     2.876408 (sec) -------------
TotEng   =       168.8297 KinEng   =        84.5211 Temp     =       286.4151 
PotEng   =        84.3086 E_bond   =        27.3167 E_angle  =        32.3339 
E_dihed  =        50.8498 E_impro  =         0.0000 E_vdwl   =       -26.1918 
E_coul   =         0.0000 E_long   =         0.0000 Press    =         0.0655
------------ Step          48360 ----- CPU =     2.877406 (sec) -------------
TotEng   =       166.8693 KinEng   =        84.3955 Temp     =       285.9892 
PotEng   =        82.4739 E_bond   =        28.6088 E_angle  =        32.3845 
E_dihed  =        48.4404 E_impro  =         0.0000 E_vdwl   =       -26.9598 
E_coul   =         0.0000 E_long   =         0.0000 Press    =        -2.4281
------------ Step          48380 ----- CPU =     2.878414 (sec) -------------
TotEng   =       164.7682 KinEng   =        84.7300 Temp     =       287.1228 
PotEng   =        80.0382 E_bond   =        29.5560 E_angle  =        29.5344 
E_dihed  =        48.5270 E_impro  =         0.0000 E_vdwl   =       -27.5792 
E_coul   =         0.0000 E_long   =         0.0000 Press    =         0.7659
------------ Step          48400 ----- CPU =     2.879393 (sec) -------------
TotEng   =       162.4420 KinEng   =        79.9404 Temp     =       270.8924 
PotEng   =        82.5016 E_bond   =        30.7448 E_angle  =        27.1101 
E_dihed  =        50.4836 E_impro  =         0.0000 E_vdwl   =       -25.8369 
E_coul   =         0.0000 E_long   =         0.0000 Press    =         0.7816
------------ Step          48420 ----- CPU =     2.880631 (sec) -------------
TotEng   =       160.1901 KinEng   =        79.6544 Temp     =       269.9233 
PotEng   =        80.5357 E_bond   =        30.8750 E_angle  =        26.6644 
E_dihed  =        50.9957 E_impro  =         0.0000 E_vdwl   =       -27.9993 
E_coul   =         0.0000 E_long   =         0.0000 Press    =         1.0500
------------ Step          48440 ----- CPU =     2.881986 (sec) -------------
TotEng   =       157.9363 KinEng   =        87.4796 Temp     =       296.4402 
PotEng   =        70.4567 E_bond   =        25.7748 E_angle  =        25.5304 
E_dihed  =        49.3039 E_impro  =         0.0000 E_vdwl   =       -30.1523 
E_coul   =         0.0000 E_long   =         0.0000 Press    =         1.4725
------------ Step          48460 ----- CPU =     2.883326 (sec) -------------
TotEng   =       155.7376 KinEng   =        84.8899 Temp     =       287.6646 
PotEng   =        70.8477 E_bond   =        26.2234 E_angle  =        27.6207 
E_dihed  =        48.1765 E_impro  =         0.0000 E_vdwl   =       -31.1728 
E_coul   =         0.0000 E_long   =         0.0000 Press    =        -0.6860
------------ Step          48480 ----- CPU =     2.884391 (sec) -------------
TotEng   =       154.1137 KinEng   =        72.9830 Temp     =       247.3160 
PotEng   =        81.1307 E_bond   =        28.1854 E_angle  =        34.3649 
E_dihed  =        47.5685 E_impro  =         0.0000 E_vdwl   =       -28.9882 
E_coul   =         0.0000 E_long   =         0.0000 Press    =         0.4596
------------ Step          48500 ----- CPU =     2.885473 (sec) -------------
TotEng   =       153.1448 KinEng   =        81.1535 Temp     =       275.0031 
PotEng   =        71.9913 E_bond   =        30.2458 E_angle  =        20.5366 
E_dihed  =        51.4081 E_impro  =         0.0000 E_vdwl   =       -30.1991 
E_coul   =         0.0000 E_long   =         0.0000 Press    =        -1.0610
------------ Step          48520 ----- CPU =     2.886661 (sec) -------------
TotEng   =       152.4254 KinEng   =        87.3244 Temp     =       295.9144 
PotEng   =        65.1010 E_bond   =        19.9307 E_angle  =        20.4415 
E_dihed  =        53.9040 E_impro  =         0.0000 E_vdwl   =       -29.1751 
E_coul   =         0.0000 E_long   =         0.0000 Press    =        -0.6644
------------ Step          48540 ----- CPU =     2.887895 (sec) -------------
TotEng   =       152.4914 KinEng   =        72.1672 Temp     =       244.5514 
PotEng   =        80.3243 E_bond   =        32.8639 E_angle  =        27.0130 
E_dihed  =        49.8996 E_impro  =         0.0000 E_vdwl   =       -29.4522 
E_coul   =         0.0000 E_long   =         0.0000 Press    =         2.6257
------------ Step          48560 ----- CPU =     2.890695 (sec) -------------
TotEng   =       153.3853 KinEng   =        78.3662 Temp     =       265.5579 
PotEng   =        75.0191 E_bond   =        25.7416 E_angle  =        28.3582 
E_dihed  =        49.6332 E_impro  =         0.0000 E_vdwl   =       -28.7140 
E_coul   =         0.0000 E_long   =         0.0000 Press    =         1.8263
------------ Step          48580 ----- CPU =     2.891734 (sec) -------------
TotEng   =       155.0896 KinEng   =        77.3373 Temp     =       262.0715 
PotEng   =        77.7522 E_bond   =        27.2869 E_angle  =        26.0234 
E_dihed  =        53.8904 E_impro  =         0.0000 E_vdwl   =       -29.4484 
E_coul   =         0.0000 E_long   =         0.0000 Press    =         1.3678
------------ Step          48600 ----- CPU =     2.892716 (sec) -------------
TotEng   =       158.2484 KinEng   =        74.2160 Temp     =       251.4941 
PotEng   =        84.0325 E_bond   =        29.8660 E_angle  =        23.8462 
E_dihed  =        58.3698 E_impro  =         0.0000 E_vdwl   =       -28.0495 
E_coul   =         0.0000 E_long   =         0.0000 Press    =         1.8058
------------ Step          48620 ----- CPU =     2.893856 (sec) -------------
TotEng   =       162.4171 KinEng   =        78.4883 Temp     =       265.9719 
PotEng   =        83.9288 E_bond   =        29.9886 E_angle  =        25.5397 
E_dihed  =        58.9101 E_impro  =         0.0000 E_vdwl   =       -30.5096 
E_coul   =         0.0000 E_long   =         0.0000 Press    =        -0.2878
------------ Step          48640 ----- CPU =      2.89492 (sec) -------------
TotEng   =       167.2686 KinEng   =        81.2237 Temp     =       275.2412 
PotEng   =        86.0449 E_bond   =        31.2269 E_angle  =        29.1868 
E_dihed  =        56.5523 E_impro  =         0.0000 E_vdwl   =       -30.9211 
E_coul   =         0.0000 E_long   =         0.0000 Press    =         0.2124
------------ Step          48660 ----- CPU =     2.895942 (sec) -------------
TotEng   =       171.0863 KinEng   =        89.9960 Temp     =       304.9675 
PotEng   =        81.0904 E_bond   =        30.8905 E_angle  =        26.7796 
E_dihed  =        53.9543 E_impro  =         0.0000 E_vdwl   =       -30.5341 
E_coul   =         0.0000 E_long   =         0.0000 Press    =        -0.4713
------------ Step          48680 ----- CPU =     2.896958 (sec) -------------
TotEng   =       173.9028 KinEng   =        92.6532 Temp     =       313.9720 
PotEng   =        81.2497 E_bond   =        31.8110 E_angle  =        25.4945 
E_dihed  =        54.8096 E_impro  =         0.0000 E_vdwl   =       -30.8654 
E_coul   =         0.0000 E_long   =         0.0000 Press    =        -0.1977
------------ Step          48700 ----- CPU =     2.898228 (sec) -------------
TotEng   =       175.5538 KinEng   =        88.7725 Temp     =       300.8216 
PotEng   =        86.7812 E_bond   =        35.2909 E_angle  =        27.3112 
E_dihed  =        55.1823 E_impro  =         0.0000 E_vdwl   =       -31.0031 
E_coul   =         0.0000 E_long   =         0.0000 Press    =         0.5658
------------ Step          48720 ----- CPU =     2.899841 (sec) -------------
TotEng   =       176.3948 KinEng   =        95.7490 Temp     =       324.4627 
PotEng   =        80.6458 E_bond   =        28.1609 E_angle  =        28.7609 
E_dihed  =        55.3862 E_impro  =         0.0000 E_vdwl   =       -31.6621 
E_coul   =         0.0000 E_long   =         0.0000 Press    =        -1.5169
------------ Step          48740 ----- CPU =     2.900889 (sec) -------------
TotEng   =       177.1239 KinEng   =        91.2704 Temp     =       309.2860 
PotEng   =        85.8536 E_bond   =        37.6072 E_angle  =        26.3274 
E_dihed  =        53.2961 E_impro  =         0.0000 E_vdwl   =       -31.3772 
E_coul   =         0.0000 E_long   =         0.0000 Press    =         1.9621
------------ Step          48760 ----- CPU =     2.901957 (sec) -------------
TotEng   =       177.2547 KinEng   =        99.2441 Temp     =       336.3066 
PotEng   =        78.0106 E_bond   =        30.7007 E_angle  =        29.0633 
E_dihed  =        49.5918 E_impro  =         0.0000 E_vdwl   =       -31.3452 
E_coul   =         0.0000 E_long   =         0.0000 Press    =         1.2080
------------ Step          48780 ----- CPU =     2.903078 (sec) -------------
TotEng   =       176.7833 KinEng   =        89.2647 Temp     =       302.4894 
PotEng   =        87.5187 E_bond   =        36.5986 E_angle  =        27.6102 
E_dihed  =        54.2972 E_impro  =         0.0000 E_vdwl   =       -30.9872 
E_coul   =         0.0000 E_long   =         0.0000 Press    =        -3.4835
------------ Step          48800 ----- CPU =       2.9041 (sec) -------------
TotEng   =       175.9526 KinEng   =        93.8187 Temp     =       317.9216 
PotEng   =        82.1339 E_bond   =        31.1922 E_angle  =        28.0934 
E_dihed  =        55.3572 E_impro  =         0.0000 E_vdwl   =       -32.5088 
E_coul   =         0.0000 E_long   =         0.0000 Press    =         1.1986
------------ Step          48820 ----- CPU =      2.90529 (sec) -------------
TotEng   =       174.9083 KinEng   =        87.7371 Temp     =       297.3130 
PotEng   =        87.1712 E_bond   =        35.4972 E_angle  =        31.2064 
E_dihed  =        49.6957 E_impro  =         0.0000 E_vdwl   =       -29.2282 
E_coul   =         0.0000 E_long   =         0.0000 Press    =        -0.2267
------------ Step          48840 ----- CPU =     2.906365 (sec) -------------
TotEng   =       173.5221 KinEng   =        95.6613 Temp     =       324.1653 
PotEng   =        77.8609 E_bond   =        30.3288 E_angle  =        28.2492 
E_dihed  =        45.9376 E_impro  =         0.0000 E_vdwl   =       -26.6547 
E_coul   =         0.0000 E_long   =         0.0000 Press    =        -0.9393
------------ Step          48860 ----- CPU =     2.907914 (sec) -------------
TotEng   =       171.7703 KinEng   =        87.0662 Temp     =       295.0396 
PotEng   =        84.7041 E_bond   =        34.5892 E_angle  =        31.9157 
E_dihed  =        48.2987 E_impro  =         0.0000 E_vdwl   =       -30.0995 
E_coul   =         0.0000 E_long   =         0.0000 Press    =         2.3125
------------ Step          48880 ----- CPU =     2.909025 (sec) -------------
TotEng   =       169.6423 KinEng   =        92.5086 Temp     =       313.4821 
PotEng   =        77.1337 E_bond   =        26.4894 E_angle  =        31.0191 
E_dihed  =        48.3605 E_impro  =         0.0000 E_vdwl   =       -28.7353 
E_coul   =         0.0000 E_long   =         0.0000 Press    =        -0.1125
------------ Step          48900 ----- CPU =     2.910318 (sec) -------------
TotEng   =       167.3207 KinEng   =        79.2095 Temp     =       268.4156 
PotEng   =        88.1113 E_bond   =        30.2594 E_angle  =        30.9354 
E_dihed  =        54.6879 E_impro  =         0.0000 E_vdwl   =       -27.7713 
E_coul   =         0.0000 E_long   =         0.0000 Press    =        -0.3259
------------ Step          48920 ----- CPU =     2.911628 (sec) -------------
TotEng   =       165.6175 KinEng   =        87.3964 Temp     =       296.1585 
PotEng   =        78.2210 E_bond   =        28.0511 E_angle  =        22.8492 
E_dihed  =        56.9396 E_impro  =         0.0000 E_vdwl   =       -29.6189 
E_coul   =         0.0000 E_long   =         0.0000 Press    =         0.6444
------------ Step          48940 ----- CPU =     2.912652 (sec) -------------
TotEng   =       164.1819 KinEng   =        78.8532 Temp     =       267.2083 
PotEng   =        85.3287 E_bond   =        29.9465 E_angle  =        29.6391 
E_dihed  =        53.2289 E_impro  =         0.0000 E_vdwl   =       -27.4858 
E_coul   =         0.0000 E_long   =         0.0000 Press    =        -0.9779
------------ Step          48960 ----- CPU =     2.913781 (sec) -------------
TotEng   =       163.2763 KinEng   =        84.8671 Temp     =       287.5875 
PotEng   =        78.4091 E_bond   =        27.8613 E_angle  =        24.2038 
E_dihed  =        52.8682 E_impro  =         0.0000 E_vdwl   =       -26.5242 
E_coul   =         0.0000 E_long   =         0.0000 Press    =        -1.4411
------------ Step          48980 ----- CPU =     2.916155 (sec) -------------
TotEng   =       162.6375 KinEng   =        82.0095 Temp     =       277.9039 
PotEng   =        80.6280 E_bond   =        27.9223 E_angle  =        31.8175 
E_dihed  =        48.5328 E_impro  =         0.0000 E_vdwl   =       -27.6446 
E_coul   =         0.0000 E_long   =         0.0000 Press    =         0.4983
------------ Step          49000 ----- CPU =     2.917486 (sec) -------------
TotEng   =       162.0431 KinEng   =        89.8377 Temp     =       304.4310 
PotEng   =        72.2055 E_bond   =        21.6223 E_angle  =        33.1194 
E_dihed  =        43.6336 E_impro  =         0.0000 E_vdwl   =       -26.1698 
E_coul   =         0.0000 E_long   =         0.0000 Press    =        -0.7274
------------ Step          49020 ----- CPU =     2.918746 (sec) -------------
TotEng   =       162.0464 KinEng   =        77.0832 Temp     =       261.2103 
PotEng   =        84.9632 E_bond   =        36.2138 E_angle  =        33.4803 
E_dihed  =        44.1823 E_impro  =         0.0000 E_vdwl   =       -28.9133 
E_coul   =         0.0000 E_long   =         0.0000 Press    =        -0.7044
------------ Step          49040 ----- CPU =     2.919763 (sec) -------------
TotEng   =       162.1080 KinEng   =        88.4231 Temp     =       299.6377 
PotEng   =        73.6849 E_bond   =        28.4376 E_angle  =        24.3017 
E_dihed  =        48.1135 E_impro  =         0.0000 E_vdwl   =       -27.1679 
E_coul   =         0.0000 E_long   =         0.0000 Press    =         1.9358
------------ Step          49060 ----- CPU =     2.920878 (sec) -------------
TotEng   =       162.4058 KinEng   =        85.4681 Temp     =       289.6241 
PotEng   =        76.9377 E_bond   =        31.2854 E_angle  =        24.0305 
E_dihed  =        50.8837 E_impro  =         0.0000 E_vdwl   =       -29.2619 
E_coul   =         0.0000 E_long   =         0.0000 Press    =        -2.1569
------------ Step          49080 ----- CPU =     2.922322 (sec) -------------
TotEng   =       163.1192 KinEng   =        82.3379 Temp     =       279.0169 
PotEng   =        80.7813 E_bond   =        32.3064 E_angle  =        28.6887 
E_dihed  =        50.9931 E_impro  =         0.0000 E_vdwl   =       -31.2068 
E_coul   =         0.0000 E_long   =         0.0000 Press    =        -1.1430
------------ Step          49100 ----- CPU =     2.923672 (sec) -------------
TotEng   =       164.4033 KinEng   =        86.9431 Temp     =       294.6224 
PotEng   =        77.4602 E_bond   =        31.4695 E_angle  =        26.9760 
E_dihed  =        48.9457 E_impro  =         0.0000 E_vdwl   =       -29.9310 
E_coul   =         0.0000 E_long   =         0.0000 Press    =        -1.4069
------------ Step          49120 ----- CPU =     2.924884 (sec) -------------
TotEng   =       166.3781 KinEng   =        91.0791 Temp     =       308.6380 
PotEng   =        75.2990 E_bond   =        31.3363 E_angle  =        26.8856 
E_dihed  =        49.4184 E_impro  =         0.0000 E_vdwl   =       -32.3413 
E_coul   =         0.0000 E_long   =         0.0000 Press    =        -0.6708
------------ Step          49140 ----- CPU =     2.925992 (sec) -------------
TotEng   =       168.7565 KinEng   =        89.6714 Temp     =       303.8677 
PotEng   =        79.0850 E_bond   =        28.5987 E_angle  =        28.8990 
E_dihed  =        54.9399 E_impro  =         0.0000 E_vdwl   =       -33.3526 
E_coul   =         0.0000 E_long   =         0.0000 Press    =         1.0079
------------ Step          49160 ----- CPU =     2.927258 (sec) -------------
TotEng   =       171.4145 KinEng   =        86.0921 Temp     =       291.7384 
PotEng   =        85.3224 E_bond   =        33.2456 E_angle  =        27.9576 
E_dihed  =        56.9350 E_impro  =         0.0000 E_vdwl   =       -32.8157 
E_coul   =         0.0000 E_long   =         0.0000 Press    =        -1.2785
------------ Step          49180 ----- CPU =     2.928346 (sec) -------------
TotEng   =       174.7748 KinEng   =        91.5653 Temp     =       310.2853 
PotEng   =        83.2096 E_bond   =        30.7424 E_angle  =        29.0828 
E_dihed  =        54.9107 E_impro  =         0.0000 E_vdwl   =       -31.5263 
E_coul   =         0.0000 E_long   =         0.0000 Press    =         0.3470
------------ Step          49200 ----- CPU =     2.929366 (sec) -------------
TotEng   =       177.9347 KinEng   =        93.7863 Temp     =       317.8117 
PotEng   =        84.1484 E_bond   =        33.0264 E_angle  =        28.6859 
E_dihed  =        54.2369 E_impro  =         0.0000 E_vdwl   =       -31.8008 
E_coul   =         0.0000 E_long   =         0.0000 Press    =        -0.1711
------------ Step          49220 ----- CPU =     2.930459 (sec) -------------
TotEng   =       180.9180 KinEng   =        98.3129 Temp     =       333.1510 
PotEng   =        82.6050 E_bond   =        30.7268 E_angle  =        30.7099 
E_dihed  =        55.0068 E_impro  =         0.0000 E_vdwl   =       -33.8385 
E_coul   =         0.0000 E_long   =         0.0000 Press    =        -0.8589
------------ Step          49240 ----- CPU =     2.932022 (sec) -------------
TotEng   =       183.2643 KinEng   =        95.0292 Temp     =       322.0236 
PotEng   =        88.2350 E_bond   =        35.8914 E_angle  =        23.1078 
E_dihed  =        57.6944 E_impro  =         0.0000 E_vdwl   =       -28.4586 
E_coul   =         0.0000 E_long   =         0.0000 Press    =         0.6581
------------ Step          49260 ----- CPU =     2.933325 (sec) -------------
TotEng   =       184.8800 KinEng   =        84.8257 Temp     =       287.4470 
PotEng   =       100.0543 E_bond   =        42.1162 E_angle  =        29.2070 
E_dihed  =        59.9486 E_impro  =         0.0000 E_vdwl   =       -31.2174 
E_coul   =         0.0000 E_long   =         0.0000 Press    =         0.5131
------------ Step          49280 ----- CPU =       2.9344 (sec) -------------
TotEng   =       185.8644 KinEng   =        97.1739 Temp     =       329.2913 
PotEng   =        88.6904 E_bond   =        32.1004 E_angle  =        29.3068 
E_dihed  =        59.5617 E_impro  =         0.0000 E_vdwl   =       -32.2784 
E_coul   =         0.0000 E_long   =         0.0000 Press    =         0.3464
------------ Step          49300 ----- CPU =     2.935488 (sec) -------------
TotEng   =       186.4732 KinEng   =        94.6065 Temp     =       320.5912 
PotEng   =        91.8666 E_bond   =        35.3008 E_angle  =        32.4693 
E_dihed  =        57.7396 E_impro  =         0.0000 E_vdwl   =       -33.6430 
E_coul   =         0.0000 E_long   =         0.0000 Press    =         1.3945
------------ Step          49320 ----- CPU =     2.937539 (sec) -------------
TotEng   =       186.6192 KinEng   =        91.2091 Temp     =       309.0784 
PotEng   =        95.4101 E_bond   =        41.5530 E_angle  =        28.6090 
E_dihed  =        59.5734 E_impro  =         0.0000 E_vdwl   =       -34.3253 
E_coul   =         0.0000 E_long   =         0.0000 Press    =         1.0492
------------ Step          49340 ----- CPU =     2.938839 (sec) -------------
TotEng   =       185.8826 KinEng   =        93.4920 Temp     =       316.8145 
PotEng   =        92.3905 E_bond   =        38.3879 E_angle  =        29.1770 
E_dihed  =        57.1562 E_impro  =         0.0000 E_vdwl   =       -32.3306 
E_coul   =         0.0000 E_long   =         0.0000 Press    =         0.4348
------------ Step          49360 ----- CPU =     2.939928 (sec) -------------
TotEng   =       184.6758 KinEng   =        91.8548 Temp     =       311.2664 
PotEng   =        92.8211 E_bond   =        39.3494 E_angle  =        30.3777 
E_dihed  =        56.8853 E_impro  =         0.0000 E_vdwl   =       -33.7914 
E_coul   =         0.0000 E_long   =         0.0000 Press    =         0.0196
------------ Step          49380 ----- CPU =     2.940943 (sec) -------------
TotEng   =       182.7102 KinEng   =        94.0421 Temp     =       318.6787 
PotEng   =        88.6680 E_bond   =        26.4902 E_angle  =        35.1055 
E_dihed  =        57.4248 E_impro  =         0.0000 E_vdwl   =       -30.3524 
E_coul   =         0.0000 E_long   =         0.0000 Press    =         2.0003
------------ Step          49400 ----- CPU =     2.942056 (sec) -------------
TotEng   =       180.6825 KinEng   =        80.0036 Temp     =       271.1065 
PotEng   =       100.6789 E_bond   =        40.6431 E_angle  =        33.1391 
E_dihed  =        57.8157 E_impro  =         0.0000 E_vdwl   =       -30.9189 
E_coul   =         0.0000 E_long   =         0.0000 Press    =        -1.0329
------------ Step          49420 ----- CPU =     2.943197 (sec) -------------
TotEng   =       177.7931 KinEng   =        96.1168 Temp     =       325.7089 
PotEng   =        81.6764 E_bond   =        26.9743 E_angle  =        28.3231 
E_dihed  =        60.2710 E_impro  =         0.0000 E_vdwl   =       -33.8921 
E_coul   =         0.0000 E_long   =         0.0000 Press    =         1.6524
------------ Step          49440 ----- CPU =     2.944195 (sec) -------------
TotEng   =       174.1341 KinEng   =        95.3422 Temp     =       323.0841 
PotEng   =        78.7919 E_bond   =        33.3161 E_angle  =        17.9026 
E_dihed  =        60.9221 E_impro  =         0.0000 E_vdwl   =       -33.3489 
E_coul   =         0.0000 E_long   =         0.0000 Press    =         2.6139
------------ Step          49460 ----- CPU =      2.94519 (sec) -------------
TotEng   =       170.2064 KinEng   =        79.4924 Temp     =       269.3744 
PotEng   =        90.7140 E_bond   =        33.2240 E_angle  =        28.4842 
E_dihed  =        61.1467 E_impro  =         0.0000 E_vdwl   =       -32.1409 
E_coul   =         0.0000 E_long   =         0.0000 Press    =        -4.7168
------------ Step          49480 ----- CPU =     2.946201 (sec) -------------
TotEng   =       166.6195 KinEng   =        89.0030 Temp     =       301.6026 
PotEng   =        77.6165 E_bond   =        26.9039 E_angle  =        27.5028 
E_dihed  =        54.9827 E_impro  =         0.0000 E_vdwl   =       -31.7729 
E_coul   =         0.0000 E_long   =         0.0000 Press    =         0.2507
------------ Step          49500 ----- CPU =     2.947484 (sec) -------------
TotEng   =       163.5904 KinEng   =        89.9241 Temp     =       304.7238 
PotEng   =        73.6663 E_bond   =        25.7847 E_angle  =        28.5315 
E_dihed  =        49.1015 E_impro  =         0.0000 E_vdwl   =       -29.7514 
E_coul   =         0.0000 E_long   =         0.0000 Press    =        -0.5242
------------ Step          49520 ----- CPU =      2.94908 (sec) -------------
TotEng   =       161.3933 KinEng   =        76.3821 Temp     =       258.8346 
PotEng   =        85.0111 E_bond   =        36.6216 E_angle  =        22.3289 
E_dihed  =        53.0014 E_impro  =         0.0000 E_vdwl   =       -26.9408 
E_coul   =         0.0000 E_long   =         0.0000 Press    =        -4.0857
------------ Step          49540 ----- CPU =     2.950485 (sec) -------------
TotEng   =       159.8578 KinEng   =        81.4771 Temp     =       276.0999 
PotEng   =        78.3807 E_bond   =        28.0356 E_angle  =        23.7889 
E_dihed  =        55.3621 E_impro  =         0.0000 E_vdwl   =       -28.8059 
E_coul   =         0.0000 E_long   =         0.0000 Press    =         4.4737
------------ Step          49560 ----- CPU =     2.951543 (sec) -------------
TotEng   =       159.2326 KinEng   =        83.4497 Temp     =       282.7844 
PotEng   =        75.7829 E_bond   =        32.3017 E_angle  =        20.5555 
E_dihed  =        52.8146 E_impro  =         0.0000 E_vdwl   =       -29.8889 
E_coul   =         0.0000 E_long   =         0.0000 Press    =        -3.4250
------------ Step          49580 ----- CPU =     2.952654 (sec) -------------
TotEng   =       159.0908 KinEng   =        74.4817 Temp     =       252.3947 
PotEng   =        84.6091 E_bond   =        35.3834 E_angle  =        26.2847 
E_dihed  =        53.3142 E_impro  =         0.0000 E_vdwl   =       -30.3733 
E_coul   =         0.0000 E_long   =         0.0000 Press    =        -2.2632
------------ Step          49600 ----- CPU =      2.95437 (sec) -------------
TotEng   =       159.3624 KinEng   =        83.3979 Temp     =       282.6086 
PotEng   =        75.9645 E_bond   =        28.4326 E_angle  =        26.8077 
E_dihed  =        52.1531 E_impro  =         0.0000 E_vdwl   =       -31.4289 
E_coul   =         0.0000 E_long   =         0.0000 Press    =         3.7723
------------ Step          49620 ----- CPU =     2.955696 (sec) -------------
TotEng   =       160.1586 KinEng   =        85.6864 Temp     =       290.3636 
PotEng   =        74.4722 E_bond   =        31.2587 E_angle  =        24.7631 
E_dihed  =        49.9336 E_impro  =         0.0000 E_vdwl   =       -31.4832 
E_coul   =         0.0000 E_long   =         0.0000 Press    =        -6.6760
------------ Step          49640 ----- CPU =     2.956819 (sec) -------------
TotEng   =       160.9468 KinEng   =        82.1956 Temp     =       278.5345 
PotEng   =        78.7512 E_bond   =        33.7099 E_angle  =        25.1904 
E_dihed  =        50.9231 E_impro  =         0.0000 E_vdwl   =       -31.0723 
E_coul   =         0.0000 E_long   =         0.0000 Press    =         1.2857
------------ Step          49660 ----- CPU =     2.958386 (sec) -------------
TotEng   =       161.7860 KinEng   =        85.7097 Temp     =       290.4427 
PotEng   =        76.0763 E_bond   =        32.8641 E_angle  =        23.6619 
E_dihed  =        52.3256 E_impro  =         0.0000 E_vdwl   =       -32.7753 
E_coul   =         0.0000 E_long   =         0.0000 Press    =         1.8565
------------ Step          49680 ----- CPU =     2.959402 (sec) -------------
TotEng   =       162.6824 KinEng   =        83.9880 Temp     =       284.6083 
PotEng   =        78.6944 E_bond   =        25.9952 E_angle  =        29.3474 
E_dihed  =        56.9979 E_impro  =         0.0000 E_vdwl   =       -33.6461 
E_coul   =         0.0000 E_long   =         0.0000 Press    =        -4.8590
------------ Step          49700 ----- CPU =     2.960418 (sec) -------------
TotEng   =       163.8815 KinEng   =        84.0743 Temp     =       284.9009 
PotEng   =        79.8072 E_bond   =        26.6022 E_angle  =        27.4043 
E_dihed  =        58.4310 E_impro  =         0.0000 E_vdwl   =       -32.6302 
E_coul   =         0.0000 E_long   =         0.0000 Press    =         2.6770
------------ Step          49720 ----- CPU =     2.961565 (sec) -------------
TotEng   =       165.4799 KinEng   =        84.1097 Temp     =       285.0208 
PotEng   =        81.3702 E_bond   =        32.4436 E_angle  =        25.1438 
E_dihed  =        56.3026 E_impro  =         0.0000 E_vdwl   =       -32.5199 
E_coul   =         0.0000 E_long   =         0.0000 Press    =        -2.2502
------------ Step          49740 ----- CPU =     2.962636 (sec) -------------
TotEng   =       167.0968 KinEng   =        86.6630 Temp     =       293.6732 
PotEng   =        80.4337 E_bond   =        32.0584 E_angle  =        28.4943 
E_dihed  =        53.5584 E_impro  =         0.0000 E_vdwl   =       -33.6773 
E_coul   =         0.0000 E_long   =         0.0000 Press    =        -1.9185
------------ Step          49760 ----- CPU =     2.963852 (sec) -------------
TotEng   =       168.3824 KinEng   =        99.7661 Temp     =       338.0752 
PotEng   =        68.6164 E_bond   =        28.6241 E_angle  =        22.8873 
E_dihed  =        51.3105 E_impro  =         0.0000 E_vdwl   =       -34.2056 
E_coul   =         0.0000 E_long   =         0.0000 Press    =         4.7293
------------ Step          49780 ----- CPU =     2.965057 (sec) -------------
TotEng   =       169.1714 KinEng   =        91.6247 Temp     =       310.4869 
PotEng   =        77.5466 E_bond   =        36.8221 E_angle  =        23.0519 
E_dihed  =        49.3539 E_impro  =         0.0000 E_vdwl   =       -31.6813 
E_coul   =         0.0000 E_long   =         0.0000 Press    =         0.2490
------------ Step          49800 ----- CPU =     2.966314 (sec) -------------
TotEng   =       169.1515 KinEng   =        92.2981 Temp     =       312.7688 
PotEng   =        76.8533 E_bond   =        28.9642 E_angle  =        34.3512 
E_dihed  =        46.2822 E_impro  =         0.0000 E_vdwl   =       -32.7442 
E_coul   =         0.0000 E_long   =         0.0000 Press    =         1.9929
------------ Step          49820 ----- CPU =     2.967498 (sec) -------------
TotEng   =       168.8249 KinEng   =        90.9953 Temp     =       308.3539 
PotEng   =        77.8296 E_bond   =        34.6833 E_angle  =        28.8509 
E_dihed  =        45.9330 E_impro  =         0.0000 E_vdwl   =       -31.6377 
E_coul   =         0.0000 E_long   =         0.0000 Press    =         3.0398
------------ Step          49840 ----- CPU =     2.968538 (sec) -------------
TotEng   =       168.4386 KinEng   =        88.2769 Temp     =       299.1420 
PotEng   =        80.1618 E_bond   =        32.5724 E_angle  =        27.4120 
E_dihed  =        50.9551 E_impro  =         0.0000 E_vdwl   =       -30.7777 
E_coul   =         0.0000 E_long   =         0.0000 Press    =         0.5063
------------ Step          49860 ----- CPU =     2.969788 (sec) -------------
TotEng   =       167.9725 KinEng   =        95.8738 Temp     =       324.8855 
PotEng   =        72.0987 E_bond   =        34.0806 E_angle  =        19.7741 
E_dihed  =        51.0839 E_impro  =         0.0000 E_vdwl   =       -32.8399 
E_coul   =         0.0000 E_long   =         0.0000 Press    =        -1.1193
------------ Step          49880 ----- CPU =     2.971292 (sec) -------------
TotEng   =       167.2390 KinEng   =        88.3165 Temp     =       299.2763 
PotEng   =        78.9225 E_bond   =        35.1504 E_angle  =        25.0249 
E_dihed  =        51.8189 E_impro  =         0.0000 E_vdwl   =       -33.0717 
E_coul   =         0.0000 E_long   =         0.0000 Press    =         0.1357
------------ Step          49900 ----- CPU =     2.972499 (sec) -------------
TotEng   =       166.3362 KinEng   =        84.1960 Temp     =       285.3133 
PotEng   =        82.1401 E_bond   =        31.4510 E_angle  =        30.0231 
E_dihed  =        55.3152 E_impro  =         0.0000 E_vdwl   =       -34.6492 
E_coul   =         0.0000 E_long   =         0.0000 Press    =        -0.7627
------------ Step          49920 ----- CPU =     2.973966 (sec) -------------
TotEng   =       165.7762 KinEng   =        90.8135 Temp     =       307.7380 
PotEng   =        74.9626 E_bond   =        27.3197 E_angle  =        30.3796 
E_dihed  =        52.5920 E_impro  =         0.0000 E_vdwl   =       -35.3286 
E_coul   =         0.0000 E_long   =         0.0000 Press    =        -2.4753
------------ Step          49940 ----- CPU =     2.975219 (sec) -------------
TotEng   =       165.5327 KinEng   =        83.8741 Temp     =       284.2225 
PotEng   =        81.6586 E_bond   =        37.6954 E_angle  =        29.0850 
E_dihed  =        48.6071 E_impro  =         0.0000 E_vdwl   =       -33.7289 
E_coul   =         0.0000 E_long   =         0.0000 Press    =         2.2504
------------ Step          49960 ----- CPU =     2.976353 (sec) -------------
TotEng   =       165.0189 KinEng   =        92.4733 Temp     =       313.3624 
PotEng   =        72.5456 E_bond   =        29.7708 E_angle  =        30.3996 
E_dihed  =        48.5693 E_impro  =         0.0000 E_vdwl   =       -36.1942 
E_coul   =         0.0000 E_long   =         0.0000 Press    =        -0.2816
------------ Step          49980 ----- CPU =     2.977396 (sec) -------------
TotEng   =       164.4357 KinEng   =        91.5258 Temp     =       310.1515 
PotEng   =        72.9099 E_bond   =        34.6319 E_angle  =        25.9455 
E_dihed  =        49.3765 E_impro  =         0.0000 E_vdwl   =       -37.0441 
E_coul   =         0.0000 E_long   =         0.0000 Press    =        -0.4781
------------ Step          50000 ----- CPU =     2.978501 (sec) -------------
TotEng   =       163.4225 KinEng   =        88.2232 Temp     =       298.9602 
PotEng   =        75.1993 E_bond   =        31.6289 E_angle  =        29.1061 
E_dihed  =        53.0373 E_impro  =         0.0000 E_vdwl   =       -38.5729 
E_coul   =         0.0000 E_long   =         0.0000 Press    =         3.9910
------------ Step          50020 ----- CPU =     2.979786 (sec) -------------
TotEng   =       161.6368 KinEng   =        86.0265 Temp     =       291.5164 
PotEng   =        75.6102 E_bond   =        30.5061 E_angle  =        30.4088 
E_dihed  =        52.5121 E_impro  =         0.0000 E_vdwl   =       -37.8169 
E_coul   =         0.0000 E_long   =         0.0000 Press    =        -1.3851
------------ Step          50040 ----- CPU =     2.981041 (sec) -------------
TotEng   =       158.7809 KinEng   =        87.9099 Temp     =       297.8986 
PotEng   =        70.8709 E_bond   =        29.0385 E_angle  =        25.1082 
E_dihed  =        52.2189 E_impro  =         0.0000 E_vdwl   =       -35.4948 
E_coul   =         0.0000 E_long   =         0.0000 Press    =         2.4509
------------ Step          50060 ----- CPU =     2.982219 (sec) -------------
TotEng   =       155.4073 KinEng   =        76.4339 Temp     =       259.0098 
PotEng   =        78.9735 E_bond   =        32.5911 E_angle  =        24.6036 
E_dihed  =        54.6306 E_impro  =         0.0000 E_vdwl   =       -32.8519 
E_coul   =         0.0000 E_long   =         0.0000 Press    =         3.2386
------------ Step          50080 ----- CPU =     2.983609 (sec) -------------
TotEng   =       151.7332 KinEng   =        82.7885 Temp     =       280.5438 
PotEng   =        68.9447 E_bond   =        25.3106 E_angle  =        25.0897 
E_dihed  =        53.2122 E_impro  =         0.0000 E_vdwl   =       -34.6678 
E_coul   =         0.0000 E_long   =         0.0000 Press    =        -2.8891
------------ Step          50100 ----- CPU =     2.984779 (sec) -------------
TotEng   =       148.4916 KinEng   =        74.1697 Temp     =       251.3372 
PotEng   =        74.3219 E_bond   =        30.0827 E_angle  =        25.8669 
E_dihed  =        52.4717 E_impro  =         0.0000 E_vdwl   =       -34.0993 
E_coul   =         0.0000 E_long   =         0.0000 Press    =         0.9879
------------ Step          50120 ----- CPU =     2.986018 (sec) -------------
TotEng   =       145.9638 KinEng   =        84.7828 Temp     =       287.3018 
PotEng   =        61.1810 E_bond   =        27.8699 E_angle  =        22.1017 
E_dihed  =        47.7701 E_impro  =         0.0000 E_vdwl   =       -36.5608 
E_coul   =         0.0000 E_long   =         0.0000 Press    =        -1.3295
------------ Step          50140 ----- CPU =     2.987156 (sec) -------------
TotEng   =       143.9942 KinEng   =        74.3655 Temp     =       252.0009 
PotEng   =        69.6287 E_bond   =        33.0654 E_angle  =        20.5248 
E_dihed  =        48.9837 E_impro  =         0.0000 E_vdwl   =       -32.9452 
E_coul   =         0.0000 E_long   =         0.0000 Press    =         0.1146
------------ Step          50144 ----- CPU =     2.987451 (sec) -------------
TotEng   =       143.7494 KinEng   =        72.0071 Temp     =       244.0091 
PotEng   =        71.7422 E_bond   =        33.3374 E_angle  =        22.6035 
E_dihed  =        49.0897 E_impro  =         0.0000 E_vdwl   =       -33.2883 
E_coul   =         0.0000 E_long   =         0.0000 Press    =        -1.0430
Loop time of 2.98747 on 1 procs for 50000 steps with 100 atoms

Performance: 1446.042 ns/day, 0.017 hours/ns, 16736.592 timesteps/s, 1.674 Matom-step/s
73.1% CPU use with 1 MPI tasks x no OpenMP threads

MPI task timing breakdown:
Section |  min time  |  avg time  |  max time  |%varavg| %total
---------------------------------------------------------------
Pair    | 0.87244    | 0.87244    | 0.87244    |   0.0 | 29.20
Bond    | 0.84235    | 0.84235    | 0.84235    |   0.0 | 28.20
Neigh   | 0.22746    | 0.22746    | 0.22746    |   0.0 |  7.61
Comm    | 0.016924   | 0.016924   | 0.016924   |   0.0 |  0.57
Output  | 0.35217    | 0.35217    | 0.35217    |   0.0 | 11.79
Modify  | 0.64118    | 0.64118    | 0.64118    |   0.0 | 21.46
Other   |            | 0.03495    |            |       |  1.17

Nlocal:            100 ave         100 max         100 min
Histogram: 1 0 0 0 0 0 0 0 0 0
Nghost:              0 ave           0 max           0 min
Histogram: 1 0 0 0 0 0 0 0 0 0
Neighs:           2158 ave        2158 max        2158 min
Histogram: 1 0 0 0 0 0 0 0 0 0
FullNghs:            0 ave           0 max           0 min
Histogram: 1 0 0 0 0 0 0 0 0 0

Total # of neighbors = 2158
Ave neighs/atom = 21.58
Ave special neighs/atom = 5.88
Neighbor list builds = 2467
Dangerous builds = 2

print "All done"
All done
write_data final.data nofix
System init for write_data ...
Generated 0 of 3 mixed pair_coeff terms from geometric mixing rule
WARNING: Not all mixed pair coeffs generated from mixing. Use write_data with 'pair ij' option to store all pair coeffs. (src/src/write_data.cpp:326)
Total wall time: 0:00:05
