read_data	InitialFile.txt
Reading data file ...
  orthogonal box = (0 0 0) to (50000 50000 50000)
  1 by 1 by 1 MPI processor grid
  reading atom labelmap ...
  reading bond labelmap ...
  reading atoms ...
  100 atoms
  scanning bonds ...
  1 = max bonds/atom
  reading bonds ...
  99 bonds
Finding 1-2 1-3 1-4 neighbors ...
  special bond factors lj:    0        0        0       
  special bond factors coul:  0        0        0       
     2 = max # of 1-2 neighbors
     2 = max # of 1-3 neighbors
     4 = max # of 1-4 neighbors
     6 = max # of special neighbors
  special bonds CPU = 0.000 seconds
  read_data CPU = 0.003 seconds

labelmap atom 1 A 2 U 3 M

# Dreiding potential information
neighbor	2.0 bin
neigh_modify every 1 delay 0 check yes

bond_style      harmonic
bond_coeff	Normal 0.1 450
bond_coeff	M-M 0.1 350

#angle_style     harmonic
#angle_coeff	Normal 60 109.5
#angle_coeff	M-M 120 109.5

#dihedral_style	multi/harmonic
#dihedral_coeff	1 1.73 -4.49 0.776 6.99 0.0
#dihedral_coeff	2 1.73 -4.49 0.776 6.99 0.0

pair_style	lj/cut 10.5
pair_coeff	* * 2 450 2000
pair_coeff	M M 2 350 2000

compute csym all centro/atom fcc
compute peratom all pe/atom


#####################################################
# Equilibration (Brownian dynamics at 300 K)

velocity 	all create 300.0 1231
fix		1 all nve/limit 100
fix 2 all brownian 300.0 12908410 gamma_t 2.0 rng gaussian # Compute a correct 300K simulation, check the value for gamma_t
thermo_style	custom step temp
thermo          10000
timestep	1
run		100000
Generated 0 of 3 mixed pair_coeff terms from geometric mixing rule
WARNING: One or more atoms are time integrated more than once (src/src/modify.cpp:289)
Neighbor list info ...
  update: every = 1 steps, delay = 0 steps, check = yes
  max neighbors/atom: 2000, page size: 100000
  master list distance cutoff = 2002
  ghost atom cutoff = 2002
  binsize = 1001, bins = 50 50 50
  2 neighbor lists, perpetual/occasional/extra = 1 1 0
  (1) pair lj/cut, perpetual
      attributes: half, newton on
      pair build: half/bin/newton
      stencil: half/bin/3d
      bin: standard
  (2) compute centro/atom, occasional
      attributes: full, newton on
      pair build: full/bin
      stencil: full/bin/3d
      bin: standard
Per MPI rank memory allocation (min/avg/max) = 5.891 | 5.891 | 5.891 Mbytes
   Step          Temp     
         0   300          
     10000   296.24142    
     20000   248.91048    
     30000   321.80328    
     40000   278.41779    
     50000   283.1071     
     60000   298.3782     
     70000   300.24027    
     80000   258.6292     
     90000   324.15576    
    100000   317.67531    
Loop time of 1.81913 on 1 procs for 100000 steps with 100 atoms

Performance: 4749.514 ns/day, 0.005 hours/ns, 54971.230 timesteps/s, 5.497 Matom-step/s
99.0% CPU use with 1 MPI tasks x no OpenMP threads

MPI task timing breakdown:
Section |  min time  |  avg time  |  max time  |%varavg| %total
---------------------------------------------------------------
Pair    | 0.32529    | 0.32529    | 0.32529    |   0.0 | 17.88
Bond    | 0.19046    | 0.19046    | 0.19046    |   0.0 | 10.47
Neigh   | 0.14105    | 0.14105    | 0.14105    |   0.0 |  7.75
Comm    | 0.039418   | 0.039418   | 0.039418   |   0.0 |  2.17
Output  | 0.00024824 | 0.00024824 | 0.00024824 |   0.0 |  0.01
Modify  | 1.0529     | 1.0529     | 1.0529     |   0.0 | 57.88
Other   |            | 0.06975    |            |       |  3.83

Nlocal:            100 ave         100 max         100 min
Histogram: 1 0 0 0 0 0 0 0 0 0
Nghost:              6 ave           6 max           6 min
Histogram: 1 0 0 0 0 0 0 0 0 0
Neighs:            139 ave         139 max         139 min
Histogram: 1 0 0 0 0 0 0 0 0 0
FullNghs:            0 ave           0 max           0 min
Histogram: 1 0 0 0 0 0 0 0 0 0

Total # of neighbors = 139
Ave neighs/atom = 1.39
Ave special neighs/atom = 5.88
Neighbor list builds = 1329
Dangerous builds = 0
unfix 1
unfix 2
write_restart 	restart.${simname}.dreiding1
write_restart 	restart.InitialFile.dreiding1
System init for write_restart ...
Generated 0 of 3 mixed pair_coeff terms from geometric mixing rule

#####################################################
# Define Settings
compute eng all pe/atom
compute eatoms all reduce sum c_eng

#####################################################
# Minimization

dump mydmp all atom 100 dump.lammpstrj

reset_timestep 0
fix 1 all nvt temp 300.0 300.0 100.0
thermo 20
thermo_style custom step pe lx ly lz press pxx pyy pzz c_eatoms
min_style cg
minimize 1.0e-4 1.0e-6 100 1000
Generated 0 of 3 mixed pair_coeff terms from geometric mixing rule
Per MPI rank memory allocation (min/avg/max) = 7.016 | 7.016 | 7.016 Mbytes
   Step         PotEng           Lx             Ly             Lz           Press           Pxx            Pyy            Pzz          c_eatoms   
         0   284.52705      50000          50000          50000          5.7392071e-06  1.6050492e-05  7.1411495e-07  4.5301404e-07  284.52705    
        20   231.02323      50000          50000          50000          5.2349605e-06  1.461496e-05   6.6816267e-07  4.2175902e-07  231.02323    
        40   191.40866      50000          50000          50000          4.6877797e-06  1.3076287e-05  6.0106461e-07  3.8598708e-07  191.40866    
        60   156.61276      50000          50000          50000          4.1251183e-06  1.1504747e-05  5.2394555e-07  3.4666261e-07  156.61276    
        80   125.29962      50000          50000          50000          3.5615988e-06  9.9355595e-06  4.4414442e-07  3.0509236e-07  125.29962    
       100   98.560467      50000          50000          50000          3.0323509e-06  8.4627854e-06  3.6966356e-07  2.6460359e-07  98.560467    
Loop time of 0.00262664 on 1 procs for 100 steps with 100 atoms

96.4% CPU use with 1 MPI tasks x no OpenMP threads

Minimization stats:
  Stopping criterion = max iterations
  Energy initial, next-to-last, final = 
      284.527046031488   99.7932491060061   98.5604672080405
  Force two-norm initial, final = 6.4409833 2.6605508
  Force max component initial, final = 1.2793647 0.57704199
  Final line search alpha, max atom move = 0.17230588 0.09942773
  Iterations, force evaluations = 100 100

MPI task timing breakdown:
Section |  min time  |  avg time  |  max time  |%varavg| %total
---------------------------------------------------------------
Pair    | 0.00057262 | 0.00057262 | 0.00057262 |   0.0 | 21.80
Bond    | 0.00024031 | 0.00024031 | 0.00024031 |   0.0 |  9.15
Neigh   | 0.0011512  | 0.0011512  | 0.0011512  |   0.0 | 43.83
Comm    | 5.1019e-05 | 5.1019e-05 | 5.1019e-05 |   0.0 |  1.94
Output  | 0.00019211 | 0.00019211 | 0.00019211 |   0.0 |  7.31
Modify  | 0          | 0          | 0          |   0.0 |  0.00
Other   |            | 0.0004194  |            |       | 15.97

Nlocal:            100 ave         100 max         100 min
Histogram: 1 0 0 0 0 0 0 0 0 0
Nghost:              5 ave           5 max           5 min
Histogram: 1 0 0 0 0 0 0 0 0 0
Neighs:            140 ave         140 max         140 min
Histogram: 1 0 0 0 0 0 0 0 0 0
FullNghs:            0 ave           0 max           0 min
Histogram: 1 0 0 0 0 0 0 0 0 0

Total # of neighbors = 140
Ave neighs/atom = 1.4
Ave special neighs/atom = 5.88
Neighbor list builds = 11
Dangerous builds = 0

#molecule mol1closeTo3PRE mol1closeTo3PRE.txt
#molecule mol1closeTo3POST mol1closeTo3POST.txt
#molecule mol3closeTo1POST mol3closeTo1POST.txt
#molecule mol2closeTo3PRE mol2closeTo3PRE.txt
#molecule mol2closeTo3POST mol2closeTo3POST.txt
#molecule mol3closeTo2POST mol3closeTo2POST.txt
#molecule mol2closeTo1PRE mol2closeTo1PRE.txt
#molecule mol2closeTo1POST mol2closeTo1POST.txt

molecule mol molTemplate.txt
Read molecule template mol:
  1 molecules
  0 fragments
  10 atoms with max type 3
  9 bonds with max type 2
  0 angles with max type 0
  0 dihedrals with max type 0
  0 impropers with max type 0

#####################################################
# Do the reactions
fix 3 all bond/react   react reax all 1 0 10 mol mol map_1to2.txt molecule intra   #react reac1to2 all 1 0 10 mol1closeTo3PRE mol1closeTo3POST map_1to2.txt molecule intra   #react reac2to3 all 1 0 10 mol2closeTo3PRE mol2closeTo3POST map_2to3.txt molecule intra   #react reac3to2 all 1 0 10 mol2closeTo3PRE mol3closeTo2POST map_3to2.txt molecule intra  #react reac2to1 all 1 0 10 mol2closeTo1PRE mol2closeTo1POST map_2to1.txt molecule intra
dynamic group bond_react_MASTER_group defined

run 100000

CITE-CITE-CITE-CITE-CITE-CITE-CITE-CITE-CITE-CITE-CITE-CITE-CITE

Your simulation uses code contributions which should be cited:

- fix bond/react: reacter.org doi:10.1016/j.polymer.2017.09.038, doi:10.1021/acs.macromol.0c02012

@Article{Gissinger17,
 author = {J. R. Gissinger and B. D. Jensen and K. E. Wise},
 title = {Modeling Chemical Reactions in Classical Molecular Dynamics Simulations},
 journal = {Polymer},
 year =    2017,
 volume =  128,
 pages =   {211--217}
}

@Article{Gissinger20,
 author = {J. R. Gissinger, B. D. Jensen, K. E. Wise},
 title = {{REACTER}: A Heuristic Method for Reactive Molecular Dynamics},
 journal = {Macromolecules},
 year =    2020,
 volume =  53,
 number =  22,
 pages =   {9953--9961}
}

CITE-CITE-CITE-CITE-CITE-CITE-CITE-CITE-CITE-CITE-CITE-CITE-CITE

Generated 0 of 3 mixed pair_coeff terms from geometric mixing rule
Neighbor list info ...
  update: every = 1 steps, delay = 0 steps, check = yes
  max neighbors/atom: 2000, page size: 100000
  master list distance cutoff = 2002
  ghost atom cutoff = 2002
  binsize = 1001, bins = 50 50 50
  3 neighbor lists, perpetual/occasional/extra = 1 2 0
  (1) pair lj/cut, perpetual
      attributes: half, newton on
      pair build: half/bin/newton
      stencil: half/bin/3d
      bin: standard
  (2) compute centro/atom, occasional
      attributes: full, newton on
      pair build: full/bin
      stencil: full/bin/3d
      bin: standard
  (3) fix bond/react, occasional, copy from (1)
      attributes: half, newton on
      pair build: copy
      stencil: none
      bin: none
Per MPI rank memory allocation (min/avg/max) = 7.333 | 7.333 | 7.333 Mbytes
   Step         PotEng           Lx             Ly             Lz           Press           Pxx            Pyy            Pzz          c_eatoms   
       100   98.560467      50000          50000          50000          3.0323509e-06  8.4627854e-06  3.6966356e-07  2.6460359e-07  98.560467    
       120   101.22175      50000          50000          50000          2.9856375e-06  8.3527039e-06  3.6185408e-07  2.4235451e-07  101.22175    
       140   106.50502      50000          50000          50000          2.9121669e-06  8.1666855e-06  3.5072441e-07  2.1909078e-07  106.50502    
       160   112.30786      50000          50000          50000          2.8153433e-06  7.9137429e-06  3.365272e-07   1.9575968e-07  112.30786    
       180   116.07798      50000          50000          50000          2.6987063e-06  7.6033543e-06  3.1954554e-07  1.7321906e-07  116.07798    
       200   115.75675      50000          50000          50000          2.5649747e-06  7.2427446e-06  3.0000981e-07  1.5216976e-07  115.75675    
       220   110.4938       50000          50000          50000          2.4154715e-06  6.8353196e-06  2.7801023e-07  1.3308473e-07  110.4938     
       240   100.93251      50000          50000          50000          2.2501108e-06  6.3809299e-06  2.5335513e-07  1.1604742e-07  100.93251    
       260   89.034478      50000          50000          50000          2.0681727e-06  5.8783994e-06  2.2551421e-07  1.006045e-07   89.034478    
       280   77.418098      50000          50000          50000          1.8697773e-06  5.3294121e-06  1.9395415e-07  8.5965648e-08  77.418098    
       300   68.310314      50000          50000          50000          1.6572456e-06  4.7418004e-06  1.5859181e-07  7.1344569e-08  68.310314    
       320   62.618409      50000          50000          50000          1.4359317e-06  4.1312143e-06  1.2021431e-07  5.6366544e-08  62.618409    
       340   59.669783      50000          50000          50000          1.2135145e-06  3.5170124e-06  8.1299716e-08  4.2231375e-08  59.669783    
       360   57.846271      50000          50000          50000          9.9462541e-07  2.9092205e-06  4.4231747e-08  3.0423995e-08  57.846271    
       380   55.556925      50000          50000          50000          7.7972805e-07  2.3101016e-06  8.995722e-09   2.0086818e-08  55.556925    
       400   51.83366       50000          50000          50000          5.7016561e-07  1.7248303e-06 -2.4474302e-08  1.0140877e-08  51.83366     
       420   46.57727       50000          50000          50000          3.6821908e-07  1.1600909e-06 -5.5616929e-08  1.8324916e-10  46.57727     
       440   40.459075      50000          50000          50000          1.759023e-07   6.2122808e-07 -8.3711837e-08 -9.8093537e-09  40.459075    
       460   34.524724      50000          50000          50000         -5.4099321e-09  1.1168359e-07 -1.0818573e-07 -1.9727663e-08  34.524724    
       480   29.733052      50000          50000          50000         -1.7480791e-07 -3.6622404e-07 -1.2872983e-07 -2.9469847e-08  29.733052    
       500   26.611147      50000          50000          50000         -3.3153205e-07 -8.10362e-07   -1.4527263e-07 -3.8961509e-08  26.611147    
       520   25.149039      50000          50000          50000         -4.7479946e-07 -1.2183745e-06 -1.5790395e-07 -4.8119878e-08  25.149039    
       540   24.914095      50000          50000          50000         -6.038593e-07  -1.5879378e-06 -1.6681408e-07 -5.6826073e-08  24.914095    
       560   25.305682      50000          50000          50000         -7.1815239e-07 -1.9172891e-06 -1.7225266e-07 -6.4915406e-08  25.305682    
       580   25.79589       50000          50000          50000         -8.1747302e-07 -2.2057433e-06 -1.7449865e-07 -7.2177056e-08  25.79589     
       600   26.101063      50000          50000          50000         -9.0200953e-07 -2.4538298e-06 -1.7383794e-07 -7.8360851e-08  26.101063    
       620   26.1924        50000          50000          50000         -9.7230948e-07 -2.6631853e-06 -1.705494e-07  -8.3193766e-08  26.1924      
       640   26.206734      50000          50000          50000         -1.0291589e-06 -2.8361725e-06 -1.6489794e-07 -8.6406238e-08  26.206734    
       660   26.315892      50000          50000          50000         -1.0734341e-06 -2.9754054e-06 -1.5713221e-07 -8.7764816e-08  26.315892    
       680   26.613615      50000          50000          50000         -1.1059916e-06 -3.0833835e-06 -1.4748534e-07 -8.7105812e-08  26.613615    
       700   27.082045      50000          50000          50000         -1.1276127e-06 -3.1622927e-06 -1.3617955e-07 -8.4365933e-08  27.082045    
       720   27.637662      50000          50000          50000         -1.1390187e-06 -3.2140092e-06 -1.2343819e-07 -7.9608726e-08  27.637662    
       740   28.216836      50000          50000          50000         -1.1409396e-06 -3.2402684e-06 -1.0950593e-07 -7.3044552e-08  28.216836    
       760   28.861208      50000          50000          50000         -1.1341789e-06 -3.2428359e-06 -9.4667435e-08 -6.5033355e-08  28.861208    
       780   29.732164      50000          50000          50000         -1.1196435e-06 -3.2236277e-06 -7.9246407e-08 -5.6056359e-08  29.732164    
       800   31.049135      50000          50000          50000         -1.0982966e-06 -3.1846487e-06 -6.3579814e-08 -4.666113e-08   31.049135    
       820   32.977251      50000          50000          50000         -1.0710543e-06 -3.127773e-06  -4.7984131e-08 -3.7405844e-08  32.977251    
       840   35.51284       50000          50000          50000         -1.038699e-06  -3.0545438e-06 -3.2730867e-08 -2.8822254e-08  35.51284     
       860   38.454024      50000          50000          50000         -1.0018385e-06 -2.9660831e-06 -1.8035068e-08 -2.1397428e-08  38.454024    
       880   41.470494      50000          50000          50000         -9.6095441e-07 -2.863243e-06  -4.0539957e-09 -1.5566283e-08  41.470494    
       900   44.251506      50000          50000          50000         -9.1651051e-07 -2.7469315e-06  9.1066097e-09 -1.1706636e-08  44.251506    
       920   46.659388      50000          50000          50000         -8.6907001e-07 -2.6184627e-06  2.1381808e-08 -1.0129165e-08  46.659388    
       940   48.808573      50000          50000          50000         -8.1935544e-07 -2.4797466e-06  3.2736955e-08 -1.1056648e-08  48.808573    
       960   51.022098      50000          50000          50000         -7.6820944e-07 -2.3331984e-06  4.3161885e-08 -1.4591839e-08  51.022098    
       980   53.674964      50000          50000          50000         -7.1645775e-07 -2.1813641e-06  5.2671108e-08 -2.0680227e-08  53.674964    
      1000   56.991196      50000          50000          50000         -6.6472547e-07 -2.0264038e-06  6.1306644e-08 -2.9079304e-08  56.991196    
      1020   60.889726      50000          50000          50000         -6.1329017e-07 -1.8696608e-06  6.9136814e-08 -3.9346487e-08  60.889726    
      1040   64.964458      50000          50000          50000         -5.6203976e-07 -1.7115116e-06  7.6244847e-08 -5.0852548e-08  64.964458    
      1060   68.604178      50000          50000          50000         -5.1058087e-07 -1.5516278e-06  8.27048e-08   -6.2819617e-08  68.604178    
      1080   71.225185      50000          50000          50000         -4.5844307e-07 -1.3895032e-06  8.8549733e-08 -7.4375729e-08  71.225185    
      1100   72.506461      50000          50000          50000         -4.0531599e-07 -1.225082e-06   9.3746497e-08 -8.4612453e-08  72.506461    
      1120   72.530027      50000          50000          50000         -3.5121037e-07 -1.0591947e-06  9.8196271e-08 -9.2632644e-08  72.530027    
      1140   71.752974      50000          50000          50000         -2.964648e-07  -8.9356555e-07  1.0176205e-07 -9.7590898e-08  71.752974    
      1160   70.803045      50000          50000          50000         -2.4160045e-07 -7.3035253e-07  1.0429775e-07 -9.8746567e-08  70.803045    
      1180   70.181675      50000          50000          50000         -1.8710857e-07 -5.7144792e-07  1.0565942e-07 -9.5537206e-08  70.181675    
      1200   70.018223      50000          50000          50000         -1.3328791e-07 -4.1791489e-07  1.0570559e-07 -8.7654426e-08  70.018223    
      1220   70.001097      50000          50000          50000         -8.0226064e-08 -2.6987659e-07  1.042999e-07  -7.51015e-08    70.001097    
      1240   69.526771      50000          50000          50000         -2.7948437e-08 -1.2693882e-07  1.0131847e-07 -5.8224958e-08  69.526771    
      1260   68.001087      50000          50000          50000          2.333069e-08   1.1049978e-08  9.6660321e-08 -3.7718228e-08  68.001087    
      1280   65.144191      50000          50000          50000          7.2976119e-08  1.4325232e-07  9.0265019e-08 -1.4588985e-08  65.144191    
      1300   61.154067      50000          50000          50000          1.1986186e-07  2.6750687e-07  8.2148834e-08  9.9298747e-09  61.154067    
      1320   56.644995      50000          50000          50000          1.6254938e-07  3.8064265e-07  7.2462601e-08  3.4542891e-08  56.644995    
      1340   52.388504      50000          50000          50000          1.9966142e-07  4.7936741e-07  6.1530486e-08  5.8086379e-08  52.388504    
      1360   48.990602      50000          50000          50000          2.3020801e-07  5.6123251e-07  4.9780044e-08  7.9611469e-08  48.990602    
      1380   46.660277      50000          50000          50000          2.5363743e-07  6.2506399e-07  3.7568622e-08  9.8279672e-08  46.660277    
      1400   45.160861      50000          50000          50000          2.6974451e-07  6.7087413e-07  2.5094744e-08  1.1326467e-07  45.160861    
      1420   43.929979      50000          50000          50000          2.7864055e-07  6.9960747e-07  1.2479515e-08  1.2383466e-07  43.929979    
      1440   42.318071      50000          50000          50000          2.8071908e-07  7.1279391e-07 -1.3248651e-10  1.2949581e-07  42.318071    
      1460   39.866427      50000          50000          50000          2.765398e-07   7.1210635e-07 -1.2549453e-08  1.3006252e-07  39.866427    
      1480   36.506788      50000          50000          50000          2.6670475e-07  6.9899672e-07 -2.4549556e-08  1.2566708e-07  36.506788    
      1500   32.590495      50000          50000          50000          2.5182295e-07  6.7461421e-07 -3.5897341e-08  1.1675199e-07  32.590495    
      1520   28.740963      50000          50000          50000          2.3259972e-07  6.4009075e-07 -4.6349702e-08  1.0405811e-07  28.740963    
      1540   25.590042      50000          50000          50000          2.0998681e-07  5.9702211e-07 -5.5658374e-08  8.8596705e-08  25.590042    
      1560   23.518866      50000          50000          50000          1.8528049e-07  5.4784414e-07 -6.3581544e-08  7.157888e-08   23.518866    
      1580   22.526838      50000          50000          50000          1.6007595e-07  4.9585192e-07 -6.9911469e-08  5.4287387e-08  22.526838    
      1600   22.262613      50000          50000          50000          1.3606235e-07  4.4476957e-07 -7.4504356e-08  3.7921827e-08  22.262613    
      1620   22.204855      50000          50000          50000          1.1478466e-07  3.9815859e-07 -7.7285568e-08  2.3480949e-08  22.204855    
      1640   21.884039      50000          50000          50000          9.7439405e-08  3.5883667e-07 -7.822655e-08   1.1708091e-08  21.884039    
      1660   21.063335      50000          50000          50000          8.4746003e-08  3.2847974e-07 -7.7315298e-08  3.0735624e-09  21.063335    
      1680   19.812139      50000          50000          50000          7.6903868e-08  3.0748236e-07 -7.4538534e-08 -2.2322218e-09  19.812139    
      1700   18.453617      50000          50000          50000          7.3646452e-08  2.9511387e-07 -6.9878085e-08 -4.2964248e-09  18.453617    
      1720   17.409243      50000          50000          50000          7.437211e-08   2.8989651e-07 -6.3316917e-08 -3.4632571e-09  17.409243    
      1740   17.02276       50000          50000          50000          7.8325778e-08  2.9011715e-07 -5.4850251e-08 -2.895656e-10   17.02276     
      1760   17.420288      50000          50000          50000          8.4750674e-08  2.9422992e-07 -4.449949e-08   4.5215936e-09  17.420288    
      1780   18.476754      50000          50000          50000          9.297967e-08   3.0106519e-07 -3.2327272e-08  1.0201095e-08  18.476754    
      1800   19.891889      50000          50000          50000          1.0244712e-07  3.0979648e-07 -1.8451698e-08  1.599657e-08   19.891889    
      1820   21.333102      50000          50000          50000          1.1264268e-07  3.1973673e-07 -3.0567457e-09  2.1248058e-08  21.333102    
      1840   22.582967      50000          50000          50000          1.2305636e-07  3.301178e-07   1.3603104e-08  2.5448192e-08  22.582967    
      1860   23.627619      50000          50000          50000          1.3314426e-07  3.399614e-07   3.1197777e-08  2.8273599e-08  23.627619    
      1880   24.650435      50000          50000          50000          1.4230336e-07  3.4805516e-07  4.9292617e-08  2.9562319e-08  24.650435    
      1900   25.952087      50000          50000          50000          1.4984986e-07  3.5304988e-07  6.7272913e-08  2.9226784e-08  25.952087    
      1920   27.807403      50000          50000          50000          1.5504532e-07  3.5365805e-07  8.428498e-08   2.7192915e-08  27.807403    
      1940   30.324116      50000          50000          50000          1.5731818e-07  3.4910286e-07  9.9341665e-08  2.3510005e-08  30.324116    
      1960   33.366808      50000          50000          50000          1.5653414e-07  3.3951812e-07  1.1155868e-07  1.852563e-08   33.366808    
      1980   36.599002      50000          50000          50000          1.5300817e-07  3.2583775e-07  1.2030614e-07  1.2880633e-08  36.599002    
      2000   39.622508      50000          50000          50000          1.472737e-07   3.0923778e-07  1.2522857e-07  7.3547451e-09  39.622508    
      2020   42.1351        50000          50000          50000          1.3982621e-07  2.905352e-07   1.2622379e-07  2.7196432e-09  42.1351      
      2040   44.029107      50000          50000          50000          1.3096503e-07  2.6981763e-07  1.2342716e-07 -3.4971476e-10  44.029107    
      2060   45.393445      50000          50000          50000          1.2075249e-07  2.4638177e-07  1.1719959e-07 -1.3238884e-09  45.393445    
      2080   46.429355      50000          50000          50000          1.0906365e-07  2.1893271e-07  1.0810804e-07  1.5019771e-10  46.429355    
      2100   47.325793      50000          50000          50000          9.5680456e-08  1.85924e-07    9.6891263e-08  4.2261032e-09  47.325793    
      2120   48.153168      50000          50000          50000          8.0380708e-08  1.4589361e-07  8.4407916e-08  1.08406e-08    48.153168    
      2140   48.821204      50000          50000          50000          6.2984372e-08  9.7679551e-08  7.1569262e-08  1.9704303e-08  48.821204    
      2160   49.115095      50000          50000          50000          4.3345018e-08  4.0470104e-08  5.9261839e-08  3.030311e-08   49.115095    
      2180   48.788782      50000          50000          50000          2.1302507e-08 -2.627373e-08   4.8268084e-08  4.1913166e-08  48.788782    
      2200   47.670789      50000          50000          50000         -3.3681483e-09 -1.0292975e-07  3.9193002e-08  5.3632299e-08  47.670789    
      2220   45.736075      50000          50000          50000         -3.0975125e-08 -1.8976064e-07  3.2404097e-08  6.4431172e-08  45.736075    
      2240   43.115593      50000          50000          50000         -6.1874234e-08 -2.8683705e-07  2.7989963e-08  7.3224388e-08  43.115593    
      2260   40.044828      50000          50000          50000         -9.638465e-08  -3.9384492e-07  2.5739353e-08  7.8951621e-08  40.044828    
      2280   36.780285      50000          50000          50000         -1.3468554e-07 -5.0983604e-07  2.5135695e-08  8.0643739e-08  36.780285    
      2300   33.525324      50000          50000          50000         -1.7671815e-07 -6.3297904e-07  2.5364867e-08  7.7459722e-08  33.525324    
      2320   30.396812      50000          50000          50000         -2.2199885e-07 -7.6032467e-07  2.5446758e-08  6.8881374e-08  30.396812    
      2340   27.427847      50000          50000          50000         -2.6913515e-07 -8.8791827e-07  2.4869539e-08  5.564329e-08   27.427847    
      2360   24.61534       50000          50000          50000         -3.1611424e-07 -1.0124292e-06  2.4026495e-08  4.0060029e-08  24.61534     
      2380   22.007617      50000          50000          50000         -3.6224196e-07 -1.1330651e-06  2.2881622e-08  2.3457573e-08  22.007617    
      2400   19.775328      50000          50000          50000         -4.0788753e-07 -1.2501192e-06  2.0661879e-08  5.7947226e-09  19.775328    
      2420   18.14135       50000          50000          50000         -4.5308842e-07 -1.363321e-06   1.6786048e-08 -1.2730349e-08  18.14135     
      2440   17.264329      50000          50000          50000         -4.9737829e-07 -1.4717197e-06  1.1059087e-08 -3.1474247e-08  17.264329    
      2460   17.152949      50000          50000          50000         -5.3995981e-07 -1.5738337e-06  3.5668764e-09 -4.9612604e-08  17.152949    
      2480   17.652578      50000          50000          50000         -5.7982284e-07 -1.66776e-06   -5.4019584e-09 -6.630659e-08   17.652578    
      2500   18.504637      50000          50000          50000         -6.1586304e-07 -1.7513611e-06 -1.5420829e-08 -8.0807168e-08  18.504637    
      2520   19.451759      50000          50000          50000         -6.4701066e-07 -1.8225159e-06 -2.5989173e-08 -9.2526918e-08  19.451759    
      2540   20.33657       50000          50000          50000         -6.7234686e-07 -1.87937e-06   -3.6590081e-08 -1.0108054e-07  20.33657     
      2560   21.166624      50000          50000          50000         -6.9116147e-07 -1.9204556e-06 -4.6734863e-08 -1.0629396e-07  21.166624    
      2580   22.102302      50000          50000          50000         -7.0296479e-07 -1.9447127e-06 -5.5993785e-08 -1.0818792e-07  22.102302    
      2600   23.387419      50000          50000          50000         -7.0744737e-07 -1.9513797e-06 -6.4016762e-08 -1.0694564e-07  23.387419    
      2620   25.251019      50000          50000          50000         -7.044134e-07  -1.9398151e-06 -7.0549869e-08 -1.0287525e-07  25.251019    
      2640   27.804765      50000          50000          50000         -6.9373598e-07 -1.9093781e-06 -7.5452863e-08 -9.6376975e-08  27.804765    
      2660   30.990525      50000          50000          50000         -6.7533951e-07 -1.8593816e-06 -7.8717303e-08 -8.7919623e-08  30.990525    
      2680   34.580311      50000          50000          50000         -6.4923237e-07 -1.7892095e-06 -8.0472512e-08 -7.8015126e-08  34.580311    
      2700   38.234209      50000          50000          50000         -6.1555994e-07 -1.6985561e-06 -8.0956661e-08 -6.7167056e-08  38.234209    
      2720   41.598052      50000          50000          50000         -5.7464763e-07 -1.5877e-06    -8.0450131e-08 -5.5792745e-08  41.598052    
      2740   44.407207      50000          50000          50000         -5.2702193e-07 -1.457695e-06  -7.9206681e-08 -4.4164111e-08  44.407207    
      2760   46.554841      50000          50000          50000         -4.7340678e-07 -1.3103986e-06 -7.7415763e-08 -3.2405987e-08  46.554841    
      2780   48.096897      50000          50000          50000         -4.1468581e-07 -1.1483264e-06 -7.5191246e-08 -2.0539749e-08  48.096897    
      2800   49.195787      50000          50000          50000         -3.5182745e-07 -9.7437457e-07 -7.2568392e-08 -8.5393716e-09  49.195787    
      2820   50.031956      50000          50000          50000         -2.8578736e-07 -7.9147568e-07 -6.9505051e-08  3.6186399e-09  50.031956    
      2840   50.715065      50000          50000          50000         -2.174231e-07  -6.0229151e-07 -6.5893036e-08  1.5915246e-08  50.715065    
      2860   51.240363      50000          50000          50000         -1.4743387e-07 -4.089784e-07  -6.1583713e-08  2.8260521e-08  51.240363    
      2880   51.494279      50000          50000          50000         -7.6354479e-08 -2.1311594e-07 -5.6425629e-08  4.0478131e-08  51.494279    
      2900   51.304655      50000          50000          50000         -4.6018478e-09 -1.5802323e-08 -5.0306963e-08  5.2303743e-08  51.304655    
      2920   50.515362      50000          50000          50000          6.7445629e-08  1.821332e-07  -4.3193342e-08  6.3397031e-08  50.515362    
      2940   49.052504      50000          50000          50000          1.3935839e-07  3.7986225e-07 -3.5152888e-08  7.3365807e-08  49.052504    
      2960   46.961884      50000          50000          50000          2.1058647e-07  5.7632304e-07 -2.6363824e-08  8.1800188e-08  46.961884    
      2980   44.398172      50000          50000          50000          2.8042001e-07  7.7004741e-07 -1.7102923e-08  8.8315552e-08  44.398172    
      3000   41.579822      50000          50000          50000          3.4800331e-07  9.5911246e-07 -7.7112749e-09  9.2608739e-08  41.579822    
      3020   38.723401      50000          50000          50000          4.124227e-07   1.1412436e-06  1.4784306e-09  9.4546064e-08  38.723401    
      3040   35.990657      50000          50000          50000          4.7291443e-07  1.3141712e-06  1.0270723e-08  9.4301361e-08  35.990657    
      3060   33.46245       50000          50000          50000          5.2910722e-07  1.4761524e-06  1.8720129e-08  9.2449096e-08  33.46245     
      3080   31.155738      50000          50000          50000          5.8099378e-07  1.6261788e-06  2.7028975e-08  8.9773594e-08  31.155738    
      3100   29.067499      50000          50000          50000          6.2854796e-07  1.7634752e-06  3.5281782e-08  8.6886937e-08  29.067499    
      3120   27.208447      50000          50000          50000          6.7146565e-07  1.8869006e-06  4.337637e-08   8.411997e-08   27.208447    
      3140   25.605008      50000          50000          50000          7.0924586e-07  1.9949082e-06  5.1159605e-08  8.1669767e-08  25.605008    
      3160   24.280049      50000          50000          50000          7.4136596e-07  2.0858837e-06  5.8529767e-08  7.9684406e-08  24.280049    
      3180   23.232751      50000          50000          50000          7.6739735e-07  2.158497e-06   6.5456853e-08  7.8238219e-08  23.232751    
      3200   22.431249      50000          50000          50000          7.8706431e-07  2.2119349e-06  7.1973088e-08  7.7284925e-08  22.431249    
      3220   21.82273       50000          50000          50000          8.0026278e-07  2.2459992e-06  7.8157495e-08  7.6631588e-08  21.82273     
      3240   21.35716       50000          50000          50000          8.0704702e-07  2.261083e-06   8.4116813e-08  7.5941253e-08  21.35716     
      3260   21.013857      50000          50000          50000          8.0759461e-07  2.2580578e-06  8.996307e-08   7.4762912e-08  21.013857    
      3280   20.817469      50000          50000          50000          8.0216389e-07  2.2381168e-06  9.5790396e-08  7.2584469e-08  20.817469    
      3300   20.833285      50000          50000          50000          7.9105701e-07  2.2026146e-06  1.0165465e-07  6.8901826e-08  20.833285    
      3320   21.140194      50000          50000          50000          7.7459464e-07  2.1529299e-06  1.0755893e-07  6.3295124e-08  21.140194    
      3340   21.789834      50000          50000          50000          7.531e-07      2.0903511e-06  1.1344672e-07  5.5502158e-08  21.789834    
      3360   22.767145      50000          50000          50000          7.2688256e-07  2.0159649e-06  1.1920338e-07  4.5479425e-08  22.767145    
      3380   23.976505      50000          50000          50000          6.9621697e-07  1.9305421e-06  1.2466555e-07  3.3443306e-08  23.976505    
      3400   25.249874      50000          50000          50000          6.6129205e-07  1.8343553e-06  1.296359e-07   1.9884953e-08  25.249874    
      3420   26.397839      50000          50000          50000          6.2214708e-07  1.7269973e-06  1.3389377e-07  5.5501228e-09  26.397839    
      3440   27.274551      50000          50000          50000          5.7857874e-07  1.607194e-06   1.3717862e-07 -8.6364376e-09  27.274551    
      3460   27.83935       50000          50000          50000          5.3005964e-07  1.4727671e-06  1.391255e-07  -2.1713655e-08  27.83935     
      3480   28.187648      50000          50000          50000          4.7580517e-07  1.3209986e-06  1.3922024e-07 -3.2803344e-08  28.187648    
      3500   28.529239      50000          50000          50000          4.1511592e-07  1.1494709e-06  1.3692508e-07 -4.1048208e-08  28.529239    
      3520   29.11029       50000          50000          50000          3.4774593e-07  9.568569e-07   1.3189454e-07 -4.5513658e-08  29.11029     
      3540   30.108705      50000          50000          50000          2.7396122e-07  7.4318504e-07  1.2402802e-07 -4.5329392e-08  30.108705    
      3560   31.551538      50000          50000          50000          1.9440867e-07  5.0979025e-07  1.133824e-07  -3.9946639e-08  31.551538    
      3580   33.290995      50000          50000          50000          1.1000153e-07  2.5920536e-07  1.0009331e-07 -2.9294082e-08  33.290995    
      3600   35.049814      50000          50000          50000          2.1827533e-08 -5.0488631e-09  8.4341151e-08 -1.3809689e-08  35.049814    
      3620   36.520155      50000          50000          50000         -6.8960228e-08 -2.7882354e-07  6.6341159e-08  5.6016933e-09  36.520155    
      3640   37.47895       50000          50000          50000         -1.6126062e-07 -5.5777848e-07  4.6344936e-08  2.7651685e-08  37.47895     
      3660   37.875016      50000          50000          50000         -2.5411469e-07 -8.3777256e-07  2.4651481e-08  5.0776997e-08  37.875016    
      3680   37.852492      50000          50000          50000         -3.4674227e-07 -1.1151175e-06  1.6260359e-09  7.3264618e-08  37.852492    
      3700   37.697738      50000          50000          50000         -4.3852051e-07 -1.3866698e-06 -2.2278665e-08  9.3386961e-08  37.697738    
      3720   37.725406      50000          50000          50000         -5.2892119e-07 -1.6497964e-06 -4.6506673e-08  1.0953953e-07  37.725406    
      3740   38.144741      50000          50000          50000         -6.1743787e-07 -1.9022883e-06 -7.0396169e-08  1.2037083e-07  38.144741    
      3760   38.959218      50000          50000          50000         -7.0353879e-07 -2.1423145e-06 -9.3193906e-08  1.2489206e-07  38.959218    
      3780   39.942882      50000          50000          50000         -7.8667298e-07 -2.3684904e-06 -1.1408486e-07  1.2255632e-07  39.942882    
      3800   40.715721      50000          50000          50000         -8.6632939e-07 -2.5800607e-06 -1.3222956e-07  1.1330204e-07  40.715721    
      3820   40.881226      50000          50000          50000         -9.4215463e-07 -2.7772031e-06 -1.4680672e-07  9.7545935e-08  40.881226    
      3840   40.19579       50000          50000          50000         -1.0140888e-06 -2.9612301e-06 -1.5709619e-07  7.6059842e-08  40.19579     
      3860   38.695708      50000          50000          50000         -1.0824775e-06 -3.1344408e-06 -1.6266493e-07  4.9673242e-08  38.695708    
      3880   36.741168      50000          50000          50000         -1.1479419e-06 -3.2993845e-06 -1.6353905e-07  1.9097867e-08  36.741168    
      3900   34.935488      50000          50000          50000         -1.2108863e-06 -3.4578652e-06 -1.6008489e-07 -1.4708862e-08  34.935488    
      3920   33.906115      50000          50000          50000         -1.2710903e-06 -3.6102896e-06 -1.5279543e-07 -5.0185829e-08  33.906115    
      3940   34.053204      50000          50000          50000         -1.3276681e-06 -3.7553238e-06 -1.4229654e-07 -8.5384033e-08  34.053204    
      3960   35.378006      50000          50000          50000         -1.3791605e-06 -3.8897715e-06 -1.2937925e-07 -1.1833087e-07  35.378006    
      3980   37.482661      50000          50000          50000         -1.4236506e-06 -4.0088817e-06 -1.1486583e-07 -1.4720415e-07  37.482661    
      4000   39.752715      50000          50000          50000         -1.4590717e-06 -4.1072749e-06 -9.9439738e-08 -1.705004e-07   39.752715    
      4020   41.608967      50000          50000          50000         -1.4837505e-06 -4.1800807e-06 -8.3741294e-08 -1.8742941e-07  41.608967    
      4040   42.707455      50000          50000          50000         -1.4966837e-06 -4.2233622e-06 -6.85781e-08   -1.9811092e-07  42.707455    
      4060   43.018865      50000          50000          50000         -1.4973684e-06 -4.2339995e-06 -5.4854859e-08 -2.0325091e-07  43.018865    
      4080   42.796603      50000          50000          50000         -1.485606e-06  -4.2096843e-06 -4.3362538e-08 -2.0377109e-07  42.796603    
      4100   42.453736      50000          50000          50000         -1.4614311e-06 -4.1489918e-06 -3.4653222e-08 -2.0064822e-07  42.453736    
      4120   42.388579      50000          50000          50000         -1.4250533e-06 -4.0513274e-06 -2.8990949e-08 -1.948415e-07   42.388579    
      4140   42.822037      50000          50000          50000         -1.3767761e-06 -3.9167704e-06 -2.6333678e-08 -1.8722418e-07  42.822037    
      4160   43.702802      50000          50000          50000         -1.316933e-06  -3.7459399e-06 -2.6340657e-08 -1.7851833e-07  43.702802    
      4180   44.716918      50000          50000          50000         -1.2458728e-06 -3.5399592e-06 -2.841146e-08  -1.6924786e-07  44.716918    
      4200   45.398277      50000          50000          50000         -1.1640042e-06 -3.300535e-06  -3.1757597e-08 -1.5971992e-07  45.398277    
      4220   45.284683      50000          50000          50000         -1.0719045e-06 -3.030177e-06  -3.5499366e-08 -1.5003725e-07  45.284683    
      4240   44.081973      50000          50000          50000         -9.7044509e-07 -2.7324246e-06 -3.8773487e-08 -1.4013714e-07  44.081973    
      4260   41.766669      50000          50000          50000         -8.6090089e-07 -2.412024e-06  -4.0833528e-08 -1.2984519e-07  41.766669    
      4280   38.598947      50000          50000          50000         -7.4498031e-07 -2.0748816e-06 -4.1129161e-08 -1.1893017e-07  38.598947    
      4300   35.039872      50000          50000          50000         -6.2474245e-07 -1.7277091e-06 -3.9363415e-08 -1.0715483e-07  35.039872    
      4320   31.602681      50000          50000          50000         -5.024358e-07  -1.377448e-06  -3.5532558e-08 -9.4326818e-08  31.602681    
      4340   28.694401      50000          50000          50000         -3.8031842e-07 -1.030688e-06  -2.9929902e-08 -8.0337363e-08  28.694401    
      4360   26.506481      50000          50000          50000         -2.603918e-07  -6.9304663e-07 -2.3023488e-08 -6.5105274e-08  26.506481    
      4380   24.99409       50000          50000          50000         -1.4377606e-07 -3.679268e-07  -1.5094099e-08 -4.8307273e-08  24.99409     
      4400   23.957724      50000          50000          50000         -3.0082006e-08 -5.4954914e-08 -6.0388197e-09 -2.9252285e-08  23.957724    
      4420   23.177923      50000          50000          50000          8.1864723e-08  2.4904781e-07  4.040514e-09  -7.4941492e-09  23.177923    
      4440   22.517552      50000          50000          50000          1.9274975e-07  5.4696737e-07  1.4517485e-08  1.6764386e-08  22.517552    
      4460   21.929106      50000          50000          50000          3.0257733e-07  8.4004676e-07  2.4694662e-08  4.2990559e-08  21.929106    
      4480   21.426171      50000          50000          50000          4.1094761e-07  1.1282285e-06  3.4079378e-08  7.0534997e-08  21.426171    
      4500   21.052698      50000          50000          50000          5.1719664e-07  1.4105631e-06  4.2388266e-08  9.8638573e-08  21.052698    
      4520   20.865608      50000          50000          50000          6.2045132e-07  1.6854073e-06  4.9515516e-08  1.264312e-07   20.865608    
      4540   20.930794      50000          50000          50000          7.1966785e-07  1.9505397e-06  5.5505047e-08  1.5295884e-07  20.930794    
      4560   21.322447      50000          50000          50000          8.1367771e-07  2.2032835e-06  6.0518652e-08  1.7723097e-07  21.322447    
      4580   22.112791      50000          50000          50000          9.0125313e-07  2.4406804e-06  6.4798401e-08  1.9828062e-07  22.112791    
      4600   23.344726      50000          50000          50000          9.811907e-07   2.6597142e-06  6.8627225e-08  2.1523071e-07  23.344726    
      4620   24.998058      50000          50000          50000          1.0524045e-06  2.8575645e-06  7.2291709e-08  2.2735728e-07  24.998058    
      4640   26.963284      50000          50000          50000          1.114e-06      3.0318081e-06  7.6050082e-08  2.3414192e-07  26.963284    
      4660   29.046368      50000          50000          50000          1.1653055e-06  3.1805092e-06  8.0102722e-08  2.3530445e-07  29.046368    
      4680   31.012301      50000          50000          50000          1.2058364e-06  3.3021463e-06  8.4554371e-08  2.308086e-07   31.012301    
      4700   32.65848       50000          50000          50000          1.235197e-06   3.3953931e-06  8.9356161e-08  2.2084191e-07  32.65848     
      4720   33.89088       50000          50000          50000          1.2529775e-06  3.45888e-06    9.42519e-08    2.0580073e-07  33.89088     
      4740   34.774793      50000          50000          50000          1.2587848e-06  3.4912005e-06  9.8815684e-08  1.8633813e-07  34.774793    
      4760   35.512166      50000          50000          50000          1.2524364e-06  3.4912367e-06  1.0261065e-07  1.6346173e-07  35.512166    
      4780   36.360665      50000          50000          50000          1.2341867e-06  3.4586813e-06  1.0532761e-07  1.3855128e-07  36.360665    
      4800   37.495704      50000          50000          50000          1.204796e-06   3.3943584e-06  1.067969e-07   1.1323254e-07  37.495704    
      4820   38.898248      50000          50000          50000          1.1654787e-06  3.300309e-06   1.0693921e-07  8.9187895e-08  38.898248    
      4840   40.316499      50000          50000          50000          1.1177765e-06  3.1796143e-06  1.0573325e-07  6.7981894e-08  40.316499    
      4860   41.330703      50000          50000          50000          1.0633714e-06  3.0359886e-06  1.0320788e-07  5.0917908e-08  41.330703    
      4880   41.505838      50000          50000          50000          1.0038673e-06  2.8732367e-06  9.9442586e-08  3.8922506e-08  41.505838    
      4900   40.568253      50000          50000          50000          9.4058169e-07  2.6947197e-06  9.4567088e-08  3.245831e-08   40.568253    
      4920   38.538468      50000          50000          50000          8.7441971e-07  2.5030306e-06  8.8758487e-08  3.1470077e-08  38.538468    
      4940   35.745493      50000          50000          50000          8.0585375e-07  2.2999558e-06  8.223526e-08   3.5370164e-08  35.745493    
      4960   32.719197      50000          50000          50000          7.3503657e-07  2.0867891e-06  7.5248174e-08  4.3072404e-08  32.719197    
      4980   29.997254      50000          50000          50000          6.6201664e-07  1.8648895e-06  6.8071717e-08  5.3088748e-08  29.997254    
      5000   27.915722      50000          50000          50000          5.8697517e-07  1.6361931e-06  6.1015257e-08  6.371714e-08   27.915722    
      5020   26.488328      50000          50000          50000          5.1037955e-07  1.4033224e-06  5.4472437e-08  7.3343756e-08  26.488328    
      5040   25.446695      50000          50000          50000          4.3287151e-07  1.1689533e-06  4.8925216e-08  8.0735974e-08  25.446695    
      5060   24.403841      50000          50000          50000          3.5480795e-07  9.3466983e-07  4.4736808e-08  8.5017223e-08  24.403841    
      5080   23.058678      50000          50000          50000          2.7593088e-07  7.005059e-07   4.189307e-08   8.5393656e-08  23.058678    
      5100   21.338279      50000          50000          50000          1.9555249e-07  4.655152e-07   4.0024856e-08  8.1117402e-08  21.338279    
      5120   19.43063       50000          50000          50000          1.1293203e-07  2.2847944e-07  3.8608102e-08  7.1708541e-08  19.43063     
      5140   17.715702      50000          50000          50000          2.7521626e-08 -1.167423e-08   3.7105303e-08  5.7133803e-08  17.715702    
      5160   16.607139      50000          50000          50000         -6.0917198e-08 -2.5562022e-07  3.5024368e-08  3.7844262e-08  16.607139    
      5180   16.390114      50000          50000          50000         -1.5222406e-07 -5.0335437e-07  3.1954959e-08  1.4727226e-08  16.390114    
      5200   17.111697      50000          50000          50000         -2.4580786e-07 -7.540386e-07   2.7603323e-08 -1.098831e-08   17.111697    
      5220   18.569806      50000          50000          50000         -3.4071023e-07 -1.0060875e-06  2.1817328e-08 -3.7860487e-08  18.569806    
      5240   20.413995      50000          50000          50000         -4.3574491e-07 -1.2574458e-06  1.4593619e-08 -6.4382495e-08  20.413995    
      5260   22.29069       50000          50000          50000         -5.2968767e-07 -1.5060042e-06  6.0675921e-09 -8.9126385e-08  22.29069     
      5280   23.981078      50000          50000          50000         -6.2143716e-07 -1.7499425e-06 -3.5073032e-09 -1.1086165e-07  23.981078    
      5300   25.469694      50000          50000          50000         -7.1010974e-07 -1.9879049e-06 -1.3785679e-08 -1.286386e-07   25.469694    
      5320   26.923224      50000          50000          50000         -7.9505604e-07 -2.2189653e-06 -2.4362469e-08 -1.4184036e-07  26.923224    
      5340   28.59644       50000          50000          50000         -8.7581384e-07 -2.4424062e-06 -3.4817816e-08 -1.5021756e-07  28.59644     
      5360   30.707865      50000          50000          50000         -9.5201694e-07 -2.6573573e-06 -4.4776196e-08 -1.5391738e-07  30.707865    
      5380   33.3333        50000          50000          50000         -1.0232693e-06 -2.8623701e-06 -5.3952294e-08 -1.5348552e-07  33.3333      
      5400   36.357467      50000          50000          50000         -1.089015e-06  -3.0551263e-06 -6.2133075e-08 -1.4978547e-07  36.357467    
      5420   39.508746      50000          50000          50000         -1.1485062e-06 -3.2325688e-06 -6.9110575e-08 -1.4383929e-07  39.508746    
      5440   42.467314      50000          50000          50000         -1.2009463e-06 -3.3914878e-06 -7.4661978e-08 -1.3668909e-07  42.467314    
      5460   44.990462      50000          50000          50000         -1.245705e-06  -3.529179e-06  -7.8607975e-08 -1.2932819e-07  44.990462    
      5480   46.986128      50000          50000          50000         -1.2824409e-06 -3.6437861e-06 -8.0881216e-08 -1.2265551e-07  46.986128    
      5500   48.501312      50000          50000          50000         -1.3110759e-06 -3.7342641e-06 -8.1551566e-08 -1.1741219e-07  48.501312    
      5520   49.642503      50000          50000          50000         -1.3316797e-06 -3.800118e-06  -8.0812406e-08 -1.141087e-07   49.642503    
      5540   50.47838       50000          50000          50000         -1.3443405e-06 -3.8411037e-06 -7.8950895e-08 -1.12967e-07    50.47838     
      5560   50.979411      50000          50000          50000         -1.3490799e-06 -3.8570295e-06 -7.6315771e-08 -1.1389451e-07  50.979411    
      5580   51.02669       50000          50000          50000         -1.3458366e-06 -3.847726e-06  -7.3287014e-08 -1.1649676e-07  51.02669     
      5600   50.483023      50000          50000          50000         -1.3345181e-06 -3.8131785e-06 -7.0247635e-08 -1.2012826e-07  50.483023    
      5620   49.289531      50000          50000          50000         -1.3150854e-06 -3.7537246e-06 -6.755639e-08  -1.2397523e-07  49.289531    
      5640   47.528399      50000          50000          50000         -1.2876319e-06 -3.6702148e-06 -6.5520969e-08 -1.2716004e-07  47.528399    
      5660   45.414148      50000          50000          50000         -1.2524184e-06 -3.5640267e-06 -6.4374248e-08 -1.2885443e-07  45.414148    
      5680   43.208506      50000          50000          50000         -1.2098552e-06 -3.4369184e-06 -6.4259358e-08 -1.2838787e-07  43.208506    
      5700   41.099237      50000          50000          50000         -1.1604553e-06 -3.2908042e-06 -6.5226935e-08 -1.2533478e-07  41.099237    
      5720   39.108928      50000          50000          50000         -1.1047908e-06 -3.1275809e-06 -6.723348e-08  -1.1955811e-07  39.108928    
      5740   37.090013      50000          50000          50000         -1.0434441e-06 -2.9490561e-06 -7.0102685e-08 -1.1117349e-07  37.090013    
      5760   34.817957      50000          50000          50000         -9.7688917e-07 -2.7568304e-06 -7.3423624e-08 -1.0041346e-07  34.817957    
      5780   32.137418      50000          50000          50000         -9.0535561e-07 -2.5520298e-06 -7.6528082e-08 -8.750896e-08   32.137418    
      5800   29.084202      50000          50000          50000         -8.2894932e-07 -2.3352968e-06 -7.8767093e-08 -7.2784105e-08  29.084202    
      5820   25.925193      50000          50000          50000         -7.4800843e-07 -2.1073963e-06 -7.9819784e-08 -5.6809198e-08  25.925193    
      5840   23.089959      50000          50000          50000         -6.6325468e-07 -1.8698057e-06 -7.9633083e-08 -4.0325287e-08  23.089959    
      5860   21.015437      50000          50000          50000         -5.7560956e-07 -1.6245834e-06 -7.8194151e-08 -2.4051153e-08  21.015437    
      5880   19.963066      50000          50000          50000         -4.8592241e-07 -1.3737743e-06 -7.5429e-08    -8.5639116e-09  19.963066    
      5900   19.903514      50000          50000          50000         -3.9477407e-07 -1.1188589e-06 -7.1209046e-08  5.7457493e-09  19.903514    
      5920   20.525664      50000          50000          50000         -3.0240727e-07 -8.6051729e-07 -6.5387355e-08  1.8682844e-08  20.525664    
      5940   21.366023      50000          50000          50000         -2.0878807e-07 -5.9874985e-07 -5.784443e-08   3.0230065e-08  21.366023    
      5960   22.003061      50000          50000          50000         -1.1375194e-07 -3.3322768e-07 -4.8535668e-08  4.0507516e-08  22.003061    
      5980   22.226362      50000          50000          50000         -1.716568e-08  -6.3692259e-08 -3.7526856e-08  4.9722076e-08  22.226362    
      6000   22.109722      50000          50000          50000          8.0963318e-08  2.0977768e-07 -2.5006418e-08  5.8118696e-08  22.109722    
      6020   21.959619      50000          50000          50000          1.8046513e-07  4.8672556e-07 -1.1271393e-08  6.5941236e-08  21.959619    
      6040   22.163486      50000          50000          50000          2.8106678e-07  7.6648454e-07  3.309509e-09   7.3406291e-08  22.163486    
      6060   23.002984      50000          50000          50000          3.8249138e-07  1.0484345e-06  1.8348527e-08  8.0691079e-08  23.002984    
      6080   24.519558      50000          50000          50000          4.8454492e-07  1.3322045e-06  3.3496275e-08  8.7933951e-08  24.519558    
      6100   26.477585      50000          50000          50000          5.871167e-07   1.6176216e-06  4.8486991e-08  9.5241499e-08  26.477585    
      6120   28.458993      50000          50000          50000          6.9007437e-07  1.9043868e-06  6.3147532e-08  1.0268874e-07  28.458993    
      6140   30.032509      50000          50000          50000          7.9301065e-07  2.191395e-06   7.7343879e-08  1.1029307e-07  30.032509    
      6160   30.935303      50000          50000          50000          8.9489095e-07  2.4758204e-06  9.0887052e-08  1.1796546e-07  30.935303    
      6180   31.187655      50000          50000          50000          9.938091e-07   2.7523979e-06  1.0352328e-07  1.2550614e-07  31.187655    
      6200   31.08838       50000          50000          50000          1.08714e-06    3.0136384e-06  1.1508265e-07  1.3269904e-07  31.08838     
      6220   31.076452      50000          50000          50000          1.1720356e-06  3.2510874e-06  1.2560867e-07  1.3941071e-07  31.076452    
      6240   31.51686       50000          50000          50000          1.2459188e-06  3.4568505e-06  1.3531449e-07  1.4559129e-07  31.51686     
      6260   32.525196      50000          50000          50000          1.3067912e-06  3.6247018e-06  1.4445559e-07  1.5121615e-07  32.525196    
      6280   33.90485       50000          50000          50000          1.3533368e-06  3.7505453e-06  1.5323072e-07  1.562345e-07   33.90485     
      6300   35.240454      50000          50000          50000          1.3848795e-06  3.8323741e-06  1.617263e-07   1.6053825e-07  35.240454    
      6320   36.083894      50000          50000          50000          1.4012268e-06  3.8698503e-06  1.6988714e-07  1.6394303e-07  36.083894    
      6340   36.149595      50000          50000          50000          1.4024866e-06  3.8637742e-06  1.7750657e-07  1.6617891e-07  36.149595    
      6360   35.431948      50000          50000          50000          1.3889358e-06  3.8156741e-06  1.8423809e-07  1.6689529e-07  35.431948    
      6380   34.198905      50000          50000          50000          1.3609877e-06  3.7276496e-06  1.8962973e-07  1.656839e-07   34.198905    
      6400   32.870946      50000          50000          50000          1.319248e-06   3.602447e-06   1.9317701e-07  1.6211988e-07  32.870946    
      6420   31.842049      50000          50000          50000          1.2646077e-06  3.4436215e-06  1.9438588e-07  1.5581572e-07  31.842049    
      6440   31.323341      50000          50000          50000          1.1983035e-06  3.255597e-06   1.9283428e-07  1.4647935e-07  31.323341    
      6460   31.272751      50000          50000          50000          1.1218847e-06  3.0434662e-06  1.8822133e-07  1.3396653e-07  31.272751    
      6480   31.439112      50000          50000          50000          1.0370838e-06  2.8125346e-06  1.8039697e-07  1.1831983e-07  31.439112    
      6500   31.488932      50000          50000          50000          9.4563015e-07  2.5677278e-06  1.6937131e-07  9.9791327e-08  31.488932    
      6520   31.153846      50000          50000          50000          8.4907804e-07  2.3130765e-06  1.5530827e-07  7.8849404e-08  31.153846    
      6540   30.332914      50000          50000          50000          7.4871739e-07  2.0514685e-06  1.3851131e-07  5.6172389e-08  30.332914    
      6560   29.111257      50000          50000          50000          6.4560255e-07  1.7847494e-06  1.1941954e-07  3.26387e-08    29.111257    
      6580   27.697014      50000          50000          50000          5.4067535e-07  1.5140519e-06  9.8643834e-08  9.3303404e-09  27.697014    
      6600   26.316099      50000          50000          50000          4.3483712e-07  1.2399966e-06  7.7004849e-08 -1.2490104e-08  26.316099    
      6620   25.124404      50000          50000          50000          3.2881999e-07  9.6255385e-07  5.5438297e-08 -3.1532182e-08  25.124404    
      6640   24.180996      50000          50000          50000          2.229954e-07   6.8090757e-07  3.478981e-08  -4.6711178e-08  24.180996    
      6660   23.479255      50000          50000          50000          1.1736294e-07  3.9368531e-07  1.5692249e-08 -5.7288735e-08  23.479255    
      6680   23.000448      50000          50000          50000          1.1692096e-08  9.9396642e-08 -1.426175e-09  -6.2894177e-08  23.000448    
      6700   22.753197      50000          50000          50000         -9.4342373e-08 -2.0321844e-07 -1.6296802e-08 -6.3511879e-08  22.753197    
      6720   22.784923      50000          50000          50000         -2.0107997e-07 -5.1497674e-07 -2.8786792e-08 -5.9476391e-08  22.784923    
      6740   23.148323      50000          50000          50000         -3.0884038e-07 -8.3614287e-07 -3.8902997e-08 -5.147527e-08   23.148323    
      6760   23.858334      50000          50000          50000         -4.1787367e-07 -1.1662263e-06 -4.682737e-08  -4.0567347e-08  23.858334    
      6780   24.854532      50000          50000          50000         -5.282471e-07  -1.5035465e-06 -5.297592e-08  -2.8218844e-08  24.854532    
      6800   25.983316      50000          50000          50000         -6.3963183e-07 -1.8446313e-06 -5.7990772e-08 -1.6273421e-08  25.983316    
      6820   27.039339      50000          50000          50000         -7.5109663e-07 -2.1839958e-06 -6.2563112e-08 -6.7309689e-09  27.039339    
      6840   27.852842      50000          50000          50000         -8.6120146e-07 -2.5149583e-06 -6.7220285e-08 -1.425793e-09   27.852842    
      6860   28.391194      50000          50000          50000         -9.6835574e-07 -2.8309773e-06 -7.2275653e-08 -1.8142905e-09  28.391194    
      6880   28.810934      50000          50000          50000         -1.0711114e-06 -3.1265752e-06 -7.7883066e-08 -8.8759821e-09  28.810934    
      6900   29.419252      50000          50000          50000         -1.1682339e-06 -3.3975928e-06 -8.4073092e-08 -2.3035815e-08  29.419252    
      6920   30.551808      50000          50000          50000         -1.2586263e-06 -3.641022e-06  -9.0761489e-08 -4.4095411e-08  30.551808    
      6940   32.418115      50000          50000          50000         -1.3412191e-06 -3.8546865e-06 -9.7763064e-08 -7.120773e-08   32.418115    
      6960   34.986949      50000          50000          50000         -1.4148997e-06 -4.0369531e-06 -1.0482543e-07 -1.029206e-07   34.986949    
      6980   37.96245       50000          50000          50000         -1.4785224e-06 -4.1865993e-06 -1.1167674e-07 -1.3729119e-07  37.96245     
      7000   40.88035       50000          50000          50000         -1.5309748e-06 -4.3028e-06    -1.1807221e-07 -1.720522e-07   40.88035     
      7020   43.266521      50000          50000          50000         -1.5712881e-06 -4.385238e-06  -1.2382556e-07 -2.0480061e-07  43.266521    
      7040   44.81045       50000          50000          50000         -1.5987247e-06 -4.4341678e-06 -1.2882229e-07 -2.3318404e-07  44.81045     
      7060   45.475803      50000          50000          50000         -1.6128299e-06 -4.4503867e-06 -1.3302852e-07 -2.5507434e-07  45.475803    
      7080   45.510051      50000          50000          50000         -1.6134465e-06 -4.4350921e-06 -1.3651416e-07 -2.6873315e-07  45.510051    
      7100   45.345241      50000          50000          50000         -1.6007083e-06 -4.3896811e-06 -1.3946887e-07 -2.7297494e-07  45.345241    
      7120   45.409233      50000          50000          50000         -1.5749842e-06 -4.315522e-06  -1.421246e-07  -2.6730596e-07  45.409233    
      7140   45.933259      50000          50000          50000         -1.5367166e-06 -4.2135736e-06 -1.4457798e-07 -2.5199814e-07  45.933259    
      7160   46.816315      50000          50000          50000         -1.486292e-06  -4.0841185e-06 -1.4667574e-07 -2.280818e-07   46.816315    
      7180   47.656624      50000          50000          50000         -1.4240255e-06 -3.9267688e-06 -1.4805093e-07 -1.9725692e-07  47.656624    
      7200   47.918325      50000          50000          50000         -1.350276e-06  -3.7408695e-06 -1.4822602e-07 -1.6173261e-07  47.918325    
      7220   47.156311      50000          50000          50000         -1.2656054e-06 -3.5260886e-06 -1.4670134e-07 -1.2402613e-07  47.156311    
      7240   45.196189      50000          50000          50000         -1.1709043e-06 -3.282948e-06  -1.4301304e-07 -8.6751937e-08  45.196189    
      7260   42.198317      50000          50000          50000         -1.0674318e-06 -3.0131115e-06 -1.3677115e-07 -5.2412651e-08  42.198317    
      7280   38.58786       50000          50000          50000         -9.5674239e-07 -2.7193487e-06 -1.276869e-07  -2.3191584e-08  38.58786     
      7300   34.894642      50000          50000          50000         -8.4050654e-07 -2.4051769e-06 -1.1559147e-07 -7.512523e-10   34.894642    
      7320   31.561581      50000          50000          50000         -7.2028839e-07 -2.0743577e-06 -1.0044599e-07  1.3938562e-08  31.561581    
      7340   28.821174      50000          50000          50000         -5.9734344e-07 -1.730379e-06  -8.2350177e-08  2.0698877e-08  28.821174    
      7360   26.670856      50000          50000          50000         -4.7254419e-07 -1.3761949e-06 -6.1563552e-08  2.0125891e-08  26.670856    
      7380   24.946341      50000          50000          50000         -3.4646133e-07 -1.0143203e-06 -3.853618e-08   1.3472475e-08  24.946341    
      7400   23.441858      50000          50000          50000         -2.1953785e-07 -6.4718288e-07 -1.39188e-08    2.4881385e-09  23.441858    
      7420   22.017423      50000          50000          50000         -9.2250462e-08 -2.7748112e-07  1.147026e-08  -1.0740525e-08  22.017423    
      7440   20.652065      50000          50000          50000          3.4801951e-08  9.1651815e-08  3.6711341e-08 -2.3957302e-08  20.652065    
      7460   19.432361      50000          50000          50000          1.6088484e-07  4.5671769e-07  6.0861892e-08 -3.4925053e-08  19.432361    
      7480   18.494194      50000          50000          50000          2.8516404e-07  8.1408118e-07  8.3034403e-08 -4.162347e-08   18.494194    
      7500   17.95269       50000          50000          50000          4.0675857e-07  1.1602382e-06  1.0246664e-07 -4.2429074e-08  17.95269     
      7520   17.85456       50000          50000          50000          5.2478087e-07  1.4920166e-06  1.18578e-07   -3.6251984e-08  17.85456     
      7540   18.170637      50000          50000          50000          6.3834837e-07  1.8066504e-06  1.310078e-07  -2.2613055e-08  18.170637    
      7560   18.824017      50000          50000          50000          7.4656981e-07  2.1017315e-06  1.3963464e-07 -1.6566788e-09  18.824017    
      7580   19.732722      50000          50000          50000          8.4852442e-07  2.3750996e-06  1.4457898e-07  2.589464e-08   19.732722    
      7600   20.84262       50000          50000          50000          9.4325557e-07  2.6247443e-06  1.4619153e-07  5.8830845e-08  20.84262     
      7620   22.135814      50000          50000          50000          1.0297915e-06  2.8487705e-06  1.4502953e-07  9.5574496e-08  22.135814    
      7640   23.615177      50000          50000          50000          1.1071894e-06  3.0454318e-06  1.4182181e-07  1.3431458e-07  23.615177    
      7660   25.278494      50000          50000          50000          1.1745796e-06  3.2131835e-06  1.3742046e-07  1.7313466e-07  25.278494    
      7680   27.099105      50000          50000          50000          1.2311673e-06  3.3506682e-06  1.3272935e-07  2.1010445e-07  27.099105    
      7700   29.022441      50000          50000          50000          1.2761518e-06  3.4565667e-06  1.2859159e-07  2.4329726e-07  29.022441    
      7720   30.974776      50000          50000          50000          1.30861e-06    3.5294146e-06  1.2565502e-07  2.7076026e-07  30.974776    
      7740   32.874006      50000          50000          50000          1.3275632e-06  3.567734e-06   1.2433266e-07  2.906229e-07   32.874006    
      7760   34.638089      50000          50000          50000          1.3323171e-06  3.5705866e-06  1.2491321e-07  3.0145143e-07  34.638089    
      7780   36.191286      50000          50000          50000          1.3227252e-06  3.5379989e-06  1.2761729e-07  3.0255944e-07  36.191286    
      7800   37.46523       50000          50000          50000          1.2991295e-06  3.4708824e-06  1.3248183e-07  2.9402443e-07  37.46523     
      7820   38.395389      50000          50000          50000          1.2621695e-06  3.3707258e-06  1.3923122e-07  2.7655149e-07  38.395389    
      7840   38.922416      50000          50000          50000          1.2126464e-06  3.2393457e-06  1.4724663e-07  2.51347e-07    38.922416    
      7860   39.00779       50000          50000          50000          1.1514431e-06  3.0787112e-06  1.5560834e-07  2.2000959e-07  39.00779     
      7880   38.662183      50000          50000          50000          1.0794649e-06  2.8908083e-06  1.6317516e-07  1.8441116e-07  38.662183    
      7900   37.971431      50000          50000          50000          9.976009e-07   2.6775506e-06  1.6868948e-07  1.4656262e-07  37.971431    
      7920   37.098566      50000          50000          50000          9.0671726e-07  2.4407778e-06  1.7090302e-07  1.0847098e-07  37.098566    
      7940   36.247026      50000          50000          50000          8.076912e-07   2.1823637e-06  1.687134e-07   7.1996523e-08  36.247026    
      7960   35.589193      50000          50000          50000          7.014771e-07   1.9044163e-06  1.6129491e-07  3.8720146e-08  35.589193    
      7980   35.187164      50000          50000          50000          5.8917847e-07  1.6094989e-06  1.4820377e-07  9.8327318e-09  35.187164    
      8000   34.945655      50000          50000          50000          4.7209159e-07  1.3007743e-06  1.2944098e-07 -1.394047e-08   34.945655    
      8020   34.629716      50000          50000          50000          3.51694e-07    9.8198592e-07  1.054654e-07  -3.2369312e-08  34.629716    
      8040   33.952278      50000          50000          50000          2.2957097e-07  6.5725016e-07  7.7159005e-08 -4.5696274e-08  33.952278    
      8060   32.700759      50000          50000          50000          1.0729743e-07  3.307063e-07   4.5750469e-08 -5.4564476e-08  32.700759    
      8080   30.847416      50000          50000          50000         -1.3686364e-08  6.1467492e-09  1.2702767e-08 -5.9908608e-08  30.847416    
      8100   28.590196      50000          50000          50000         -1.321568e-07  -3.1321788e-07 -2.0423806e-08 -6.2828704e-08  28.590196    
      8120   26.300495      50000          50000          50000         -2.4710629e-07 -6.2474522e-07 -5.2108161e-08 -6.4465489e-08  26.300495    
      8140   24.395428      50000          50000          50000         -3.5765759e-07 -9.2610902e-07 -8.0976443e-08 -6.5887305e-08  24.395428    
      8160   23.184145      50000          50000          50000         -4.6293822e-07 -1.2149483e-06 -1.0587343e-07 -6.7992928e-08  23.184145    
      8180   22.748985      50000          50000          50000         -5.6198329e-07 -1.4886031e-06 -1.2591086e-07 -7.1435894e-08  22.748985    
      8200   22.910764      50000          50000          50000         -6.537174e-07  -1.7440673e-06 -1.4050743e-07 -7.6577507e-08  22.910764    
      8220   23.296673      50000          50000          50000         -7.370264e-07  -1.9781838e-06 -1.4942287e-07 -8.3472514e-08  23.296673    
      8240   23.489121      50000          50000          50000         -8.1089216e-07 -2.1880116e-06 -1.5277941e-07 -9.1885508e-08  23.489121    
      8260   23.20037       50000          50000          50000         -8.7454159e-07 -2.3712308e-06 -1.5106237e-07 -1.0133161e-07  23.20037     
      8280   22.40463       50000          50000          50000         -9.275585e-07  -2.5264482e-06 -1.4509413e-07 -1.1113316e-07  22.40463     
      8300   21.372056      50000          50000          50000         -9.6991912e-07 -2.6532954e-06 -1.359775e-07  -1.204845e-07   21.372056    
      8320   20.583884      50000          50000          50000         -1.0019347e-06 -2.7522818e-06 -1.2500429e-07 -1.2851796e-07  20.583884    
      8340   20.554493      50000          50000          50000         -1.0241125e-06 -2.8244443e-06 -1.1352833e-07 -1.3436496e-07  20.554493    
      8360   21.628733      50000          50000          50000         -1.0369771e-06 -2.8709103e-06 -1.0281259e-07 -1.372084e-07   21.628733    
      8380   23.840988      50000          50000          50000         -1.0409252e-06 -2.8925513e-06 -9.3889841e-08 -1.3633464e-07  23.840988    
      8400   26.897793      50000          50000          50000         -1.0362298e-06 -2.889917e-06  -8.7532816e-08 -1.3123956e-07  26.897793    
      8420   30.28175       50000          50000          50000         -1.023283e-06  -2.8635761e-06 -8.4409029e-08 -1.2186386e-07  30.28175     
      8440   33.425939      50000          50000          50000         -1.0028368e-06 -2.8146198e-06 -8.5125571e-08 -1.0876506e-07  33.425939    
      8460   35.908234      50000          50000          50000         -9.7587259e-07 -2.7449173e-06 -8.9813457e-08 -9.2887013e-08  35.908234    
      8480   37.616284      50000          50000          50000         -9.4338393e-07 -2.6571096e-06 -9.7796577e-08 -7.5245636e-08  37.616284    
      8500   38.763328      50000          50000          50000         -9.0635035e-07 -2.5544445e-06 -1.077412e-07  -5.686532e-08   38.763328    
      8520   39.747774      50000          50000          50000         -8.6565754e-07 -2.4402678e-06 -1.1793945e-07 -3.8765378e-08  39.747774    
      8540   40.934706      50000          50000          50000         -8.2193617e-07 -2.3173718e-06 -1.2654021e-07 -2.1896526e-08  40.934706    
      8560   42.478217      50000          50000          50000         -7.7548826e-07 -2.1875789e-06 -1.317751e-07  -7.1107951e-09  42.478217    
      8580   44.260635      50000          50000          50000         -7.2636864e-07 -2.0517744e-06 -1.3215848e-07  4.8269973e-09  44.260635    
      8600   45.955924      50000          50000          50000         -6.7451786e-07 -1.9102527e-06 -1.265833e-07   1.3282424e-08  45.955924    
      8620   47.176336      50000          50000          50000         -6.1988491e-07 -1.7631448e-06 -1.1435683e-07  1.7846892e-08  47.176336    
      8640   47.635557      50000          50000          50000         -5.6255308e-07 -1.6108045e-06 -9.5256851e-08  1.840206e-08   47.635557    
      8660   47.257194      50000          50000          50000         -5.0284014e-07 -1.4540561e-06 -6.9598237e-08  1.5133919e-08  47.257194    
      8680   46.184184      50000          50000          50000         -4.4132773e-07 -1.2942284e-06 -3.8271993e-08  8.5171716e-09  46.184184    
      8700   44.691688      50000          50000          50000         -3.7881031e-07 -1.1329767e-06 -2.7359204e-09 -7.182732e-10   44.691688    
      8720   43.049727      50000          50000          50000         -3.1619046e-07 -9.7198643e-07  3.5052932e-08 -1.163788e-08   43.049727    
      8740   41.403432      50000          50000          50000         -2.5436864e-07 -8.1270148e-07  7.2767838e-08 -2.3172269e-08  41.403432    
      8760   39.728754      50000          50000          50000         -1.9417473e-07 -6.5621718e-07  1.0789831e-07 -3.4205329e-08  39.728754    
      8780   37.883156      50000          50000          50000         -1.3636498e-07 -5.0339698e-07  1.3797557e-07 -4.3673518e-08  37.883156    
      8800   35.721716      50000          50000          50000         -8.1668507e-08 -3.5515763e-07  1.6081495e-07 -5.0662844e-08  35.721716    
      8820   33.214018      50000          50000          50000         -3.0830235e-08 -2.1276245e-07  1.7475673e-07 -5.4484985e-08  33.214018    
      8840   30.495573      50000          50000          50000          1.542232e-08  -7.7919634e-08  1.7889622e-07 -5.4709622e-08  30.495573    
      8860   27.822517      50000          50000          50000          5.6536739e-08  4.7464368e-08  1.7328073e-07 -5.1134878e-08  27.822517    
      8880   25.454096      50000          50000          50000          9.2351284e-08  1.6180865e-07  1.5897041e-07 -4.372521e-08   25.454096    
      8900   23.540932      50000          50000          50000          1.2315574e-07  2.6427847e-07  1.3780436e-07 -3.2615597e-08  23.540932    
      8920   22.070065      50000          50000          50000          1.4947744e-07  3.5467584e-07  1.119601e-07  -1.8203621e-08  22.070065    
      8940   20.900926      50000          50000          50000          1.7184609e-07  4.3306213e-07  8.3665479e-08 -1.1893366e-09  20.900926    
      8960   19.849815      50000          50000          50000          1.9069986e-07  4.9946591e-07  5.5142261e-08  1.7491408e-08  19.849815    
      8980   18.79306       50000          50000          50000          2.0636577e-07  5.5377215e-07  2.8564686e-08  3.6760491e-08  18.79306     
      9000   17.745881      50000          50000          50000          2.1903993e-07  5.9572129e-07  5.9266411e-09  5.5471846e-08  17.745881    
      9020   16.877077      50000          50000          50000          2.2878764e-07  6.2502438e-07 -1.1139115e-08  7.2477663e-08  16.877077    
      9040   16.444373      50000          50000          50000          2.3559605e-07  6.4161526e-07 -2.1529007e-08  8.6701888e-08  16.444373    
      9060   16.673989      50000          50000          50000          2.3947285e-07  6.4598602e-07 -2.4789068e-08  9.7221593e-08  16.673989    
      9080   17.63956       50000          50000          50000          2.4054983e-07  6.394725e-07  -2.1168594e-08  1.0334559e-07  17.63956     
      9100   19.201403      50000          50000          50000          2.3914045e-07  6.2434222e-07 -1.1596722e-08  1.0467585e-07  19.201403    
      9120   21.041763      50000          50000          50000          2.3572152e-07  6.036061e-07   2.4177228e-09  1.0114073e-07  21.041763    
      9140   22.786843      50000          50000          50000          2.3084644e-07  5.8059211e-07  1.8949988e-08  9.299723e-08   22.786843    
      9160   24.164968      50000          50000          50000          2.2502879e-07  5.5841761e-07  3.5862293e-08  8.080646e-08   24.164968    
      9180   25.132145      50000          50000          50000          2.186424e-07   5.3952779e-07  5.1011949e-08  6.5387458e-08  25.132145    
      9200   25.908119      50000          50000          50000          2.1186692e-07  5.2542583e-07  6.2424482e-08  4.7750432e-08  25.908119    
      9220   26.899379      50000          50000          50000          2.0469066e-07  5.1664236e-07  6.8411665e-08  2.9017938e-08  26.899379    
      9240   28.525175      50000          50000          50000          1.970041e-07   5.1294391e-07  6.7695388e-08  1.0373001e-08  28.525175    
      9260   31.002684      50000          50000          50000          1.8881984e-07  5.1375205e-07  5.9640521e-08 -6.9330387e-09  31.002684    
      9280   34.186776      50000          50000          50000          1.8050483e-07  5.1859023e-07  4.4512228e-08 -2.1587974e-08  34.186776    
      9300   37.56936       50000          50000          50000          1.7281102e-07  5.2726328e-07  2.3514845e-08 -3.234508e-08   37.56936     
      9320   40.445934      50000          50000          50000          1.6664906e-07  5.3960633e-07 -1.4341597e-09 -3.8224992e-08  40.445934    
      9340   42.192199      50000          50000          50000          1.6278354e-07  5.5506426e-07 -2.8033686e-08 -3.8679938e-08  42.192199    
      9360   42.510341      50000          50000          50000          1.6158872e-07  5.7233524e-07 -5.389769e-08  -3.3671386e-08  42.510341    
      9380   41.546676      50000          50000          50000          1.6294993e-07  5.8930406e-07 -7.6784728e-08 -2.3669533e-08  41.546676    
      9400   39.833601      50000          50000          50000          1.6632368e-07  6.0334077e-07 -9.4773993e-08 -9.5957376e-09  39.833601    
      9420   38.080625      50000          50000          50000          1.7092696e-07  6.1190924e-07 -1.0640696e-07  7.2785994e-09  38.080625    
      9440   36.893136      50000          50000          50000          1.7598193e-07  6.1327343e-07 -1.107962e-07   2.5468571e-08  36.893136    
      9460   36.5494        50000          50000          50000          1.8094075e-07  6.0707761e-07 -1.076898e-07   4.3434454e-08  36.5494      
      9480   36.910991      50000          50000          50000          1.8558328e-07  5.9448957e-07 -9.7479198e-08  5.9739466e-08  36.910991    
      9500   37.51338       50000          50000          50000          1.8997014e-07  5.7787701e-07 -8.1146085e-08  7.3179506e-08  37.51338     
      9520   37.783407      50000          50000          50000          1.9428065e-07  5.6013198e-07 -6.0156079e-08  8.2866034e-08  37.783407    
      9540   37.278603      50000          50000          50000          1.9861345e-07  5.4389402e-07 -3.6314562e-08  8.82609e-08    37.278603    
      9560   35.863014      50000          50000          50000          2.0285215e-07  5.3097982e-07 -1.1600689e-08  8.9177327e-08  35.863014    
      9580   33.739028      50000          50000          50000          2.0662176e-07  5.2209387e-07  1.200819e-08   8.5763227e-08  33.739028    
      9600   31.348781      50000          50000          50000          2.0935579e-07  5.1688131e-07  3.2711846e-08  7.8474221e-08  31.348781    
      9620   29.188536      50000          50000          50000          2.1043172e-07  5.1421207e-07  4.9050112e-08  6.8032963e-08  29.188536    
      9640   27.616511      50000          50000          50000          2.0931728e-07  5.1254864e-07  6.003608e-08   5.5367124e-08  27.616511    
      9660   26.731816      50000          50000          50000          2.0566871e-07  5.102418e-07   6.5240833e-08  4.1523498e-08  26.731816    
      9680   26.36812       50000          50000          50000          1.9934977e-07  5.0566139e-07  6.4819341e-08  2.7568573e-08  26.36812     
      9700   26.193073      50000          50000          50000          1.9038384e-07  4.9717202e-07  5.948109e-08   1.4498414e-08  26.193073    
      9720   25.866976      50000          50000          50000          1.7888176e-07  4.8306341e-07  5.0408041e-08  3.173822e-09   25.866976    
      9740   25.174433      50000          50000          50000          1.649387e-07   4.6145726e-07  3.9098028e-08 -5.7391955e-09  25.174433    
      9760   24.09513       50000          50000          50000          1.4852427e-07  4.3028764e-07  2.7131863e-08 -1.1846703e-08  24.09513     
      9780   22.784805      50000          50000          50000          1.2941988e-07  3.8737184e-07  1.5957305e-08 -1.5069486e-08  22.784805    
      9800   21.497535      50000          50000          50000          1.0728005e-07  3.3065398e-07  6.7796393e-09 -1.5593464e-08  21.497535    
      9820   20.487689      50000          50000          50000          8.1768951e-08  2.5854113e-07  5.3009372e-10 -1.3764374e-08  20.487689    
      9840   19.928456      50000          50000          50000          5.2683652e-08  1.7016974e-07 -2.1409333e-09 -9.9778494e-09  19.928456    
      9860   19.874029      50000          50000          50000          2.0019563e-08  6.5456728e-08 -8.3733254e-10 -4.5607059e-09  19.874029    
      9880   20.276696      50000          50000          50000         -1.6076308e-08 -5.5221433e-08  4.6486435e-09  2.343865e-09   20.276696    
      9900   21.045835      50000          50000          50000         -5.5706984e-08 -1.9179723e-07  1.413529e-08   1.0540984e-08  21.045835    
      9920   22.090369      50000          50000          50000         -9.9724422e-08 -3.4434062e-07  2.6245217e-08  1.8922133e-08  22.090369    
      9940   23.291311      50000          50000          50000         -1.4843761e-07 -5.1026558e-07  3.8881733e-08  2.6071005e-08  23.291311    
      9960   24.491052      50000          50000          50000         -2.0065122e-07 -6.8428318e-07  5.0652602e-08  3.1676913e-08  24.491052    
      9980   25.555186      50000          50000          50000         -2.5499076e-07 -8.6146986e-07  6.0558137e-08  3.593946e-08   25.555186    
     10000   26.436047      50000          50000          50000         -3.1054194e-07 -1.0382549e-06  6.7625304e-08  3.9003739e-08  26.436047    
     10020   27.192682      50000          50000          50000         -3.6675866e-07 -1.2122159e-06  7.1004555e-08  4.0935328e-08  27.192682    
     10040   27.980755      50000          50000          50000         -4.233327e-07  -1.3818187e-06  7.0086152e-08  4.1734386e-08  27.980755    
     10060   28.990916      50000          50000          50000         -4.8011683e-07 -1.5462226e-06  6.455337e-08   4.1318741e-08  28.990916    
     10080   30.38262       50000          50000          50000         -5.370368e-07  -1.7050085e-06  5.4390911e-08  3.9507166e-08  30.38262     
     10100   32.21174       50000          50000          50000         -5.9402302e-07 -1.8579475e-06  3.9858281e-08  3.6020176e-08  32.21174     
     10120   34.394708      50000          50000          50000         -6.5095431e-07 -2.0048107e-06  2.1442722e-08  3.0505098e-08  34.394708    
     10140   36.718674      50000          50000          50000         -7.0762609e-07 -2.1452705e-06 -1.9347263e-10  2.2585678e-08  36.718674    
     10160   38.898999      50000          50000          50000         -7.6373883e-07 -2.2788869e-06 -2.4259399e-08  1.1929825e-08  38.898999    
     10180   40.662778      50000          50000          50000         -8.1890583e-07 -2.4051648e-06 -4.9873959e-08 -1.678752e-09   40.662778    
     10200   41.83446       50000          50000          50000         -8.7266769e-07 -2.5236109e-06 -7.6105068e-08 -1.8287106e-08  41.83446     
     10220   42.390269      50000          50000          50000         -9.2450172e-07 -2.6337229e-06 -1.0202231e-07 -3.7759929e-08  42.390269    
     10240   42.460751      50000          50000          50000         -9.7378098e-07 -2.7348127e-06 -1.2674664e-07 -5.9783589e-08  42.460751    
     10260   42.273212      50000          50000          50000         -1.0196159e-06 -2.8256539e-06 -1.494189e-07  -8.3774925e-08  42.273212    
     10280   42.039443      50000          50000          50000         -1.0606595e-06 -2.9041941e-06 -1.6909166e-07 -1.0869263e-07  42.039443    
     10300   41.850294      50000          50000          50000         -1.0951087e-06 -2.9675639e-06 -1.8473994e-07 -1.3302238e-07  41.850294    
     10320   41.618829      50000          50000          50000         -1.1209497e-06 -3.0123932e-06 -1.9543089e-07 -1.5502488e-07  41.618829    
     10340   41.117999      50000          50000          50000         -1.1362327e-06 -3.0351788e-06 -2.0048288e-07 -1.7303623e-07  41.117999    
     10360   40.088213      50000          50000          50000         -1.1393053e-06 -3.0326682e-06 -1.995456e-07  -1.8570216e-07  40.088213    
     10380   38.366048      50000          50000          50000         -1.1290081e-06 -3.0022387e-06 -1.9263282e-07 -1.9215276e-07  38.366048    
     10400   35.976109      50000          50000          50000         -1.1048148e-06 -2.9421937e-06 -1.8012859e-07 -1.9212209e-07  35.976109    
     10420   33.143513      50000          50000          50000         -1.066877e-06  -2.8518811e-06 -1.6275961e-07 -1.8599041e-07  33.143513    
     10440   30.219221      50000          50000          50000         -1.015939e-06  -2.7315783e-06 -1.4151684e-07 -1.7472196e-07  30.219221    
     10460   27.551729      50000          50000          50000         -9.5312523e-07 -2.5821517e-06 -1.1752903e-07 -1.5969498e-07  27.551729    
     10480   25.366808      50000          50000          50000         -8.796819e-07  -2.4046206e-06 -9.1942901e-08 -1.4248222e-07  25.366808    
     10500   23.711385      50000          50000          50000         -7.9681668e-07 -2.1998906e-06 -6.5884607e-08 -1.2467488e-07  23.711385    
     10520   22.477384      50000          50000          50000         -7.0569936e-07 -1.9688569e-06 -4.0477908e-08 -1.0776328e-07  22.477384    
     10540   21.478158      50000          50000          50000         -6.075348e-07  -1.7127876e-06 -1.6815291e-08 -9.3001554e-08  21.478158    
     10560   20.54195       50000          50000          50000         -5.0360188e-07 -1.433699e-06   4.1391893e-09 -8.1245854e-08  20.54195     
     10580   19.583483      50000          50000          50000         -3.9524628e-07 -1.1345624e-06  2.1653085e-08 -7.2829523e-08  19.583483    
     10600   18.631803      50000          50000          50000         -2.8383907e-07 -8.1929834e-07  3.529637e-08  -6.7515232e-08  18.631803    
     10620   17.805879      50000          50000          50000         -1.7071194e-07 -4.9259135e-07  4.4978321e-08 -6.4522791e-08  17.805879    
     10640   17.246743      50000          50000          50000         -5.7088916e-08 -1.5960215e-07  5.0954613e-08 -6.2619205e-08  17.246743    
     10660   17.053711      50000          50000          50000          5.5980557e-08  1.7439514e-07  5.3804462e-08 -6.0257927e-08  17.053711    
     10680   17.23762       50000          50000          50000          1.6764036e-07  5.0429853e-07  5.4375747e-08 -5.5753194e-08  17.23762     
     10700   17.725543      50000          50000          50000          2.7720254e-07  8.2537879e-07  5.3700955e-08 -4.7472123e-08  17.725543    
     10720   18.405793      50000          50000          50000          3.8407852e-07  1.133368e-06   5.2892096e-08 -3.4024562e-08  18.405793    
     10740   19.189022      50000          50000          50000          4.8769399e-07  1.4244845e-06  5.3027579e-08 -1.4430161e-08  19.189022    
     10760   20.053289      50000          50000          50000          5.8742176e-07  1.6954633e-06  5.5045859e-08  1.1756149e-08  20.053289    
     10780   21.050464      50000          50000          50000          6.8255959e-07  1.9436432e-06  5.9659693e-08  4.4375911e-08  21.050464    
     10800   22.271563      50000          50000          50000          7.7235729e-07  2.1671076e-06  6.7300084e-08  8.266424e-08   22.271563    
     10820   23.789277      50000          50000          50000          8.5605686e-07  2.3647889e-06  7.8083187e-08  1.2529847e-07  23.789277    
     10840   25.605711      50000          50000          50000          9.3285454e-07  2.5363682e-06  9.1757615e-08  1.704378e-07   25.605711    
     10860   27.626393      50000          50000          50000          1.001702e-06   2.6818485e-06  1.0757947e-07  2.1567811e-07  27.626393    
     10880   29.667978      50000          50000          50000          1.0611108e-06  2.8010704e-06  1.2422707e-07  2.5803503e-07  29.667978    
     10900   31.504856      50000          50000          50000          1.1093477e-06  2.8937161e-06  1.400408e-07   2.9428612e-07  31.504856    
     10920   32.952394      50000          50000          50000          1.1449133e-06  2.9596647e-06  1.5347909e-07  3.2159613e-07  32.952394    
     10940   33.949352      50000          50000          50000          1.1667855e-06  2.9990458e-06  1.6336613e-07  3.3794467e-07  33.949352    
     10960   34.586838      50000          50000          50000          1.1743884e-06  3.0119901e-06  1.6891872e-07  3.4225651e-07  34.586838    
     10980   35.063067      50000          50000          50000          1.1675381e-06  2.9984572e-06  1.6974476e-07  3.3441223e-07  35.063067    
     11000   35.586013      50000          50000          50000          1.1464495e-06  2.9582778e-06  1.6585585e-07  3.1521489e-07  35.586013    
     11020   36.271404      50000          50000          50000          1.1117563e-06  2.8913149e-06  1.5765464e-07  2.862994e-07   36.271404    
     11040   37.084304      50000          50000          50000          1.0644814e-06  2.797602e-06   1.4587141e-07  2.4997091e-07  37.084304    
     11060   37.850471      50000          50000          50000          1.0059352e-06  2.677372e-06   1.3145243e-07  2.0898126e-07  37.850471    
     11080   38.329067      50000          50000          50000          9.3755773e-07  2.5309827e-06  1.1542063e-07  1.6626983e-07  38.329067    
     11100   38.317636      50000          50000          50000          8.6075805e-07  2.3588386e-06  9.8735017e-08  1.2470049e-07  38.317636    
     11120   37.729059      50000          50000          50000          7.767831e-07   2.1613566e-06  8.2171387e-08  8.6821313e-08  37.729059    
     11140   36.62757       50000          50000          50000          6.8666781e-07  1.9391008e-06  6.6238882e-08  5.4663722e-08  36.62757     
     11160   35.198762      50000          50000          50000          5.91254e-07    1.693032e-06   5.1138761e-08  2.9591228e-08  35.198762    
     11180   33.675968      50000          50000          50000          4.9126598e-07  1.424825e-06   3.6767458e-08  1.2205489e-08  33.675968    
     11200   32.255275      50000          50000          50000          3.8741308e-07  1.1371593e-06  2.276254e-08   2.3174137e-09  32.255275    
     11220   31.034375      50000          50000          50000          2.8049449e-07  8.3390241e-07  8.5901203e-09 -1.0090503e-09  31.034375    
     11240   29.997404      50000          50000          50000          1.7149265e-07  5.2012459e-07 -6.3202332e-09  6.7360025e-10  29.997404    
     11260   29.046706      50000          50000          50000          6.1625517e-08  2.0183334e-07 -2.2389382e-08  5.4325936e-09  29.046706    
     11280   28.063438      50000          50000          50000         -4.772358e-08  -1.1472948e-07 -3.9708831e-08  1.1267576e-08  28.063438    
     11300   26.96844       50000          50000          50000         -1.5524313e-07 -4.2411326e-07 -5.7991394e-08  1.6375266e-08  26.96844     
     11320   25.755858      50000          50000          50000         -2.5994427e-07 -7.2241992e-07 -7.6676721e-08  1.9263818e-08  25.755858    
     11340   24.494574      50000          50000          50000         -3.6119023e-07 -1.0073044e-06 -9.5044795e-08  1.8778528e-08  24.494574    
     11360   23.289593      50000          50000          50000         -4.5853287e-07 -1.2774965e-06 -1.1224432e-07  1.4142203e-08  23.289593    
     11380   22.243415      50000          50000          50000         -5.515263e-07  -1.5322863e-06 -1.2729807e-07  5.0055186e-09  22.243415    
     11400   21.421116      50000          50000          50000         -6.3964474e-07 -1.7712405e-06 -1.3915474e-07 -8.5389877e-09  21.421116    
     11420   20.844177      50000          50000          50000         -7.2228213e-07 -1.9940631e-06 -1.467901e-07  -2.5993209e-08  20.844177    
     11440   20.495809      50000          50000          50000         -7.9881216e-07 -2.2005718e-06 -1.493344e-07  -4.6530321e-08  20.495809    
     11460   20.354702      50000          50000          50000         -8.686461e-07  -2.390636e-06  -1.4620433e-07 -6.9097932e-08  20.354702    
     11480   20.411753      50000          50000          50000         -9.3129988e-07 -2.5641368e-06 -1.372283e-07  -9.2534557e-08  20.411753    
     11500   20.685137      50000          50000          50000         -9.8642614e-07 -2.7208349e-06 -1.2275726e-07 -1.156863e-07   20.685137    
     11520   21.212581      50000          50000          50000         -1.0338202e-06 -2.8602074e-06 -1.0374579e-07 -1.3750724e-07  21.212581    
     11540   22.030905      50000          50000          50000         -1.0733906e-06 -2.981283e-06  -8.1763881e-08 -1.57125e-07    22.030905    
     11560   23.15157       50000          50000          50000         -1.1051143e-06 -3.0825815e-06 -5.8895027e-08 -1.7386638e-07  23.15157     
     11580   24.551491      50000          50000          50000         -1.1289995e-06 -3.1622183e-06 -3.7520618e-08 -1.872596e-07   24.551491    
     11600   26.170097      50000          50000          50000         -1.145088e-06  -3.2181969e-06 -2.0041065e-08 -1.9702612e-07  26.170097    
     11620   27.928858      50000          50000          50000         -1.153453e-06  -3.2487154e-06 -8.5870202e-09 -2.030566e-07   27.928858    
     11640   29.74652       50000          50000          50000         -1.1541885e-06 -3.2524398e-06 -4.7586524e-09 -2.0536721e-07  29.74652     
     11660   31.547811      50000          50000          50000         -1.1473821e-06 -3.2286767e-06 -9.421518e-09  -2.0404819e-07  31.547811    
     11680   33.264132      50000          50000          50000         -1.1330838e-06 -3.1774466e-06 -2.2581292e-08 -1.9922339e-07  33.264132    
     11700   34.83242       50000          50000          50000         -1.111288e-06  -3.0994807e-06 -4.3348403e-08 -1.9103505e-07  34.83242     
     11720   36.199928      50000          50000          50000         -1.0819422e-06 -2.9961768e-06 -6.9990598e-08 -1.7965907e-07  36.199928    
     11740   37.330145      50000          50000          50000         -1.044988e-06  -2.8695637e-06 -1.0005901e-07 -1.6534136e-07  37.330145    
     11760   38.219968      50000          50000          50000         -1.0003792e-06 -2.722172e-06  -1.3055918e-07 -1.4840629e-07  38.219968    
     11780   38.899696      50000          50000          50000         -9.4803123e-07 -2.5567188e-06 -1.5817892e-07 -1.2919599e-07  38.899696    
     11800   39.426186      50000          50000          50000         -8.8777779e-07 -2.3756146e-06 -1.7964658e-07 -1.0807221e-07  39.426186    
     11820   39.86053       50000          50000          50000         -8.1942075e-07 -2.1806509e-06 -1.9209588e-07 -8.5515435e-08  39.86053     
     11840   40.235478      50000          50000          50000         -7.4278526e-07 -1.9729057e-06 -1.9328311e-07 -6.2166976e-08  40.235478    
     11860   40.526278      50000          50000          50000         -6.5776649e-07 -1.7527652e-06 -1.817227e-07  -3.8811512e-08  40.526278    
     11880   40.640598      50000          50000          50000         -5.6442787e-07 -1.5201013e-06 -1.5682205e-07 -1.636022e-08   40.640598    
     11900   40.444472      50000          50000          50000         -4.6317487e-07 -1.2746572e-06 -1.1903261e-07  4.1652237e-09  40.444472    
     11920   39.80776       50000          50000          50000         -3.5496014e-07 -1.0166208e-06 -6.9970949e-08  2.1711349e-08  39.80776     
     11940   38.674508      50000          50000          50000         -2.4136645e-07 -7.4707272e-07 -1.2406911e-08  3.538028e-08   38.674508    
     11960   37.112863      50000          50000          50000         -1.2453372e-07 -4.6818675e-07  4.993449e-08   4.4651091e-08  37.112863    
     11980   35.317534      50000          50000          50000         -6.992837e-09  -1.8320787e-07  1.1270943e-07  4.9519926e-08  35.317534    
     12000   33.54834       50000          50000          50000          1.0853339e-07  1.037048e-07   1.7136388e-07  5.053151e-08   33.54834     
     12020   32.022471      50000          50000          50000          2.1935498e-07  3.8775922e-07  2.2157886e-07  4.8726865e-08  32.022471    
     12040   30.808724      50000          50000          50000          3.230629e-07   6.6393501e-07  2.5972719e-07  4.5526496e-08  30.808724    
     12060   29.781454      50000          50000          50000          4.1778468e-07  9.2748377e-07  2.8330329e-07  4.256699e-08   29.781454    
     12080   28.669456      50000          50000          50000          5.0239291e-07  1.1744459e-06  2.912324e-07   4.1500451e-08  28.669456    
     12100   27.185446      50000          50000          50000          5.7651753e-07  1.4019245e-06  2.8389007e-07  4.373801e-08   27.185446    
     12120   25.174485      50000          50000          50000          6.4025479e-07  1.6077986e-06  2.6279365e-07  5.0172164e-08  25.174485    
     12140   22.711623      50000          50000          50000          6.937822e-07   1.7900736e-06  2.3024961e-07  6.1023352e-08  22.711623    
     12160   20.107943      50000          50000          50000          7.3718477e-07  1.9465098e-06  1.8917964e-07  7.5864824e-08  20.107943    
     12180   17.819791      50000          50000          50000          7.7051449e-07  2.0748012e-06  1.4301093e-07  9.3731324e-08  17.819791    
     12200   16.291387      50000          50000          50000          7.939431e-07   2.1730963e-06  9.5482536e-08  1.1325047e-07  16.291387    
     12220   15.791256      50000          50000          50000          8.0789842e-07  2.2405403e-06  5.0358221e-08  1.3279674e-07  15.791256    
     12240   16.310504      50000          50000          50000          8.1311992e-07  2.2775957e-06  1.1100231e-08  1.5066386e-07  16.310504    
     12260   17.566725      50000          50000          50000          8.1060493e-07  2.286017e-06  -1.9437205e-08  1.6523502e-07  17.566725    
     12280   19.111732      50000          50000          50000          8.0146269e-07  2.2685042e-06 -3.9247072e-08  1.7513095e-07  19.111732    
     12300   20.49767       50000          50000          50000          7.8673035e-07  2.2281775e-06 -4.7314247e-08  1.7932783e-07  20.49767     
     12320   21.435172      50000          50000          50000          7.6721341e-07  2.1680562e-06 -4.3661775e-08  1.7724581e-07  21.435172    
     12340   21.884824      50000          50000          50000          7.4339364e-07  2.090683e-06  -2.9310752e-08  1.6880862e-07  21.884824    
     12360   22.051954      50000          50000          50000          7.1541833e-07  1.9979569e-06 -6.1722867e-09  1.5447039e-07  22.051954    
     12380   22.291521      50000          50000          50000          6.8315809e-07  1.8911651e-06  2.3106689e-08  1.3520252e-07  22.291521    
     12400   22.961342      50000          50000          50000          6.4630746e-07  1.7711624e-06  5.5322615e-08  1.1243734e-07  22.961342    
     12420   24.2776        50000          50000          50000          6.0451232e-07  1.6386399e-06  8.6920676e-08  8.7976407e-08  24.2776      
     12440   26.224932      50000          50000          50000          5.5751801e-07  1.4944076e-06  1.1427121e-07  6.3875224e-08  26.224932    
     12460   28.558346      50000          50000          50000          5.0529451e-07  1.3395429e-06  1.3405112e-07  4.2289507e-08  28.558346    
     12480   30.902397      50000          50000          50000          4.4805087e-07  1.1752482e-06  1.4365533e-07  2.524904e-08   30.902397    
     12500   32.905094      50000          50000          50000          3.8611936e-07  1.0024844e-06  1.4149892e-07  1.4374814e-08  32.905094    
     12520   34.37087       50000          50000          50000          3.1980692e-07  8.2165901e-07  1.2714357e-07  1.0618167e-08  34.37087     
     12540   35.309715      50000          50000          50000          2.4932286e-07  6.3259972e-07  1.0127549e-07  1.4093359e-08  35.309715    
     12560   35.888125      50000          50000          50000          1.7481583e-07  4.348337e-07   6.5585229e-08  2.4028557e-08  35.888125    
     12580   36.31788       50000          50000          50000          9.6481729e-08  2.2803438e-07  2.2581918e-08  3.8828891e-08  36.31788     
     12600   36.744849      50000          50000          50000          1.4677458e-08  1.2440797e-08 -2.4642779e-08  5.6234355e-08  36.744849    
     12620   37.193108      50000          50000          50000         -7.0013432e-08 -2.1090244e-07 -7.2688691e-08  7.355084e-08   37.193108    
     12640   37.585962      50000          50000          50000         -1.5678353e-07 -4.4013802e-07 -1.1814089e-07  8.7928309e-08  37.585962    
     12660   37.822987      50000          50000          50000         -2.4465597e-07 -6.727659e-07  -1.5785957e-07  9.6657575e-08  37.822987    
     12680   37.862983      50000          50000          50000         -3.3255054e-07 -9.058679e-07  -1.8924198e-07  9.745826e-08   37.862983    
     12700   37.761429      50000          50000          50000         -4.1932311e-07 -1.1362671e-06 -2.1043552e-07  8.8733273e-08  37.761429    
     12720   37.637677      50000          50000          50000         -5.0376216e-07 -1.3605681e-06 -2.2048486e-07  6.9766519e-08  37.637677    
     12740   37.587791      50000          50000          50000         -5.8455744e-07 -1.5751145e-06 -2.193984e-07   4.084055e-08   37.587791    
     12760   37.592436      50000          50000          50000         -6.602776e-07  -1.775963e-06  -2.0812393e-07  3.2541058e-09  37.592436    
     12780   37.47729       50000          50000          50000         -7.293959e-07  -1.9589851e-06 -1.8843248e-07 -4.0770065e-08  37.47729     
     12800   36.960042      50000          50000          50000         -7.9038303e-07 -2.1201451e-06 -1.6272374e-07 -8.8280209e-08  36.960042    
     12820   35.773826      50000          50000          50000         -8.4185461e-07 -2.2559125e-06 -1.3378041e-07 -1.3587098e-07  35.773826    
     12840   33.813983      50000          50000          50000         -8.8273242e-07 -2.3636915e-06 -1.0449937e-07 -1.8000634e-07  33.813983    
     12860   31.234503      50000          50000          50000         -9.1235753e-07 -2.4421235e-06 -7.7597169e-08 -2.1735192e-07  31.234503    
     12880   28.432987      50000          50000          50000         -9.3049713e-07 -2.4911338e-06 -5.5265905e-08 -2.4509173e-07  28.432987    
     12900   25.911381      50000          50000          50000         -9.3723527e-07 -2.5116515e-06 -3.8835516e-08 -2.6121881e-07  25.911381    
     12920   24.071955      50000          50000          50000         -9.3281299e-07 -2.5050729e-06 -2.8609408e-08 -2.6475669e-07  24.071955    
     12940   23.056062      50000          50000          50000         -9.1753521e-07 -2.4727511e-06 -2.4005437e-08 -2.5584907e-07  23.056062    
     12960   22.703918      50000          50000          50000         -8.9178277e-07 -2.4157706e-06 -2.3889437e-08 -2.3568826e-07  22.703918    
     12980   22.636556      50000          50000          50000         -8.5605132e-07 -2.3350039e-06 -2.6839294e-08 -2.0631076e-07  22.636556    
     13000   22.416178      50000          50000          50000         -8.1099288e-07 -2.2313573e-06 -3.1281562e-08 -1.7033976e-07  22.416178    
     13020   21.72259       50000          50000          50000         -7.5749103e-07 -2.1061404e-06 -3.560288e-08  -1.3072987e-07  21.72259     
     13040   20.498646      50000          50000          50000         -6.9672394e-07 -1.9613705e-06 -3.8280683e-08 -9.052065e-08   20.498646    
     13060   18.989089      50000          50000          50000         -6.3018446e-07 -1.7999383e-06 -3.8017614e-08 -5.259743e-08   18.989089    
     13080   17.665365      50000          50000          50000         -5.5960946e-07 -1.6255045e-06 -3.3859226e-08 -1.9464628e-08  17.665365    
     13100   17.052877      50000          50000          50000         -4.8682753e-07 -1.4421573e-06 -2.5283025e-08  6.9577231e-09  17.052877    
     13120   17.525801      50000          50000          50000         -4.1356017e-07 -1.2539256e-06 -1.2250928e-08  2.5495984e-08  17.525801    
     13140   19.152897      50000          50000          50000         -3.4123848e-07 -1.0643114e-06  4.7795352e-09  3.5816443e-08  19.152897    
     13160   21.661915      50000          50000          50000         -2.709028e-07  -8.7601781e-07  2.4884827e-08  3.8424567e-08  21.661915    
     13180   24.541134      50000          50000          50000         -2.0322336e-07 -6.9097175e-07  4.6739428e-08  3.4562248e-08  24.541134    
     13200   27.2363        50000          50000          50000         -1.3863053e-07 -5.106167e-07   6.8703682e-08  2.6021413e-08  27.2363      
     13220   29.3607        50000          50000          50000         -7.7501085e-08 -3.3634076e-07  8.8926863e-08  1.4910636e-08  29.3607      
     13240   30.832982      50000          50000          50000         -2.0321473e-08 -1.6985454e-07  1.0547329e-07  3.4168355e-09  30.832982    
     13260   31.886967      50000          50000          50000          3.2263399e-08 -1.3312441e-08  1.1650354e-07 -6.4009042e-09  31.886967    
     13280   32.945621      50000          50000          50000          7.9578855e-08  1.3098029e-07  1.2052802e-07 -1.2771746e-08  32.945621    
     13300   34.407884      50000          50000          50000          1.2117747e-07  2.6120677e-07  1.1667277e-07 -1.4347147e-08  34.407884    
     13320   36.444736      50000          50000          50000          1.5706785e-07  3.7667291e-07  1.0485217e-07 -1.0321534e-08  36.444736    
     13340   38.903607      50000          50000          50000          1.8778157e-07  4.7806092e-07  8.5796455e-08 -5.1267995e-10  38.903607    
     13360   41.364952      50000          50000          50000          2.1425418e-07  5.6717711e-07  6.095451e-08   1.463092e-08   41.364952    
     13380   43.317801      50000          50000          50000          2.375867e-07   6.4634304e-07  3.2319065e-08  3.4097992e-08  43.317801    
     13400   44.361631      50000          50000          50000          2.5878036e-07  7.1768573e-07  2.2173843e-09  5.6437968e-08  44.361631    
     13420   44.359477      50000          50000          50000          2.7854935e-07  7.8263169e-07 -2.6903225e-08  7.9919584e-08  44.359477    
     13440   43.465359      50000          50000          50000          2.9723569e-07  8.4168325e-07 -5.2686988e-08  1.027108e-07   43.465359    
     13460   42.038083      50000          50000          50000          3.1484565e-07  8.9454378e-07 -7.307529e-08   1.2306847e-07  42.038083    
     13480   40.473348      50000          50000          50000          3.3115708e-07  9.4045037e-07 -8.6498859e-08  1.3951972e-07  40.473348    
     13500   39.045118      50000          50000          50000          3.4585655e-07  9.7859611e-07 -9.2036357e-08  1.510099e-07   39.045118    
     13520   37.807669      50000          50000          50000          3.5862617e-07  1.0083999e-06 -8.95145e-08    1.5699311e-07  37.807669    
     13540   36.610667      50000          50000          50000          3.6916638e-07  1.0295785e-06 -7.9530773e-08  1.5745137e-07  36.610667    
     13560   35.206094      50000          50000          50000          3.7715752e-07  1.0420216e-06 -6.3392885e-08  1.5284384e-07  35.206094    
     13580   33.391175      50000          50000          50000          3.822038e-07   1.0455906e-06 -4.2981196e-08  1.4400194e-07  33.391175    
     13600   31.11856       50000          50000          50000          3.838114e-07   1.0399869e-06 -2.0547802e-08  1.3199505e-07  31.11856     
     13620   28.526276      50000          50000          50000          3.8143471e-07  1.0247835e-06  1.5297383e-09  1.1799092e-07  28.526276    
     13640   25.881392      50000          50000          50000          3.7458773e-07  9.9961838e-07  2.101568e-08   1.0312912e-07  25.881392    
     13660   23.472041      50000          50000          50000          3.6297947e-07  9.644528e-07   3.6068745e-08  8.8416867e-08  23.472041    
     13680   21.503217      50000          50000          50000          3.4661208e-07  9.1975018e-07  4.5435134e-08  7.4650937e-08  21.503217    
     13700   20.043217      50000          50000          50000          3.257979e-07   8.6647613e-07  4.8547693e-08  6.2369873e-08  20.043217    
     13720   19.036131      50000          50000          50000          3.0110293e-07  8.059284e-07   4.5535155e-08  5.1845238e-08  19.036131    
     13740   18.360777      50000          50000          50000          2.732629e-07   7.3949313e-07  3.7177561e-08  4.3118013e-08  18.360777    
     13760   17.906158      50000          50000          50000          2.431155e-07   6.6844744e-07  2.4830439e-08  3.6068616e-08  17.906158    
     13780   17.614624      50000          50000          50000          2.1153542e-07  5.9380639e-07  1.0305831e-08  3.0494048e-08  17.614624    
     13800   17.496409      50000          50000          50000          1.7938822e-07  5.1629748e-07 -4.3036204e-09  2.6170805e-08  17.496409    
     13820   17.603476      50000          50000          50000          1.4748467e-07  4.3640372e-07 -1.6846093e-08  2.2896381e-08  17.603476    
     13840   17.990363      50000          50000          50000          1.1654179e-07  3.5446302e-07 -2.5347604e-08  2.0509939e-08  17.990363    
     13860   18.682063      50000          50000          50000          8.7139292e-08  2.7075523e-07 -2.8232088e-08  1.8894736e-08  18.682063    
     13880   19.668835      50000          50000          50000          5.9673666e-08  1.8555008e-07 -2.4495594e-08  1.7966509e-08  19.668835    
     13900   20.923015      50000          50000          50000          3.4312684e-08  9.909871e-08  -1.3814323e-08  1.7653666e-08  20.923015    
     13920   22.42344       50000          50000          50000          1.0966489e-08  1.1599676e-08  3.4240198e-09  1.7875771e-08  22.42344     
     13940   24.167841      50000          50000          50000         -1.0711376e-08 -7.6824177e-08  2.6164716e-08  1.8525331e-08  24.167841    
     13960   26.162401      50000          50000          50000         -3.1290131e-08 -1.6611726e-07  5.2793258e-08  1.9453609e-08  26.162401    
     13980   28.391755      50000          50000          50000         -5.1511375e-08 -2.5626246e-07  8.1275831e-08  2.0452501e-08  28.391755    
     14000   30.791906      50000          50000          50000         -7.224464e-08  -3.4723184e-07  1.0928419e-07  2.1213721e-08  30.791906    
     14020   33.22813       50000          50000          50000         -9.4472409e-08 -4.3895051e-07  1.3427224e-07  2.1261048e-08  33.22813     
     14040   35.51051       50000          50000          50000         -1.1919952e-07 -5.3114003e-07  1.5360038e-07  1.9941106e-08  35.51051     
     14060   37.438841      50000          50000          50000         -1.4722235e-07 -6.2315419e-07  1.6489378e-07  1.6593352e-08  37.438841    
     14080   38.875761      50000          50000          50000         -1.7892617e-07 -7.1407531e-07  1.6651828e-07  1.077852e-08   38.875761    
     14100   39.808315      50000          50000          50000         -2.1432599e-07 -8.0310819e-07  1.5780706e-07  2.3231523e-09  39.808315    
     14120   40.352392      50000          50000          50000         -2.5320853e-07 -8.8986496e-07  1.3900538e-07 -8.7660199e-09  40.352392    
     14140   40.681582      50000          50000          50000         -2.9516769e-07 -9.7431541e-07  1.1115059e-07 -2.2338254e-08  40.681582    
     14160   40.926898      50000          50000          50000         -3.3953354e-07 -1.0564902e-06  7.5959937e-08 -3.8070328e-08  40.926898    
     14180   41.082426      50000          50000          50000         -3.8532687e-07 -1.1362295e-06  3.5687282e-08 -5.5438434e-08  41.082426    
     14200   40.985277      50000          50000          50000         -4.3128615e-07 -1.2130676e-06 -7.0680228e-09 -7.3722821e-08  40.985277    
     14220   40.385336      50000          50000          50000         -4.75984e-07   -1.2863171e-06 -4.9585077e-08 -9.2049823e-08  40.385336    
     14240   39.081435      50000          50000          50000         -5.1800162e-07 -1.3552892e-06 -8.9251846e-08 -1.0946377e-07  39.081435    
     14260   37.060847      50000          50000          50000         -5.5610405e-07 -1.4195186e-06 -1.2377755e-07 -1.2501597e-07  37.060847    
     14280   34.566856      50000          50000          50000         -5.8935612e-07 -1.4788429e-06 -1.5136973e-07 -1.3785575e-07  34.566856    
     14300   32.051245      50000          50000          50000         -6.1712991e-07 -1.5332189e-06 -1.7086392e-07 -1.4730695e-07  32.051245    
     14320   30.001356      50000          50000          50000         -6.3901582e-07 -1.582344e-06  -1.8179214e-07 -1.5291136e-07  30.001356    
     14340   28.731086      50000          50000          50000         -6.546578e-07  -1.6251812e-06 -1.8437113e-07 -1.5442106e-07  28.731086    
     14360   28.227929      50000          50000          50000         -6.6362741e-07 -1.6597181e-06 -1.7940914e-07 -1.5175499e-07  28.227929    
     14380   28.149592      50000          50000          50000         -6.6544728e-07 -1.6831652e-06 -1.6818187e-07 -1.4499478e-07  28.149592    
     14400   27.97315       50000          50000          50000         -6.5976279e-07 -1.6925011e-06 -1.5232931e-07 -1.3445801e-07  27.97315     
     14420   27.219752      50000          50000          50000         -6.4650591e-07 -1.6850338e-06 -1.3374002e-07 -1.2074392e-07  27.219752    
     14440   25.661096      50000          50000          50000         -6.2596772e-07 -1.6588407e-06 -1.1438599e-07 -1.0467645e-07  25.661096    
     14460   23.442378      50000          50000          50000         -5.98805e-07   -1.6130775e-06 -9.6137058e-08 -8.7200486e-08  23.442378    
     14480   21.058038      50000          50000          50000         -5.659973e-07  -1.5481243e-06 -8.0583978e-08 -6.9283604e-08  21.058038    
     14500   19.192638      50000          50000          50000         -5.2870143e-07 -1.4653986e-06 -6.8881042e-08 -5.1824672e-08  19.192638    
     14520   18.461083      50000          50000          50000         -4.8803209e-07 -1.3669055e-06 -6.1625485e-08 -3.5565301e-08  18.461083    
     14540   19.155897      50000          50000          50000         -4.4483236e-07 -1.2546779e-06 -5.8802945e-08 -2.1016229e-08  19.155897    
     14560   21.105042      50000          50000          50000         -3.9953837e-07 -1.1303741e-06 -5.982271e-08  -8.4183324e-09  21.105042    
     14580   23.721901      50000          50000          50000         -3.5218507e-07 -9.9516572e-07 -6.3640322e-08  2.2508437e-09  23.721901    
     14600   26.21278       50000          50000          50000         -3.0256874e-07 -8.4999974e-07 -6.8935885e-08  1.1229412e-08  26.21278     
     14620   27.871834      50000          50000          50000         -2.5047961e-07 -6.9603689e-07 -7.4302504e-08  1.890057e-08   27.871834    
     14640   28.342387      50000          50000          50000         -1.9592296e-07 -5.350765e-07  -7.8409455e-08  2.5717074e-08  28.342387    
     14660   27.748775      50000          50000          50000         -1.3925946e-07 -3.6978423e-07 -8.0125357e-08  3.2131201e-08  27.748775    
     14680   26.650053      50000          50000          50000         -8.1227318e-08 -2.0361813e-07 -7.860009e-08   3.8536267e-08  26.650053    
     14700   25.826727      50000          50000          50000         -2.2830524e-08 -4.0417334e-08 -7.3303287e-08  4.522905e-08   25.826727    
     14720   25.97111       50000          50000          50000          3.4895214e-08  1.1629899e-07 -6.4014366e-08  5.2401023e-08  25.97111     
     14740   27.399182      50000          50000          50000          9.1162954e-08  2.6411212e-07 -5.0772085e-08  6.0148823e-08  27.399182    
     14760   29.90984       50000          50000          50000          1.4562309e-07  4.0219832e-07 -3.3810596e-08  6.8481545e-08  29.90984     
     14780   32.861111      50000          50000          50000          1.983545e-07   5.3125347e-07 -1.3506857e-08  7.7316898e-08  32.861111    
     14800   35.423738      50000          50000          50000          2.4966406e-07  6.5285505e-07  9.6562286e-09  8.6480887e-08  35.423738    
     14820   36.911131      50000          50000          50000          2.9983091e-07  7.6862753e-07  3.5128982e-08  9.5736208e-08  36.911131    
     14840   37.027959      50000          50000          50000          3.4893352e-07  8.795477e-07   6.2380367e-08  1.048725e-07   37.027959    
     14860   35.965533      50000          50000          50000          3.9687274e-07  9.857376e-07   9.1036617e-08  1.13844e-07    35.965533    
     14880   34.307416      50000          50000          50000          4.4318742e-07  1.0862882e-06  1.2067816e-07  1.2259588e-07  34.307416    
     14900   32.822104      50000          50000          50000          4.8635083e-07  1.1785121e-06  1.5007298e-07  1.3046742e-07  32.822104    
     14920   32.163408      50000          50000          50000          5.2396273e-07  1.258125e-06   1.7729484e-07  1.3646832e-07  32.163408    
     14940   32.562814      50000          50000          50000          5.5392633e-07  1.3210311e-06  2.0064276e-07  1.4010518e-07  32.562814    
     14960   33.716712      50000          50000          50000          5.7492971e-07  1.3644504e-06  2.1889863e-07  1.4144006e-07  33.716712    
     14980   34.95261       50000          50000          50000          5.8633826e-07  1.3869e-06     2.3126064e-07  1.4085412e-07  34.95261     
     15000   35.563116      50000          50000          50000          5.8805192e-07  1.3877694e-06  2.3742025e-07  1.3896607e-07  35.563116    
     15020   35.122149      50000          50000          50000          5.8027338e-07  1.3667673e-06  2.3755127e-07  1.3650159e-07  35.122149    
     15040   33.63036       50000          50000          50000          5.6304538e-07  1.3233015e-06  2.3192786e-07  1.3390683e-07  33.63036     
     15060   31.458626      50000          50000          50000          5.3599563e-07  1.2562984e-06  2.2060289e-07  1.3108563e-07  31.458626    
     15080   29.160823      50000          50000          50000          4.986208e-07   1.1647789e-06  2.0354657e-07  1.2753696e-07  29.160823    
     15100   27.245694      50000          50000          50000          4.5072586e-07  1.048686e-06   1.8091159e-07  1.2257998e-07  27.245694    
     15120   25.996314      50000          50000          50000          3.9269466e-07  9.0942816e-07  1.5316978e-07  1.1548603e-07  25.996314    
     15140   25.405003      50000          50000          50000          3.2555721e-07  7.4996105e-07  1.2114522e-07  1.0556537e-07  25.405003    
     15160   25.236824      50000          50000          50000          2.5089655e-07  5.744488e-07   8.5991614e-08  9.2249248e-08  25.236824    
     15180   25.176814      50000          50000          50000          1.7066282e-07  3.8768338e-07  4.9133857e-08  7.5171213e-08  25.176814    
     15200   24.978387      50000          50000          50000          8.6967385e-08  1.9447396e-07  1.2185895e-08  5.4242304e-08  24.978387    
     15220   24.561406      50000          50000          50000          1.9352974e-09 -7.6060353e-10 -2.3146478e-08  2.9712974e-08  24.561406    
     15240   24.009564      50000          50000          50000         -8.2386022e-08 -1.9419232e-07 -5.5177243e-08  2.211494e-09   24.009564    
     15260   23.497016      50000          50000          50000         -1.6406103e-07 -3.8256479e-07 -8.2364786e-08 -2.7253497e-08  23.497016    
     15280   23.183523      50000          50000          50000         -2.4128541e-07 -5.6307487e-07 -1.0344454e-07 -5.7336824e-08  23.183523    
     15300   23.1321        50000          50000          50000         -3.1242317e-07 -7.3326225e-07 -1.1755672e-07 -8.6450535e-08  23.1321      
     15320   23.285507      50000          50000          50000         -3.7607744e-07 -8.9098042e-07 -1.2435108e-07 -1.1290083e-07  23.285507    
     15340   23.506529      50000          50000          50000         -4.3118723e-07 -1.0344581e-06 -1.2405192e-07 -1.3505163e-07  23.506529    
     15360   23.656446      50000          50000          50000         -4.771228e-07  -1.1624024e-06 -1.174727e-07  -1.5149334e-07  23.656446    
     15380   23.670522      50000          50000          50000         -5.1374767e-07 -1.2740669e-06 -1.0597894e-07 -1.6119714e-07  23.670522    
     15400   23.594314      50000          50000          50000         -5.4142267e-07 -1.3692285e-06 -9.1400298e-08 -1.6363924e-07  23.594314    
     15420   23.565448      50000          50000          50000         -5.609419e-07  -1.4480581e-06 -7.5886465e-08 -1.5888112e-07  23.565448    
     15440   23.751743      50000          50000          50000         -5.7340534e-07 -1.5109272e-06 -6.1698473e-08 -1.475904e-07   23.751743    
     15460   24.277274      50000          50000          50000         -5.8005311e-07 -1.5582177e-06 -5.0947998e-08 -1.3099361e-07  24.277274    
     15480   25.17362       50000          50000          50000         -5.8210211e-07 -1.5902061e-06 -4.5333063e-08 -1.107672e-07   25.17362     
     15500   26.379874      50000          50000          50000         -5.8062092e-07 -1.6070489e-06 -4.5928471e-08 -8.8885358e-08  26.379874    
     15520   27.779621      50000          50000          50000         -5.7646121e-07 -1.6088765e-06 -5.3064275e-08 -6.7442847e-08  27.779621    
     15540   29.261079      50000          50000          50000         -5.7021295e-07 -1.5958843e-06 -6.6290942e-08 -4.8463594e-08  29.261079    
     15560   30.74635       50000          50000          50000         -5.62175e-07   -1.5684229e-06 -8.4410614e-08 -3.3691518e-08  30.74635     
     15580   32.190006      50000          50000          50000         -5.5229824e-07 -1.5269783e-06 -1.055577e-07  -2.4358699e-08  32.190006    
     15600   33.552821      50000          50000          50000         -5.4013772e-07 -1.4720661e-06 -1.2736104e-07 -2.0986028e-08  33.552821    
     15620   34.779796      50000          50000          50000         -5.2490862e-07 -1.4041334e-06 -1.4723946e-07 -2.3352959e-08  34.779796    
     15640   35.80327       50000          50000          50000         -5.0566406e-07 -1.3235802e-06 -1.6274813e-07 -3.0663823e-08  35.80327     
     15660   36.565475      50000          50000          50000         -4.8146802e-07 -1.2308826e-06 -1.7179443e-07 -4.172706e-08   36.565475    
     15680   37.050536      50000          50000          50000         -4.5148024e-07 -1.1266935e-06 -1.7270885e-07 -5.5038337e-08  37.050536    
     15700   37.305739      50000          50000          50000         -4.1499552e-07 -1.0118625e-06 -1.64284e-07   -6.884005e-08   37.305739    
     15720   37.43889       50000          50000          50000         -3.7147691e-07 -8.8736739e-07 -1.4583513e-07 -8.1228209e-08  37.43889     
     15740   37.584539      50000          50000          50000         -3.206413e-07  -7.5427876e-07 -1.1731573e-07 -9.0329402e-08  37.584539    
     15760   37.841479      50000          50000          50000         -2.6270038e-07 -6.1398318e-07 -7.9565052e-08 -9.4552918e-08  37.841479    
     15780   38.193576      50000          50000          50000         -1.9862189e-07 -4.6851731e-07 -3.4551369e-08 -9.2796977e-08  38.193576    
     15800   38.453578      50000          50000          50000         -1.2994988e-07 -3.2026792e-07  1.4849136e-08 -8.4430845e-08  38.453578    
     15820   38.293918      50000          50000          50000         -5.8368815e-08 -1.7124082e-07  6.5405102e-08 -6.9270725e-08  38.293918    
     15840   37.383766      50000          50000          50000          1.4389131e-08 -2.2948514e-08  1.1384767e-07 -4.7731758e-08  37.383766    
     15860   35.549615      50000          50000          50000          8.63901e-08    1.2305677e-07  1.5702321e-07 -2.0909686e-08  35.549615    
     15880   32.896025      50000          50000          50000          1.5542906e-07  2.6467998e-07  1.9209693e-07  9.5102622e-09  32.896025    
     15900   29.812791      50000          50000          50000          2.1910214e-07  3.990666e-07   2.1680049e-07  4.1439334e-08  29.812791    
     15920   26.859435      50000          50000          50000          2.7502574e-07  5.2277441e-07  2.296775e-07   7.2625327e-08  26.859435    
     15940   24.564388      50000          50000          50000          3.2116908e-07  6.3228654e-07  2.3028781e-07  1.0093289e-07  24.564388    
     15960   23.223782      50000          50000          50000          3.5620732e-07  7.2468129e-07  2.1931093e-07  1.2462975e-07  23.223782    
     15980   22.796095      50000          50000          50000          3.7972264e-07  7.9812268e-07  1.9845711e-07  1.4258812e-07  22.796095    
     16000   22.944185      50000          50000          50000          3.9208402e-07  8.5182678e-07  1.7013607e-07  1.5428921e-07  22.944185    
     16020   23.194317      50000          50000          50000          3.9407635e-07  8.8553699e-07  1.3702706e-07  1.5966498e-07  23.194317    
     16040   23.129237      50000          50000          50000          3.8657311e-07  8.989755e-07   1.0178034e-07  1.5896348e-07  23.129237    
     16060   22.541063      50000          50000          50000          3.7039411e-07  8.9160683e-07  6.6866426e-08  1.5270909e-07  22.541063    
     16080   21.499586      50000          50000          50000          3.4628124e-07  8.6270565e-07  3.4453938e-08  1.4168414e-07  21.499586    
     16100   20.318581      50000          50000          50000          3.1493293e-07  8.116385e-07   6.2785738e-09  1.2688172e-07  20.318581    
     16120   19.43429       50000          50000          50000          2.770833e-07   7.3828035e-07 -1.6462721e-08  1.0943228e-07  19.43429     
     16140   19.2416        50000          50000          50000          2.3360218e-07  6.4345011e-07 -3.3159872e-08  9.0516294e-08  19.2416      
     16160   19.950035      50000          50000          50000          1.8557156e-07  5.292143e-07  -4.3770215e-08  7.1270604e-08  19.950035    
     16180   21.513889      50000          50000          50000          1.3429593e-07  3.9893231e-07 -4.8740523e-08  5.269601e-08   21.513889    
     16200   23.659972      50000          50000          50000          8.1230635e-08  2.5700611e-07 -4.8891523e-08  3.5577319e-08  23.659972    
     16220   25.996189      50000          50000          50000          2.7848386e-08  1.0840721e-07 -4.5290446e-08  2.0428398e-08  25.996189    
     16240   28.15346       50000          50000          50000         -2.4513185e-08 -4.1869543e-08 -3.913831e-08   7.4682983e-09  28.15346     
     16260   29.905313      50000          50000          50000         -7.4780636e-08 -1.8925823e-07 -3.1702965e-08 -3.3807094e-09  29.905313    
     16280   31.223756      50000          50000          50000         -1.2221665e-07 -3.2983976e-07 -2.4318754e-08 -1.2491427e-08  31.223756    
     16300   32.255817      50000          50000          50000         -1.6638341e-07 -4.6026556e-07 -1.8383786e-08 -2.0500876e-08  32.255817    
     16320   33.231336      50000          50000          50000         -2.0695411e-07 -5.7752535e-07 -1.5182671e-08 -2.8154305e-08  33.231336    
     16340   34.339919      50000          50000          50000         -2.4350511e-07 -6.7890182e-07 -1.5567833e-08 -3.6045692e-08  34.339919    
     16360   35.637075      50000          50000          50000         -2.7550884e-07 -7.6227082e-07 -1.9796647e-08 -4.4459061e-08  35.637075    
     16380   37.024582      50000          50000          50000         -3.024883e-07  -8.2649769e-07 -2.7593109e-08 -5.3374097e-08  37.024582    
     16400   38.301054      50000          50000          50000         -3.2415342e-07 -8.7166716e-07 -3.8266354e-08 -6.2526739e-08  38.301054    
     16420   39.242837      50000          50000          50000         -3.4045593e-07 -8.991018e-07  -5.0803606e-08 -7.1462387e-08  39.242837    
     16440   39.672599      50000          50000          50000         -3.5158586e-07 -9.1120407e-07 -6.3961267e-08 -7.9592233e-08  39.672599    
     16460   39.491234      50000          50000          50000         -3.579319e-07  -9.1114795e-07 -7.6380815e-08 -8.6266927e-08  39.491234    
     16480   38.672192      50000          50000          50000         -3.6001907e-07 -9.0246578e-07 -8.672743e-08  -9.0863984e-08  38.672192    
     16500   37.243468      50000          50000          50000         -3.5843242e-07 -8.8858677e-07 -9.3833515e-08 -9.2876969e-08  37.243468    
     16520   35.26551       50000          50000          50000         -3.5376232e-07 -8.7246607e-07 -9.6825898e-08 -9.1995004e-08  35.26551     
     16540   32.839325      50000          50000          50000         -3.4655973e-07 -8.5630089e-07 -9.5217452e-08 -8.8160835e-08  32.839325    
     16560   30.123802      50000          50000          50000         -3.3731512e-07 -8.4139954e-07 -8.8947925e-08 -8.1597885e-08  30.123802    
     16580   27.346916      50000          50000          50000         -3.2643596e-07 -8.2815018e-07 -7.8362452e-08 -7.2795239e-08  27.346916    
     16600   24.785873      50000          50000          50000         -3.141982e-07  -8.1603715e-07 -6.4118606e-08 -6.2438832e-08  24.785873    
     16620   22.70837       50000          50000          50000         -3.0066204e-07 -8.0367463e-07 -4.7025491e-08 -5.1285994e-08  22.70837     
     16640   21.295347      50000          50000          50000         -2.8560106e-07 -7.8890799e-07 -2.7871979e-08 -4.002322e-08   21.295347    
     16660   20.585253      50000          50000          50000         -2.6854977e-07 -7.6908743e-07 -7.3634604e-09 -2.9198416e-08  20.585253    
     16680   20.468078      50000          50000          50000         -2.4898368e-07 -7.4149723e-07  1.3801793e-08 -1.9255591e-08  20.468078    
     16700   20.725888      50000          50000          50000         -2.2649364e-07 -7.0377465e-07  3.4860557e-08 -1.0566826e-08  20.725888    
     16720   21.102593      50000          50000          50000         -2.008736e-07  -6.5424791e-07  5.5016394e-08 -3.3892722e-09  21.102593    
     16740   21.386853      50000          50000          50000         -1.7217021e-07 -5.9223541e-07  7.3521018e-08  2.2037695e-09  21.386853    
     16760   21.485217      50000          50000          50000         -1.4073648e-07 -5.1828859e-07  8.9729124e-08  6.350014e-09   21.485217    
     16780   21.455869      50000          50000          50000         -1.0726932e-07 -4.3429209e-07  1.0311391e-07  9.3702131e-09  21.455869    
     16800   21.483482      50000          50000          50000         -7.2793881e-08 -3.4335428e-07  1.1326666e-07  1.1705972e-08  21.483482    
     16820   21.800224      50000          50000          50000         -3.8583325e-08 -2.494891e-07   1.1989715e-07  1.3841977e-08  21.800224    
     16840   22.583185      50000          50000          50000         -6.032124e-09  -1.571555e-07   1.2283717e-07  1.6221952e-08  22.583185    
     16860   23.871591      50000          50000          50000          2.348135e-08  -7.0763043e-08  1.220425e-07   1.9164592e-08  23.871591    
     16880   25.540891      50000          50000          50000          4.870592e-08   5.7432808e-09  1.1758741e-07  2.2787066e-08  25.540891    
     16900   27.346569      50000          50000          50000          6.8581169e-08  6.9148304e-08  1.0964885e-07  2.6946352e-08  27.346569    
     16920   29.019295      50000          50000          50000          8.225824e-08   1.1708188e-07  9.8482783e-08  3.1210057e-08  29.019295    
     16940   30.369854      50000          50000          50000          8.9105377e-08  1.4804849e-07  8.4399956e-08  3.4867683e-08  30.369854    
     16960   31.358002      50000          50000          50000          8.8733328e-08  1.6145876e-07  6.7750502e-08  3.6990717e-08  31.358002    
     16980   32.095396      50000          50000          50000          8.1063072e-08  1.5771958e-07  4.8924601e-08  3.6545035e-08  32.095396    
     17000   32.781994      50000          50000          50000          6.6428874e-08  1.3836802e-07  2.836951e-08   3.2549092e-08  32.781994    
     17020   33.605755      50000          50000          50000          4.5676737e-08  1.0615915e-07  6.614611e-09   2.4256444e-08  33.605755    
     17040   34.653172      50000          50000          50000          2.0203276e-08  6.4989475e-08 -1.570805e-08   1.1328401e-08  34.653172    
     17060   35.872457      50000          50000          50000         -8.1037711e-09  1.9584874e-08 -3.7857365e-08 -6.0388221e-09  35.872457    
     17080   37.103428      50000          50000          50000         -3.7023675e-08 -2.5018267e-08 -5.8995193e-08 -2.7057563e-08  37.103428    
     17100   38.153371      50000          50000          50000         -6.4222428e-08 -6.407766e-08  -7.8217568e-08 -5.0372057e-08  38.153371    
     17120   38.876355      50000          50000          50000         -8.747991e-08  -9.3678783e-08 -9.4604181e-08 -7.4156766e-08  38.876355    
     17140   39.215728      50000          50000          50000         -1.0487821e-07 -1.1107492e-07 -1.0728382e-07 -9.6275893e-08  39.215728    
     17160   39.192656      50000          50000          50000         -1.1492922e-07 -1.1478973e-07 -1.1551156e-07 -1.1448638e-07  39.192656    
     17180   38.853987      50000          50000          50000         -1.166465e-07  -1.0452332e-07 -1.1875108e-07 -1.266651e-07   38.853987    
     17200   38.214403      50000          50000          50000         -1.0958547e-07 -8.0961268e-08 -1.1675469e-07 -1.3104045e-07  38.214403    
     17220   37.229957      50000          50000          50000         -9.3885483e-08 -4.5604029e-08 -1.0963911e-07 -1.2641331e-07  37.229957    
     17240   35.821716      50000          50000          50000         -7.0358031e-08 -7.2254061e-10 -9.7977042e-08 -1.1237451e-07  35.821716    
     17260   33.938483      50000          50000          50000         -4.0605894e-08  5.0563017e-08 -8.2878193e-08 -8.9502506e-08  33.938483    
     17280   31.620398      50000          50000          50000         -6.8097238e-09  1.0454764e-07 -6.5723122e-08 -5.9253688e-08  31.620398    
     17300   29.020417      50000          50000          50000          2.8916001e-08  1.5778848e-07 -4.7591238e-08 -2.3449243e-08  29.020417    
     17320   26.377383      50000          50000          50000          6.4712187e-08  2.0746797e-07 -2.9276646e-08  1.5945236e-08  26.377383    
     17340   23.962922      50000          50000          50000          9.8696705e-08  2.5107527e-07 -1.1671789e-08  5.6686632e-08  23.962922    
     17360   22.008887      50000          50000          50000          1.2894844e-07  2.8633555e-07  4.2189688e-09  9.6290789e-08  22.008887    
     17380   20.632079      50000          50000          50000          1.5373844e-07  3.1148486e-07  1.7480078e-08  1.3225038e-07  20.632079    
     17400   19.792378      50000          50000          50000          1.7170916e-07  3.2545782e-07  2.7417014e-08  1.6225264e-07  19.792378    
     17420   19.328632      50000          50000          50000          1.8195038e-07  3.2788133e-07  3.3614166e-08  1.8435564e-07  19.328632    
     17440   19.041756      50000          50000          50000          1.8397659e-07  3.1884628e-07  3.5958893e-08  1.9712459e-07  19.041756    
     17460   18.799963      50000          50000          50000          1.776654e-07   2.9862233e-07  3.4646019e-08  1.9972785e-07  18.799963    
     17480   18.610331      50000          50000          50000          1.6319408e-07  2.6742469e-07  3.0165219e-08  1.9199234e-07  18.610331    
     17500   18.622681      50000          50000          50000          1.4100778e-07  2.2533288e-07  2.3270864e-08  1.7441959e-07  18.622681    
     17520   19.06094       50000          50000          50000          1.1182926e-07  1.723907e-07   1.4933803e-08  1.4816329e-07  19.06094     
     17540   20.110324      50000          50000          50000          7.6693979e-08  1.0884028e-07  6.2754567e-09  1.149662e-07   20.110324    
     17560   21.811161      50000          50000          50000          3.6973293e-08  3.5383121e-08 -1.5144261e-09  7.7051183e-08  21.811161    
     17580   24.011453      50000          50000          50000         -5.6573144e-09 -4.6658604e-08 -7.2740193e-09  3.6960681e-08  24.011453    
     17600   26.406804      50000          50000          50000         -4.933138e-08  -1.353677e-07  -9.974527e-09  -2.6519124e-09  26.406804    
     17620   28.655562      50000          50000          50000         -9.2174621e-08 -2.2844166e-07 -8.8238377e-09 -3.9258365e-08  28.655562    
     17640   30.517896      50000          50000          50000         -1.3250925e-07 -3.234881e-07  -3.3545664e-09 -7.0685077e-08  30.517896    
     17660   31.951115      50000          50000          50000         -1.6901632e-07 -4.1826435e-07  6.5164996e-09 -9.5301107e-08  31.951115    
     17680   33.11052       50000          50000          50000         -2.0080952e-07 -5.1075307e-07  2.0464896e-08 -1.121404e-07   33.11052     
     17700   34.248393      50000          50000          50000         -2.2741244e-07 -5.9906205e-07  3.7771616e-08 -1.2094689e-07  34.248393    
     17720   35.562701      50000          50000          50000         -2.4866439e-07 -6.8121961e-07  5.7369175e-08 -1.2214273e-07  35.562701    
     17740   37.0579        50000          50000          50000         -2.6462995e-07 -7.5507346e-07  7.7913771e-08 -1.1673015e-07  37.0579      
     17760   38.510386      50000          50000          50000         -2.7554403e-07 -8.1836355e-07  9.7877992e-08 -1.0614653e-07  38.510386    
     17780   39.550005      50000          50000          50000         -2.8183178e-07 -8.6905629e-07  1.156577e-07  -9.2096746e-08  39.550005    
     17800   39.830116      50000          50000          50000         -2.8417432e-07 -9.0582682e-07  1.2968919e-07 -7.6385324e-08  39.830116    
     17820   39.205881      50000          50000          50000         -2.8356667e-07 -9.2851058e-07  1.3857351e-07 -6.0762919e-08  39.205881    
     17840   37.832904      50000          50000          50000         -2.8130847e-07 -9.3833242e-07  1.41202e-07   -4.6794975e-08  37.832904    
     17860   36.129962      50000          50000          50000         -2.7889481e-07 -9.37791e-07    1.3686683e-07 -3.5760263e-08  36.129962    
     17880   34.608724      50000          50000          50000         -2.7782326e-07 -9.3020433e-07  1.2532828e-07 -2.859373e-08   34.608724    
     17900   33.635869      50000          50000          50000         -2.793459e-07  -9.1903161e-07  1.0685274e-07 -2.5858825e-08  33.635869    
     17920   33.234523      50000          50000          50000         -2.841065e-07  -9.0706798e-07  8.2370746e-08 -2.7622251e-08  33.234523    
     17940   33.041992      50000          50000          50000         -2.9175787e-07 -8.9575261e-07  5.3705436e-08 -3.3226431e-08  33.041992    
     17960   32.480844      50000          50000          50000         -3.0113453e-07 -8.8523304e-07  2.3254437e-08 -4.1424992e-08  32.480844    
     17980   31.049024      50000          50000          50000         -3.1099963e-07 -8.7519711e-07 -6.8412746e-09 -5.0960511e-08  31.049024    
     18000   28.563976      50000          50000          50000         -3.2047474e-07 -8.655247e-07  -3.5030058e-08 -6.0869457e-08  28.563976    
     18020   25.270622      50000          50000          50000         -3.2898114e-07 -8.5641752e-07 -6.0138296e-08 -7.0387592e-08  25.270622    
     18040   21.785725      50000          50000          50000         -3.360981e-07  -8.4824115e-07 -8.120911e-08  -7.8844044e-08  21.785725    
     18060   18.891499      50000          50000          50000         -3.4143101e-07 -8.4116666e-07 -9.7490956e-08 -8.5635408e-08  18.891499    
     18080   17.247458      50000          50000          50000         -3.4446266e-07 -8.3469347e-07 -1.0847129e-07 -9.0223232e-08  17.247458    
     18100   17.133554      50000          50000          50000         -3.4443371e-07 -8.2725698e-07 -1.1391053e-07 -9.2133612e-08  17.133554    
     18120   18.336446      50000          50000          50000         -3.4032951e-07 -8.1615443e-07 -1.1386986e-07 -9.0964249e-08  18.336446    
     18140   20.233876      50000          50000          50000         -3.3101111e-07 -7.9790213e-07 -1.0872712e-07 -8.6404081e-08  20.233876    
     18160   22.043973      50000          50000          50000         -3.1545374e-07 -7.6893027e-07 -9.9169249e-08 -7.8261701e-08  22.043973    
     18180   23.134706      50000          50000          50000         -2.9300374e-07 -7.26366e-07   -8.6151527e-08 -6.649371e-08   23.134706    
     18200   23.269226      50000          50000          50000         -2.6356505e-07 -6.6864171e-07 -7.0825465e-08 -5.122796e-08   23.269226    
     18220   22.694912      50000          50000          50000         -2.2767129e-07 -5.9577466e-07 -5.4452091e-08 -3.2787121e-08  22.694912    
     18240   22.051577      50000          50000          50000         -1.8644443e-07 -5.0928749e-07 -3.8321837e-08 -1.172396e-08   22.051577    
     18260   22.121934      50000          50000          50000         -1.4146947e-07 -4.1187346e-07 -2.3675697e-08  1.1140743e-08  22.121934    
     18280   23.510252      50000          50000          50000         -9.4563799e-08 -3.0685196e-07 -1.1574547e-08  3.4735114e-08  23.510252    
     18300   26.372207      50000          50000          50000         -4.7445388e-08 -1.974866e-07  -2.7021891e-09  5.7852631e-08  26.372207    
     18320   30.313356      50000          50000          50000         -1.4558846e-09 -8.6466011e-08  2.7907275e-09  7.930763e-08   30.313356    
     18340   34.523763      50000          50000          50000          4.2500684e-08  2.4182345e-08  5.2876884e-09  9.8032017e-08  34.523763    
     18360   38.089322      50000          50000          50000          8.3803375e-08  1.3275273e-07  5.5621469e-09  1.1309525e-07  38.089322    
     18380   40.334803      50000          50000          50000          1.2188034e-07  2.3737707e-07  4.5712176e-09  1.2369274e-07  40.334803    
     18400   41.053026      50000          50000          50000          1.5603739e-07  3.3570411e-07  3.2582287e-09  1.2914982e-07  41.053026    
     18420   40.538131      50000          50000          50000          1.8543094e-07  4.2492386e-07  2.4009848e-09  1.2896797e-07  40.538131    
     18440   39.424513      50000          50000          50000          2.0919837e-07  5.0216222e-07  2.5173846e-09  1.229155e-07   39.424513    
     18460   38.406402      50000          50000          50000          2.2669477e-07  5.651181e-07   3.8255968e-09  1.1114063e-07  38.406402    
     18480   37.95738       50000          50000          50000          2.377328e-07   6.1268701e-07  6.2475685e-09  9.426383e-08   37.95738     
     18500   38.166418      50000          50000          50000          2.4270835e-07  6.452802e-07   9.4403153e-09  7.3404541e-08  38.166418    
     18520   38.750762      50000          50000          50000          2.4254128e-07  6.6467248e-07  1.2836233e-08  5.0115136e-08  38.750762    
     18540   39.220787      50000          50000          50000          2.3844341e-07  6.7343991e-07  1.5668615e-08  2.6221692e-08  39.220787    
     18560   39.105617      50000          50000          50000          2.3163474e-07  6.7427175e-07  1.7008809e-08  3.6236595e-09  39.105617    
     18580   38.135833      50000          50000          50000          2.2335427e-07  6.6965124e-07  1.6140469e-08 -1.5728883e-08  38.135833    
     18600   36.312713      50000          50000          50000          2.1522113e-07  6.6200432e-07  1.3366107e-08 -2.9707025e-08  36.312713    
     18620   33.855321      50000          50000          50000          2.0872166e-07  6.531741e-07   9.6322758e-09 -3.6641402e-08  33.855321    
     18640   31.097992      50000          50000          50000          2.0439635e-07  6.437292e-07   5.4574364e-09 -3.5997588e-08  31.097992    
     18660   28.389034      50000          50000          50000          2.0218372e-07  6.3341836e-07  1.1809931e-09 -2.8048181e-08  28.389034    
     18680   25.992447      50000          50000          50000          2.0185992e-07  6.2174196e-07 -2.5937747e-09 -1.3568425e-08  25.992447    
     18700   24.044599      50000          50000          50000          2.0312702e-07  6.0816354e-07 -4.9822974e-09  6.1998217e-09  24.044599    
     18720   22.563534      50000          50000          50000          2.0556454e-07  5.9208063e-07 -4.9616422e-09  2.9574644e-08  22.563534    
     18740   21.504563      50000          50000          50000          2.0857757e-07  5.7275306e-07 -1.5429175e-09  5.452256e-08   21.504563    
     18760   20.815459      50000          50000          50000          2.1136927e-07  5.4925562e-07  6.0535507e-09  7.8798637e-08  20.815459    
     18780   20.466963      50000          50000          50000          2.1296439e-07  5.2053322e-07  1.8237886e-08  1.0012205e-07  20.466963    
     18800   20.435276      50000          50000          50000          2.1226856e-07  4.8550797e-07  3.4926491e-08  1.1637123e-07  20.435276    
     18820   20.674978      50000          50000          50000          2.0816861e-07  4.4325032e-07  5.547484e-08   1.2578068e-07  20.674978    
     18840   21.09753       50000          50000          50000          1.9962735e-07  3.9308372e-07  7.8680459e-08  1.2711786e-07  21.09753     
     18860   21.585464      50000          50000          50000          1.857547e-07   3.3458655e-07  1.0285876e-07  1.198188e-07   21.585464    
     18880   22.042288      50000          50000          50000          1.6584729e-07  2.6749321e-07  1.2598319e-07  1.0406546e-07  22.042288    
     18900   22.453646      50000          50000          50000          1.3941099e-07  1.915643e-07   1.4587331e-07  8.0795358e-08  22.453646    
     18920   22.921086      50000          50000          50000          1.0619173e-07  1.0652233e-07  1.6041114e-07  5.1641717e-08  22.921086    
     18940   23.64504       50000          50000          50000          6.6241115e-08  1.2148307e-08  1.6776618e-07  1.8808861e-08  23.64504     
     18960   24.838581      50000          50000          50000          1.9995655e-08 -9.1510043e-08  1.6660771e-07 -1.51107e-08    24.838581    
     18980   26.622865      50000          50000          50000         -3.1645709e-08 -2.0384527e-07  1.5627397e-07 -4.7365825e-08  26.622865    
     19000   28.940245      50000          50000          50000         -8.7320325e-08 -3.235116e-07   1.3685859e-07 -7.5307966e-08  28.940245    
     19020   31.537428      50000          50000          50000         -1.4530447e-07 -4.4845195e-07  1.0918934e-07 -9.6650805e-08  31.537428    
     19040   34.031958      50000          50000          50000         -2.0369827e-07 -5.7612877e-07  7.4716871e-08 -1.0968291e-07  34.031958    
     19060   36.037269      50000          50000          50000         -2.6063233e-07 -7.0385471e-07  3.5360287e-08 -1.1340257e-07  36.037269    
     19080   37.298181      50000          50000          50000         -3.144438e-07  -8.2908907e-07 -6.6562928e-09 -1.0758603e-07  37.298181    
     19100   37.779804      50000          50000          50000         -3.6380236e-07 -9.4959974e-07 -4.8965774e-08 -9.2841576e-08  37.779804    
     19120   37.689414      50000          50000          50000         -4.0774195e-07 -1.0633586e-06 -8.9188194e-08 -7.0678996e-08  37.689414    
     19140   37.394867      50000          50000          50000         -4.455818e-07  -1.1682865e-06 -1.2497034e-07 -4.3488589e-08  37.394867    
     19160   37.268009      50000          50000          50000         -4.7677424e-07 -1.2620315e-06 -1.5400813e-07 -1.4283125e-08  37.268009    
     19180   37.508836      50000          50000          50000         -5.008547e-07  -1.342012e-06  -1.7424869e-07  1.3696614e-08  37.508836    
     19200   38.043287      50000          50000          50000         -5.1752249e-07 -1.4056864e-06 -1.8421997e-07  3.7338905e-08  38.043287    
     19220   38.550242      50000          50000          50000         -5.2675114e-07 -1.4509437e-06 -1.8327483e-07  5.396507e-08   38.550242    
     19240   38.604214      50000          50000          50000         -5.2888533e-07 -1.4765628e-06 -1.7168567e-07  6.1592452e-08  38.604214    
     19260   37.867099      50000          50000          50000         -5.2471219e-07 -1.4826409e-06 -1.5062724e-07  5.9131546e-08  37.867099    
     19280   36.243304      50000          50000          50000         -5.1547119e-07 -1.4708292e-06 -1.2207874e-07  4.649436e-08   36.243304    
     19300   33.930683      50000          50000          50000         -5.0276007e-07 -1.4442353e-06 -8.8651572e-08  2.460671e-08   33.930683    
     19320   31.346162      50000          50000          50000         -4.8831981e-07 -1.4069462e-06 -5.3336356e-08 -4.6768798e-09  31.346162    
     19340   28.96121       50000          50000          50000         -4.7373076e-07 -1.3632601e-06 -1.9170666e-08 -3.8761534e-08  28.96121     
     19360   27.12508       50000          50000          50000         -4.6012148e-07 -1.3168669e-06  1.1116275e-08 -7.4613808e-08  27.12508     
     19380   25.958727      50000          50000          50000         -4.4803507e-07 -1.2703015e-06  3.5351231e-08 -1.0915489e-07  25.958727    
     19400   25.358739      50000          50000          50000         -4.3750259e-07 -1.224849e-06   5.1975501e-08 -1.3963423e-07  25.358739    
     19420   25.087934      50000          50000          50000         -4.2819737e-07 -1.1807612e-06  6.0018956e-08 -1.6384988e-07  25.087934    
     19440   24.897756      50000          50000          50000         -4.1954381e-07 -1.1375387e-06  5.9126102e-08 -1.8021885e-07  24.897756    
     19460   24.632562      50000          50000          50000         -4.1078433e-07 -1.0941707e-06  4.9615253e-08 -1.8779751e-07  24.632562    
     19480   24.281109      50000          50000          50000         -4.0104056e-07 -1.049308e-06   3.2484019e-08 -1.8629768e-07  24.281109    
     19500   23.960294      50000          50000          50000         -3.8936692e-07 -1.0013505e-06  9.3284877e-09 -1.7607875e-07  23.960294    
     19520   23.84264       50000          50000          50000         -3.7478645e-07 -9.4845949e-07 -1.7807372e-08 -1.5809249e-07  23.84264     
     19540   24.062662      50000          50000          50000         -3.5631767e-07 -8.8855155e-07 -4.6624514e-08 -1.3377696e-07  24.062662    
     19560   24.645584      50000          50000          50000         -3.3301393e-07 -8.1935481e-07 -7.4777196e-08 -1.0490978e-07  24.645584    
     19580   25.490344      50000          50000          50000         -3.0403129e-07 -7.3858584e-07 -1.0007045e-07 -7.3437581e-08  25.490344    
     19600   26.412817      50000          50000          50000         -2.6872412e-07 -6.4424861e-07 -1.2062245e-07 -4.130129e-08   26.412817    
     19620   27.227276      50000          50000          50000         -2.2674887e-07 -5.3499469e-07 -1.3497556e-07 -1.027636e-08   27.227276    
     19640   27.8265        50000          50000          50000         -1.7814887e-07 -4.1045141e-07 -1.421521e-07   1.8156908e-08  27.8265      
     19660   28.229918      50000          50000          50000         -1.2338834e-07 -2.714059e-07  -1.4166262e-07  4.2903502e-08  28.229918    
     19680   28.565166      50000          50000          50000         -6.3341212e-08 -1.1984094e-07 -1.3348181e-07  6.3299118e-08  28.565166    
     19700   29.010021      50000          50000          50000          7.8384867e-10  4.1245372e-08 -1.1800673e-07  7.9112903e-08  29.010021    
     19720   29.707167      50000          50000          50000          6.7548965e-08  2.0814318e-07 -9.6007507e-08  9.0511218e-08  29.707167    
     19740   30.695764      50000          50000          50000          1.3540716e-07  3.7680638e-07 -6.8574238e-08  9.7989346e-08  30.695764    
     19760   31.889875      50000          50000          50000          2.0281107e-07  5.4321509e-07 -3.7059579e-08  1.0227769e-07  31.889875    
     19780   33.11469       50000          50000          50000          2.6829002e-07  7.0365638e-07 -3.0166782e-09  1.0423036e-07  33.11469     
     19800   34.177375      50000          50000          50000          3.3047948e-07  8.5486465e-07  3.1866215e-08  1.0470757e-07  34.177375    
     19820   34.951949      50000          50000          50000          3.881263e-07   9.940821e-07   6.58312e-08    1.044656e-07   34.951949    
     19840   35.419898      50000          50000          50000          4.4006844e-07  1.1190217e-06  9.7115233e-08  1.0406839e-07  35.419898    
     19860   35.662529      50000          50000          50000          4.8524607e-07  1.2278656e-06  1.2403225e-07  1.0384039e-07  35.662529    
     19880   35.798617      50000          50000          50000          5.2278839e-07  1.3193487e-06  1.4512472e-07  1.0389179e-07  35.798617    
     19900   35.915259      50000          50000          50000          5.5222938e-07  1.3930164e-06  1.5943282e-07  1.0423892e-07  35.915259    
     19920   36.015555      50000          50000          50000          5.7374413e-07  1.4494447e-06  1.6681155e-07  1.049761e-07   36.015555    
     19940   36.030427      50000          50000          50000          5.8813406e-07  1.4900953e-06  1.6798674e-07  1.0632012e-07  36.030427    
     19960   35.876892      50000          50000          50000          5.9637917e-07  1.5165828e-06  1.6413862e-07  1.0841607e-07  35.876892    
     19980   35.515134      50000          50000          50000          5.9919415e-07  1.5299136e-06  1.5647845e-07  1.1119043e-07  35.515134    
     20000   34.967111      50000          50000          50000          5.9695923e-07  1.5302361e-06  1.4620424e-07  1.1443736e-07  34.967111    
     20020   34.294242      50000          50000          50000          5.8982179e-07  1.5169447e-06  1.3457623e-07  1.179444e-07   34.294242    
     20040   33.552719      50000          50000          50000          5.7777192e-07  1.4888743e-06  1.2290176e-07  1.2153975e-07  33.552719    
     20060   32.752325      50000          50000          50000          5.6067726e-07  1.444497e-06   1.1244921e-07  1.2508559e-07  32.752325    
     20080   31.842375      50000          50000          50000          5.3829352e-07  1.382093e-06   1.0433989e-07  1.2844766e-07  31.842375    
     20100   30.737203      50000          50000          50000          5.1025917e-07  1.2998848e-06  9.9439168e-08  1.3145354e-07  30.737203    
     20120   29.367789      50000          50000          50000          4.7607986e-07  1.196136e-06   9.8256163e-08  1.338474e-07   29.367789    
     20140   27.750407      50000          50000          50000          4.3514437e-07  1.0693178e-06  1.0086248e-07  1.3525284e-07  27.750407    
     20160   26.018414      50000          50000          50000          3.8677794e-07  9.1833427e-07  1.0684179e-07  1.3515777e-07  26.018414    
     20180   24.406072      50000          50000          50000          3.3036381e-07  7.4287822e-07  1.1528263e-07  1.3293056e-07  24.406072    
     20200   23.174668      50000          50000          50000          2.6551292e-07  5.438556e-07   1.2481745e-07  1.2786571e-07  23.174668    
     20220   22.501505      50000          50000          50000          1.92239e-07    3.2376197e-07  1.3370514e-07  1.1924989e-07  22.501505    
     20240   22.395723      50000          50000          50000          1.111175e-07   8.6942605e-08  1.3996243e-07  1.0644748e-07  22.395723    
     20260   22.669984      50000          50000          50000          2.3383639e-08 -1.6045002e-07  1.4157749e-07  8.902345e-08   22.669984    
     20280   23.002751      50000          50000          50000         -6.9066808e-08 -4.1098411e-07  1.3685485e-07  6.6928845e-08  23.002751    
     20300   23.077603      50000          50000          50000         -1.6395486e-07 -6.5726346e-07  1.2476455e-07  4.0634346e-08  23.077603    
     20320   22.733544      50000          50000          50000         -2.5927909e-07 -8.9365733e-07  1.048884e-07   1.0931648e-08  22.733544    
     20340   22.046749      50000          50000          50000         -3.5375976e-07 -1.116917e-06   7.706196e-08  -2.1424259e-08  22.046749    
     20360   21.31239       50000          50000          50000         -4.465496e-07  -1.3253082e-06  4.1371996e-08 -5.5712638e-08  21.31239     
     20380   20.947018      50000          50000          50000         -5.3672144e-07 -1.5175961e-06 -1.5450789e-09 -9.1023124e-08  20.947018    
     20400   21.327726      50000          50000          50000         -6.2301573e-07 -1.6925776e-06 -5.0313982e-08 -1.2615562e-07  21.327726    
     20420   22.641429      50000          50000          50000         -7.0379346e-07 -1.8488804e-06 -1.0282806e-07 -1.5967192e-07  22.641429    
     20440   24.79932       50000          50000          50000         -7.7709731e-07 -1.9848827e-06 -1.5638918e-07 -1.9002003e-07  24.79932     
     20460   27.454532      50000          50000          50000         -8.4078352e-07 -2.0987433e-06 -2.0792419e-07 -2.1568308e-07  27.454532    
     20480   30.118589      50000          50000          50000         -8.9270519e-07 -2.1885479e-06 -2.5423716e-07 -2.3533051e-07  30.118589    
     20500   32.333404      50000          50000          50000         -9.3091842e-07 -2.2525329e-06 -2.9226572e-07 -2.4795662e-07  32.333404    
     20520   33.83475       50000          50000          50000         -9.5388068e-07 -2.2893289e-06 -3.1932454e-07 -2.529886e-07   33.83475     
     20540   34.644319      50000          50000          50000         -9.6061013e-07 -2.29815e-06   -3.3333768e-07 -2.5034275e-07  34.644319    
     20560   35.049458      50000          50000          50000         -9.5077027e-07 -2.2788292e-06 -3.3305892e-07 -2.4042266e-07  35.049458    
     20580   35.464674      50000          50000          50000         -9.2466108e-07 -2.2316648e-06 -3.1824646e-07 -2.2407202e-07  35.464674    
     20600   36.243301      50000          50000          50000         -8.831087e-07  -2.1571032e-06 -2.8973682e-07 -2.0248608e-07  36.243301    
     20620   37.502299      50000          50000          50000         -8.2732636e-07 -2.0555051e-06 -2.4939405e-07 -1.7707994e-07  37.502299    
     20640   39.049632      50000          50000          50000         -7.5879429e-07 -1.9270971e-06 -1.9995366e-07 -1.4933207e-07  39.049632    
     20660   40.439226      50000          50000          50000         -6.7920862e-07 -1.772192e-06  -1.4479763e-07 -1.2063628e-07  40.439226    
     20680   41.131973      50000          50000          50000         -5.9050161e-07 -1.5916207e-06 -8.7694634e-08 -9.2189445e-08  41.131973    
     20700   40.698448      50000          50000          50000         -4.9490117e-07 -1.387247e-06  -3.2529328e-08 -6.4927172e-08  40.698448    
     20720   38.984095      50000          50000          50000         -3.9497722e-07 -1.1623999e-06  1.6972788e-08 -3.950455e-08   38.984095    
     20740   36.180508      50000          50000          50000         -2.9360986e-07 -9.2205193e-07  5.7533458e-08 -1.6311102e-08  36.180508    
     20760   32.76125       50000          50000          50000         -1.9385601e-07 -6.7268506e-07  8.6626545e-08  4.4904875e-09  32.76125     
     20780   29.323574      50000          50000          50000         -9.869409e-08  -4.21768e-07    1.0277672e-07  2.2909013e-08  29.323574    
     20800   26.383114      50000          50000          50000         -1.070711e-08  -1.7699389e-07  1.0580696e-07  3.9065602e-08  26.383114    
     20820   24.210013      50000          50000          50000          6.8267897e-08  5.4631772e-08  9.7003128e-08  5.3168791e-08  24.210013    
     20840   22.774085      50000          50000          50000          1.3750968e-07  2.678207e-07   7.9144382e-08  6.5563968e-08  22.774085    
     20860   21.82298       50000          50000          50000          1.9757599e-07  4.5984548e-07  5.6137887e-08  7.6744595e-08  21.82298     
     20880   21.047429      50000          50000          50000          2.498184e-07   6.3028119e-07  3.2076938e-08  8.7097062e-08  21.047429    
     20900   20.234071      50000          50000          50000          2.9558243e-07  7.7965878e-07  1.0476336e-08  9.661218e-08   20.234071    
     20920   19.338161      50000          50000          50000          3.358984e-07   9.0852857e-07 -5.7712007e-09  1.0493783e-07  19.338161    
     20940   18.469209      50000          50000          50000          3.715512e-07   1.01741e-06   -1.4333995e-08  1.1157759e-07  18.469209    
     20960   17.832592      50000          50000          50000          4.0315695e-07  1.1070591e-06 -1.3607096e-08  1.1601885e-07  17.832592    
     20980   17.639867      50000          50000          50000          4.3117316e-07  1.1786153e-06 -2.9143622e-09  1.1781854e-07  17.639867    
     21000   18.02949       50000          50000          50000          4.5589377e-07  1.233602e-06   1.7392713e-08  1.1668659e-07  18.02949     
     21020   19.032         50000          50000          50000          4.774493e-07   1.2738218e-06  4.5963868e-08  1.1256223e-07  19.032       
     21040   20.561751      50000          50000          50000          4.9578371e-07  1.3010919e-06  8.0594459e-08  1.0566476e-07  20.561751    
     21060   22.456597      50000          50000          50000          5.1064686e-07  1.3169728e-06  1.1845916e-07  9.6508629e-08  22.456597    
     21080   24.52425       50000          50000          50000          5.2158737e-07  1.3224877e-06  1.563987e-07   8.5875737e-08  24.52425     
     21100   26.589322      50000          50000          50000          5.279646e-07   1.3179278e-06  1.912168e-07   7.4749222e-08  26.589322    
     21120   28.526287      50000          50000          50000          5.2897116e-07  1.3027613e-06  2.1993953e-07  6.4212649e-08  28.526287    
     21140   30.273351      50000          50000          50000          5.2365544e-07  1.2756496e-06  2.3999659e-07  5.5320102e-08  30.273351    
     21160   31.827356      50000          50000          50000          5.1096762e-07  1.2346052e-06  2.4934304e-07  4.8954633e-08  31.827356    
     21180   33.222237      50000          50000          50000          4.8991583e-07  1.1773697e-06  2.4665511e-07  4.572273e-08   33.222237    
     21200   34.497561      50000          50000          50000          4.5986122e-07  1.1019896e-06  2.3167525e-07  4.5918826e-08  34.497561    
     21220   35.66841       50000          50000          50000          4.2076486e-07  1.0073263e-06  2.0545902e-07  4.9509213e-08  35.66841     
     21240   36.706648      50000          50000          50000          3.7321332e-07  8.9328798e-07  1.7025923e-07  5.6092753e-08  36.706648    
     21260   37.536681      50000          50000          50000          3.1829797e-07  7.6085843e-07  1.2914788e-07  6.4887585e-08  37.536681    
     21280   38.043805      50000          50000          50000          2.5747657e-07  6.1205031e-07  8.5592182e-08  7.4787208e-08  38.043805    
     21300   38.101118      50000          50000          50000          1.9245304e-07  4.4981586e-07  4.3070472e-08  8.4472796e-08  38.101118    
     21320   37.598681      50000          50000          50000          1.2504165e-07  2.7783909e-07  4.7331145e-09  9.2552756e-08  37.598681    
     21340   36.490045      50000          50000          50000          5.7033971e-08  1.0027318e-07 -2.6881526e-08  9.7710258e-08  36.490045    
     21360   34.82786       50000          50000          50000         -9.9353146e-09 -7.8590067e-08 -5.0063818e-08  9.8847941e-08  34.82786     
     21380   32.778642      50000          50000          50000         -7.4494852e-08 -2.5464097e-07 -6.4065134e-08  9.5221546e-08  32.778642    
     21400   30.595304      50000          50000          50000         -1.3560376e-07 -4.2423301e-07 -6.9131365e-08  8.6553087e-08  30.595304    
     21420   28.561095      50000          50000          50000         -1.9255193e-07 -5.8434364e-07 -6.6423998e-08  7.3111855e-08  28.561095    
     21440   26.90101       50000          50000          50000         -2.4492363e-07 -7.3269641e-07 -5.7821982e-08  5.5747488e-08  26.90101     
     21460   25.709648      50000          50000          50000         -2.9254303e-07 -8.6785118e-07 -4.5623634e-08  3.5845734e-08  25.709648    
     21480   24.925263      50000          50000          50000         -3.3546596e-07 -9.8932633e-07 -3.2230503e-08  1.5158944e-08  24.925263    
     21500   24.36643       50000          50000          50000         -3.7403142e-07 -1.097677e-06  -1.9924651e-08 -4.4925972e-09  24.36643     
     21520   23.813481      50000          50000          50000         -4.0888552e-07 -1.1943811e-06 -1.0748974e-08 -2.1526535e-08  23.813481    
     21540   23.0991        50000          50000          50000         -4.4090333e-07 -1.2815335e-06 -6.395629e-09  -3.4780844e-08  23.0991      
     21560   22.177436      50000          50000          50000         -4.7104986e-07 -1.3614976e-06 -8.0619448e-09 -4.3590002e-08  22.177436    
     21580   21.150871      50000          50000          50000         -5.0024384e-07 -1.4365847e-06 -1.6317439e-08 -4.7829371e-08  21.150871    
     21600   20.243074      50000          50000          50000         -5.2923549e-07 -1.508731e-06  -3.1031689e-08 -4.7943802e-08  20.243074    
     21620   19.722894      50000          50000          50000         -5.5848841e-07 -1.5791506e-06 -5.1381937e-08 -4.4932677e-08  19.722894    
     21640   19.803525      50000          50000          50000         -5.8807217e-07 -1.6480144e-06 -7.5935416e-08 -4.0266735e-08  19.803525    
     21660   20.55487       50000          50000          50000         -6.1759166e-07 -1.7142474e-06 -1.0279233e-07 -3.5735301e-08  20.55487     
     21680   21.865436      50000          50000          50000         -6.4618276e-07 -1.7755341e-06 -1.2977109e-07 -3.3243115e-08  21.865436    
     21700   23.471962      50000          50000          50000         -6.7258626e-07 -1.8285605e-06 -1.5461254e-07 -3.4585759e-08  23.471962    
     21720   25.047582      50000          50000          50000         -6.9528597e-07 -1.8694478e-06 -1.7517805e-07 -4.1232081e-08  25.047582    
     21740   26.315232      50000          50000          50000         -7.1267679e-07 -1.8942737e-06 -1.8962141e-07 -5.4135305e-08  26.315232    
     21760   27.142868      50000          50000          50000         -7.2322432e-07 -1.8995615e-06 -1.9652477e-07 -7.3586714e-08  27.142868    
     21780   27.584117      50000          50000          50000         -7.255879e-07  -1.8826442e-06 -1.9499895e-07 -9.9120553e-08  27.584117    
     21800   27.848376      50000          50000          50000         -7.1869599e-07 -1.8418578e-06 -1.8475305e-07 -1.2947716e-07  27.848376    
     21820   28.210228      50000          50000          50000         -7.0177754e-07 -1.7765645e-06 -1.6613491e-07 -1.6263327e-07  28.210228    
     21840   28.891323      50000          50000          50000         -6.743637e-07  -1.6870436e-06 -1.4013409e-07 -1.9591342e-07  28.891323    
     21860   29.96094       50000          50000          50000         -6.3627942e-07 -1.5743088e-06 -1.0833254e-07 -2.2619695e-07  29.96094     
     21880   31.297423      50000          50000          50000         -5.8764645e-07 -1.4399273e-06 -7.2792534e-08 -2.5021952e-07  31.297423    
     21900   32.628923      50000          50000          50000         -5.2890907e-07 -1.2859049e-06 -3.5885832e-08 -2.6493645e-07  32.628923    
     21920   33.637954      50000          50000          50000         -4.6087266e-07 -1.1146467e-06 -8.1802155e-11 -2.6788951e-07  33.637954    
     21940   34.079095      50000          50000          50000         -3.84736e-07   -9.2897086e-07  3.2280261e-08 -2.5751741e-07  34.079095    
     21960   33.873608      50000          50000          50000         -3.020805e-07  -7.3207042e-07  5.9201863e-08 -2.3337295e-07  33.873608    
     21980   33.132509      50000          50000          50000         -2.1485479e-07 -5.2747972e-07  7.9168542e-08 -1.9625319e-07  33.132509    
     22000   32.102729      50000          50000          50000         -1.253941e-07  -3.191264e-07   9.1210948e-08 -1.4826686e-07  32.102729    
     22020   31.071358      50000          50000          50000         -3.6330069e-08 -1.1127923e-07  9.5029886e-08 -9.2740859e-08  31.071358    
     22040   30.253133      50000          50000          50000          4.9762739e-08  9.1881343e-08  9.1222087e-08 -3.3815213e-08  30.253133    
     22060   29.719227      50000          50000          50000          1.3083841e-07  2.8696916e-07  8.1343055e-08  2.4203014e-08  29.719227    
     22080   29.401573      50000          50000          50000          2.056921e-07   4.7193177e-07  6.7654107e-08  7.7490414e-08  29.401573    
     22100   29.160845      50000          50000          50000          2.7390289e-07  6.4602009e-07  5.2620535e-08  1.2306804e-07  29.160845    
     22120   28.867069      50000          50000          50000          3.354882e-07   8.0917157e-07  3.8460932e-08  1.5883211e-07  28.867069    
     22140   28.446682      50000          50000          50000          3.9061443e-07  9.6132394e-07  2.6988404e-08  1.8353095e-07  28.446682    
     22160   27.885411      50000          50000          50000          4.3949444e-07  1.102053e-06   1.9620823e-08  1.968095e-07   27.885411    
     22180   27.203137      50000          50000          50000          4.8237107e-07  1.2304934e-06  1.7386998e-08  1.9923285e-07  27.203137    
     22200   26.42561       50000          50000          50000          5.1950412e-07  1.3453827e-06  2.0905665e-08  1.9222395e-07  26.42561     
     22220   25.566022      50000          50000          50000          5.511306e-07   1.4451141e-06  3.0363724e-08  1.7791396e-07  25.566022    
     22240   24.638947      50000          50000          50000          5.7741694e-07  1.5278185e-06  4.550712e-08   1.5892523e-07  24.638947    
     22260   23.678195      50000          50000          50000          5.9839315e-07  1.5914234e-06  6.5645524e-08  1.3811054e-07  23.678195    
     22280   22.756446      50000          50000          50000          6.1390586e-07  1.6337713e-06  8.9673486e-08  1.1827282e-07  22.756446    
     22300   21.982523      50000          50000          50000          6.2360485e-07  1.6528115e-06  1.1611482e-07  1.0188822e-07  21.982523    
     22320   21.470058      50000          50000          50000          6.2697718e-07  1.646876e-06   1.4320055e-07  9.0854986e-08  21.470058    
     22340   21.28733       50000          50000          50000          6.2342425e-07  1.614995e-06   1.6898601e-07  8.6291712e-08  21.28733     
     22360   21.413187      50000          50000          50000          6.1235644e-07  1.5571596e-06  1.9150012e-07  8.8409639e-08  21.413187    
     22380   21.727325      50000          50000          50000          5.9327171e-07  1.4744279e-06  2.089063e-07   9.648099e-08   21.727325    
     22400   22.049862      50000          50000          50000          5.6579714e-07  1.3688246e-06  2.1965168e-07  1.0891513e-07  22.049862    
     22420   22.220045      50000          50000          50000          5.2969891e-07  1.2430695e-06  2.225879e-07   1.2343936e-07  22.220045    
     22440   22.179988      50000          50000          50000          4.8489052e-07  1.1002441e-06  2.1705935e-07  1.3736812e-07  22.179988    
     22460   22.020452      50000          50000          50000          4.3147693e-07  9.4352617e-07  2.0296588e-07  1.4793874e-07  22.020452    
     22480   21.958379      50000          50000          50000          3.6985267e-07  7.7606054e-07  1.8080893e-07  1.5268855e-07  21.958379    
     22500   22.247768      50000          50000          50000          3.0081451e-07  6.0091361e-07  1.5170486e-07  1.4982506e-07  22.247768    
     22520   23.063168      50000          50000          50000          2.2557334e-07  4.2094409e-07  1.1729467e-07  1.3848126e-07  23.063168    
     22540   24.412829      50000          50000          50000          1.4558347e-07  2.3851887e-07  7.9493416e-08  1.1873813e-07  24.412829    
     22560   26.125441      50000          50000          50000          6.2322383e-08  5.5315378e-08  4.0193212e-08  9.145856e-08   26.125441    
     22580   27.893365      50000          50000          50000         -2.280501e-08  -1.2763807e-07  1.1069794e-09  5.8116058e-08  27.893365    
     22600   29.371056      50000          50000          50000         -1.084466e-07  -3.0976975e-07 -3.6251365e-08  2.0681312e-08  29.371056    
     22620   30.284984      50000          50000          50000         -1.9332021e-07 -4.9088422e-07 -7.0573831e-08 -1.8502583e-08  30.284984    
     22640   30.535106      50000          50000          50000         -2.7627935e-07 -6.7112593e-07 -1.0081284e-07 -5.6899274e-08  30.535106    
     22660   30.239094      50000          50000          50000         -3.563765e-07  -8.5082982e-07 -1.2629384e-07 -9.2005831e-08  30.239094    
     22680   29.716357      50000          50000          50000         -4.3276804e-07 -1.0299193e-06 -1.4681684e-07 -1.2156798e-07  29.716357    
     22700   29.381576      50000          50000          50000         -5.0437997e-07 -1.2069659e-06 -1.6250615e-07 -1.4366789e-07  29.381576    
     22720   29.57424       50000          50000          50000         -5.6968306e-07 -1.3787517e-06 -1.7349808e-07 -1.5679943e-07  29.57424     
     22740   30.404249      50000          50000          50000         -6.2699605e-07 -1.54084e-06   -1.7997049e-07 -1.6017764e-07  30.404249    
     22760   31.710489      50000          50000          50000         -6.7486091e-07 -1.688243e-06  -1.8232859e-07 -1.5401115e-07  31.710489    
     22780   33.11652       50000          50000          50000         -7.1216465e-07 -1.8158183e-06 -1.8119106e-07 -1.3948456e-07  33.11652     
     22800   34.163319      50000          50000          50000         -7.3816977e-07 -1.9186618e-06 -1.7727788e-07 -1.1856962e-07  34.163319    
     22820   34.464498      50000          50000          50000         -7.5256802e-07 -1.9926111e-06 -1.7131598e-07 -9.3776999e-08  34.464498    
     22840   33.833225      50000          50000          50000         -7.5552979e-07 -2.0347365e-06 -1.6397367e-07 -6.7879143e-08  33.833225    
     22860   32.341742      50000          50000          50000         -7.4771122e-07 -2.0437022e-06 -1.5581287e-07 -4.3618585e-08  32.341742    
     22880   30.290557      50000          50000          50000         -7.3020909e-07 -2.0199598e-06 -1.4725174e-07 -2.3415726e-08  30.290557    
     22900   28.113409      50000          50000          50000         -7.0444552e-07 -1.9657033e-06 -1.3853694e-07 -9.0963278e-09  28.113409    
     22920   26.231968      50000          50000          50000         -6.7202007e-07 -1.884658e-06  -1.2973104e-07 -1.6711849e-09  26.231968    
     22940   24.924746      50000          50000          50000         -6.3453932e-07 -1.7816893e-06 -1.2072261e-07 -1.206061e-09   24.924746    
     22960   24.250655      50000          50000          50000         -5.93457e-07   -1.6623024e-06 -1.1125938e-07 -6.8091933e-09  24.250655    
     22980   24.054802      50000          50000          50000         -5.4994132e-07 -1.5320769e-06 -1.0099776e-07 -1.6749319e-08  24.054802    
     23000   24.051043      50000          50000          50000         -5.0480556e-07 -1.3961192e-06 -8.9576325e-08 -2.8721186e-08  24.051043    
     23020   23.94238       50000          50000          50000         -4.5856711e-07 -1.2587163e-06 -7.6735462e-08 -4.0249578e-08  23.94238     
     23040   23.532987      50000          50000          50000         -4.1161379e-07 -1.1232877e-06 -6.245175e-08  -4.9101909e-08  23.532987    
     23060   22.780178      50000          50000          50000         -3.6436193e-07 -9.9253995e-07 -4.7001359e-08 -5.3544469e-08  22.780178    
     23080   21.802618      50000          50000          50000         -3.1729859e-07 -8.6852225e-07 -3.092806e-08  -5.2445445e-08  21.802618    
     23100   20.827727      50000          50000          50000         -2.7096578e-07 -7.5261718e-07 -1.4957828e-08 -4.5322327e-08  20.827727    
     23120   20.132585      50000          50000          50000         -2.2588998e-07 -6.4541363e-07  1.0806592e-10 -3.2364369e-08  20.132585    
     23140   19.95546       50000          50000          50000         -1.825272e-07  -5.466785e-07   1.3507449e-08 -1.4410555e-08  19.95546     
     23160   20.428953      50000          50000          50000         -1.4120475e-07 -4.5537477e-07  2.462562e-08   7.1349075e-09  20.428953    
     23180   21.538732      50000          50000          50000         -1.0208756e-07 -3.6979016e-07  3.3080782e-08  3.0446707e-08  21.538732    
     23200   23.119862      50000          50000          50000         -6.5178078e-08 -2.8777129e-07  3.8772691e-08  5.3464364e-08  23.119862    
     23220   24.892116      50000          50000          50000         -3.035406e-08  -2.0704562e-07  4.1888714e-08  7.4094727e-08  24.892116    
     23240   26.526878      50000          50000          50000          2.5594253e-09 -1.2559831e-07  4.2870293e-08  9.0406293e-08  26.526878    
     23260   27.729789      50000          50000          50000          3.369427e-08  -4.2065135e-08  4.2349197e-08  1.0079875e-07  27.729789    
     23280   28.325577      50000          50000          50000          6.3047886e-08  4.3930658e-08  4.1067723e-08  1.0414528e-07  28.325577    
     23300   28.307441      50000          50000          50000          9.0413237e-08  1.3152035e-07  3.9801918e-08  9.9917445e-08  28.307441    
     23320   27.850915      50000          50000          50000          1.1539328e-07  2.1858017e-07  3.9306132e-08  8.8293528e-08  27.850915    
     23340   27.264336      50000          50000          50000          1.3749831e-07  3.0200103e-07  4.0279137e-08  7.0214763e-08  27.264336    
     23360   26.88969       50000          50000          50000          1.5629432e-07  3.7822623e-07  4.3327022e-08  4.7329704e-08  26.88969     
     23380   26.985534      50000          50000          50000          1.7152293e-07  4.4387332e-07  4.8894413e-08  2.1801072e-08  26.985534    
     23400   27.635923      50000          50000          50000          1.8313826e-07  4.9622156e-07  5.716855e-08  -3.975344e-09   27.635923    
     23420   28.724656      50000          50000          50000          1.912834e-07   5.3349545e-07  6.8003525e-08 -2.7648766e-08  28.724656    
     23440   29.974649      50000          50000          50000          1.962312e-07   5.5493532e-07  8.0899687e-08 -4.7141397e-08  29.974649    
     23460   31.04941       50000          50000          50000          1.9830632e-07  5.6071875e-07  9.5028567e-08 -6.0828372e-08  31.04941     
     23480   31.671083      50000          50000          50000          1.9778676e-07  5.5174595e-07  1.0928964e-07 -6.7675291e-08  31.671083    
     23500   31.721508      50000          50000          50000          1.9482904e-07  5.2940779e-07  1.2239664e-07 -6.7317319e-08  31.721508    
     23520   31.278086      50000          50000          50000          1.8943728e-07  4.9539341e-07  1.32994e-07   -6.0075583e-08  31.278086    
     23540   30.574076      50000          50000          50000          1.8149573e-07  4.5159705e-07  1.3979852e-07 -4.6908368e-08  30.574076    
     23560   29.895166      50000          50000          50000          1.7085144e-07  4.0010098e-07  1.417543e-07  -2.930097e-08   29.895166    
     23580   29.4586        50000          50000          50000          1.5742172e-07  3.4318729e-07  1.3818107e-07 -9.1032101e-09  29.4586      
     23600   29.311255      50000          50000          50000          1.4126699e-07  2.8324271e-07  1.2889023e-07  1.1668037e-08  29.311255    
     23620   29.309813      50000          50000          50000          1.2261618e-07  2.2256928e-07  1.1424336e-07  3.10359e-08    29.309813    
     23640   29.180325      50000          50000          50000          1.0181723e-07  1.6306238e-07  9.5137546e-08  4.7251762e-08  29.180325    
     23660   28.639016      50000          50000          50000          7.9240504e-08  1.0586292e-07  7.291674e-08   5.8941852e-08  28.639016    
     23680   27.522446      50000          50000          50000          5.5178599e-08  5.1112605e-08  4.922225e-08   6.5200943e-08  27.522446    
     23700   25.864063      50000          50000          50000          2.978421e-08  -2.0875058e-09  2.5804434e-08  6.5635701e-08  25.864063    
     23720   23.8956        50000          50000          50000          3.0987546e-09 -5.5398861e-08  4.3232018e-09  6.0371923e-08  23.8956      
     23740   21.95187       50000          50000          50000         -2.4843911e-08 -1.107374e-07  -1.3835288e-08  5.0040958e-08  21.95187     
     23760   20.334105      50000          50000          50000         -5.3859347e-08 -1.69623e-07   -2.7697363e-08  3.5742325e-08  20.334105    
     23780   19.19234       50000          50000          50000         -8.3495865e-08 -2.3265717e-07 -3.6777906e-08  1.8947477e-08  19.19234     
     23800   18.489176      50000          50000          50000         -1.130634e-07  -2.9938436e-07 -4.1102555e-08  1.2967143e-09  18.489176    
     23820   18.06073       50000          50000          50000         -1.4181681e-07 -3.6856523e-07 -4.1198231e-08 -1.5686973e-08  18.06073     
     23840   17.733336      50000          50000          50000         -1.6914279e-07 -4.3857066e-07 -3.8033993e-08 -3.0823722e-08  17.733336    
     23860   17.431428      50000          50000          50000         -1.9461833e-07 -5.0762663e-07 -3.2886447e-08 -4.3341913e-08  17.431428    
     23880   17.2277        50000          50000          50000         -2.1797011e-07 -5.7390733e-07 -2.7163039e-08 -5.283997e-08   17.2277      
     23900   17.323173      50000          50000          50000         -2.3899662e-07 -6.3553065e-07 -2.2232546e-08 -5.9226681e-08  17.323173    
     23920   17.952113      50000          50000          50000         -2.5749236e-07 -6.9053573e-07 -1.9283172e-08 -6.2658165e-08  17.952113    
     23940   19.268905      50000          50000          50000         -2.7316231e-07 -7.3680937e-07 -1.9213966e-08 -6.3463596e-08  19.268905    
     23960   21.251119      50000          50000          50000         -2.8557024e-07 -7.7208058e-07 -2.256722e-08  -6.206293e-08   21.251119    
     23980   23.667328      50000          50000          50000         -2.9414702e-07 -7.9403184e-07 -2.9512147e-08 -5.8897072e-08  23.667328    
     24000   26.124756      50000          50000          50000         -2.9827938e-07 -8.0056238e-07 -3.9879995e-08 -5.4395771e-08  26.124756    
     24020   28.182351      50000          50000          50000         -2.9745035e-07 -7.9017752e-07 -5.3206299e-08 -4.8967214e-08  28.182351    
     24040   29.495365      50000          50000          50000         -2.9134026e-07 -7.6240468e-07 -6.869582e-08  -4.2920276e-08  29.495365    
     24060   29.94279       50000          50000          50000         -2.7984251e-07 -7.1807351e-07 -8.514689e-08  -3.6307138e-08  29.94279     
     24080   29.67681       50000          50000          50000         -2.6307356e-07 -6.5931918e-07 -1.0103346e-07 -2.8868025e-08  29.67681     
     24100   29.059017      50000          50000          50000         -2.4139889e-07 -5.8928008e-07 -1.1476266e-07 -2.015393e-08   29.059017    
     24120   28.508453      50000          50000          50000         -2.1538981e-07 -5.1157063e-07 -1.2491606e-07 -9.6827544e-09  28.508453    
     24140   28.330282      50000          50000          50000         -1.8570731e-07 -4.2967904e-07 -1.3039727e-07  2.954386e-09   28.330282    
     24160   28.593556      50000          50000          50000         -1.5300005e-07 -3.4649296e-07 -1.3052224e-07  1.801505e-08   28.593556    
     24180   29.123398      50000          50000          50000         -1.1786205e-07 -2.6405031e-07 -1.2507253e-07  3.5536691e-08  29.123398    
     24200   29.596799      50000          50000          50000         -8.0877671e-08 -1.8360379e-07 -1.1430773e-07  5.5278506e-08  29.596799    
     24220   29.695923      50000          50000          50000         -4.272191e-08  -1.059178e-07  -9.8931131e-08  7.6683198e-08  29.695923    
     24240   29.259609      50000          50000          50000         -4.2435598e-09 -3.1589739e-08 -8.0010443e-08  9.8869503e-08  29.259609    
     24260   28.352075      50000          50000          50000          3.3506103e-08  3.8715887e-08 -5.8861591e-08  1.2066401e-07  28.352075    
     24280   27.224685      50000          50000          50000          6.9331386e-08  1.0422526e-07 -3.6908448e-08  1.4067735e-07  27.224685    
     24300   26.195934      50000          50000          50000          1.0203171e-07  1.6420515e-07 -1.5533779e-08  1.5742375e-07  26.195934    
     24320   25.494113      50000          50000          50000          1.3056041e-07  2.1814952e-07  4.0584193e-09  1.694733e-07   25.494113    
     24340   25.156308      50000          50000          50000          1.5416397e-07  2.6592079e-07  2.0951863e-08  1.7561925e-07  25.156308    
     24360   25.019011      50000          50000          50000          1.7243254e-07  3.0768583e-07  3.457985e-08   1.7503194e-07  25.019011    
     24380   24.809001      50000          50000          50000          1.8525209e-07  3.4365503e-07  4.4731227e-08  1.6737003e-07  24.809001    
     24400   24.28628       50000          50000          50000          1.9268709e-07  3.7372615e-07  5.1504628e-08  1.528305e-07   24.28628     
     24420   23.368107      50000          50000          50000          1.9485859e-07  3.9720299e-07  5.523184e-08   1.3214094e-07  23.368107    
     24440   22.176385      50000          50000          50000          1.9188048e-07  4.1273099e-07  5.639791e-08   1.0651255e-07  22.176385    
     24460   20.989228      50000          50000          50000          1.8387869e-07  4.1849443e-07  5.5575963e-08  7.7565688e-08  20.989228    
     24480   20.119738      50000          50000          50000          1.7107108e-07  4.1260804e-07  5.3379238e-08  4.7225968e-08  20.119738    
     24500   19.78336       50000          50000          50000          1.538649e-07   3.9358367e-07  5.0424659e-08  1.7586357e-08  19.78336     
     24520   20.000969      50000          50000          50000          1.3289957e-07  3.6065877e-07  4.7299419e-08 -9.2594653e-09  20.000969    
     24540   20.600964      50000          50000          50000          1.0901752e-07  3.1392576e-07  4.4523185e-08 -3.1396365e-08  20.600964    
     24560   21.306337      50000          50000          50000          8.3131646e-08  2.5417236e-07  4.2488283e-08 -4.7265705e-08  21.306337    
     24580   21.871837      50000          50000          50000          5.6016681e-08  1.825474e-07   4.1352888e-08 -5.5850249e-08  21.871837    
     24600   22.206847      50000          50000          50000          2.8116446e-08  1.0031552e-07  4.0906559e-08 -5.6872743e-08  22.206847    
     24620   22.426027      50000          50000          50000         -4.2954308e-10  9.0357418e-09  4.0569817e-08 -5.0894188e-08  22.426027    
     24640   22.795294      50000          50000          50000         -2.9489143e-08 -8.8934555e-08  3.963673e-08  -3.9169603e-08  22.795294    
     24660   23.58163       50000          50000          50000         -5.8729293e-08 -1.902681e-07   3.7504889e-08 -2.3424667e-08  23.58163     
     24680   24.895674      50000          50000          50000         -8.7640461e-08 -2.9094942e-07  3.3734086e-08 -5.706053e-09   24.895674    
     24700   26.59609       50000          50000          50000         -1.1563289e-07 -3.8676428e-07  2.8077877e-08  1.178774e-08   26.59609     
     24720   28.316054      50000          50000          50000         -1.4212838e-07 -4.7386727e-07  2.0552973e-08  2.6929148e-08  28.316054    
     24740   29.611599      50000          50000          50000         -1.6666968e-07 -5.4938846e-07  1.1495769e-08  3.788366e-08   29.611599    
     24760   30.147761      50000          50000          50000         -1.8905256e-07 -6.120042e-07   1.5630169e-09  4.3283514e-08  30.147761    
     24780   29.849981      50000          50000          50000         -2.0940519e-07 -6.6222594e-07 -8.3317037e-09  4.2342069e-08  29.849981    
     24800   28.945601      50000          50000          50000         -2.2817092e-07 -7.0229166e-07 -1.7132899e-08  3.4911794e-08  28.945601    
     24820   27.869506      50000          50000          50000         -2.4599047e-07 -7.3567327e-07 -2.3788955e-08  2.1490816e-08  27.869506    
     24840   27.086799      50000          50000          50000         -2.635019e-07  -7.6627749e-07 -2.740547e-08   3.1772477e-09  27.086799    
     24860   26.891732      50000          50000          50000         -2.8114949e-07 -7.9763026e-07 -2.7383837e-08 -1.8434387e-08  26.891732    
     24880   27.28662       50000          50000          50000         -2.9905821e-07 -8.3223854e-07 -2.3521739e-08 -4.141436e-08   27.28662     
     24900   27.989675      50000          50000          50000         -3.1702513e-07 -8.7131258e-07 -1.6059516e-08 -6.3703306e-08  27.989675    
     24920   28.568161      50000          50000          50000         -3.3461748e-07 -9.1485207e-07 -5.6659373e-09 -8.3334424e-08  28.568161    
     24940   28.63604       50000          50000          50000         -3.5132147e-07 -9.619594e-07   6.6337427e-09 -9.8638737e-08  28.63604     
     24960   28.029415      50000          50000          50000         -3.6667127e-07 -1.0111874e-06  1.9578543e-08 -1.0840499e-07  28.029415    
     24980   26.885879      50000          50000          50000         -3.8030818e-07 -1.06077e-06    3.1823686e-08 -1.119782e-07   26.885879    
     25000   25.596749      50000          50000          50000         -3.9196599e-07 -1.1086817e-06  4.2085005e-08 -1.0930124e-07  25.596749    
     25020   24.655463      50000          50000          50000         -4.0142231e-07 -1.1525685e-06  4.9226112e-08 -1.0092452e-07  24.655463    
     25040   24.465143      50000          50000          50000         -4.0845096e-07 -1.1896394e-06  5.2287569e-08 -8.8001083e-08  24.465143    
     25060   25.167479      50000          50000          50000         -4.1278239e-07 -1.216634e-06   5.0529179e-08 -7.2242318e-08  25.167479    
     25080   26.567739      50000          50000          50000         -4.1404358e-07 -1.2299248e-06  4.3559475e-08 -5.5765405e-08  26.567739    
     25100   28.183341      50000          50000          50000         -4.1175093e-07 -1.225961e-06   3.1512636e-08 -4.0804449e-08  28.183341    
     25120   29.436948      50000          50000          50000         -4.0543706e-07 -1.2020522e-06  1.513058e-08  -2.9389597e-08  29.436948    
     25140   29.912131      50000          50000          50000         -3.9489279e-07 -1.1572637e-06 -4.3084143e-09 -2.3106234e-08  29.912131    
     25160   29.546026      50000          50000          50000         -3.8036819e-07 -1.0930173e-06 -2.5146501e-08 -2.294082e-08   29.546026    
     25180   28.659104      50000          50000          50000         -3.6261011e-07 -1.0131239e-06 -4.5524024e-08 -2.9182447e-08  28.659104    
     25200   27.802609      50000          50000          50000         -3.4271327e-07 -9.2320632e-07 -6.3561769e-08 -4.1371727e-08  27.802609    
     25220   27.49284       50000          50000          50000         -3.2184115e-07 -8.2966953e-07 -7.7546321e-08 -5.830761e-08   27.49284     
     25240   27.959432      50000          50000          50000         -3.0092213e-07 -7.3852951e-07 -8.6108088e-08 -7.8128782e-08  27.959432    
     25260   29.032418      50000          50000          50000         -2.8044692e-07 -6.5447598e-07 -8.8374699e-08 -9.8490069e-08  29.032418    
     25280   30.22139       50000          50000          50000         -2.6047143e-07 -5.8047865e-07 -8.4089024e-08 -1.1684662e-07  30.22139     
     25300   30.943041      50000          50000          50000         -2.4081209e-07 -5.1796305e-07 -7.3677067e-08 -1.3079615e-07  30.943041    
     25320   30.763897      50000          50000          50000         -2.2130019e-07 -4.6730879e-07 -5.8235058e-08 -1.3835672e-07  30.763897    
     25340   29.579726      50000          50000          50000         -2.0191521e-07 -4.2820064e-07 -3.9426609e-08 -1.3811839e-07  29.579726    
     25360   27.646347      50000          50000          50000         -1.8280291e-07 -3.9976175e-07 -1.9322498e-08 -1.2932449e-07  27.646347    
     25380   25.47651       50000          50000          50000         -1.6418977e-07 -3.8043536e-07 -2.0532838e-10 -1.1192863e-07  25.47651     
     25400   23.641701      50000          50000          50000         -1.4623339e-07 -3.6774162e-07  1.5660047e-08 -8.6618582e-08  23.641701    
     25420   22.543211      50000          50000          50000         -1.2887701e-07 -3.5813559e-07  2.6280009e-08 -5.4775453e-08  22.543211    
     25440   22.259295      50000          50000          50000         -1.117606e-07  -3.471069e-07   3.017957e-08  -1.8354462e-08  22.259295    
     25460   22.528454      50000          50000          50000         -9.4249535e-08 -3.29647e-07    2.6597889e-08  2.0300509e-08  22.528454    
     25480   22.876892      50000          50000          50000         -7.5586072e-08 -3.0102932e-07  1.5593592e-08  5.8677514e-08  22.876892    
     25500   22.832959      50000          50000          50000         -5.5112521e-08 -2.5770102e-07 -1.9543047e-09  9.4317759e-08  22.832959    
     25520   22.135017      50000          50000          50000         -3.2484849e-08 -1.9802748e-07 -2.4439741e-08  1.2501267e-07  22.135017    
     25540   20.845878      50000          50000          50000         -7.8040389e-09 -1.226797e-07  -4.9696415e-08  1.4896399e-07  20.845878    
     25560   19.329238      50000          50000          50000          1.8366076e-08 -3.4576198e-08 -7.5221854e-08  1.6489628e-07  19.329238    
     25580   18.100666      50000          50000          50000          4.5068027e-08  6.1550057e-08 -9.8451568e-08  1.7210559e-07  18.100666    
     25600   17.61352       50000          50000          50000          7.1086273e-08  1.5981851e-07 -1.1703745e-07  1.7047776e-07  17.61352     
     25620   18.064628      50000          50000          50000          9.5299628e-08  2.5423805e-07 -1.2897562e-07  1.6063645e-07  18.064628    
     25640   19.31541       50000          50000          50000          1.1716661e-07  3.4007309e-07 -1.3265404e-07  1.440808e-07   19.31541     
     25660   20.99008       50000          50000          50000          1.3671218e-07  4.1444789e-07 -1.2713731e-07  1.2282597e-07  20.99008     
     25680   22.667192      50000          50000          50000          1.5406557e-07  4.7579784e-07 -1.1244381e-07  9.8842688e-08  22.667192    
     25700   24.041211      50000          50000          50000          1.6921942e-07  5.2325479e-07 -8.9474018e-08  7.3877476e-08  24.041211    
     25720   25.00414       50000          50000          50000          1.8208476e-07  5.5651055e-07 -5.9778071e-08  4.9521819e-08  25.00414     
     25740   25.639074      50000          50000          50000          1.9259131e-07  5.7590008e-07 -2.5365495e-08  2.723934e-08   25.639074    
     25760   26.1504        50000          50000          50000          2.0075414e-07  5.8250931e-07  1.1431285e-08  8.3218211e-09  26.1504      
     25780   26.761976      50000          50000          50000          2.0668782e-07  5.782159e-07   4.8033352e-08 -6.1857798e-09  26.761976    
     25800   27.6178        50000          50000          50000          2.1060184e-07  5.656939e-07   8.1664236e-08 -1.5552609e-08  27.6178      
     25820   28.714946      50000          50000          50000          2.1289982e-07  5.4848224e-07  1.0957892e-07 -1.9361688e-08  28.714946    
     25840   29.899306      50000          50000          50000          2.14333e-07    5.3090407e-07  1.2956675e-07 -1.7471835e-08  29.899306    
     25860   30.936061      50000          50000          50000          2.1594368e-07  5.1748351e-07  1.4039664e-07 -1.0049104e-08  30.936061    
     25880   31.61701       50000          50000          50000          2.1881319e-07  5.1208901e-07  1.4197483e-07  2.3757242e-09  31.61701     
     25900   31.8428        50000          50000          50000          2.2382906e-07  5.1726203e-07  1.3531008e-07  1.8915074e-08  31.8428      
     25920   31.641181      50000          50000          50000          2.3155288e-07  5.3389322e-07  1.2237053e-07  3.83949e-08    31.641181    
     25940   31.122099      50000          50000          50000          2.4217019e-07  5.6121521e-07  1.0583911e-07  5.9456241e-08  31.122099    
     25960   30.402071      50000          50000          50000          2.5548901e-07  5.9702338e-07  8.8773397e-08  8.0670248e-08  30.402071    
     25980   29.542438      50000          50000          50000          2.7095654e-07  6.3801307e-07  7.4202561e-08  1.0065398e-07  29.542438    
     26000   28.534487      50000          50000          50000          2.8767445e-07  6.8013227e-07  6.4717893e-08  1.1817318e-07  28.534487    
     26020   27.335785      50000          50000          50000          3.0441495e-07  7.1889988e-07  6.2123876e-08  1.3222109e-07  27.335785    
     26040   25.931799      50000          50000          50000          3.1966253e-07  7.4970628e-07  6.7210115e-08  1.4207119e-07  25.931799    
     26060   24.383462      50000          50000          50000          3.3171789e-07  7.6815578e-07  7.9685855e-08  1.4731202e-07  24.383462    
     26080   22.823882      50000          50000          50000          3.3887121e-07  7.7045563e-07  9.8289651e-08  1.4786835e-07  22.823882    
     26100   21.418371      50000          50000          50000          3.396111e-07   7.5381285e-07  1.2103313e-07  1.4398734e-07  21.418371    
     26120   20.296786      50000          50000          50000          3.3273664e-07  7.1659761e-07  1.4547121e-07  1.3614111e-07  20.296786    
     26140   19.504898      50000          50000          50000          3.1733789e-07  6.582392e-07   1.6890824e-07  1.2486624e-07  19.504898    
     26160   19.004115      50000          50000          50000          2.9275841e-07  5.790488e-07   1.8857013e-07  1.106563e-07   19.004115    
     26180   18.697577      50000          50000          50000          2.5860791e-07  4.8004783e-07  2.0181268e-07  9.3963219e-08  18.697577    
     26200   18.483978      50000          50000          50000          2.1480759e-07  3.6281098e-07  2.0636193e-07  7.5249871e-08  18.483978    
     26220   18.312079      50000          50000          50000          1.6160695e-07  2.2925098e-07  2.0054228e-07  5.5027593e-08  18.312079    
     26240   18.213792      50000          50000          50000          9.9571101e-08  8.1389107e-08  1.8346078e-07  3.3863417e-08  18.213792    
     26260   18.300038      50000          50000          50000          2.9560651e-08 -7.8812559e-08  1.5512985e-07  1.2364665e-08  18.300038    
     26280   18.7196        50000          50000          50000         -4.728497e-08  -2.4951502e-07  1.1651246e-07 -8.8523584e-09  18.7196      
     26300   19.597991      50000          50000          50000         -1.2956735e-07 -4.2897148e-07  6.9475806e-08 -2.9206367e-08  19.597991    
     26320   20.982408      50000          50000          50000         -2.1566754e-07 -6.1544556e-07  1.6647099e-08 -4.8204153e-08  20.982408    
     26340   22.815641      50000          50000          50000         -3.0381424e-07 -8.0712746e-07 -3.8819236e-08 -6.5496013e-08  22.815641    
     26360   24.948042      50000          50000          50000         -3.9217845e-07 -1.0020745e-06 -9.3536557e-08 -8.0924307e-08  24.948042    
     26380   27.179267      50000          50000          50000         -4.7897547e-07 -1.198166e-06  -1.4420448e-07 -9.4555885e-08  27.179267    
     26400   29.3093        50000          50000          50000         -5.6254542e-07 -1.3930343e-06 -1.8791179e-07 -1.0669019e-07  29.3093      
     26420   31.177034      50000          50000          50000         -6.413892e-07  -1.5839402e-06 -2.2239489e-07 -1.1783249e-07  31.177034    
     26440   32.674417      50000          50000          50000         -7.1416036e-07 -1.7676282e-06 -2.4623496e-07 -1.2861788e-07  32.674417    
     26460   33.739103      50000          50000          50000         -7.7964842e-07 -1.9402812e-06 -2.5898068e-07 -1.3968339e-07  33.739103    
     26480   34.339216      50000          50000          50000         -8.3680045e-07 -2.0977017e-06 -2.6117861e-07 -1.5152101e-07  34.339216    
     26500   34.472541      50000          50000          50000         -8.8478287e-07 -2.235685e-06  -2.5429755e-07 -1.6436604e-07  34.472541    
     26520   34.171324      50000          50000          50000         -9.2305444e-07 -2.3504603e-06 -2.4055238e-07 -1.7815065e-07  34.171324    
     26540   33.517663      50000          50000          50000         -9.5137731e-07 -2.4389942e-06 -2.2264431e-07 -1.9249339e-07  33.517663    
     26560   32.65109       50000          50000          50000         -9.6975703e-07 -2.4991285e-06 -2.0344259e-07 -2.0669997e-07  32.65109     
     26580   31.739399      50000          50000          50000         -9.7836036e-07 -2.5296435e-06 -1.85652e-07   -2.1978559e-07  31.739399    
     26600   30.92815       50000          50000          50000         -9.7742183e-07 -2.5302215e-06 -1.715074e-07  -2.305366e-07   30.92815     
     26620   30.282044      50000          50000          50000         -9.6716333e-07 -2.5013442e-06 -1.6253184e-07 -2.3761401e-07  30.282044    
     26640   29.748417      50000          50000          50000         -9.4774567e-07 -2.4441574e-06 -1.5938854e-07 -2.3969107e-07  29.748417    
     26660   29.174287      50000          50000          50000         -9.1926136e-07 -2.3603291e-06 -1.6184416e-07 -2.3561078e-07  29.174287    
     26680   28.36551       50000          50000          50000         -8.8178748e-07 -2.2519753e-06 -1.6884272e-07 -2.2454446e-07  28.36551     
     26700   27.185927      50000          50000          50000         -8.3545765e-07 -2.1215778e-06 -1.7866535e-07 -2.0612978e-07  27.185927    
     26720   25.639348      50000          50000          50000         -7.8053812e-07 -1.9719045e-06 -1.8914218e-07 -1.8056768e-07  25.639348    
     26740   23.899219      50000          50000          50000         -7.1746799e-07 -1.8058612e-06 -1.9788149e-07 -1.4866125e-07  23.899219    
     26760   22.26274       50000          50000          50000         -6.4684592e-07 -1.6262596e-06 -2.0249273e-07 -1.1178542e-07  22.26274     
     26780   21.046999      50000          50000          50000         -5.6935981e-07 -1.4355049e-06 -2.0079149e-07 -7.1783013e-08  21.046999    
     26800   20.453651      50000          50000          50000         -4.8570525e-07 -1.2353366e-06 -1.9098151e-07 -3.0797651e-08  20.453651    
     26820   20.479075      50000          50000          50000         -3.9651396e-07 -1.0266688e-06 -1.7180971e-07  8.9366594e-09  20.479075    
     26840   20.899102      50000          50000          50000         -3.0234769e-07 -8.096693e-07  -1.4268826e-07  4.5314504e-08  20.899102    
     26860   21.346048      50000          50000          50000         -2.0376188e-07 -5.8406751e-07 -1.03775e-07    7.6556864e-08  21.346048    
     26880   21.449733      50000          50000          50000         -1.0141458e-07 -3.4961303e-07 -5.600061e-08   1.0136989e-07  21.449733    
     26900   20.988081      50000          50000          50000          3.8373736e-09 -1.0652755e-07 -1.0227528e-09  1.1906242e-07  20.988081    
     26920   19.987818      50000          50000          50000          1.1093364e-07  1.4424758e-07  5.8925102e-08  1.2962824e-07  19.987818    
     26940   18.734856      50000          50000          50000          2.1873973e-07  4.0115372e-07  1.2129398e-07  1.337715e-07   18.734856    
     26960   17.692199      50000          50000          50000          3.2611643e-07  6.6219757e-07  1.833991e-07   1.3275263e-07  17.692199    
     26980   17.355454      50000          50000          50000          4.3151921e-07  9.2436493e-07  2.4220266e-07  1.2799004e-07  17.355454    
     27000   18.069748      50000          50000          50000          5.3248098e-07  1.1824718e-06  2.9411759e-07  1.2085353e-07  18.069748    
     27020   19.851006      50000          50000          50000          6.2601077e-07  1.4294106e-06  3.3567476e-07  1.1294693e-07  19.851006    
     27040   22.332557      50000          50000          50000          7.0947315e-07  1.6577864e-06  3.6443922e-07  1.0619384e-07  22.332557    
     27060   24.90897       50000          50000          50000          7.8090609e-07  1.8609969e-06  3.7927994e-07  1.0244139e-07  24.90897     
     27080   26.997066      50000          50000          50000          8.3887885e-07  2.0333839e-06  3.8021091e-07  1.030417e-07   26.997066    
     27100   28.271703      50000          50000          50000          8.8229555e-07  2.1701277e-06  3.6814287e-07  1.0861605e-07  28.271703    
     27120   28.766225      50000          50000          50000          9.1030988e-07  2.2673146e-06  3.4464375e-07  1.1897133e-07  28.766225    
     27140   28.809035      50000          50000          50000          9.223849e-07   2.3222827e-06  3.1173691e-07  1.3313508e-07  28.809035    
     27160   28.826173      50000          50000          50000          9.1843045e-07  2.3340581e-06  2.7174343e-07  1.4948982e-07  28.826173    
     27180   29.13094       50000          50000          50000          8.9894156e-07  2.3036897e-06  2.2715382e-07  1.6598117e-07  29.13094     
     27200   29.781965      50000          50000          50000          8.650173e-07   2.2341809e-06  1.8050833e-07  1.8036269e-07  29.781965    
     27220   30.588935      50000          50000          50000          8.1825424e-07  2.1300408e-06  1.3427984e-07  1.9044203e-07  30.588935    
     27240   31.22444       50000          50000          50000          7.6053405e-07  1.9965309e-06  9.0765168e-08  1.9430607e-07  31.22444     
     27260   31.405087      50000          50000          50000          6.9382229e-07  1.838959e-06   5.1988571e-08  1.9051931e-07  31.405087    
     27280   31.030589      50000          50000          50000          6.2000778e-07  1.6621277e-06  1.9609318e-08  1.7828638e-07  31.030589    
     27300   30.233485      50000          50000          50000          5.4082311e-07  1.4700687e-06 -5.1686223e-09  1.5756927e-07  30.233485    
     27320   29.313979      50000          50000          50000          4.578284e-07   1.2660156e-06 -2.1672287e-08  1.2914185e-07  29.313979    
     27340   28.593847      50000          50000          50000          3.7241703e-07  1.0525038e-06 -2.9807799e-08  9.4555094e-08  28.593847    
     27360   28.259715      50000          50000          50000          2.8578711e-07  8.3150489e-07 -3.0117354e-08  5.597379e-08   28.259715    
     27380   28.265455      50000          50000          50000          1.9892152e-07  6.0478713e-07 -2.3928798e-08  1.5906216e-08  28.265455    
     27400   28.33115       50000          50000          50000          1.1281295e-07  3.7480697e-07 -1.3435418e-08 -2.2932718e-08  28.33115     
     27420   28.057981      50000          50000          50000          2.8821157e-08  1.4532825e-07 -1.3200321e-09 -5.7544748e-08  28.057981    
     27440   27.146127      50000          50000          50000         -5.1508838e-08 -7.9432123e-08  9.7974255e-09 -8.4891818e-08  27.146127    
     27460   25.606362      50000          50000          50000         -1.2702513e-07 -2.961949e-07   1.7640408e-08 -1.0252092e-07  25.606362    
     27480   23.820177      50000          50000          50000         -1.9724918e-07 -5.0313429e-07  2.0428463e-08 -1.0904171e-07  23.820177    
     27500   22.392152      50000          50000          50000         -2.6224495e-07 -6.9949851e-07  1.7036222e-08 -1.0427257e-07  22.392152    
     27520   21.866985      50000          50000          50000         -3.2234216e-07 -8.8493081e-07  7.0675938e-09 -8.9163256e-08  21.866985    
     27540   22.463541      50000          50000          50000         -3.7794741e-07 -1.0589396e-06 -9.2570565e-09 -6.5645608e-08  22.463541    
     27560   23.954517      50000          50000          50000         -4.294297e-07  -1.2205452e-06 -3.1285988e-08 -3.6457934e-08  23.954517    
     27580   25.731947      50000          50000          50000         -4.7698222e-07 -1.3680828e-06 -5.7992368e-08 -4.8714393e-09  25.731947    
     27600   27.03134       50000          50000          50000         -5.205742e-07  -1.4994209e-06 -8.7956559e-08  2.5654836e-08  27.03134     
     27620   27.23577       50000          50000          50000         -5.6007103e-07 -1.612595e-06  -1.1941154e-07  5.1793417e-08  27.23577     
     27640   26.140598      50000          50000          50000         -5.9540074e-07 -1.7064668e-06 -1.5035093e-07  7.0615475e-08  26.140598    
     27660   24.059011      50000          50000          50000         -6.2663901e-07 -1.7810782e-06 -1.7865838e-07  7.9819566e-08  24.059011    
     27680   21.728784      50000          50000          50000         -6.5394394e-07 -1.8375234e-06 -2.0223907e-07  7.79306e-08    21.728784    
     27700   20.027638      50000          50000          50000         -6.7738553e-07 -1.8774509e-06 -2.1916462e-07  6.4458928e-08  20.027638    
     27720   19.620394      50000          50000          50000         -6.9673386e-07 -1.9023586e-06 -2.2783076e-07  3.9987794e-08  19.620394    
     27740   20.682244      50000          50000          50000         -7.1132644e-07 -1.9130032e-06 -2.2712325e-07  6.14709e-09    20.682244    
     27760   22.82566       50000          50000          50000         -7.2010576e-07 -1.9091969e-06 -2.1657022e-07 -3.4550163e-08  22.82566     
     27780   25.266222      50000          50000          50000         -7.2183779e-07 -1.890076e-06  -1.9644936e-07 -7.8988056e-08  25.266222    
     27800   27.151281      50000          50000          50000         -7.1542793e-07 -1.8546794e-06 -1.6782182e-07 -1.237826e-07   27.151281    
     27820   27.907435      50000          50000          50000         -7.0021027e-07 -1.8025471e-06 -1.3248166e-07 -1.65602e-07    27.907435    
     27840   27.467233      50000          50000          50000         -6.7611734e-07 -1.7340861e-06 -9.283301e-08  -2.0143294e-07  27.467233    
     27860   26.293945      50000          50000          50000         -6.4370786e-07 -1.650603e-06  -5.173029e-08  -2.2879025e-07  26.293945    
     27880   25.201841      50000          50000          50000         -6.0409188e-07 -1.5540681e-06 -1.232167e-08  -2.4588583e-07  25.201841    
     27900   25.029382      50000          50000          50000         -5.5879081e-07 -1.4467408e-06  2.2129259e-08 -2.5176087e-07  25.029382    
     27920   26.275676      50000          50000          50000         -5.094779e-07  -1.33066e-06    4.8572599e-08 -2.4634631e-07  26.275676    
     27940   28.841513      50000          50000          50000         -4.5761563e-07 -1.2071038e-06  6.4673732e-08 -2.3041683e-07  28.841513    
     27960   32.026281      50000          50000          50000         -4.0420764e-07 -1.0764089e-06  6.9244481e-08 -2.0545851e-07  32.026281    
     27980   34.795624      50000          50000          50000         -3.4985736e-07 -9.384778e-07   6.2389578e-08 -1.7348386e-07  34.795624    
     28000   36.213052      50000          50000          50000         -2.9502417e-07 -7.9366458e-07  4.540946e-08  -1.368174e-07   36.213052    
     28020   35.818976      50000          50000          50000         -2.4029839e-07 -6.4359144e-07  2.057856e-08  -9.7882278e-08  35.818976    
     28040   33.80089       50000          50000          50000         -1.8653919e-07 -4.9149102e-07 -9.1154277e-09 -5.9011121e-08  33.80089     
     28060   30.891378      50000          50000          50000         -1.3481472e-07 -3.4191304e-07 -4.0244031e-08 -2.2287081e-08  30.891378    
     28080   28.044704      50000          50000          50000         -8.6168729e-08 -1.9986519e-07 -6.9226783e-08  1.0585781e-08  28.044704    
     28100   26.034488      50000          50000          50000         -4.1310842e-08 -6.9675561e-08 -9.2640183e-08  3.8383218e-08  26.034488    
     28120   25.151231      50000          50000          50000         -3.5373666e-10  4.6017168e-08 -1.0752047e-07  6.0442094e-08  25.151231    
     28140   25.143314      50000          50000          50000          3.73139e-08    1.4681601e-07 -1.1160575e-07  7.6731441e-08  25.143314    
     28160   25.406545      50000          50000          50000          7.2889786e-08  2.343553e-07  -1.0351225e-07  8.7826315e-08  25.406545    
     28180   25.320548      50000          50000          50000          1.0768238e-07  3.1132691e-07 -8.2908647e-08  9.4628867e-08  25.320548    
     28200   24.538804      50000          50000          50000          1.4253298e-07  3.8025904e-07 -5.0638016e-08  9.7977918e-08  24.538804    
     28220   23.112162      50000          50000          50000          1.7754794e-07  4.4281123e-07 -8.6718097e-09  9.8504392e-08  23.112162    
     28240   21.447715      50000          50000          50000          2.1222569e-07  4.9983584e-07  4.0102452e-08  9.6738766e-08  21.447715    
     28260   20.117732      50000          50000          50000          2.4571697e-07  5.517981e-07   9.2160144e-08  9.3192674e-08  20.117732    
     28280   19.605786      50000          50000          50000          2.7706417e-07  5.992154e-07   1.4364273e-07  8.8334385e-08  19.605786    
     28300   20.099731      50000          50000          50000          3.0540033e-07  6.4293661e-07  1.907078e-07   8.2556572e-08  20.099731    
     28320   21.419112      50000          50000          50000          3.3006664e-07  6.8413544e-07  2.298925e-07   7.6171996e-08  21.419112    
     28340   23.101705      50000          50000          50000          3.5061314e-07  7.2398572e-07  2.584239e-07   6.9429796e-08  23.101705    
     28360   24.602058      50000          50000          50000          3.6670426e-07  7.6313911e-07  2.7442641e-07  6.2547277e-08  24.602058    
     28380   25.509636      50000          50000          50000          3.7799625e-07  8.0122216e-07  2.7701224e-07  5.5754354e-08  25.509636    
     28400   25.694804      50000          50000          50000          3.8405721e-07  8.3655649e-07  2.6627173e-07  4.9343412e-08  25.694804    
     28420   25.329876      50000          50000          50000          3.84374e-07    8.6621538e-07  2.4319427e-07  4.3712362e-08  25.329876    
     28440   24.78678       50000          50000          50000          3.7845264e-07  8.8642276e-07  2.0954756e-07  3.9387613e-08  24.78678     
     28460   24.460752      50000          50000          50000          3.6598282e-07  8.9320601e-07  1.6772757e-07  3.7014889e-08  24.460752    
     28480   24.597097      50000          50000          50000          3.4700376e-07  8.8313024e-07  1.2057518e-07  3.7305875e-08  24.597097    
     28500   25.195788      50000          50000          50000          3.2199273e-07  8.538912e-07   7.1154012e-08  4.0932975e-08  25.195788    
     28520   26.032907      50000          50000          50000          2.9182554e-07  8.0459103e-07  2.2504469e-08  4.8381118e-08  26.032907    
     28540   26.780462      50000          50000          50000          2.5762148e-07  7.3566913e-07 -2.2591031e-08  5.9786341e-08  26.780462    
     28560   27.166332      50000          50000          50000          2.2054792e-07  6.4864212e-07 -6.1798213e-08  7.4799863e-08  27.166332    
     28580   27.082782      50000          50000          50000          1.8164854e-07  5.4579976e-07 -9.336337e-08   9.250923e-08   27.082782    
     28600   26.615382      50000          50000          50000          1.4177368e-07  4.300691e-07  -1.1619021e-07  1.1144214e-07  26.615382    
     28620   25.975484      50000          50000          50000          1.0161267e-07  3.0501614e-07 -1.298584e-07   1.2968027e-07  25.975484    
     28640   25.385424      50000          50000          50000          6.1804516e-08  1.7488053e-07 -1.3457846e-07  1.4511148e-07  25.385424    
     28660   24.981844      50000          50000          50000          2.301678e-08   4.4364618e-08 -1.3108136e-07  1.5576709e-07  24.981844    
     28680   24.783597      50000          50000          50000         -1.4164617e-08 -8.2018968e-08 -1.2050719e-07  1.600323e-07   24.783597    
     28700   24.742577      50000          50000          50000         -4.9451455e-08 -2.0064643e-07 -1.043275e-07   1.5661956e-07  24.742577    
     28720   24.809344      50000          50000          50000         -8.2917584e-08 -3.0905471e-07 -8.4235555e-08  1.4453751e-07  24.809344    
     28740   24.979361      50000          50000          50000         -1.148616e-07  -4.0581926e-07 -6.198577e-08   1.2322024e-07  24.979361    
     28760   25.29361       50000          50000          50000         -1.456525e-07  -4.9041523e-07 -3.9244643e-08  9.270236e-08   25.29361     
     28780   25.800547      50000          50000          50000         -1.7562734e-07 -5.6312697e-07 -1.7484996e-08  5.3729942e-08  25.800547    
     28800   26.501849      50000          50000          50000         -2.0502519e-07 -6.2493525e-07  2.0699607e-09  7.7897304e-09  26.501849    
     28820   27.309971      50000          50000          50000         -2.3395075e-07 -6.7736989e-07  1.8446769e-08 -4.2929136e-08  27.309971    
     28840   28.045444      50000          50000          50000         -2.6235985e-07 -7.2233843e-07  3.0878364e-08 -9.5619483e-08  28.045444    
     28860   28.479402      50000          50000          50000         -2.9005039e-07 -7.6194859e-07  3.8771373e-08 -1.4697394e-07  28.479402    
     28880   28.415814      50000          50000          50000         -3.1664688e-07 -7.9830217e-07  4.1735979e-08 -1.9337444e-07  28.415814    
     28900   27.780192      50000          50000          50000         -3.4163065e-07 -8.3329671e-07  3.9631864e-08 -2.3122711e-07  27.780192    
     28920   26.67613       50000          50000          50000         -3.6443676e-07 -8.6844184e-07  3.2545532e-08 -2.5741397e-07  26.67613     
     28940   25.360889      50000          50000          50000         -3.8455476e-07 -9.0469091e-07  2.073071e-08  -2.6970407e-07  25.360889    
     28960   24.161962      50000          50000          50000         -4.0153136e-07 -9.4218618e-07  4.6047068e-09 -2.6701261e-07  24.161962    
     28980   23.354501      50000          50000          50000         -4.1491344e-07 -9.8004463e-07 -1.5187003e-08 -2.4950868e-07  23.354501    
     29000   23.058892      50000          50000          50000         -4.2419195e-07 -1.0162956e-06 -3.7685228e-08 -2.1859499e-07  23.058892    
     29020   23.203417      50000          50000          50000         -4.287967e-07  -1.0480589e-06 -6.1562497e-08 -1.7676867e-07  23.203417    
     29040   23.567823      50000          50000          50000         -4.2815501e-07 -1.0719519e-06 -8.5135505e-08 -1.2737761e-07  23.567823    
     29060   23.885023      50000          50000          50000         -4.2179336e-07 -1.0846181e-06 -1.0645851e-07 -7.43035e-08    23.885023    
     29080   23.953513      50000          50000          50000         -4.0943926e-07 -1.0832173e-06 -1.2348739e-07 -2.1613038e-08  23.953513    
     29100   23.70674       50000          50000          50000         -3.9108851e-07 -1.065764e-06  -1.3428625e-07  2.6784729e-08  23.70674     
     29120   23.224108      50000          50000          50000         -3.6700629e-07 -1.0312252e-06 -1.3724311e-07  6.7449485e-08  23.224108    
     29140   22.669145      50000          50000          50000         -3.3769053e-07 -9.7947945e-07 -1.312664e-07   9.7674258e-08  22.669145    
     29160   22.21185       50000          50000          50000         -3.0379413e-07 -9.1113302e-07 -1.1594002e-07  1.1569066e-07  22.21185     
     29180   21.954997      50000          50000          50000         -2.660575e-07  -8.2735311e-07 -9.1618557e-08  1.2079918e-07  21.954997    
     29200   21.904576      50000          50000          50000         -2.2526171e-07 -7.2974712e-07 -5.9447819e-08  1.1340982e-07  21.904576    
     29220   21.990147      50000          50000          50000         -1.8220772e-07 -6.2030761e-07 -2.1301667e-08  9.4986116e-08  21.990147    
     29240   22.119781      50000          50000          50000         -1.3770578e-07 -5.0137907e-07  2.0365045e-08  6.7896674e-08  22.119781    
     29260   22.239968      50000          50000          50000         -9.2555448e-08 -3.7558333e-07  6.2730181e-08  3.5186802e-08  22.239968    
     29280   22.371427      50000          50000          50000         -4.7530507e-08 -2.4570355e-07  1.0282447e-07  2.8756465e-10  22.371427    
     29300   22.612717      50000          50000          50000         -3.4278662e-09 -1.1463673e-07  1.3765671e-07 -3.3303584e-08  22.612717    
     29320   23.096038      50000          50000          50000          3.8777931e-08  1.4406628e-08  1.6423333e-07 -6.2306167e-08  23.096038    
     29340   23.933893      50000          50000          50000          7.7877067e-08  1.3777026e-07  1.797113e-07  -8.3850355e-08  23.933893    
     29360   25.151842      50000          50000          50000          1.1263495e-07  2.5163555e-07  1.8189159e-07 -9.5622283e-08  25.151842    
     29380   26.67532       50000          50000          50000          1.4212322e-07  3.5265756e-07  1.6978408e-07 -9.607199e-08   26.67532     
     29400   28.365456      50000          50000          50000          1.658364e-07   4.3830482e-07  1.4386114e-07 -8.4656746e-08  28.365456    
     29420   30.095455      50000          50000          50000          1.8363763e-07  5.068595e-07   1.0602495e-07 -6.1971571e-08  30.095455    
     29440   31.794143      50000          50000          50000          1.9566214e-07  5.5726401e-07  5.9430385e-08 -2.9707962e-08  31.794143    
     29460   33.439648      50000          50000          50000          2.0226216e-07  5.8905409e-07  8.2043204e-09  9.5280868e-09  33.439648    
     29480   35.001773      50000          50000          50000          2.0397905e-07  6.0238225e-07 -4.2938471e-08  5.2493368e-08  35.001773    
     29500   36.378997      50000          50000          50000          2.0151803e-07  5.9807942e-07 -8.9161997e-08  9.5636679e-08  36.378997    
     29520   37.362596      50000          50000          50000          1.9567604e-07  5.7760094e-07 -1.2600795e-07  1.3543513e-07  37.362596    
     29540   37.676696      50000          50000          50000          1.8723364e-07  5.4286566e-07 -1.4986148e-07  1.6869675e-07  37.676696    
     29560   37.078142      50000          50000          50000          1.7681952e-07  4.9598132e-07 -1.5832656e-07  1.9280378e-07  37.078142    
     29580   35.466587      50000          50000          50000          1.6477576e-07  4.3891717e-07 -1.5047767e-07  2.0588779e-07  35.466587    
     29600   32.969269      50000          50000          50000          1.5108803e-07  3.7329859e-07 -1.2697474e-07  2.0694023e-07  32.969269    
     29620   29.939469      50000          50000          50000          1.353956e-07   3.0036209e-07 -9.0037929e-08  1.9586265e-07  29.939469    
     29640   26.859836      50000          50000          50000          1.1710193e-07  2.2111928e-07 -4.3276002e-08  1.734625e-07   26.859836    
     29660   24.184125      50000          50000          50000          9.5584362e-08  1.3669743e-07  8.6516972e-09  1.4140396e-07  24.184125    
     29680   22.167734      50000          50000          50000          7.0440602e-08  4.8652322e-08  6.0563244e-08  1.0210624e-07  22.167734    
     29700   20.787884      50000          50000          50000          4.168233e-08  -4.0926148e-08  1.0743031e-07  5.854283e-08   20.787884    
     29720   19.788724      50000          50000          50000          9.7210619e-09 -1.2973948e-07  1.450099e-07   1.3892762e-08  19.788724    
     29740   18.837312      50000          50000          50000         -2.4852555e-08 -2.1587043e-07  1.7019672e-07 -2.8883957e-08  18.837312    
     29760   17.705116      50000          50000          50000         -6.1497422e-08 -2.982357e-07   1.8109101e-07 -6.7347574e-08  17.705116    
     29780   16.394121      50000          50000          50000         -9.9775907e-08 -3.7665698e-07  1.7699e-07    -9.9660733e-08  16.394121    
     29800   15.144771      50000          50000          50000         -1.3927775e-07 -4.5168598e-07  1.5840808e-07 -1.2455536e-07  15.144771    
     29820   14.343821      50000          50000          50000         -1.794869e-07  -5.2424429e-07  1.2707676e-07 -1.4129318e-07  14.343821    
     29840   14.361729      50000          50000          50000         -2.1965474e-07 -5.9518218e-07  8.5855374e-08 -1.4963742e-07  14.361729    
     29860   15.378985      50000          50000          50000         -2.5872751e-07 -6.6488937e-07  3.8524101e-08 -1.4981726e-07  15.378985    
     29880   17.294249      50000          50000          50000         -2.9534461e-07 -7.330262e-07  -1.0536919e-08 -1.424707e-07   17.294249    
     29900   19.743657      50000          50000          50000         -3.2794543e-07 -7.9851527e-07 -5.6751301e-08 -1.2856972e-07  19.743657    
     29920   22.231865      50000          50000          50000         -3.5496631e-07 -8.5976433e-07 -9.5784911e-08 -1.0934968e-07  22.231865    
     29940   24.319584      50000          50000          50000         -3.7509212e-07 -9.1501361e-07 -1.2397766e-07 -8.628508e-08   24.319584    
     29960   25.790554      50000          50000          50000         -3.8749547e-07 -9.6263853e-07 -1.3873798e-07 -6.1109908e-08  25.790554    
     29980   26.728816      50000          50000          50000         -3.9193666e-07 -1.0012477e-06 -1.3883617e-07 -3.5726127e-08  26.728816    
     30000   27.46332       50000          50000          50000         -3.886633e-07  -1.0295663e-06 -1.2453706e-07 -1.1886556e-08  27.46332     
     30020   28.390171      50000          50000          50000         -3.7826603e-07 -1.0462895e-06 -9.7601416e-08  9.0927784e-09  28.390171    
     30040   29.756779      50000          50000          50000         -3.6159463e-07 -1.0500136e-06 -6.1141209e-08  2.6370915e-08  29.756779    
     30060   31.517386      50000          50000          50000         -3.396693e-07  -1.0392375e-06 -1.9269047e-08  3.9498641e-08  31.517386    
     30080   33.328507      50000          50000          50000         -3.1359498e-07 -1.0125143e-06  2.3396749e-08  4.8332623e-08  33.328507    
     30100   34.687155      50000          50000          50000         -2.8454229e-07 -9.6881778e-07  6.2246868e-08  5.294403e-08   34.687155    
     30120   35.151823      50000          50000          50000         -2.5378984e-07 -9.0802541e-07  9.3134633e-08  5.3521247e-08  35.151823    
     30140   34.550333      50000          50000          50000         -2.2276459e-07 -8.3132321e-07  1.1273819e-07  5.0291245e-08  34.550333    
     30160   33.075694      50000          50000          50000         -1.9301804e-07 -7.4136772e-07  1.1882877e-07  4.3484819e-08  33.075694    
     30180   31.23498       50000          50000          50000         -1.6607762e-07 -6.4204858e-07  1.1045741e-07  3.3358302e-08  31.23498     
     30200   29.64426       50000          50000          50000         -1.4320129e-07 -5.379148e-07   8.8046318e-08  2.0264603e-08  29.64426     
     30220   28.764913      50000          50000          50000         -1.2508635e-07 -4.3336686e-07  5.3363484e-08  4.7443234e-09  28.764913    
     30240   28.693943      50000          50000          50000         -1.1165355e-07 -3.3190793e-07  9.3535051e-09 -1.2406217e-08  28.693943    
     30260   29.113252      50000          50000          50000         -1.0200924e-07 -2.3573196e-07 -4.0169514e-08 -3.0126263e-08  29.113252    
     30280   29.430402      50000          50000          50000         -9.4616685e-08 -1.4577368e-07 -9.0924161e-08 -4.7152217e-08  29.430402    
     30300   29.049341      50000          50000          50000         -8.7616044e-08 -6.2116638e-08 -1.3859794e-07 -6.2133552e-08  29.049341    
     30320   27.643876      50000          50000          50000         -7.9178096e-08  1.550138e-08  -1.7926191e-07 -7.3773756e-08  27.643876    
     30340   25.305978      50000          50000          50000         -6.7782235e-08  8.7339026e-08 -2.0971865e-07 -8.096708e-08   25.305978    
     30360   22.506927      50000          50000          50000         -5.2357956e-08  1.5356961e-07 -2.2774009e-07 -8.2903391e-08  22.506927    
     30380   19.90141       50000          50000          50000         -3.2287703e-08  2.1442129e-07 -2.3216595e-07 -7.9118452e-08  19.90141     
     30400   18.068265      50000          50000          50000         -7.3190927e-09  2.7041018e-07 -2.228788e-07  -6.948866e-08   18.068265    
     30420   17.293936      50000          50000          50000          2.2536238e-08  3.2250831e-07 -2.0070527e-07 -5.4194319e-08  17.293936    
     30440   17.486738      50000          50000          50000          5.7055102e-08  3.7212366e-07 -1.6727841e-07 -3.3679943e-08  17.486738    
     30460   18.237238      50000          50000          50000          9.5759231e-08  4.2078385e-07 -1.2487737e-07 -8.6287831e-09  18.237238    
     30480   19.013885      50000          50000          50000          1.3781692e-07  4.6964843e-07 -7.6241421e-08  2.0043741e-08  19.013885    
     30500   19.396802      50000          50000          50000          1.8192709e-07  5.189707e-07  -2.4371458e-08  5.1182042e-08  19.396802    
     30520   19.25828       50000          50000          50000          2.2625974e-07  5.6772585e-07  2.7672811e-08  8.3380555e-08  19.25828     
     30540   18.813766      50000          50000          50000          2.6851051e-07  6.1356161e-07  7.6976054e-08  1.1499388e-07  18.813766    
     30560   18.519408      50000          50000          50000          3.061043e-07   6.5314427e-07  1.2097407e-07  1.4419457e-07  18.519408    
     30580   18.855719      50000          50000          50000          3.3653253e-07  6.8284482e-07  1.5765622e-07  1.6909655e-07  18.855719    
     30600   20.091487      50000          50000          50000          3.577336e-07   6.9954964e-07  1.8572203e-07  1.8792913e-07  20.091487    
     30620   22.139341      50000          50000          50000          3.6837563e-07  7.0128041e-07  2.0463196e-07  1.9921454e-07  22.139341    
     30640   24.574472      50000          50000          50000          3.6794077e-07  6.8739045e-07  2.1452763e-07  2.0190422e-07  24.574472    
     30660   26.8078        50000          50000          50000          3.5661901e-07  6.5833572e-07  2.1606018e-07  1.9546112e-07  26.8078      
     30680   28.332109      50000          50000          50000          3.3510278e-07  6.1521327e-07  2.1019592e-07  1.7989914e-07  28.332109    
     30700   28.930907      50000          50000          50000          3.0438722e-07  5.5931291e-07  1.9805581e-07  1.5579294e-07  28.930907    
     30720   28.760676      50000          50000          50000          2.6565072e-07  4.9186873e-07  1.8081764e-07  1.2426578e-07  28.760676    
     30740   28.272466      50000          50000          50000          2.2024109e-07  4.1408161e-07  1.5968519e-07  8.6956473e-08  28.272466    
     30760   28.006301      50000          50000          50000          1.697375e-07   3.273515e-07   1.3590583e-07  4.5955182e-08  28.006301    
     30780   28.347796      50000          50000          50000          1.1601308e-07  2.3354795e-07  1.108011e-07   3.6902033e-09  28.347796    
     30800   29.356716      50000          50000          50000          6.121215e-08   1.3511024e-07  8.5771133e-08 -3.7244917e-08  29.356716    
     30820   30.74667       50000          50000          50000          7.5934424e-09  3.4842589e-08  6.2249135e-08 -7.4311397e-08  30.74667     
     30840   32.023557      50000          50000          50000         -4.2740792e-08 -6.4570147e-08  4.160642e-08  -1.0525865e-07  32.023557    
     30860   32.714478      50000          50000          50000         -8.815041e-08  -1.6114779e-07  2.5029165e-08 -1.2833261e-07  32.714478    
     30880   32.578844      50000          50000          50000         -1.2770032e-07 -2.5406457e-07  1.3395081e-08 -1.4243149e-07  32.578844    
     30900   31.706318      50000          50000          50000         -1.6126808e-07 -3.437823e-07   7.1747247e-09 -1.4719667e-07  31.706318    
     30920   30.460819      50000          50000          50000         -1.8949111e-07 -4.3181142e-07  6.3741326e-09 -1.4303605e-07  30.460819    
     30940   29.300132      50000          50000          50000         -2.1358017e-07 -5.2018356e-07  1.0524702e-08 -1.3108166e-07  29.300132    
     30960   28.557545      50000          50000          50000         -2.3506765e-07 -6.1082381e-07  1.8710721e-08 -1.1308986e-07  28.557545    
     30980   28.290704      50000          50000          50000         -2.5557053e-07 -7.0502585e-07  2.9614029e-08 -9.1299766e-08  28.290704    
     31000   28.263534      50000          50000          50000         -2.7660674e-07 -8.0316378e-07  4.1588885e-08 -6.824534e-08   28.263534    
     31020   28.082624      50000          50000          50000         -2.993891e-07  -9.0460212e-07  5.2880788e-08 -4.6445982e-08  28.082624    
     31040   27.404012      50000          50000          50000         -3.2464732e-07 -1.0079832e-06  6.2000649e-08 -2.7959421e-08  27.404012    
     31060   26.115723      50000          50000          50000         -3.5276684e-07 -1.1119518e-06  6.7798907e-08 -1.4147646e-08  26.115723    
     31080   24.394952      50000          50000          50000         -3.8417552e-07 -1.2157004e-06  6.9065037e-08 -5.8911778e-09  24.394952    
     31100   22.627252      50000          50000          50000         -4.1933764e-07 -1.318604e-06   6.4372681e-08 -3.781605e-09   22.627252    
     31120   21.235771      50000          50000          50000         -4.5837621e-07 -1.4194389e-06  5.2364359e-08 -8.0541196e-09  21.235771    
     31140   20.494856      50000          50000          50000         -5.007669e-07  -1.515895e-06   3.208306e-08  -1.8488783e-08  20.494856    
     31160   20.411952      50000          50000          50000         -5.4523864e-07 -1.6045295e-06  3.2085385e-09 -3.4394967e-08  20.411952    
     31180   20.733458      50000          50000          50000         -5.8985124e-07 -1.6811044e-06 -3.3785296e-08 -5.4664048e-08  20.733458    
     31200   21.079603      50000          50000          50000         -6.3219694e-07 -1.7411793e-06 -7.7547575e-08 -7.7863931e-08  21.079603    
     31220   21.133921      50000          50000          50000         -6.696807e-07  -1.7808357e-06 -1.2585113e-07 -1.0235523e-07  21.133921    
     31240   20.818606      50000          50000          50000         -6.9978474e-07 -1.7972674e-06 -1.7567582e-07 -1.26411e-07    20.818606    
     31260   20.358158      50000          50000          50000         -7.2027501e-07 -1.7891263e-06 -2.2337471e-07 -1.4832404e-07  20.358158    
     31280   20.196697      50000          50000          50000         -7.2931205e-07 -1.7565115e-06 -2.6493226e-07 -1.6649243e-07  20.196697    
     31300   20.79088       50000          50000          50000         -7.2547517e-07 -1.7006072e-06 -2.9633055e-07 -1.7948777e-07  20.79088     
     31320   22.368208      50000          50000          50000         -7.0774766e-07 -1.6231171e-06 -3.140053e-07  -1.8612056e-07  22.368208    
     31340   24.772476      50000          50000          50000         -6.7552828e-07 -1.5257692e-06 -3.1530852e-07 -1.8550712e-07  24.772476    
     31360   27.483574      50000          50000          50000         -6.2871135e-07 -1.4101366e-06 -2.9887081e-07 -1.7712667e-07  27.483574    
     31380   29.811649      50000          50000          50000         -5.6782862e-07 -1.2778304e-06 -2.6479804e-07 -1.6085743e-07  29.811649    
     31400   31.179038      50000          50000          50000         -4.942012e-07  -1.1309138e-06 -2.146991e-07  -1.3699075e-07  31.179038    
     31420   31.362779      50000          50000          50000         -4.1003033e-07 -9.7228618e-07 -1.5157688e-07 -1.0622793e-07  31.362779    
     31440   30.596517      50000          50000          50000         -3.1835336e-07 -8.0578594e-07 -7.9611223e-08 -6.9662926e-08  30.596517    
     31460   29.469698      50000          50000          50000         -2.2283998e-07 -6.3592567e-07 -3.846851e-09  -2.8747419e-08  29.469698    
     31480   28.676942      50000          50000          50000         -1.2741178e-07 -4.6721839e-07  7.0214038e-08  1.4769015e-08  28.676942    
     31500   28.70722       50000          50000          50000         -3.5777411e-08 -3.0334435e-07  1.3708735e-07  5.8924769e-08  28.70722     
     31520   29.61259       50000          50000          50000          4.897934e-08  -1.4649483e-07  1.917893e-07   1.0164354e-07  29.61259     
     31540   30.967791      50000          50000          50000          1.2462756e-07  2.804728e-09   2.3025404e-07  1.4082391e-07  30.967791    
     31560   32.041113      50000          50000          50000          1.8981354e-07  1.4532337e-07  2.4967767e-07  1.7443959e-07  32.041113    
     31580   32.115218      50000          50000          50000          2.4397071e-07  2.824442e-07   2.4879227e-07  2.0067565e-07  32.115218    
     31600   30.80701       50000          50000          50000          2.8712153e-07  4.1534733e-07  2.2797844e-07  2.1803882e-07  30.80701     
     31620   28.264491      50000          50000          50000          3.1968866e-07  5.4440244e-07  1.8922501e-07  2.2543854e-07  28.264491    
     31640   25.132703      50000          50000          50000          3.4242613e-07  6.6897691e-07  1.3600808e-07  2.2229339e-07  25.132703    
     31660   22.31673       50000          50000          50000          3.565189e-07   7.8781028e-07  7.3078576e-08  2.0866783e-07  22.31673     
     31680   20.610914      50000          50000          50000          3.6373229e-07  8.9970238e-07  6.1006787e-09  1.8539382e-07  20.610914    
     31700   20.383442      50000          50000          50000          3.6649258e-07  1.00425e-06   -5.887799e-08   1.5410577e-07  20.383442    
     31720   21.437125      50000          50000          50000          3.6773341e-07  1.1021357e-06 -1.1606727e-07  1.1713182e-07  21.437125    
     31740   23.117786      50000          50000          50000          3.7051665e-07  1.194827e-06  -1.6053638e-07  7.7259324e-08  23.117786    
     31760   24.597759      50000          50000          50000          3.7756191e-07  1.2838414e-06 -1.8863028e-07  3.7474668e-08  24.597759    
     31780   25.201989      50000          50000          50000          3.9084955e-07  1.3699529e-06 -1.9816475e-07  7.6050676e-10  25.201989    
     31800   24.651933      50000          50000          50000          4.1136923e-07  1.4526291e-06 -1.8846593e-07 -3.0055467e-08  24.651933    
     31820   23.150574      50000          50000          50000          4.3902126e-07  1.5298275e-06 -1.6031931e-07 -5.2444449e-08  23.150574    
     31840   21.290062      50000          50000          50000          4.726617e-07   1.5981713e-06 -1.1585096e-07 -6.4335242e-08  21.290062    
     31860   19.821802      50000          50000          50000          5.1027295e-07  1.653443e-06  -5.8340205e-08 -6.4283951e-08  19.821802    
     31880   19.366786      50000          50000          50000          5.4921619e-07  1.6912408e-06  8.044183e-09  -5.1636445e-08  19.366786    
     31900   20.186625      50000          50000          50000          5.8653006e-07  1.7076575e-06  7.8587454e-08 -2.6654822e-08  20.186625    
     31920   22.085485      50000          50000          50000          6.1918519e-07  1.6997019e-06  1.4843018e-07  9.4234465e-09  22.085485    
     31940   24.497086      50000          50000          50000          6.4425147e-07  1.6653708e-06  2.1297081e-07  5.4412788e-08  24.497086    
     31960   26.7138        50000          50000          50000          6.5895814e-07  1.6033812e-06  2.6820387e-07  1.0528937e-07  26.7138      
     31980   28.160976      50000          50000          50000          6.6070027e-07  1.5127771e-06  3.1095882e-07  1.5836485e-07  28.160976    
     32000   28.602353      50000          50000          50000          6.4707934e-07  1.3926816e-06  3.3904712e-07  2.0950935e-07  28.602353    
     32020   28.203451      50000          50000          50000          6.1605721e-07  1.2424001e-06  3.5134751e-07  2.5442402e-07  28.203451    
     32040   27.420305      50000          50000          50000          5.6621929e-07  1.0618474e-06  3.4784394e-07  2.8896653e-07  27.420305    
     32060   26.784017      50000          50000          50000          4.971049e-07   8.5219647e-07  3.2960576e-07  3.0951245e-07  26.784017    
     32080   26.66192       50000          50000          50000          4.0946982e-07  6.1642464e-07  2.9867877e-07  3.1330604e-07  26.66192     
     32100   27.111654      50000          50000          50000          3.0538863e-07  3.5954329e-07  2.5787486e-07  2.9874773e-07  27.111654    
     32120   27.87282       50000          50000          50000          1.8814485e-07  8.836608e-08   2.1048254e-07  2.6558593e-07  27.87282     
     32140   28.507723      50000          50000          50000          6.1986145e-08 -1.8903425e-07  1.5995941e-07  2.1503328e-07  28.507723    
     32160   28.605944      50000          50000          50000         -6.8213653e-08 -4.6415785e-07  1.0968248e-07  1.4983441e-07  28.605944    
     32180   27.964818      50000          50000          50000         -1.975041e-07  -7.2936861e-07  6.2725282e-08  7.413104e-08   27.964818    
     32200   26.667283      50000          50000          50000         -3.2176431e-07 -9.7949608e-07  2.1451458e-08 -7.2483059e-09  26.667283    
     32220   25.039254      50000          50000          50000         -4.3832506e-07 -1.2123551e-06 -1.2906299e-08 -8.971376e-08   25.039254    
     32240   23.528854      50000          50000          50000         -5.4562265e-07 -1.4275835e-06 -4.0157688e-08 -1.6912672e-07  23.528854    
     32260   22.555434      50000          50000          50000         -6.4254096e-07 -1.6252738e-06 -6.0767716e-08 -2.4158138e-07  22.555434    
     32280   22.372825      50000          50000          50000         -7.2811373e-07 -1.8053257e-06 -7.5591363e-08 -3.0342413e-07  22.372825    
     32300   22.994527      50000          50000          50000         -8.015218e-07  -1.9673101e-06 -8.5734721e-08 -3.515206e-07   22.994527    
     32320   24.207229      50000          50000          50000         -8.6218859e-07 -2.1105513e-06 -9.2448907e-08 -3.8356554e-07  24.207229    
     32340   25.661448      50000          50000          50000         -9.0988331e-07 -2.2342995e-06 -9.7029648e-08 -3.983208e-07   25.661448    
     32360   26.998376      50000          50000          50000         -9.4479541e-07 -2.3379135e-06 -1.0072736e-07 -3.9574536e-07  26.998376    
     32380   27.963079      50000          50000          50000         -9.6755866e-07 -2.4209895e-06 -1.0467118e-07 -3.7701529e-07  27.963079    
     32400   28.465799      50000          50000          50000         -9.7921064e-07 -2.4833943e-06 -1.098028e-07  -3.4443478e-07  28.465799    
     32420   28.576892      50000          50000          50000         -9.8108417e-07 -2.5252044e-06 -1.1681734e-07 -3.0123079e-07  28.576892    
     32440   28.4681        50000          50000          50000         -9.7464248e-07 -2.5465779e-06 -1.2611727e-07 -2.512323e-07   28.4681      
     32460   28.325155      50000          50000          50000         -9.6129797e-07 -2.5476331e-06 -1.3778905e-07 -1.9847177e-07  28.325155    
     32480   28.283491      50000          50000          50000         -9.4223866e-07 -2.5283415e-06 -1.5160223e-07 -1.4677231e-07  28.283491    
     32500   28.390631      50000          50000          50000         -9.1831721e-07 -2.4885367e-06 -1.6702507e-07 -9.9389813e-08  28.390631    
     32520   28.613968      50000          50000          50000         -8.8999873e-07 -2.4279895e-06 -1.8325281e-07 -5.8753863e-08  28.613968    
     32540   28.872733      50000          50000          50000         -8.573703e-07  -2.3465269e-06 -1.9925107e-07 -2.6332885e-08  28.872733    
     32560   29.073595      50000          50000          50000         -8.2019642e-07 -2.2441442e-06 -2.1381852e-07 -2.6265097e-09  29.073595    
     32580   29.133958      50000          50000          50000         -7.7800446e-07 -2.1210742e-06 -2.2567013e-07  1.2730976e-08  29.133958    
     32600   28.989284      50000          50000          50000         -7.3018929e-07 -1.9778161e-06 -2.335386e-07   2.0786874e-08  28.989284    
     32620   28.591625      50000          50000          50000         -6.7613214e-07 -1.8151531e-06 -2.36287e-07    2.3043736e-08  28.591625    
     32640   27.910149      50000          50000          50000         -6.1533127e-07 -1.6341978e-06 -2.3302303e-07  2.1227044e-08  27.910149    
     32660   26.9399        50000          50000          50000         -5.475398e-07  -1.4364918e-06 -2.2320339e-07  1.7075815e-08  26.9399      
     32680   25.716189      50000          50000          50000         -4.728993e-07  -1.2241554e-06 -2.0671686e-07  1.2174353e-08  25.716189    
     32700   24.324611      50000          50000          50000         -3.9204593e-07 -1.0000413e-06 -1.8393178e-07  7.8352813e-09  24.324611    
     32720   22.89553       50000          50000          50000         -3.0613838e-07 -7.6777853e-07 -1.5568105e-07  5.0444363e-09  22.89553     
     32740   21.578906      50000          50000          50000         -2.1672591e-07 -5.3150654e-07 -1.2314583e-07  4.4746504e-09  21.578906    
     32760   20.508903      50000          50000          50000         -1.2544239e-07 -2.9519543e-07 -8.7655861e-08  6.5241187e-09  20.508903    
     32780   19.778026      50000          50000          50000         -3.3739847e-08 -6.1951338e-08 -5.05513e-08    1.1283095e-08  19.778026    
     32800   19.431438      50000          50000          50000          5.7108679e-08  1.660567e-07  -1.3192545e-08  1.8461882e-08  19.431438    
     32820   19.471674      50000          50000          50000          1.458685e-07   3.8715722e-07  2.3014945e-08  2.743335e-08   19.471674    
     32840   19.86279       50000          50000          50000          2.3129374e-07  5.9981674e-07  5.6677852e-08  3.7386626e-08  19.86279     
     32860   20.5358        50000          50000          50000          3.1217903e-07  8.0253491e-07  8.6511708e-08  4.7490463e-08  20.5358      
     32880   21.399257      50000          50000          50000          3.874258e-07   9.9382213e-07  1.1142942e-07  5.7025846e-08  21.399257    
     32900   22.360431      50000          50000          50000          4.5607417e-07  1.1721319e-06  1.3060674e-07  6.5483919e-08  22.360431    
     32920   23.335892      50000          50000          50000          5.1728396e-07  1.335687e-06   1.435365e-07   7.2628434e-08  23.335892    
     32940   24.266384      50000          50000          50000          5.7035891e-07  1.4824061e-06  1.5012076e-07  7.8549823e-08  24.266384    
     32960   25.118581      50000          50000          50000          6.1487121e-07  1.6100726e-06  1.5082492e-07  8.3716117e-08  25.118581    
     32980   25.882387      50000          50000          50000          6.5080843e-07  1.7167059e-06  1.4677864e-07  8.8940717e-08  25.882387    
     33000   26.564367      50000          50000          50000          6.7857376e-07  1.8008362e-06  1.396868e-07   9.5198271e-08  26.564367    
     33020   27.176115      50000          50000          50000          6.9885449e-07  1.8615841e-06  1.3160632e-07  1.0337307e-07  27.176115    
     33040   27.718392      50000          50000          50000          7.1247358e-07  1.8986735e-06  1.246996e-07   1.1404759e-07  27.718392    
     33060   28.167023      50000          50000          50000          7.2026257e-07  1.9124378e-06  1.209892e-07   1.2736073e-07  28.167023    
     33080   28.469175      50000          50000          50000          7.229483e-07   1.9037919e-06  1.2211493e-07  1.4293804e-07  28.469175    
     33100   28.556118      50000          50000          50000          7.2104892e-07  1.8741387e-06  1.2911265e-07  1.5989537e-07  28.556118    
     33120   28.371644      50000          50000          50000          7.1478592e-07  1.8252022e-06  1.4224374e-07  1.769118e-07   28.371644    
     33140   27.906514      50000          50000          50000          7.0402667e-07  1.7588163e-06  1.6090355e-07  1.9236016e-07  27.906514    
     33160   27.222922      50000          50000          50000          6.882757e-07   1.6767183e-06  1.8363001e-07  2.0447875e-07  27.222922    
     33180   26.453221      50000          50000          50000          6.6672996e-07  1.5804042e-06  2.0821991e-07  2.1156576e-07  26.453221    
     33200   25.765999      50000          50000          50000          6.3840177e-07  1.4710828e-06  2.3194431e-07  2.1217818e-07  25.765999    
     33220   25.307581      50000          50000          50000          6.0229615e-07  1.3497314e-06  2.5183875e-07  2.0531831e-07  25.307581    
     33240   25.14141       50000          50000          50000          5.5761263e-07  1.2172126e-06  2.650338e-07   1.905915e-07   25.14141     
     33260   25.213609      50000          50000          50000          5.0392902e-07  1.0743818e-06  2.6908848e-07  1.6831673e-07  25.213609    
     33280   25.365392      50000          50000          50000          4.4131671e-07  9.2210513e-07  2.6228249e-07  1.395625e-07   25.365392    
     33300   25.392987      50000          50000          50000          3.7033396e-07  7.6113079e-07  2.4380376e-07  1.0606734e-07  25.392987    
     33320   25.131821      50000          50000          50000          2.9188378e-07  5.918593e-07   2.137694e-07   7.0022642e-08  25.131821    
     33340   24.52789       50000          50000          50000          2.0702837e-07  4.1419909e-07  1.7310639e-07  3.3779634e-08  24.52789     
     33360   23.665668      50000          50000          50000          1.1690262e-07  2.2769246e-07  1.2341755e-07 -4.0215541e-10  23.665668    
     33380   22.742209      50000          50000          50000          2.2757813e-08  3.1889554e-08  6.6907345e-08 -3.0523459e-08  22.742209    
     33400   21.997633      50000          50000          50000         -7.3951617e-08 -1.7320071e-07  6.3224606e-09 -5.4976599e-08  21.997633    
     33420   21.627665      50000          50000          50000         -1.7152085e-07 -3.8673139e-07 -5.5160822e-08 -7.2670346e-08  21.627665    
     33440   21.711683      50000          50000          50000         -2.6801689e-07 -6.0679316e-07 -1.1412454e-07 -8.3132963e-08  21.711683    
     33460   22.185712      50000          50000          50000         -3.6137005e-07 -8.303878e-07  -1.6715709e-07 -8.6565275e-08  22.185712    
     33480   22.873233      50000          50000          50000         -4.4952017e-07 -1.0536018e-06 -2.1113011e-07 -8.3828588e-08  22.873233    
     33500   23.563451      50000          50000          50000         -5.3059015e-07 -1.2719289e-06 -2.4346945e-07 -7.6372142e-08  23.563451    
     33520   24.106267      50000          50000          50000         -6.0305218e-07 -1.4806389e-06 -2.6239435e-07 -6.612332e-08   24.106267    
     33540   24.485424      50000          50000          50000         -6.6585021e-07 -1.6750638e-06 -2.6711752e-07 -5.536928e-08   24.485424    
     33560   24.829448      50000          50000          50000         -7.184534e-07  -1.8507378e-06 -2.5800315e-07 -4.6619196e-08  24.829448    
     33580   25.360077      50000          50000          50000         -7.6079551e-07 -2.0033977e-06 -2.3663082e-07 -4.2358067e-08  25.360077    
     33600   26.272911      50000          50000          50000         -7.9314451e-07 -2.1291088e-06 -2.0567117e-07 -4.4653538e-08  26.272911    
     33620   27.619535      50000          50000          50000         -8.1597003e-07 -2.2245912e-06 -1.6855004e-07 -5.4768874e-08  27.619535    
     33640   29.253193      50000          50000          50000         -8.2986772e-07 -2.2876585e-06 -1.289817e-07  -7.2962902e-08  29.253193    
     33660   30.873803      50000          50000          50000         -8.3554957e-07 -2.3175991e-06 -9.0521284e-08 -9.852827e-08   30.873803    
     33680   32.147063      50000          50000          50000         -8.3389758e-07 -2.3153935e-06 -5.6293991e-08 -1.3000525e-07  32.147063    
     33700   32.834908      50000          50000          50000         -8.2596187e-07 -2.2837025e-06 -2.882999e-08  -1.6535317e-07  32.834908    
     33720   32.882537      50000          50000          50000         -8.1285471e-07 -2.2266588e-06 -9.8772329e-09 -2.0202808e-07  32.882537    
     33740   32.43148       50000          50000          50000         -7.9563554e-07 -2.1495053e-06 -2.7496537e-10 -2.3712633e-07  32.43148     
     33760   31.754825      50000          50000          50000         -7.7520025e-07 -2.0580551e-06  6.6525001e-11 -2.6761216e-07  31.754825    
     33780   31.141318      50000          50000          50000         -7.5216879e-07 -1.9580269e-06 -7.900228e-09  -2.9057928e-07  31.141318    
     33800   30.776899      50000          50000          50000         -7.2679989e-07 -1.8543877e-06 -2.2496362e-08 -3.0351559e-07  30.776899    
     33820   30.673559      50000          50000          50000         -6.9897033e-07 -1.7508557e-06 -4.151038e-08  -3.0454493e-07  30.673559    
     33840   30.674582      50000          50000          50000         -6.6823859e-07 -1.6496672e-06 -6.2430173e-08 -2.926184e-07   30.674582    
     33860   30.531296      50000          50000          50000         -6.3398275e-07 -1.551627e-06  -8.2688145e-08 -2.6763309e-07  30.531296    
     33880   30.015877      50000          50000          50000         -5.95576e-07   -1.4563671e-06 -9.989361e-08  -2.3046723e-07  30.015877    
     33900   29.021601      50000          50000          50000         -5.5255315e-07 -1.3626935e-06 -1.1203315e-07 -1.8293281e-07  29.021601    
     33920   27.610259      50000          50000          50000         -5.0473041e-07 -1.2689102e-06 -1.1762897e-07 -1.2765207e-07  27.610259    
     33940   25.990295      50000          50000          50000         -4.5225912e-07 -1.1730597e-06 -1.1585136e-07 -6.7866339e-08  25.990295    
     33960   24.437791      50000          50000          50000         -3.9561526e-07 -1.0730783e-06 -1.0658138e-07 -7.1861098e-09  24.437791    
     33980   23.194964      50000          50000          50000         -3.3554242e-07 -9.6691178e-07 -9.0417495e-08  5.0702008e-08  23.194964    
     34000   22.38879       50000          50000          50000         -2.7297529e-07 -8.5265385e-07 -6.8618525e-08  1.0234651e-07  22.38879     
     34020   22.002128      50000          50000          50000         -2.0896774e-07 -7.2875038e-07 -4.2979372e-08  1.4482653e-07  22.002128    
     34040   21.905121      50000          50000          50000         -1.4463732e-07 -5.9426301e-07 -1.5645168e-08  1.7599622e-07  21.905121    
     34060   21.927032      50000          50000          50000         -8.1121378e-08 -4.4913053e-07  1.1117667e-08  1.9464873e-07  21.927032    
     34080   21.931787      50000          50000          50000         -1.9531597e-08 -2.9434035e-07  3.5162905e-08  2.0058266e-07  21.931787    
     34100   21.862596      50000          50000          50000          3.910398e-08  -1.3194062e-07  5.4682742e-08  1.9456982e-07  21.862596    
     34120   21.74005       50000          50000          50000          9.3911591e-08  3.5122263e-08  6.8373105e-08  1.7823941e-07  21.74005     
     34140   21.623048      50000          50000          50000          1.4424462e-07  2.0329894e-07  7.5530893e-08  1.5390402e-07  21.623048    
     34160   21.559593      50000          50000          50000          1.8974147e-07  3.6879003e-07  7.60822e-08    1.2435219e-07  21.559593    
     34180   21.557024      50000          50000          50000          2.3035052e-07  5.2787851e-07  7.0548874e-08  9.2624187e-08  21.557024    
     34200   21.588807      50000          50000          50000          2.6630902e-07  6.7718067e-07  5.9964281e-08  6.17821e-08    21.588807    
     34220   21.636128      50000          50000          50000          2.9807305e-07  8.1378479e-07  4.5751016e-08  3.4683339e-08  21.636128    
     34240   21.738676      50000          50000          50000          3.2619802e-07  9.3525614e-07  2.9572984e-08  1.3764939e-08  21.738676    
     34260   22.02714       50000          50000          50000          3.5119586e-07  1.0395602e-06  1.3184168e-08  8.4319738e-10  22.02714     
     34280   22.704721      50000          50000          50000          3.7343543e-07  1.1250465e-06 -1.685269e-09  -3.0549796e-09  22.704721    
     34300   23.968211      50000          50000          50000          3.9318384e-07  1.1907109e-06 -1.3372524e-08  2.2131391e-09  23.968211    
     34320   25.893445      50000          50000          50000          4.1076183e-07  1.2366842e-06 -2.0310899e-08  1.5912241e-08  25.893445    
     34340   28.344823      50000          50000          50000          4.2664254e-07  1.2645442e-06 -2.1136793e-08  3.6520194e-08  28.344823    
     34360   30.967151      50000          50000          50000          4.4139784e-07  1.2771643e-06 -1.486175e-08   6.1891007e-08  30.967151    
     34380   33.277637      50000          50000          50000          4.5553693e-07  1.2781622e-06 -1.0300689e-09  8.9478629e-08  33.277637    
     34400   34.826629      50000          50000          50000          4.6931523e-07  1.271177e-06   2.0180949e-08  1.1658775e-07  34.826629    
     34420   35.363035      50000          50000          50000          4.82577e-07    1.2591929e-06  4.792409e-08   1.4061403e-07  35.363035    
     34440   34.935193      50000          50000          50000          4.9468202e-07  1.244084e-06   8.0707864e-08  1.5925423e-07  34.935193    
     34460   33.88023       50000          50000          50000          5.0454802e-07  1.2264742e-06  1.164868e-07   1.7068302e-07  33.88023     
     34480   32.69681       50000          50000          50000          5.1081029e-07  1.2059175e-06  1.5281746e-07  1.736959e-07   32.69681     
     34500   31.844406      50000          50000          50000          5.1206099e-07  1.1813022e-06  1.8707055e-07  1.6781027e-07  31.844406    
     34520   31.548281      50000          50000          50000          5.0709751e-07  1.1513116e-06  2.1667169e-07  1.5330918e-07  31.548281    
     34540   31.694464      50000          50000          50000          4.9510655e-07  1.1147671e-06  2.3933414e-07  1.3121844e-07  31.694464    
     34560   31.86603       50000          50000          50000          4.7575788e-07  1.070768e-06   2.5327207e-07  1.0323353e-07  31.86603     
     34580   31.513952      50000          50000          50000          4.4924032e-07  1.01866e-06    2.5742951e-07  7.1631487e-08  31.513952    
     34600   30.194598      50000          50000          50000          4.1620498e-07  9.5783624e-07  2.5167006e-07  3.910865e-08   30.194598    
     34620   27.765182      50000          50000          50000          3.7745223e-07  8.8734508e-07  2.3664117e-07  8.3704417e-09  27.765182    
     34640   24.452035      50000          50000          50000          3.3352576e-07  8.0561764e-07  2.1332006e-07 -1.8360416e-08  24.452035    
     34660   20.784789      50000          50000          50000          2.8467496e-07  7.1076546e-07  1.827612e-07  -3.9501784e-08  20.784789    
     34680   17.433082      50000          50000          50000          2.3114242e-07  6.0129863e-07  1.4615995e-07 -5.4031331e-08  17.433082    
     34700   14.996842      50000          50000          50000          1.7344801e-07  4.7683397e-07  1.0495512e-07 -6.144506e-08   14.996842    
     34720   13.822071      50000          50000          50000          1.1253647e-07  3.3853441e-07  6.0850361e-08 -6.1775353e-08  13.822071    
     34740   13.913146      50000          50000          50000          4.9775019e-08  1.891535e-07   1.5767394e-08 -5.5595835e-08  13.913146    
     34760   14.974533      50000          50000          50000         -1.3186079e-08  3.2665719e-08 -2.8245743e-08 -4.3978212e-08  14.974533    
     34780   16.558492      50000          50000          50000         -7.4644229e-08 -1.2639674e-07 -6.9134284e-08 -2.840166e-08   16.558492    
     34800   18.251006      50000          50000          50000         -1.3309245e-07 -2.8368094e-07 -1.0496703e-07 -1.0629387e-08  18.251006    
     34820   19.817448      50000          50000          50000         -1.8741209e-07 -4.3560536e-07 -1.3406244e-07  7.4315247e-09  19.817448    
     34840   21.254683      50000          50000          50000         -2.3696699e-07 -5.7967351e-07 -1.5510185e-07  2.3874379e-08  21.254683    
     34860   22.732551      50000          50000          50000         -2.8160236e-07 -7.1451268e-07 -1.6722695e-07  3.6932563e-08  22.732551    
     34880   24.472525      50000          50000          50000         -3.2155776e-07 -8.3966531e-07 -1.7011895e-07  4.5110993e-08  24.472525    
     34900   26.602079      50000          50000          50000         -3.5735775e-07 -9.5532591e-07 -1.64055e-07    4.730766e-08   26.602079    
     34920   29.062738      50000          50000          50000         -3.8970137e-07 -1.0621034e-06 -1.4992778e-07  4.2927054e-08  29.062738    
     34940   31.606952      50000          50000          50000         -4.1938254e-07 -1.1609205e-06 -1.2920621e-07  3.1979081e-08  31.606952    
     34960   33.887029      50000          50000          50000         -4.472518e-07  -1.2530709e-06 -1.0381964e-07  1.5135158e-08  33.887029    
     34980   35.593615      50000          50000          50000         -4.7422148e-07 -1.3403656e-06 -7.5986366e-08 -6.312509e-09   35.593615    
     35000   36.573409      50000          50000          50000         -5.0128548e-07 -1.4251996e-06 -4.8045114e-08 -3.0611674e-08  36.573409    
     35020   36.867514      50000          50000          50000         -5.2947819e-07 -1.5103584e-06 -2.231086e-08  -5.5765352e-08  36.867514    
     35040   36.656915      50000          50000          50000         -5.597394e-07  -1.5985436e-06 -9.3804704e-10 -7.9736576e-08  36.656915    
     35060   36.148625      50000          50000          50000         -5.9273028e-07 -1.6917616e-06  1.4210756e-08 -1.0064002e-07  36.148625    
     35080   35.462823      50000          50000          50000         -6.2866585e-07 -1.7907573e-06  2.1685973e-08 -1.1692619e-07  35.462823    
     35100   34.579954      50000          50000          50000         -6.6721726e-07 -1.8946627e-06  2.055812e-08  -1.2754718e-07  34.579954    
     35120   33.377487      50000          50000          50000         -7.0751412e-07 -2.0009632e-06  1.0504239e-08 -1.3208345e-07  33.377487    
     35140   31.740233      50000          50000          50000         -7.482407e-07  -2.1057774e-06 -8.1353359e-09 -1.3080941e-07  31.740233    
     35160   29.686493      50000          50000          50000         -7.8778499e-07 -2.204336e-06  -3.4339004e-08 -1.2467998e-07  29.686493    
     35180   27.436889      50000          50000          50000         -8.2438244e-07 -2.2914855e-06 -6.6433475e-08 -1.1522836e-07  27.436889    
     35200   25.37498       50000          50000          50000         -8.5620715e-07 -2.362069e-06  -1.0217874e-07 -1.0437373e-07  25.37498     
     35220   23.902788      50000          50000          50000         -8.8139605e-07 -2.4111309e-06 -1.3891265e-07 -9.4144554e-08  23.902788    
     35240   23.257245      50000          50000          50000         -8.9803968e-07 -2.4340076e-06 -1.7376115e-07 -8.6350311e-08  23.257245    
     35260   23.389375      50000          50000          50000         -9.0423662e-07 -2.4264462e-06 -2.0393922e-07 -8.232443e-08   23.389375    
     35280   23.978684      50000          50000          50000         -8.9829417e-07 -2.384856e-06  -2.2712308e-07 -8.2903472e-08  23.978684    
     35300   24.566888      50000          50000          50000         -8.7896068e-07 -2.3066202e-06 -2.4170821e-07 -8.8553592e-08  24.566888    
     35320   24.736356      50000          50000          50000         -8.455234e-07  -2.1903823e-06 -2.4681507e-07 -9.9372869e-08  24.736356    
     35340   24.261332      50000          50000          50000         -7.9783357e-07 -2.0363497e-06 -2.4218353e-07 -1.1496744e-07  24.261332    
     35360   23.201107      50000          50000          50000         -7.3631655e-07 -1.8464929e-06 -2.2809938e-07 -1.3435732e-07  23.201107    
     35380   21.881003      50000          50000          50000         -6.6195183e-07 -1.6245466e-06 -2.0534477e-07 -1.5596415e-07  21.881003    
     35400   20.773815      50000          50000          50000         -5.7616291e-07 -1.3756905e-06 -1.7513142e-07 -1.7766681e-07  20.773815    
     35420   20.315137      50000          50000          50000         -4.8063102e-07 -1.1059693e-06 -1.3900478e-07 -1.9691902e-07  20.315137    
     35440   20.725758      50000          50000          50000         -3.7707985e-07 -8.2157837e-07 -9.872895e-08  -2.1093224e-07  20.725758    
     35460   21.917201      50000          50000          50000         -2.6709819e-07 -5.2820697e-07 -5.6169167e-08 -2.1691842e-07  21.917201    
     35480   23.524804      50000          50000          50000         -1.5205696e-07 -2.3061648e-07 -1.318655e-08  -2.1236786e-07  23.524804    
     35500   25.057381      50000          50000          50000         -3.3137918e-08  6.7460554e-08  2.8449627e-08 -1.9532394e-07  25.057381    
     35520   26.100848      50000          50000          50000          8.8555607e-08  3.6314849e-07  6.7136802e-08 -1.6461847e-07  26.100848    
     35540   26.490232      50000          50000          50000          2.1186449e-07  6.5412566e-07  1.0151098e-07 -1.2004318e-07  26.490232    
     35560   26.378371      50000          50000          50000          3.3547717e-07  9.3835235e-07  1.3052417e-07 -6.2445005e-08  26.378371    
     35580   26.171402      50000          50000          50000          4.5791278e-07  1.2139445e-06  1.5352982e-07  6.2639958e-09  26.171402    
     35600   26.353145      50000          50000          50000          5.775941e-07   1.4792195e-06  1.7036812e-07  8.3194661e-08  26.353145    
     35620   27.274345      50000          50000          50000          6.9298786e-07  1.7328607e-06  1.814281e-07   1.6467483e-07  27.274345    
     35640   28.981766      50000          50000          50000          8.0272542e-07  1.9739886e-06  1.876524e-07   2.4653531e-07  28.981766    
     35660   31.188277      50000          50000          50000          9.0565063e-07  2.2020539e-06  1.904569e-07   3.2444109e-07  31.188277    
     35680   33.372446      50000          50000          50000          1.0007087e-06  2.416368e-06   1.9155883e-07  3.9419925e-07  33.372446    
     35700   34.988554      50000          50000          50000          1.0867197e-06  2.6154232e-06  1.9274091e-07  4.5199503e-07  34.988554    
     35720   35.682403      50000          50000          50000          1.1621183e-06  2.796178e-06   1.9560015e-07  4.9457661e-07  35.682403    
     35740   35.428781      50000          50000          50000          1.2248262e-06  2.9536645e-06  2.013365e-07   5.1947764e-07  35.428781    
     35760   34.528879      50000          50000          50000          1.2723709e-06  3.081189e-06   2.1060653e-07  5.2531731e-07  34.528879    
     35780   33.460648      50000          50000          50000          1.3022335e-06  3.1711621e-06  2.234424e-07   5.1209602e-07  33.460648    
     35800   32.643351      50000          50000          50000          1.3123489e-06  3.216388e-06   2.3926703e-07  4.8139177e-07  32.643351    
     35820   32.230314      50000          50000          50000          1.3016794e-06  3.2115272e-06  2.5709189e-07  4.3641907e-07  32.230314    
     35840   32.043922      50000          50000          50000          1.2705506e-06  3.1540442e-06  2.7586101e-07  3.8174652e-07  32.043922    
     35860   31.695602      50000          50000          50000          1.220117e-06   3.0435658e-06  2.9449327e-07  3.2229191e-07  31.695602    
     35880   30.795501      50000          50000          50000          1.1513471e-06  2.8803084e-06  3.1151703e-07  2.6221585e-07  30.795501    
     35900   29.125852      50000          50000          50000          1.0648466e-06  2.6647595e-06  3.2500156e-07  2.0477863e-07  29.125852    
     35920   26.722813      50000          50000          50000          9.6126957e-07  2.3983949e-06  3.328226e-07   1.525912e-07   26.722813    
     35940   23.8617        50000          50000          50000          8.4158804e-07  2.0842741e-06  3.3289556e-07  1.0759449e-07  23.8617      
     35960   20.960476      50000          50000          50000          7.0720727e-07  1.7273626e-06  3.2335363e-07  7.0905601e-08  20.960476    
     35980   18.44163       50000          50000          50000          5.6004346e-07  1.3346741e-06  3.0273425e-07  4.2722066e-08  18.44163     
     36000   16.607779      50000          50000          50000          4.0255478e-07  9.1515717e-07  2.7017594e-07  2.2331215e-08  16.607779    
     36020   15.578327      50000          50000          50000          2.3767957e-07  4.7923037e-07  2.2558855e-07  8.2198086e-09  15.578327    
     36040   15.30607       50000          50000          50000          6.8667548e-08  3.7987826e-08  1.6974984e-07 -1.7350274e-09  15.30607     
     36060   15.648059      50000          50000          50000         -1.0116562e-07 -3.9777083e-07  1.0429515e-07 -1.0021188e-08  15.648059    
     36080   16.461413      50000          50000          50000         -2.6866741e-07 -8.1837698e-07  3.1598812e-08 -1.9224062e-08  16.461413    
     36100   17.65809       50000          50000          50000         -4.3101158e-07 -1.2158529e-06 -4.5419464e-08 -3.1762413e-08  17.65809     
     36120   19.211397      50000          50000          50000         -5.8575106e-07 -1.5840876e-06 -1.2352001e-07 -4.9645538e-08  19.211397    
     36140   21.115748      50000          50000          50000         -7.3079387e-07 -1.9187433e-06 -1.9937058e-07 -7.4267761e-08  21.115748    
     36160   23.330744      50000          50000          50000         -8.6435319e-07 -2.2170373e-06 -2.6976231e-07 -1.0625992e-07  23.330744    
     36180   25.744647      50000          50000          50000         -9.8491352e-07 -2.4775155e-06 -3.3180386e-07 -1.4542123e-07  25.744647    
     36200   28.180278      50000          50000          50000         -1.091221e-06  -2.6998252e-06 -3.8308303e-07 -1.9075477e-07  28.180278    
     36220   30.433209      50000          50000          50000         -1.1822674e-06 -2.8843928e-06 -4.2180344e-07 -2.4060585e-07  30.433209    
     36240   32.32876       50000          50000          50000         -1.2571556e-06 -3.0318213e-06 -4.4688822e-07 -2.9275736e-07  32.32876     
     36260   33.749936      50000          50000          50000         -1.314831e-06  -3.1423527e-06 -4.5791747e-07 -3.4422272e-07  33.749936    
     36280   34.652074      50000          50000          50000         -1.3540528e-06 -3.216017e-06  -4.5497468e-07 -3.9116671e-07  34.652074    
     36300   35.05883       50000          50000          50000         -1.3738658e-06 -3.2532258e-06 -4.3876664e-07 -4.2960491e-07  35.05883     
     36320   35.033266      50000          50000          50000         -1.3739253e-06 -3.2548565e-06 -4.1074828e-07 -4.5617118e-07  35.033266    
     36340   34.636416      50000          50000          50000         -1.3544398e-06 -3.221911e-06  -3.729948e-07  -4.6841351e-07  34.636416    
     36360   33.892175      50000          50000          50000         -1.3160589e-06 -3.1553129e-06 -3.279897e-07  -4.6487407e-07  33.892175    
     36380   32.792825      50000          50000          50000         -1.2598279e-06 -3.0559422e-06 -2.7842154e-07 -4.4511997e-07  32.792825    
     36400   31.33273       50000          50000          50000         -1.187205e-06  -2.924891e-06  -2.2698847e-07 -4.097356e-07   31.33273     
     36420   29.552083      50000          50000          50000         -1.1001015e-06 -2.7638287e-06 -1.762044e-07  -3.6027143e-07  29.552083    
     36440   27.575525      50000          50000          50000         -1.000886e-06  -2.5753028e-06 -1.2821059e-07 -2.9914468e-07  27.575525    
     36460   25.605761      50000          50000          50000         -8.9232763e-07 -2.3628908e-06 -8.4608276e-08 -2.2948379e-07  25.605761    
     36480   23.872797      50000          50000          50000         -7.7743455e-07 -2.1310806e-06 -4.6328427e-08 -1.5489461e-07  23.872797    
     36500   22.558633      50000          50000          50000         -6.5917884e-07 -1.884836e-06  -1.3567065e-08 -7.9133402e-08  22.558633    
     36520   21.736361      50000          50000          50000         -5.4017859e-07 -1.6289587e-06  1.4157539e-08 -5.7346262e-09  21.736361    
     36540   21.3569        50000          50000          50000         -4.2251316e-07 -1.367581e-06   3.7775966e-08  6.2265558e-08  21.3569      
     36560   21.286357      50000          50000          50000         -3.0778746e-07 -1.1041129e-06  5.8337105e-08  1.2241344e-07  21.286357    
     36580   21.368201      50000          50000          50000         -1.9733021e-07 -8.4155038e-07  7.6741452e-08  1.7281831e-07  21.368201    
     36600   21.480788      50000          50000          50000         -9.2339828e-08 -5.8278185e-07  9.3605157e-08  2.1215721e-07  21.480788    
     36620   21.57185       50000          50000          50000          6.075007e-09  -3.306951e-07   1.09209e-07    2.3971113e-07  21.57185     
     36640   21.661996      50000          50000          50000          9.6923412e-08 -8.8103993e-08  1.2349439e-07  2.5537984e-07  21.661996    
     36660   21.818316      50000          50000          50000          1.7938839e-07  1.4241689e-07  1.3610166e-07  2.596466e-07   21.818316    
     36680   22.116829      50000          50000          50000          2.5289296e-07  3.5873491e-07  1.4644894e-07  2.5349504e-07  22.116829    
     36700   22.596845      50000          50000          50000          3.1713997e-07  5.5928411e-07  1.5384057e-07  2.3829521e-07  22.596845    
     36720   23.244678      50000          50000          50000          3.7213274e-07  7.4312915e-07  1.5758762e-07  2.1568146e-07  23.244678    
     36740   23.998262      50000          50000          50000          4.1815373e-07  9.0989374e-07  1.5712393e-07  1.874435e-07   23.998262    
     36760   24.773308      50000          50000          50000          4.5571703e-07  1.0595941e-06  1.5210864e-07  1.5544834e-07  24.773308    
     36780   25.494751      50000          50000          50000          4.855178e-07   1.1924382e-06  1.4251442e-07  1.2160082e-07  25.494751    
     36800   26.116394      50000          50000          50000          5.0840184e-07  1.3086732e-06  1.2869941e-07  8.7832931e-08  26.116394    
     36820   26.618969      50000          50000          50000          5.2535669e-07  1.4085326e-06  1.1144713e-07  5.6090367e-08  26.618969    
     36840   26.991191      50000          50000          50000          5.3749911e-07  1.4922683e-06  9.1950647e-08  2.8278371e-08  26.991191    
     36860   27.203547      50000          50000          50000          5.4602314e-07  1.5601851e-06  7.1733585e-08  6.1507791e-09  27.203547    
     36880   27.209798      50000          50000          50000          5.5211681e-07  1.6126665e-06  5.2523675e-08 -8.8397118e-09  27.209798    
     36900   26.965485      50000          50000          50000          5.568378e-07   1.6501029e-06  3.6103387e-08 -1.5692933e-08  26.965485    
     36920   26.471389      50000          50000          50000          5.6099e-07     1.6727913e-06  2.4154838e-08 -1.3976183e-08  26.471389    
     36940   25.812282      50000          50000          50000          5.6502181e-07  1.6808346e-06  1.8107488e-08 -3.8766346e-09  25.812282    
     36960   25.164545      50000          50000          50000          5.6897046e-07  1.6741002e-06  1.8993963e-08  1.3817214e-08  25.164545    
     36980   24.756499      50000          50000          50000          5.7246541e-07  1.6522775e-06  2.7322061e-08  3.7796619e-08  24.756499    
     37000   24.787267      50000          50000          50000          5.7479166e-07  1.6150391e-06  4.2976414e-08  6.6359492e-08  24.787267    
     37020   25.333829      50000          50000          50000          5.7499712e-07  1.5622626e-06  6.516591e-08   9.7562812e-08  25.333829    
     37040   26.281949      50000          50000          50000          5.719991e-07   1.494196e-06   9.2428698e-08  1.2937256e-07  26.281949    
     37060   27.333599      50000          50000          50000          5.6466691e-07  1.4115138e-06  1.2270384e-07  1.5978313e-07  27.333599    
     37080   28.08296       50000          50000          50000          5.51841e-07    1.3151681e-06  1.5346506e-07  1.8688978e-07  28.08296     
     37100   28.15563       50000          50000          50000          5.3232176e-07  1.2061361e-06  1.8190801e-07  2.0892119e-07  28.15563     
     37120   27.356152      50000          50000          50000          5.0486076e-07  1.0851534e-06  2.0517432e-07  2.2425456e-07  27.356152    
     37140   25.765548      50000          50000          50000          4.6820026e-07  9.5255988e-07  2.2059782e-07  2.3144307e-07  25.765548    
     37160   23.748986      50000          50000          50000          4.2120234e-07  8.0836519e-07  2.2595982e-07  2.29282e-07    23.748986    
     37180   21.843555      50000          50000          50000          3.6305533e-07  6.5251057e-07  2.1973109e-07  2.1692434e-07  21.843555    
     37200   20.575477      50000          50000          50000          2.9354259e-07  4.853242e-07   2.0126823e-07  1.9403535e-07  20.575477    
     37220   20.259497      50000          50000          50000          2.1327878e-07  3.0797165e-07  1.709178e-07   1.6094687e-07  20.259497    
     37240   20.870925      50000          50000          50000          1.2383154e-07  1.2273822e-07  1.2999711e-07  1.1875929e-07  20.870925    
     37260   22.050866      50000          50000          50000          2.766974e-08  -6.69924e-08    8.0653989e-08  6.9347629e-08  22.050866    
     37280   23.25015       50000          50000          50000         -7.2064034e-08 -2.5708346e-07  2.5639157e-08  1.5252203e-08  23.25015     
     37300   23.954032      50000          50000          50000         -1.7191043e-07 -4.4321586e-07 -3.197125e-08  -4.0544176e-08  23.954032    
     37320   23.890577      50000          50000          50000         -2.6849378e-07 -6.2148445e-07 -8.906986e-08  -9.4927032e-08  23.890577    
     37340   23.133085      50000          50000          50000         -3.5884104e-07 -7.8877102e-07 -1.4277595e-07 -1.4497614e-07  23.133085    
     37360   22.058448      50000          50000          50000         -4.4051353e-07 -9.4274102e-07 -1.9059416e-07 -1.8820541e-07  22.058448    
     37380   21.185399      50000          50000          50000         -5.1156087e-07 -1.0815373e-06 -2.3046998e-07 -2.2267529e-07  21.185399    
     37400   20.966382      50000          50000          50000         -5.7039636e-07 -1.2033738e-06 -2.6079922e-07 -2.470161e-07   20.966382    
     37420   21.599714      50000          50000          50000         -6.1571119e-07 -1.3062867e-06 -2.8043981e-07 -2.6040707e-07  21.599714    
     37440   22.952643      50000          50000          50000         -6.464475e-07  -1.3880948e-06 -2.8872309e-07 -2.6252464e-07  22.952643    
     37460   24.609937      50000          50000          50000         -6.618542e-07  -1.4466271e-06 -2.85456e-07   -2.5347954e-07  24.609937    
     37480   26.029054      50000          50000          50000         -6.6165508e-07 -1.4801434e-06 -2.709744e-07  -2.338474e-07   26.029054    
     37500   26.735889      50000          50000          50000         -6.4638994e-07 -1.4878768e-06 -2.4636677e-07 -2.0492626e-07  26.735889    
     37520   26.501361      50000          50000          50000         -6.1766866e-07 -1.4704964e-06 -2.136246e-07  -1.68885e-07    26.501361    
     37540   25.446236      50000          50000          50000         -5.7797031e-07 -1.430285e-06  -1.7528064e-07 -1.2834531e-07  25.446236    
     37560   24.009674      50000          50000          50000         -5.303391e-07  -1.3710832e-06 -1.3395622e-07 -8.5977886e-08  24.009674    
     37580   22.778756      50000          50000          50000         -4.7815841e-07 -1.2978994e-06 -9.2161576e-08 -4.4414193e-08  22.778756    
     37600   22.254896      50000          50000          50000         -4.2481863e-07 -1.2161881e-06 -5.2137263e-08 -6.1305001e-09  22.254896    
     37620   22.655897      50000          50000          50000         -3.7333311e-07 -1.1310718e-06 -1.5687779e-08  2.6760238e-08  22.655897    
     37640   23.837184      50000          50000          50000         -3.2604295e-07 -1.0467616e-06  1.592215e-08   5.2710562e-08  23.837184    
     37660   25.364745      50000          50000          50000         -2.8449209e-07 -9.6630846e-07  4.1973016e-08  7.0859186e-08  25.364745    
     37680   26.702473      50000          50000          50000         -2.4947934e-07 -8.9167507e-07  6.2205201e-08  8.1031862e-08  26.702473    
     37700   27.426696      50000          50000          50000         -2.2122428e-07 -8.2399151e-07  7.6684506e-08  8.3634165e-08  27.426696    
     37720   27.377871      50000          50000          50000         -1.9954817e-07 -7.6381539e-07  8.5676674e-08  7.9494204e-08  27.377871    
     37740   26.698643      50000          50000          50000         -1.8399161e-07 -7.1126541e-07  8.957421e-08   6.9716366e-08  26.698643    
     37760   25.750994      50000          50000          50000         -1.7385639e-07 -6.6602419e-07  8.8882862e-08  5.5572149e-08  25.750994    
     37780   24.968268      50000          50000          50000         -1.6818424e-07 -6.2722682e-07  8.4250068e-08  3.842405e-08   24.968268    
     37800   24.684361      50000          50000          50000         -1.6574629e-07 -5.9341113e-07  7.6501768e-08  1.9670485e-08  24.684361    
     37820   25.018797      50000          50000          50000         -1.650736e-07  -5.6258373e-07  6.6659576e-08  7.0336519e-10  25.018797    
     37840   25.851724      50000          50000          50000         -1.645592e-07  -5.3246754e-07  5.591673e-08  -1.7126777e-08  25.851724    
     37860   26.892106      50000          50000          50000         -1.6262241e-07 -5.0089205e-07  4.556713e-08  -3.2542297e-08  26.892106    
     37880   27.803481      50000          50000          50000         -1.5790632e-07 -4.662358e-07   3.6892876e-08 -4.4376052e-08  27.803481    
     37900   28.339124      50000          50000          50000         -1.4948071e-07 -4.2781557e-07  3.101369e-08  -5.164026e-08   28.339124    
     37920   28.420842      50000          50000          50000         -1.3706232e-07 -3.8622963e-07  2.8698438e-08 -5.3655782e-08  28.420842    
     37940   28.153558      50000          50000          50000         -1.2114778e-07 -3.4346626e-07  3.0211459e-08 -5.0188554e-08  28.153558    
     37960   27.757663      50000          50000          50000         -1.0289224e-07 -3.0255373e-07  3.5328098e-08 -4.1451076e-08  27.757663    
     37980   27.45407       50000          50000          50000         -8.3768614e-08 -2.6677909e-07  4.3479246e-08 -2.8006001e-08  27.45407     
     38000   27.360888      50000          50000          50000         -6.5284445e-08 -2.3896221e-07  5.3849226e-08 -1.0740354e-08  27.360888    
     38020   27.447729      50000          50000          50000         -4.8834391e-08 -2.2105952e-07  6.5428729e-08  9.1276135e-09  27.447729    
     38040   27.572766      50000          50000          50000         -3.5587437e-08 -2.1397301e-07  7.7093665e-08  3.0117031e-08  27.572766    
     38060   27.554373      50000          50000          50000         -2.6397776e-08 -2.1752932e-07  8.770231e-08   5.0633681e-08  27.554373    
     38080   27.244723      50000          50000          50000         -2.1750367e-08 -2.3055451e-07  9.6165109e-08  6.9138299e-08  27.244723    
     38100   26.582037      50000          50000          50000         -2.1763761e-08 -2.5100091e-07  1.01454e-07    8.4255621e-08  26.582037    
     38120   25.591696      50000          50000          50000         -2.6256729e-08 -2.7613835e-07  1.0256943e-07  9.4798734e-08  25.591696    
     38140   24.363269      50000          50000          50000         -3.4783804e-08 -3.0269128e-07  9.8553104e-08  9.9786767e-08  24.363269    
     38160   23.017927      50000          50000          50000         -4.660712e-08  -3.2695558e-07  8.8600511e-08  9.8533709e-08  23.017927    
     38180   21.684562      50000          50000          50000         -6.0660061e-08 -3.4500043e-07  7.2236039e-08  9.0784203e-08  21.684562    
     38200   20.491229      50000          50000          50000         -7.5570376e-08 -3.5301475e-07  4.948024e-08   7.6823387e-08  20.491229    
     38220   19.565407      50000          50000          50000         -8.9748228e-08 -3.4773456e-07  2.0966013e-08  5.7523865e-08  19.565407    
     38240   19.027429      50000          50000          50000         -1.0150786e-07 -3.2683016e-07 -1.2018506e-08  3.432508e-08   19.027429    
     38260   18.972115      50000          50000          50000         -1.0918668e-07 -2.8913241e-07 -4.7572871e-08  9.1452293e-09  18.972115    
     38280   19.425466      50000          50000          50000         -1.1126491e-07 -2.346974e-07  -8.332401e-08  -1.5773307e-08  19.425466    
     38300   20.313515      50000          50000          50000         -1.0646316e-07 -1.6468333e-07 -1.1663548e-07 -3.8070682e-08  20.313515    
     38320   21.45743       50000          50000          50000         -9.3833154e-08 -8.1139472e-08 -1.4485664e-07 -5.5503355e-08  21.45743     
     38340   22.601058      50000          50000          50000         -7.2854037e-08  1.3178626e-08 -1.6556847e-07 -6.6172263e-08  22.601058    
     38360   23.487636      50000          50000          50000         -4.3507111e-08  1.1497942e-07 -1.7678752e-07 -6.8713228e-08  23.487636    
     38380   23.947176      50000          50000          50000         -6.3309767e-09  2.205482e-07  -1.7711164e-07 -6.242949e-08   23.947176    
     38400   23.966312      50000          50000          50000          3.7568137e-08  3.2586624e-07 -1.6580482e-07 -4.7357007e-08  23.966312    
     38420   23.707954      50000          50000          50000          8.6558588e-08  4.2677883e-07 -1.4283519e-07 -2.4267873e-08  23.707954    
     38440   23.465824      50000          50000          50000          1.385586e-07   5.1921358e-07 -1.0890042e-07  5.3626342e-09  23.465824    
     38460   23.563284      50000          50000          50000          1.9110325e-07  5.994104e-07  -6.5488407e-08  3.9387758e-08  23.563284    
     38480   24.218667      50000          50000          50000          2.4141045e-07  6.6416749e-07 -1.4970104e-08  7.5033951e-08  24.218667    
     38500   25.438379      50000          50000          50000          2.8658983e-07  7.1128228e-07  3.9408883e-08  1.0907834e-07  25.438379    
     38520   26.96978       50000          50000          50000          3.2399587e-07  7.4001826e-07  9.3749832e-08  1.3821952e-07  26.96978     
     38540   28.387962      50000          50000          50000          3.5154331e-07  7.512641e-07   1.4386691e-07  1.5949892e-07  28.387962    
     38560   29.268467      50000          50000          50000          3.6779703e-07  7.471145e-07   1.8565693e-07  1.7061967e-07  29.268467    
     38580   29.371111      50000          50000          50000          3.7192318e-07  7.3015641e-07  2.1545674e-07  1.701564e-07   29.371111    
     38600   28.750316      50000          50000          50000          3.6365081e-07  7.0285828e-07  2.3040015e-07  1.5769401e-07  28.750316    
     38620   27.721356      50000          50000          50000          3.4329207e-07  6.6721343e-07  2.2875967e-07  1.339031e-07   27.721356    
     38640   26.711761      50000          50000          50000          3.1182122e-07  6.2471591e-07  2.1021831e-07  1.0052943e-07  26.711761    
     38660   26.069628      50000          50000          50000          2.7092637e-07  5.7653538e-07  1.7598738e-07  6.0256345e-08  26.069628    
     38680   25.91606       50000          50000          50000          2.2291309e-07  5.2365723e-07  1.2867421e-07  1.6407833e-08  25.91606     
     38700   26.113638      50000          50000          50000          1.7042902e-07  4.668435e-07   7.1912214e-08 -2.7468647e-08  26.113638    
     38720   26.354979      50000          50000          50000          1.1614103e-07  4.0649047e-07  9.9296653e-09 -6.7997055e-08  26.354979    
     38740   26.312433      50000          50000          50000          6.2542412e-08  3.425723e-07  -5.2730754e-08 -1.0221431e-07  26.312433    
     38760   25.77798       50000          50000          50000          1.1890702e-08  2.7473601e-07 -1.113733e-07  -1.276906e-07   25.77798     
     38780   24.757384      50000          50000          50000         -3.3864509e-08  2.0248509e-07 -1.6140871e-07 -1.426699e-07   24.757384    
     38800   23.460669      50000          50000          50000         -7.3212612e-08  1.2535502e-07 -1.9874953e-07 -1.4624333e-07  23.460669    
     38820   22.204536      50000          50000          50000         -1.0514667e-07  4.3207226e-08 -2.2019658e-07 -1.3845066e-07  22.204536    
     38840   21.264099      50000          50000          50000         -1.2914826e-07 -4.3429729e-08 -2.237453e-07  -1.2026975e-07  21.264099    
     38860   20.745328      50000          50000          50000         -1.4514409e-07 -1.3313104e-07 -2.0879419e-07 -9.3507041e-08  20.745328    
     38880   20.542315      50000          50000          50000         -1.5348518e-07 -2.2360578e-07 -1.7623748e-07 -6.0612271e-08  20.542315    
     38900   20.403984      50000          50000          50000         -1.5496669e-07 -3.1203045e-07 -1.284257e-07  -2.4443931e-08  20.403984    
     38920   20.08008       50000          50000          50000         -1.5086668e-07 -3.9559562e-07 -6.8992632e-08  1.198822e-08   20.08008     
     38940   19.474303      50000          50000          50000         -1.429533e-07  -4.7207853e-07 -2.5632814e-09  4.5781923e-08  19.474303    
     38960   18.72557       50000          50000          50000         -1.3340727e-07 -5.4024229e-07  6.5633142e-08  7.4387342e-08  18.72557     
     38980   18.170468      50000          50000          50000         -1.2463172e-07 -5.9993522e-07  1.3021558e-07  9.5824472e-08  18.170468    
     39000   18.196695      50000          50000          50000         -1.1896831e-07 -6.5188762e-07  1.8612945e-07  1.0885325e-07  18.196695    
     39020   19.052881      50000          50000          50000         -1.183888e-07  -6.9732885e-07  2.2909447e-07  1.1306797e-07  19.052881    
     39040   20.705419      50000          50000          50000         -1.242599e-07  -7.3762162e-07  2.5595338e-07  1.0888854e-07  20.705419    
     39060   22.820594      50000          50000          50000         -1.3724836e-07 -7.740559e-07   2.6486806e-07  9.7442765e-08  22.820594    
     39080   24.871459      50000          50000          50000         -1.5739093e-07 -8.0789662e-07  2.5535494e-07  8.0368898e-08  24.871459    
     39100   26.344192      50000          50000          50000         -1.8424826e-07 -8.4053152e-07  2.2819656e-07  5.9590194e-08  26.344192    
     39120   26.939373      50000          50000          50000         -2.1709552e-07 -8.7365722e-07  1.8527166e-07  3.7099005e-08  26.939373    
     39140   26.70926       50000          50000          50000         -2.5508922e-07 -9.0933452e-07  1.2932483e-07  1.474204e-08   26.70926     
     39160   26.060129      50000          50000          50000         -2.9741229e-07 -9.4992753e-07  6.3735316e-08 -6.0446532e-09  26.060129    
     39180   25.618214      50000          50000          50000         -3.431872e-07  -9.976581e-07  -7.4786936e-09 -2.4424816e-08  25.618214    
     39200   25.96523       50000          50000          50000         -3.9090593e-07 -1.0534439e-06 -7.9356084e-08 -3.9917755e-08  25.96523     
     39220   27.324618      50000          50000          50000         -4.3800594e-07 -1.1157868e-06 -1.46168e-07   -5.2062982e-08  27.324618    
     39240   29.407859      50000          50000          50000         -4.8121695e-07 -1.1807299e-06 -2.0235662e-07 -6.0564339e-08  29.407859    
     39260   31.521428      50000          50000          50000         -5.1717248e-07 -1.2425874e-06 -2.4340801e-07 -6.5522063e-08  31.521428    
     39280   32.855929      50000          50000          50000         -5.4290926e-07 -1.2949502e-06 -2.663265e-07  -6.7451125e-08  32.855929    
     39300   32.831378      50000          50000          50000         -5.5625074e-07 -1.3317221e-06 -2.6985261e-07 -6.7177532e-08  32.831378    
     39320   31.346763      50000          50000          50000         -5.5607134e-07 -1.3479977e-06 -2.5452157e-07 -6.5694742e-08  31.346763    
     39340   28.826181      50000          50000          50000         -5.4239503e-07 -1.3406113e-06 -2.2257619e-07 -6.3997589e-08  28.826181    
     39360   26.054243      50000          50000          50000         -5.1628761e-07 -1.3082369e-06 -1.7772547e-07 -6.2900435e-08  26.054243    
     39380   23.847959      50000          50000          50000         -4.795891e-07  -1.2511732e-06 -1.2473685e-07 -6.2857273e-08  23.847959    
     39400   22.71996       50000          50000          50000         -4.3454106e-07 -1.1709368e-06 -6.8871308e-08 -6.3815069e-08  22.71996     
     39420   22.682467      50000          50000          50000         -3.8342534e-07 -1.0698985e-06 -1.5229495e-08 -6.5148036e-08  22.682467    
     39440   23.285617      50000          50000          50000         -3.2833992e-07 -9.5111996e-07  3.1833508e-08 -6.573332e-08   23.285617    
     39460   23.860218      50000          50000          50000         -2.7119623e-07 -8.1843649e-07  6.9037334e-08 -6.4189536e-08  23.860218    
     39480   23.831931      50000          50000          50000         -2.1387777e-07 -6.7667775e-07  9.4226476e-08 -5.9182051e-08  23.831931    
     39500   22.963726      50000          50000          50000         -1.5838455e-07 -5.3180513e-07  1.0631505e-07 -4.9663563e-08  22.963726    
     39520   21.442521      50000          50000          50000         -1.0684052e-07 -3.9074339e-07  1.0525475e-07 -3.5032913e-08  21.442521    
     39540   19.790605      50000          50000          50000         -6.1346478e-08 -2.6079732e-07  9.2012687e-08 -1.5254799e-08  19.790605    
     39560   18.640121      50000          50000          50000         -2.3718884e-08 -1.4871991e-07  6.8505582e-08  9.0576738e-09  18.640121    
     39580   18.462081      50000          50000          50000          4.8063251e-09 -5.9663772e-08  3.7456922e-08  3.6625826e-08  18.462081    
     39600   19.359604      50000          50000          50000          2.3791195e-08  3.636254e-09   2.1651164e-09  6.5572215e-08  19.359604    
     39620   21.025722      50000          50000          50000          3.3653386e-08  4.1196076e-08 -3.3803137e-08  9.3567219e-08  21.025722    
     39640   22.867232      50000          50000          50000          3.5518447e-08  5.5479224e-08 -6.6955256e-08  1.1803137e-07  22.867232    
     39660   24.257582      50000          50000          50000          3.0949575e-08  5.0678987e-08 -9.4200428e-08  1.3637017e-07  24.257582    
     39680   24.79445       50000          50000          50000          2.1643707e-08  3.183086e-08  -1.131234e-07   1.4622366e-07  24.79445     
     39700   24.459946      50000          50000          50000          9.2014127e-09  4.061982e-09  -1.2218482e-07  1.4572708e-07  24.459946    
     39720   23.616427      50000          50000          50000         -4.9716511e-09 -2.7852673e-08 -1.2083893e-07  1.3377665e-07  23.616427    
     39740   22.837868      50000          50000          50000         -1.9630773e-08 -5.9604549e-08 -1.0955647e-07  1.102687e-07   22.837868    
     39760   22.646779      50000          50000          50000         -3.3586106e-08 -8.7260522e-08 -8.9741127e-08  7.6243332e-08  22.646779    
     39780   23.274241      50000          50000          50000         -4.5622865e-08 -1.0718791e-07 -6.3544631e-08  3.386395e-08   23.274241    
     39800   24.554089      50000          50000          50000         -5.4526926e-08 -1.1619219e-07 -3.3611149e-08 -1.377744e-08   24.554089    
     39820   25.996347      50000          50000          50000         -5.9226026e-08 -1.1191363e-07 -2.7934155e-09 -6.2971036e-08  25.996347    
     39840   27.000245      50000          50000          50000         -5.8989909e-08 -9.335422e-08   2.6123921e-08 -1.0973943e-07  27.000245    
     39860   27.104492      50000          50000          50000         -5.3615157e-08 -6.1337056e-08  5.0671466e-08 -1.5017988e-07  27.104492    
     39880   26.172695      50000          50000          50000         -4.3522615e-08 -1.8685553e-08  6.8901228e-08 -1.8078352e-07  26.172695    
     39900   24.439053      50000          50000          50000         -2.9729751e-08  2.9992805e-08  7.9546068e-08 -1.9872813e-07  24.439053    
     39920   22.403494      50000          50000          50000         -1.3689707e-08  7.8940464e-08  8.2127302e-08 -2.0213689e-07  22.403494    
     39940   20.625193      50000          50000          50000          2.9683435e-09  1.2219072e-07  7.6998824e-08 -1.9028452e-07  20.625193    
     39960   19.505415      50000          50000          50000          1.8725656e-08  1.5458835e-07  6.5310408e-08 -1.6372179e-07  19.505415    
     39980   19.154166      50000          50000          50000          3.2400614e-08  1.7261141e-07  4.8878162e-08 -1.2428773e-07  19.154166    
     40000   19.394582      50000          50000          50000          4.325292e-08   1.7478017e-07  2.9968494e-08 -7.4989905e-08  19.394582    
     40020   19.891662      50000          50000          50000          5.0957707e-08  1.6160421e-07  1.1024674e-08 -1.975576e-08   19.891662    
     40040   20.33346       50000          50000          50000          5.5497704e-08  1.3519634e-07 -5.6200237e-09  3.6916801e-08  20.33346     
     40060   20.574291      50000          50000          50000          5.7046829e-08  9.877357e-08  -1.7998036e-08  9.0364953e-08  20.574291    
     40080   20.677399      50000          50000          50000          5.5903692e-08  5.623428e-08  -2.4700066e-08  1.3617686e-07  20.677399    
     40100   20.848651      50000          50000          50000          5.2492329e-08  1.1885512e-08 -2.4990499e-08  1.7058197e-07  20.848651    
     40120   21.303873      50000          50000          50000          4.7405705e-08 -2.9726431e-08 -1.8844893e-08  1.9078844e-07  21.303873    
     40140   22.138924      50000          50000          50000          4.1447018e-08 -6.3991886e-08 -6.9114258e-09  1.9524436e-07  22.138924    
     40160   23.264148      50000          50000          50000          3.5630218e-08 -8.6518469e-08  9.6073521e-09  1.8380177e-07  23.264148    
     40180   24.436868      50000          50000          50000          3.1126348e-08 -9.3520779e-08  2.9152102e-08  1.5774772e-07  24.436868    
     40200   25.371157      50000          50000          50000          2.9125117e-08 -8.2265789e-08  5.0020852e-08  1.1962029e-07  25.371157    
     40220   25.87158       50000          50000          50000          3.057509e-08  -5.1502639e-08  7.0440476e-08  7.2787433e-08  25.87158     
     40240   25.92356       50000          50000          50000          3.5840834e-08 -1.971548e-09   8.8427921e-08  2.1066128e-08  25.92356     
     40260   25.696501      50000          50000          50000          4.461519e-08   6.3148613e-08  1.0184721e-07 -3.1150255e-08  25.696501    
     40280   25.446823      50000          50000          50000          5.6358892e-08  1.3861631e-07  1.0904413e-07 -7.8583759e-08  25.446823    
     40300   25.366008      50000          50000          50000          7.0626516e-08  2.1821312e-07  1.0933083e-07 -1.156644e-07   25.366008    
     40320   25.464431      50000          50000          50000          8.7013571e-08  2.9571948e-07  1.0294124e-07 -1.3762001e-07  25.464431    
     40340   25.554599      50000          50000          50000          1.0507801e-07  3.6561434e-07  9.085266e-08  -1.4123297e-07  25.554599    
     40360   25.337578      50000          50000          50000          1.2429078e-07  4.2351553e-07  7.4608558e-08 -1.2525175e-07  25.337578    
     40380   24.556672      50000          50000          50000          1.439761e-07   4.6637738e-07  5.6116721e-08 -9.0565791e-08  24.556672    
     40400   23.142283      50000          50000          50000          1.6326787e-07  4.9250898e-07  3.7430964e-08 -4.0136342e-08  23.142283    
     40420   21.276807      50000          50000          50000          1.8114059e-07  5.0153414e-07  2.0544664e-08  2.1342955e-08  21.276807    
     40440   19.344837      50000          50000          50000          1.965365e-07   4.9435897e-07  7.2140136e-09  8.8036511e-08  19.344837    
     40460   17.785131      50000          50000          50000          2.0852709e-07  4.7307613e-07 -1.1951973e-09  1.5370032e-07  17.785131    
     40480   16.929946      50000          50000          50000          2.1642429e-07  4.4074367e-07 -3.8406639e-09  2.1236986e-07  16.929946    
     40500   16.886113      50000          50000          50000          2.197773e-07   4.0097277e-07 -5.0181171e-10  2.5886095e-07  16.886113    
     40520   17.513019      50000          50000          50000          2.183247e-07   3.574757e-07   8.3986723e-09  2.8909974e-07  17.513019    
     40540   18.489622      50000          50000          50000          2.1193652e-07  3.1360444e-07  2.1845224e-08  3.003599e-07   18.489622    
     40560   19.442373      50000          50000          50000          2.0053802e-07  2.7186773e-07  3.83225e-08    2.9142384e-07  19.442373    
     40580   20.087172      50000          50000          50000          1.8401768e-07  2.3346988e-07  5.5937285e-08  2.6264589e-07  20.087172    
     40600   20.333448      50000          50000          50000          1.6215343e-07  1.9798151e-07  7.2569741e-08  2.1590904e-07  20.333448    
     40620   20.312095      50000          50000          50000          1.3459289e-07  1.6324167e-07  8.605098e-08   1.5448602e-07  20.312095    
     40640   20.317156      50000          50000          50000          1.0090248e-07  1.2553431e-07  9.4355474e-08  8.2817664e-08  20.317156    
     40660   20.682421      50000          50000          50000          6.0676733e-08  8.0021033e-08  9.5792803e-08  6.2163621e-09  20.682421    
     40680   21.63778       50000          50000          50000          1.3683566e-08  2.1370164e-08  8.9184431e-08 -6.9503895e-08  21.63778     
     40700   23.197547      50000          50000          50000         -3.9991384e-08 -5.5511895e-08  7.4011429e-08 -1.3847369e-07  23.197547    
     40720   25.129586      50000          50000          50000         -9.9843166e-08 -1.5475337e-07  5.051102e-08  -1.9528715e-07  25.129586    
     40740   27.020047      50000          50000          50000         -1.6493678e-07 -2.7894131e-07  1.969115e-08  -2.3556017e-07  27.020047    
     40760   28.417589      50000          50000          50000         -2.3399318e-07 -4.2877659e-07 -1.6754885e-08 -2.5644806e-07  28.417589    
     40780   29.000175      50000          50000          50000         -3.0553229e-07 -6.0295806e-07 -5.6618722e-08 -2.570201e-07   29.000175    
     40800   28.696223      50000          50000          50000         -3.7800576e-07 -7.9821469e-07 -9.7392554e-08 -2.3841003e-07  28.696223    
     40820   27.709859      50000          50000          50000         -4.4986949e-07 -1.0094066e-06 -1.3649165e-07 -2.0371021e-07  27.709859    
     40840   26.439919      50000          50000          50000         -5.1958604e-07 -1.2296757e-06 -1.7146074e-07 -1.5762173e-07  26.439919    
     40860   25.325824      50000          50000          50000         -5.8558358e-07 -1.4506885e-06 -2.0015482e-07 -1.0590744e-07  25.325824    
     40880   24.682684      50000          50000          50000         -6.4621912e-07 -1.6630449e-06 -2.2089099e-07 -5.4721448e-08  24.682684    
     40900   24.591185      50000          50000          50000         -6.9979217e-07 -1.8568996e-06 -2.3256822e-07 -9.908721e-09   24.591185    
     40920   24.883915      50000          50000          50000         -7.4463113e-07 -2.0227695e-06 -2.3474898e-07  2.3625118e-08  24.883915    
     40940   25.229359      50000          50000          50000         -7.7923973e-07 -2.1524164e-06 -2.2769404e-07  4.239123e-08   25.229359    
     40960   25.276418      50000          50000          50000         -8.0246204e-07 -2.2396446e-06 -2.123432e-07   4.4601661e-08  25.276418    
     40980   24.802102      50000          50000          50000         -8.1361932e-07 -2.2808836e-06 -1.9023937e-07  3.0264983e-08  24.802102    
     41000   23.808159      50000          50000          50000         -8.1258414e-07 -2.2754752e-06 -1.6339877e-07  1.121503e-09   23.808159    
     41020   22.532892      50000          50000          50000         -7.9977571e-07 -2.2256376e-06 -1.3413174e-07 -3.9557741e-08  22.532892    
     41040   21.373591      50000          50000          50000         -7.7607501e-07 -2.1361062e-06 -1.0482273e-07 -8.7296095e-08  21.373591    
     41060   20.745143      50000          50000          50000         -7.4267491e-07 -2.0134885e-06 -7.7687453e-08 -1.3684882e-07  20.745143    
     41080   20.923885      50000          50000          50000         -7.0089823e-07 -1.8654309e-06 -5.453963e-08  -1.8272418e-07  20.923885    
     41100   21.933686      50000          50000          50000         -6.5203041e-07 -1.6997485e-06 -3.6609319e-08 -2.1973337e-07  21.933686    
     41120   23.517919      50000          50000          50000         -5.972101e-07  -1.5236849e-06 -2.444813e-08  -2.4349729e-07  23.517919    
     41140   25.209986      50000          50000          50000         -5.3739847e-07 -1.3434186e-06 -1.7933134e-08 -2.5084372e-07  25.209986    
     41160   26.479662      50000          50000          50000         -4.7341589e-07 -1.1638392e-06 -1.6352968e-08 -2.4005547e-07  26.479662    
     41180   26.907185      50000          50000          50000         -4.0600705e-07 -9.8852018e-07 -1.8542251e-08 -2.1095873e-07  26.907185    
     41200   26.328924      50000          50000          50000         -3.3587977e-07 -8.1975795e-07 -2.3028581e-08 -1.6485279e-07  26.328924    
     41220   24.907508      50000          50000          50000         -2.6366936e-07 -6.5855531e-07 -2.8167871e-08 -1.0428489e-07  24.907508    
     41240   23.103376      50000          50000          50000         -1.8988846e-07 -5.0460153e-07 -3.2291694e-08 -3.277217e-08   23.103376    
     41260   21.555876      50000          50000          50000         -1.1520809e-07 -3.5676893e-07 -3.3980855e-08  4.5125514e-08  21.555876    
     41280   20.88465       50000          50000          50000         -4.1076218e-08 -2.1422215e-07 -3.2360178e-08  1.2335367e-07  20.88465     
     41300   21.41569       50000          50000          50000          3.0591046e-08 -7.6286267e-08 -2.6908088e-08  1.9496749e-07  21.41569     
     41320   22.962841      50000          50000          50000          9.8496388e-08  5.8856993e-08 -1.7145803e-08  2.5377797e-07  22.962841    
     41340   24.857155      50000          50000          50000          1.6225346e-07  1.9418028e-07 -2.7553377e-09  2.9533543e-07  24.857155    
     41360   26.223112      50000          50000          50000          2.2204469e-07  3.3265371e-07  1.625509e-08   3.1722527e-07  26.223112    
     41380   26.347559      50000          50000          50000          2.7821936e-07  4.7604817e-07  3.9530176e-08  3.1907974e-07  26.347559    
     41400   24.971109      50000          50000          50000          3.3093586e-07  6.2413621e-07  6.6373451e-08  3.0229793e-07  24.971109    
     41420   22.393469      50000          50000          50000          3.7987141e-07  7.7432657e-07  9.571166e-08   2.6957601e-07  22.393469    
     41440   19.37588       50000          50000          50000          4.2413727e-07  9.2176242e-07  1.2610071e-07  2.2454867e-07  19.37588     
     41460   16.883686      50000          50000          50000          4.6248407e-07  1.0599954e-06  1.5585649e-07  1.7160032e-07  16.883686    
     41480   15.750061      50000          50000          50000          4.9367468e-07  1.1821303e-06  1.8326581e-07  1.1562796e-07  15.750061    
     41500   16.380088      50000          50000          50000          5.16831e-07    1.2820452e-06  2.067957e-07   6.165206e-08   16.380088    
     41520   18.611613      50000          50000          50000          5.3161515e-07  1.3552598e-06  2.2524061e-07  1.4345032e-08  18.611613    
     41540   21.784308      50000          50000          50000          5.381924e-07   1.3992192e-06  2.3776914e-07 -2.2411103e-08  21.784308    
     41560   24.977631      50000          50000          50000          5.3703267e-07  1.4130658e-06  2.438788e-07  -4.5846578e-08  24.977631    
     41580   27.317302      50000          50000          50000          5.286697e-07   1.3971738e-06  2.4330774e-07 -5.4472418e-08  27.317302    
     41600   28.242371      50000          50000          50000          5.1351397e-07  1.3527158e-06  2.3594828e-07 -4.8122137e-08  28.242371    
     41620   27.655107      50000          50000          50000          4.9176185e-07  1.2814144e-06  2.217842e-07  -2.7913017e-08  27.655107    
     41640   25.920207      50000          50000          50000          4.6340833e-07  1.1855274e-06  2.008627e-07   3.834865e-09   25.920207    
     41660   23.723571      50000          50000          50000          4.2836089e-07  1.0680577e-06  1.7332007e-07  4.3704893e-08  23.723571    
     41680   21.834546      50000          50000          50000          3.8665802e-07  9.331266e-07   1.3949176e-07  8.7355686e-08  21.834546    
     41700   20.84039       50000          50000          50000          3.3876009e-07  7.8631244e-07  1.0010552e-07  1.298623e-07   20.84039     
     41720   20.944354      50000          50000          50000          2.8577246e-07  6.3459285e-07  5.6462149e-08  1.6626238e-07  20.944354    
     41740   21.914936      50000          50000          50000          2.2943615e-07  4.8565986e-07  1.0478873e-08  1.9216972e-07  21.914936    
     41760   23.211187      50000          50000          50000          1.7187725e-07  3.4679045e-07 -3.5434021e-08  2.0427532e-07  23.211187    
     41780   24.220973      50000          50000          50000          1.1524736e-07  2.2370029e-07 -7.8610602e-08  2.0065239e-07  24.220973    
     41800   24.502321      50000          50000          50000          6.1399017e-08  1.1974884e-07 -1.1642038e-07  1.8086859e-07  24.502321    
     41820   23.923242      50000          50000          50000          1.1676326e-08  3.5652303e-08 -1.465664e-07   1.4594307e-07  23.923242    
     41840   22.678023      50000          50000          50000         -3.3128571e-08 -3.0233913e-08 -1.6734636e-07  9.819456e-08   22.678023    
     41860   21.161381      50000          50000          50000         -7.2716148e-08 -8.1314507e-08 -1.7784453e-07  4.1010592e-08  21.161381    
     41880   19.79931       50000          50000          50000         -1.0712886e-07 -1.2192659e-07 -1.7801665e-07 -2.1443326e-08  19.79931     
     41900   18.892611      50000          50000          50000         -1.3659411e-07 -1.5656735e-07 -1.6864056e-07 -8.4574419e-08  18.892611    
     41920   18.541631      50000          50000          50000         -1.6141967e-07 -1.8934163e-07 -1.511373e-07  -1.437801e-07   18.541631    
     41940   18.669939      50000          50000          50000         -1.8200054e-07 -2.2375009e-07 -1.2734378e-07 -1.9490775e-07  18.669939    
     41960   19.114438      50000          50000          50000         -1.9890444e-07 -2.6273885e-07 -9.9345807e-08 -2.3462866e-07  19.114438    
     41980   19.71333       50000          50000          50000         -2.1291095e-07 -3.0876631e-07 -6.937823e-08  -2.6058832e-07  19.71333     
     42000   20.361826      50000          50000          50000         -2.2493284e-07 -3.636744e-07  -3.973239e-08  -2.7139172e-07  20.361826    
     42020   21.006846      50000          50000          50000         -2.3590744e-07 -4.2848067e-07 -1.265582e-08  -2.6658585e-07  21.006846    
     42040   21.612878      50000          50000          50000         -2.466916e-07  -5.0313911e-07  9.7543055e-09 -2.4669e-07     21.612878    
     42060   22.125351      50000          50000          50000         -2.5795913e-07 -5.8635098e-07  2.5692243e-08 -2.1321866e-07  22.125351    
     42080   22.45686       50000          50000          50000         -2.701129e-07  -6.7555e-07     3.3833431e-08 -1.6862213e-07  22.45686     
     42100   22.514582      50000          50000          50000         -2.8326162e-07 -7.6716856e-07  3.3511391e-08 -1.1612769e-07  22.514582    
     42120   22.255329      50000          50000          50000         -2.972805e-07  -8.5713919e-07  2.4817116e-08 -5.9519438e-08  22.255329    
     42140   21.741282      50000          50000          50000         -3.1188669e-07 -9.4140659e-07  8.6298629e-09 -2.8833375e-09  21.741282    
     42160   21.144733      50000          50000          50000         -3.2669298e-07 -1.016347e-06  -1.3405113e-08  4.9673217e-08  21.144733    
     42180   20.704459      50000          50000          50000         -3.4120587e-07 -1.0789718e-06 -3.8967944e-08  9.4322188e-08  20.704459    
     42200   20.628958      50000          50000          50000         -3.5480148e-07 -1.1269794e-06 -6.5246925e-08  1.2782187e-07  20.628958    
     42220   20.999345      50000          50000          50000         -3.6669911e-07 -1.1586831e-06 -8.9216841e-08  1.4780259e-07  20.999345    
     42240   21.707041      50000          50000          50000         -3.7598884e-07 -1.1729707e-06 -1.0798714e-07  1.5299128e-07  21.707041    
     42260   22.483322      50000          50000          50000         -3.8171274e-07 -1.1693128e-06 -1.1916447e-07  1.4333911e-07  22.483322    
     42280   23.003858      50000          50000          50000         -3.8300719e-07 -1.1478913e-06 -1.211642e-07   1.2003392e-07  23.003858    
     42300   23.032232      50000          50000          50000         -3.7925968e-07 -1.1097643e-06 -1.1341616e-07  8.5401455e-08  23.032232    
     42320   22.53632       50000          50000          50000         -3.7022774e-07 -1.0569614e-06 -9.6434835e-08  4.2713047e-08  22.53632     
     42340   21.719816      50000          50000          50000         -3.5607541e-07 -9.9239696e-07 -7.1749493e-08 -4.0797781e-09  21.719816    
     42360   20.946553      50000          50000          50000         -3.3730994e-07 -9.1955371e-07 -4.1709057e-08 -5.0667058e-08  20.946553    
     42380   20.584366      50000          50000          50000         -3.1463626e-07 -8.4197822e-07 -9.1887457e-09 -9.27418e-08    20.584366    
     42400   20.836118      50000          50000          50000         -2.8877765e-07 -7.6272255e-07  2.2765586e-08 -1.2637598e-07  20.836118    
     42420   21.645603      50000          50000          50000         -2.6031906e-07 -6.8389411e-07  5.1309884e-08 -1.4837294e-07  21.645603    
     42440   22.715544      50000          50000          50000         -2.2965429e-07 -6.065284e-07   7.4118688e-08 -1.5655316e-07  22.715544    
     42460   23.648786      50000          50000          50000         -1.9705006e-07 -5.3079557e-07  8.957534e-08  -1.4992996e-07  23.648786    
     42480   24.127514      50000          50000          50000         -1.6279988e-07 -4.5647624e-07  9.6823199e-08 -1.287466e-07   24.127514    
     42500   24.051594      50000          50000          50000         -1.273533e-07  -3.8343281e-07  9.5756816e-08 -9.4383905e-08  24.051594    
     42520   23.580673      50000          50000          50000         -9.1347216e-08 -3.1187019e-07  8.7016511e-08 -4.9187972e-08  23.580673    
     42540   23.06235       50000          50000          50000         -5.5541966e-08 -2.4234709e-07  7.1975571e-08  3.7456215e-09  23.06235     
     42560   22.891411      50000          50000          50000         -2.0679807e-08 -1.7555116e-07  5.2683581e-08  6.0828163e-08  22.891411    
     42580   23.339743      50000          50000          50000          1.2633204e-08 -1.1206483e-07  3.1724394e-08  1.1824004e-07  23.339743    
     42600   24.438028      50000          50000          50000          4.3881184e-08 -5.2361921e-08  1.195425e-08   1.7205122e-07  24.438028    
     42620   25.937567      50000          50000          50000          7.2338081e-08  2.7902012e-09 -3.8590622e-09  2.180831e-07   25.937567    
     42640   27.360847      50000          50000          50000          9.6974601e-08  5.2143954e-08 -1.3276195e-08  2.5205604e-07  27.360847    
     42660   28.164518      50000          50000          50000          1.1691475e-07  9.4464445e-08 -1.4297787e-08  2.705776e-07   28.164518    
     42680   27.983926      50000          50000          50000          1.3162063e-07  1.2866203e-07 -5.7570781e-09  2.7195693e-07  27.983926    
     42700   26.817849      50000          50000          50000          1.4058779e-07  1.5335205e-07  1.2204556e-08  2.5620677e-07  26.817849    
     42720   25.03942       50000          50000          50000          1.4317688e-07  1.6670564e-07  3.8005015e-08  2.2481998e-07  25.03942     
     42740   23.228178      50000          50000          50000          1.3874525e-07  1.6682304e-07  6.8819736e-08  1.8059297e-07  23.228178    
     42760   21.904144      50000          50000          50000          1.2691622e-07  1.5236186e-07  1.0099079e-07  1.2739602e-07  21.904144    
     42780   21.291257      50000          50000          50000          1.0782121e-07  1.2307826e-07  1.305681e-07   6.9817277e-08  21.291257    
     42800   21.226952      50000          50000          50000          8.2184509e-08  7.9992348e-08  1.5387595e-07  1.2685228e-08  21.226952    
     42820   21.262031      50000          50000          50000          5.1191471e-08  2.5073027e-08  1.6796367e-07 -3.9462284e-08  21.262031    
     42840   20.896058      50000          50000          50000          1.6202721e-08 -3.9389328e-08  1.7084537e-07 -8.2847877e-08  20.896058    
     42860   19.829647      50000          50000          50000         -2.1527741e-08 -1.1137961e-07  1.6155916e-07 -1.1476277e-07  19.829647    
     42880   18.119498      50000          50000          50000         -6.0999864e-08 -1.8944876e-07  1.4015086e-07 -1.3370169e-07  18.119498    
     42900   16.174689      50000          50000          50000         -1.0145559e-07 -2.7262389e-07  1.0764011e-07 -1.3938299e-07  16.174689    
     42920   14.598896      50000          50000          50000         -1.4225393e-07 -3.6001998e-07  6.5955979e-08 -1.326978e-07   14.598896    
     42940   13.944313      50000          50000          50000         -1.8270243e-07 -4.5033019e-07  1.7811394e-08 -1.1558849e-07  13.944313    
     42960   14.481691      50000          50000          50000         -2.2192271e-07 -5.4142463e-07 -3.3499301e-08 -9.0844211e-08  14.481691    
     42980   16.086798      50000          50000          50000         -2.5881628e-07 -6.302566e-07  -8.4372592e-08 -6.1819659e-08  16.086798    
     43000   18.292308      50000          50000          50000         -2.9215226e-07 -7.1314074e-07 -1.3120878e-07 -3.2107269e-08  18.292308    
     43020   20.479308      50000          50000          50000         -3.2074051e-07 -7.8629399e-07 -1.7072339e-07 -5.2041439e-09  20.479308    
     43040   22.123031      50000          50000          50000         -3.4361659e-07 -8.4642216e-07 -2.0021787e-07  1.5790259e-08  22.123031    
     43060   22.989953      50000          50000          50000         -3.6016935e-07 -8.9113807e-07 -2.1778777e-07  2.8417801e-08  22.989953    
     43080   23.209665      50000          50000          50000         -3.7018503e-07 -9.1909392e-07 -2.2247698e-07  3.1015796e-08  23.209665    
     43100   23.196544      50000          50000          50000         -3.7384096e-07 -9.298565e-07  -2.1442852e-07  2.2762157e-08  23.196544    
     43120   23.446193      50000          50000          50000         -3.7164848e-07 -9.2362191e-07 -1.9503958e-07  3.7160588e-09  23.446193    
     43140   24.271017      50000          50000          50000         -3.6419117e-07 -9.0073871e-07 -1.669002e-07  -2.4934602e-08  24.271017    
     43160   25.595896      50000          50000          50000         -3.5171156e-07 -8.6116234e-07 -1.3334277e-07 -6.0629573e-08  25.595896    
     43180   26.956504      50000          50000          50000         -3.3399126e-07 -8.043702e-07  -9.7890294e-08 -9.9713284e-08  26.956504    
     43200   27.723178      50000          50000          50000         -3.1062122e-07 -7.2988256e-07 -6.3870239e-08 -1.3811087e-07  27.723178    
     43220   27.42088       50000          50000          50000         -2.813467e-07  -6.3796968e-07 -3.4138608e-08 -1.7193182e-07  27.42088     
     43240   25.978279      50000          50000          50000         -2.4628019e-07 -5.3014457e-07 -1.0834043e-08 -1.9786197e-07  25.978279    
     43260   23.789875      50000          50000          50000         -2.0595022e-07 -4.092384e-07   4.8134845e-09 -2.1342576e-07  23.789875    
     43280   21.560505      50000          50000          50000         -1.6119102e-07 -2.7899771e-07  1.2583185e-08 -2.1715854e-07  21.560505    
     43300   19.998379      50000          50000          50000         -1.1291077e-07 -1.4331553e-07  1.3255691e-08 -2.0867246e-07  19.998379    
     43320   19.498088      50000          50000          50000         -6.1836092e-08 -5.3945794e-09  8.4827825e-09 -1.8859648e-07  19.498088    
     43340   19.967384      50000          50000          50000         -8.3647597e-09  1.327739e-07   5.3275869e-10 -1.5840093e-07  19.967384    
     43360   20.882015      50000          50000          50000          4.7380324e-08  2.7035231e-07 -8.0529303e-09 -1.201584e-07   20.882015    
     43380   21.535875      50000          50000          50000          1.0531369e-07  4.0705872e-07 -1.4811825e-08 -7.6305831e-08  21.535875    
     43400   21.363856      50000          50000          50000          1.6508703e-07  5.4234251e-07 -1.7642075e-08 -2.9439349e-08  21.363856    
     43420   20.197444      50000          50000          50000          2.2585786e-07  6.7470039e-07 -1.4990492e-08  1.7863694e-08  20.197444    
     43440   18.35206       50000          50000          50000          2.8620751e-07  8.0138235e-07 -5.9677891e-09  6.3207965e-08  18.35206     
     43460   16.510641      50000          50000          50000          3.4423709e-07  9.1858326e-07  9.593743e-09   1.0453427e-07  16.510641    
     43480   15.444515      50000          50000          50000          3.9782087e-07  1.0220564e-06  3.1145362e-08  1.4026087e-07  15.444515    
     43500   15.68199       50000          50000          50000          4.4493794e-07  1.1079202e-06  5.7499906e-08  1.6939368e-07  15.68199     
     43520   17.266555      50000          50000          50000          4.8395952e-07  1.1733222e-06  8.698089e-08   1.9157542e-07  17.266555    
     43540   19.715202      50000          50000          50000          5.1378091e-07  1.2166683e-06  1.1762383e-07  2.0705057e-07  19.715202    
     43560   22.199573      50000          50000          50000          5.3376293e-07  1.2373366e-06  1.4740208e-07  2.1655009e-07  22.199573    
     43580   23.872683      50000          50000          50000          5.4353491e-07  1.2350354e-06  1.7444659e-07  2.2112278e-07  23.872683    
     43600   24.20406       50000          50000          50000          5.427208e-07   1.2090592e-06  1.9718748e-07  2.2191571e-07  24.20406     
     43620   23.194205      50000          50000          50000          5.3057235e-07  1.1576421e-06  2.1423777e-07  2.1983721e-07  23.194205    
     43640   21.400543      50000          50000          50000          5.0572362e-07  1.0778818e-06  2.2408682e-07  2.1520225e-07  21.400543    
     43660   19.735092      50000          50000          50000          4.6684283e-07  9.6719217e-07  2.2545097e-07  2.0788536e-07  19.735092    
     43680   19.061685      50000          50000          50000          4.1383065e-07  8.255603e-07   2.1814834e-07  1.9778331e-07  19.061685    
     43700   19.773952      50000          50000          50000          3.4812526e-07  6.5638723e-07  2.0316924e-07  1.8481932e-07  19.773952    
     43720   21.624924      50000          50000          50000          2.7234022e-07  4.6604539e-07  1.8218057e-07  1.687947e-07   21.624924    
     43740   23.871665      50000          50000          50000          1.8978135e-07  2.6283763e-07  1.5708453e-07  1.494219e-07   23.871665    
     43760   25.631177      50000          50000          50000          1.0389552e-07  5.5575674e-08  1.2968054e-07  1.2643036e-07  25.631177    
     43780   26.261434      50000          50000          50000          1.7765623e-08 -1.47773e-07    1.0142005e-07  9.9649816e-08  26.261434    
     43800   25.600567      50000          50000          50000         -6.6158744e-08 -3.4086812e-07  7.3303833e-08  6.9088059e-08  25.600567    
     43820   23.986042      50000          50000          50000         -1.4605723e-07 -5.191235e-07   4.5923271e-08  3.5028525e-08  23.986042    
     43840   22.078008      50000          50000          50000         -2.205651e-07  -6.7940141e-07  1.95849e-08   -1.8787825e-09  22.078008    
     43860   20.559065      50000          50000          50000         -2.8857203e-07 -8.1959796e-07 -5.5430855e-09 -4.057504e-08   20.559065    
     43880   19.857411      50000          50000          50000         -3.490613e-07  -9.3827093e-07 -2.9296475e-08 -7.9616496e-08  19.857411    
     43900   19.995669      50000          50000          50000         -4.0106725e-07 -1.0345216e-06 -5.141915e-08  -1.1726098e-07  19.995669    
     43920   20.628949      50000          50000          50000         -4.4376099e-07 -1.1081621e-06 -7.1521614e-08 -1.5159928e-07  20.628949    
     43940   21.241338      50000          50000          50000         -4.7662472e-07 -1.1600719e-06 -8.9094707e-08 -1.807075e-07   21.241338    
     43960   21.403446      50000          50000          50000         -4.9963351e-07 -1.1925375e-06 -1.0356353e-07 -2.0279955e-07  21.403446    
     43980   20.96836       50000          50000          50000         -5.1337205e-07 -1.2093852e-06 -1.1436184e-07 -2.1636907e-07  20.96836     
     44000   20.138694      50000          50000          50000         -5.190203e-07  -1.2157338e-06 -1.2100899e-07 -2.2031808e-07  20.138694    
     44020   19.364892      50000          50000          50000         -5.1822302e-07 -1.217419e-06  -1.2318066e-07 -2.1406939e-07  19.364892    
     44040   19.138475      50000          50000          50000         -5.128585e-07  -1.2201592e-06 -1.2076502e-07 -1.9765127e-07  19.138475    
     44060   19.768522      50000          50000          50000         -5.0477854e-07 -1.2286995e-06 -1.1390036e-07 -1.7173571e-07  19.768522    
     44080   21.24336       50000          50000          50000         -4.9559522e-07 -1.2461836e-06 -1.029906e-07  -1.3761147e-07  21.24336     
     44100   23.238699      50000          50000          50000         -4.8657702e-07 -1.2739388e-06 -8.8701922e-08 -9.7090303e-08  23.238699    
     44120   25.26329       50000          50000          50000         -4.7869657e-07 -1.3117181e-06 -7.1971884e-08 -5.2399769e-08  25.26329     
     44140   26.867329      50000          50000          50000         -4.728467e-07  -1.3582494e-06 -5.409861e-08  -6.1921439e-09  26.867329    
     44160   27.816381      50000          50000          50000         -4.7008912e-07 -1.4117019e-06 -3.6877655e-08  3.8312172e-08  27.816381    
     44180   28.161162      50000          50000          50000         -4.7157416e-07 -1.4696294e-06 -2.2505437e-08  7.7412347e-08  28.161162    
     44200   28.173817      50000          50000          50000         -4.7807844e-07 -1.5285738e-06 -1.3143255e-08  1.0748177e-07  28.173817    
     44220   28.174005      50000          50000          50000         -4.8964819e-07 -1.5839779e-06 -1.050841e-08   1.2554175e-07  28.174005    
     44240   28.336275      50000          50000          50000         -5.0553323e-07 -1.6304988e-06 -1.5652939e-08  1.2955208e-07  28.336275    
     44260   28.58657       50000          50000          50000         -5.2425796e-07 -1.6625228e-06 -2.8805951e-08  1.1855484e-07  28.58657     
     44280   28.642336      50000          50000          50000         -5.4378261e-07 -1.6748587e-06 -4.925606e-08   9.2766958e-08  28.642336    
     44300   28.171173      50000          50000          50000         -5.6175991e-07 -1.6635361e-06 -7.5338364e-08  5.359479e-08   28.171173    
     44320   26.980457      50000          50000          50000         -5.7584027e-07 -1.6264622e-06 -1.045787e-07   3.5200349e-09  26.980457    
     44340   25.138013      50000          50000          50000         -5.8393842e-07 -1.563688e-06  -1.3398517e-07 -5.4142081e-08  25.138013    
     44360   22.966884      50000          50000          50000         -5.8437731e-07 -1.4772167e-06 -1.6039502e-07 -1.1552018e-07  22.966884    
     44380   20.922206      50000          50000          50000         -5.7588609e-07 -1.3704705e-06 -1.8077982e-07 -1.7640795e-07  20.922206    
     44400   19.407131      50000          50000          50000         -5.5751219e-07 -1.2475795e-06 -1.925013e-07  -2.3245575e-07  19.407131    
     44420   18.607789      50000          50000          50000         -5.2854005e-07 -1.1126453e-06 -1.9355594e-07 -2.7941891e-07  18.607789    
     44440   18.421926      50000          50000          50000         -4.8847976e-07 -9.6915074e-07 -1.8280539e-07 -3.1348314e-07  18.421926    
     44460   18.516707      50000          50000          50000         -4.3713979e-07 -8.1966341e-07 -1.6014729e-07 -3.3160867e-07  18.516707    
     44480   18.491144      50000          50000          50000         -3.7475436e-07 -6.6585967e-07 -1.2658372e-07 -3.318197e-07   18.491144    
     44500   18.068962      50000          50000          50000         -3.0210918e-07 -5.087637e-07  -8.416964e-08  -3.133942e-07   18.068962    
     44520   17.233872      50000          50000          50000         -2.2060446e-07 -3.4902841e-07 -3.5844271e-08 -2.769407e-07   17.233872    
     44540   16.245459      50000          50000          50000         -1.3221118e-07 -1.8711005e-07  1.4841818e-08 -2.2436532e-07  16.245459    
     44560   15.526804      50000          50000          50000         -3.9309451e-08 -2.3278094e-08  6.4083462e-08 -1.5873372e-07  15.526804    
     44580   15.472317      50000          50000          50000          5.5560215e-08  1.4248733e-07  1.0822685e-07 -8.4033544e-08  15.472317    
     44600   16.261914      50000          50000          50000          1.4996461e-07  3.1057511e-07  1.4417126e-07 -4.8525462e-09  16.261914    
     44620   17.76877       50000          50000          50000          2.4178619e-07  4.8166043e-07  1.6970287e-07  7.3995271e-08  17.76877     
     44640   19.601312      50000          50000          50000          3.2931539e-07  6.5638603e-07  1.8370838e-07  1.4785176e-07  19.601312    
     44660   21.264605      50000          50000          50000          4.1123462e-07  8.3489243e-07  1.8624628e-07  2.1256514e-07  21.264605    
     44680   22.365542      50000          50000          50000          4.8653827e-07  1.0163546e-06  1.7848252e-07  2.6477768e-07  22.365542    
     44700   22.774355      50000          50000          50000          5.5442469e-07  1.1986599e-06  1.6250533e-07  3.0210884e-07  22.774355    
     44720   22.67695       50000          50000          50000          6.1411148e-07  1.3781309e-06  1.4103168e-07  3.2317184e-07  22.67695     
     44740   22.497202      50000          50000          50000          6.6455096e-07  1.5491033e-06  1.1707587e-07  3.2747372e-07  22.497202    
     44760   22.704899      50000          50000          50000          7.0439621e-07  1.7038929e-06  9.3764172e-08  3.1553155e-07  22.704899    
     44780   23.568828      50000          50000          50000          7.3256387e-07  1.834112e-06   7.4278462e-08  2.8930116e-07  23.568828    
     44800   24.985593      50000          50000          50000          7.4880881e-07  1.932558e-06   6.1569416e-08  2.5229904e-07  24.985593    
     44820   26.50337       50000          50000          50000          7.5372409e-07  1.9941771e-06  5.7850086e-08  2.0914513e-07  26.50337     
     44840   27.531975      50000          50000          50000          7.4838021e-07  2.0160447e-06  6.4198046e-08  1.6489792e-07  27.531975    
     44860   27.622525      50000          50000          50000          7.3392911e-07  1.9969729e-06  8.0375451e-08  1.2443894e-07  27.622525    
     44880   26.676126      50000          50000          50000          7.1132287e-07  1.9371799e-06  1.0483251e-07  9.1956174e-08  26.676126    
     44900   24.987079      50000          50000          50000          6.8121018e-07  1.8382228e-06  1.3486942e-07  7.053831e-08   24.987079    
     44920   23.103871      50000          50000          50000          6.4400006e-07  1.7031568e-06  1.6694577e-07  6.1897606e-08  23.103871    
     44940   21.583734      50000          50000          50000          6.0001892e-07  1.5367102e-06  1.9710714e-07  6.6239456e-08  21.583734    
     44960   20.757294      50000          50000          50000          5.4964077e-07  1.3451806e-06  2.2145619e-07  8.2285504e-08  20.757294    
     44980   20.612011      50000          50000          50000          4.9331415e-07  1.1359346e-06  2.3657506e-07  1.0743277e-07  20.612011    
     45000   20.835523      50000          50000          50000          4.3150137e-07  9.1664329e-07  2.3984764e-07  1.3801317e-07  20.835523    
     45020   20.984413      50000          50000          50000          3.6459926e-07  6.9447798e-07  2.2969581e-07  1.6962399e-07  20.984413    
     45040   20.697977      50000          50000          50000          2.92886e-07    4.7539262e-07  2.0574874e-07  1.9751664e-07  20.697977    
     45060   19.866932      50000          50000          50000          2.1651016e-07  2.6357675e-07  1.689224e-07   2.1703132e-07  19.866932    
     45080   18.686979      50000          50000          50000          1.3554323e-07  6.1207113e-08  1.2137131e-07  2.2405127e-07  18.686979    
     45100   17.573319      50000          50000          50000          5.0111002e-08 -1.3140109e-07  6.6297441e-08  2.1543665e-07  17.573319    
     45120   16.971897      50000          50000          50000         -3.9420009e-08 -3.1527689e-07  7.6278796e-09  1.8938899e-07  16.971897    
     45140   17.15157       50000          50000          50000         -1.3226861e-07 -4.9208993e-07 -5.0407847e-08  1.4569194e-07  17.15157     
     45160   18.073803      50000          50000          50000         -2.2715617e-07 -6.6350396e-07 -1.0374833e-07  8.5783773e-08  18.073803    
     45180   19.402736      50000          50000          50000         -3.223593e-07  -8.3077657e-07 -1.4894825e-07  1.2646925e-08  19.402736    
     45200   20.652767      50000          50000          50000         -4.1588077e-07 -9.9464947e-07 -1.8353351e-07 -6.9459314e-08  20.652767    
     45220   21.406757      50000          50000          50000         -5.0567062e-07 -1.155425e-06  -2.0621691e-07 -1.5536996e-07  21.406757    
     45240   21.506982      50000          50000          50000         -5.8981648e-07 -1.313052e-06  -2.1696147e-07 -2.3943593e-07  21.506982    
     45260   21.134214      50000          50000          50000         -6.6664638e-07 -1.4670737e-06 -2.1690328e-07 -3.1596217e-07  21.134214    
     45280   20.738117      50000          50000          50000         -7.3472866e-07 -1.6163862e-06 -2.0815436e-07 -3.7964546e-07  20.738117    
     45300   20.844358      50000          50000          50000         -7.9279457e-07 -1.7588792e-06 -1.9350932e-07 -4.2599515e-07  20.844358    
     45320   21.81701       50000          50000          50000         -8.3964105e-07 -1.8911224e-06 -1.7609397e-07 -4.5170675e-07  21.81701     
     45340   23.675432      50000          50000          50000         -8.7408229e-07 -2.0082724e-06 -1.5901611e-07 -4.5495835e-07  23.675432    
     45360   26.039567      50000          50000          50000         -8.949979e-07  -2.1043e-06    -1.4506649e-07 -4.3562726e-07  26.039567    
     45380   28.233013      50000          50000          50000         -9.0147495e-07 -2.1725559e-06 -1.3643704e-07 -3.9543188e-07  28.233013    
     45400   29.517727      50000          50000          50000         -8.9302859e-07 -2.2067569e-06 -1.3439286e-07 -3.3793603e-07  29.517727    
     45420   29.392967      50000          50000          50000         -8.698673e-07  -2.2023208e-06 -1.3897489e-07 -2.683062e-07   29.392967    
     45440   27.828098      50000          50000          50000         -8.3312254e-07 -2.1576565e-06 -1.4890777e-07 -1.928034e-07   27.828098    
     45460   25.318219      50000          50000          50000         -7.8490316e-07 -2.0748388e-06 -1.6177287e-07 -1.1809776e-07  25.318219    
     45480   22.70076       50000          50000          50000         -7.2811425e-07 -1.9594658e-06 -1.7437597e-07 -5.0500988e-08  22.70076     
     45500   20.820741      50000          50000          50000         -6.6596511e-07 -1.8195764e-06 -1.8319219e-07  4.8732725e-09  20.820741    
     45520   20.184368      50000          50000          50000         -6.011369e-07  -1.663644e-06  -1.8477482e-07  4.5008156e-08  20.184368    
     45540   20.797057      50000          50000          50000         -5.3508718e-07 -1.4983979e-06 -1.7624924e-07  6.9385563e-08  20.797057    
     45560   22.257985      50000          50000          50000         -4.6847119e-07 -1.3285558e-06 -1.5602419e-07  7.9166469e-08  22.257985    
     45580   23.966381      50000          50000          50000         -4.0192886e-07 -1.1580269e-06 -1.2408569e-07  7.6326034e-08  23.966381    
     45600   25.315723      50000          50000          50000         -3.3613069e-07 -9.9026372e-07 -8.1771489e-08  6.3643149e-08  25.315723    
     45620   25.868161      50000          50000          50000         -2.7165214e-07 -8.2801324e-07 -3.1577187e-08  4.4634013e-08  25.868161    
     45640   25.47364       50000          50000          50000         -2.0899761e-07 -6.7318004e-07  2.3016596e-08  2.3170609e-08  25.47364     
     45660   24.288719      50000          50000          50000         -1.4863886e-07 -5.2677966e-07  7.7824581e-08  3.0384919e-09  24.288719    
     45680   22.698726      50000          50000          50000         -9.0997802e-08 -3.8887304e-07  1.2834051e-07 -1.2460874e-08  22.698726    
     45700   21.162914      50000          50000          50000         -3.6396584e-08 -2.5854425e-07  1.7019469e-07 -2.0840185e-08  21.162914    
     45720   20.05846       50000          50000          50000          1.5019329e-08 -1.3392504e-07  1.9965181e-07 -2.0668784e-08  20.05846     
     45740   19.563499      50000          50000          50000          6.3329052e-08 -1.2401221e-08  2.1408895e-07 -1.1700571e-08  19.563499    
     45760   19.622731      50000          50000          50000          1.0882604e-07  1.0896963e-07  2.1237075e-07  5.1377301e-09  19.622731    
     45780   19.99928       50000          50000          50000          1.5193544e-07  2.3285792e-07  1.9504358e-07  2.7904831e-08  19.99928     
     45800   20.383644      50000          50000          50000          1.9307914e-07  3.6099965e-07  1.6430811e-07  5.3929662e-08  20.383644    
     45820   20.5133        50000          50000          50000          2.3253348e-07  4.9364166e-07  1.2377903e-07  8.0179739e-08  20.5133      
     45840   20.255289      50000          50000          50000          2.7032109e-07  6.2922551e-07  7.8077844e-08  1.036599e-07   20.255289    
     45860   19.632996      50000          50000          50000          3.0617006e-07  7.6439847e-07  3.2321207e-08  1.2179049e-07  19.632996    
     45880   18.796092      50000          50000          50000          3.3954257e-07  8.943359e-07  -8.4307594e-09  1.3272257e-07  18.796092    
     45900   17.956524      50000          50000          50000          3.6972086e-07  1.013312e-06  -3.9705465e-08  1.3555606e-07  17.956524    
     45920   17.318747      50000          50000          50000          3.9592228e-07  1.1154049e-06 -5.8070488e-08  1.3043238e-07  17.318747    
     45940   17.027616      50000          50000          50000          4.1740709e-07  1.1951956e-06 -6.1456703e-08  1.1848241e-07  17.027616    
     45960   17.144836      50000          50000          50000          4.3354642e-07  1.248324e-06  -4.9318371e-08  1.0163363e-07  17.144836    
     45980   17.65116       50000          50000          50000          4.4384266e-07  1.2718372e-06 -2.2627514e-08  8.2318324e-08  17.65116     
     46000   18.463337      50000          50000          50000          4.4792428e-07  1.2643547e-06  1.6270218e-08  6.3147879e-08  18.463337    
     46020   19.454565      50000          50000          50000          4.455417e-07   1.2261195e-06  6.3901326e-08  4.6604254e-08  19.454565    
     46040   20.480686      50000          50000          50000          4.3657833e-07  1.158977e-06   1.1598671e-07  3.4771296e-08  20.480686    
     46060   21.397873      50000          50000          50000          4.2104509e-07  1.0661953e-06  1.6782216e-07  2.9117784e-08  21.397873    
     46080   22.094088      50000          50000          50000          3.9904978e-07  9.5213759e-07  2.1467124e-07  3.0340508e-08  22.094088    
     46100   22.515307      50000          50000          50000          3.7067026e-07  8.2176171e-07  2.520252e-07   3.822388e-08   22.515307    
     46120   22.680739      50000          50000          50000          3.3578484e-07  6.803231e-07   2.7560392e-07  5.1427509e-08  22.680739    
     46140   22.668539      50000          50000          50000          2.943012e-07   5.3383825e-07  2.8162801e-07  6.7437337e-08  22.668539    
     46160   22.572602      50000          50000          50000          2.4683286e-07  3.894293e-07   2.6795234e-07  8.3116929e-08  22.572602    
     46180   22.45812       50000          50000          50000          1.9474564e-07  2.5401678e-07  2.3484904e-07  9.53711e-08    22.45812     
     46200   22.357462      50000          50000          50000          1.3964348e-07  1.3271013e-07  1.8473564e-07  1.0148465e-07  22.357462    
     46220   22.272934      50000          50000          50000          8.3081086e-08  2.81968e-08    1.2164008e-07  9.9406375e-08  22.272934    
     46240   22.191905      50000          50000          50000          2.6529327e-08 -5.9157062e-08  5.070691e-08   8.8038133e-08  22.191905    
     46260   22.088707      50000          50000          50000         -2.8640978e-08 -1.3099096e-07 -2.2346304e-08  6.7414329e-08  22.088707    
     46280   21.935608      50000          50000          50000         -8.1185715e-08 -1.9045709e-07 -9.1822095e-08  3.8722041e-08  21.935608    
     46300   21.714516      50000          50000          50000         -1.3002581e-07 -2.4162773e-07 -1.5261527e-07  4.1655809e-09  21.714516    
     46320   21.419074      50000          50000          50000         -1.7429453e-07 -2.8889991e-07 -2.0069071e-07 -3.3292979e-08  21.419074    
     46340   21.064452      50000          50000          50000         -2.1336221e-07 -3.3640175e-07 -2.3341357e-07 -7.0271317e-08  21.064452    
     46360   20.686769      50000          50000          50000         -2.4684817e-07 -3.8750279e-07 -2.4970807e-07 -1.0333364e-07  20.686769    
     46380   20.337341      50000          50000          50000         -2.746107e-07  -4.4443724e-07 -2.5004946e-07 -1.2934542e-07  20.337341    
     46400   20.071739      50000          50000          50000         -2.9671977e-07 -5.0805838e-07 -2.3631229e-07 -1.4578863e-07  20.071739    
     46420   19.936476      50000          50000          50000         -3.1341977e-07 -5.7773535e-07 -2.1150408e-07 -1.5101989e-07  19.936476    
     46440   19.956824      50000          50000          50000         -3.2508989e-07 -6.5140321e-07 -1.7941102e-07 -1.4445543e-07  19.956824    
     46460   20.128937      50000          50000          50000         -3.3220561e-07 -7.2577185e-07 -1.4418183e-07 -1.2666315e-07  20.128937    
     46480   20.418329      50000          50000          50000         -3.3530199e-07 -7.9668276e-07 -1.0988183e-07 -9.934138e-08   20.418329    
     46500   20.765575      50000          50000          50000         -3.3493667e-07 -8.5958068e-07 -8.0058604e-08 -6.5170715e-08  20.765575    
     46520   21.099038      50000          50000          50000         -3.3165441e-07 -9.1004474e-07 -5.737218e-08  -2.7546305e-08  21.099038    
     46540   21.353183      50000          50000          50000         -3.2597524e-07 -9.4431725e-07 -4.336062e-08   9.7521374e-09  21.353183    
     46560   21.488244      50000          50000          50000         -3.1846814e-07 -9.5980628e-07 -3.8418977e-08  4.2820841e-08  21.488244    
     46580   21.50213       50000          50000          50000         -3.0991783e-07 -9.555732e-07  -4.1948474e-08  6.7768171e-08  21.50213     
     46600   21.424143      50000          50000          50000         -3.0131873e-07 -9.3264844e-07 -5.2386768e-08  8.1079015e-08  21.424143    
     46620   21.293453      50000          50000          50000         -2.9351797e-07 -8.9391343e-07 -6.7093378e-08  8.0452897e-08  21.293453    
     46640   21.142589      50000          50000          50000         -2.8693798e-07 -8.4368407e-07 -8.2594295e-08  6.5464436e-08  21.142589    
     46660   20.997244      50000          50000          50000         -2.8160793e-07 -7.8720064e-07 -9.5223638e-08  3.7600493e-08  20.997244    
     46680   20.882051      50000          50000          50000         -2.7727e-07    -7.3000027e-07 -1.0175106e-07 -5.8675546e-11  20.882051    
     46700   20.819754      50000          50000          50000         -2.7343739e-07 -6.7721114e-07 -9.9810304e-08 -4.3290721e-08  20.819754    
     46720   20.823073      50000          50000          50000         -2.6944127e-07 -6.3291746e-07 -8.8136148e-08 -8.7270189e-08  20.823073    
     46740   20.88752       50000          50000          50000         -2.6451617e-07 -5.9975461e-07 -6.6646684e-08 -1.2714723e-07  20.88752     
     46760   20.992553      50000          50000          50000         -2.5791526e-07 -5.7877848e-07 -3.6403401e-08 -1.5856389e-07  20.992553    
     46780   21.110905      50000          50000          50000         -2.4899949e-07 -5.6949938e-07  5.2976401e-10 -1.7802886e-07  21.110905    
     46800   21.228282      50000          50000          50000         -2.3727057e-07 -5.6995475e-07  4.1311999e-08 -1.8316896e-07  21.228282    
     46820   21.352754      50000          50000          50000         -2.2239312e-07 -5.7688672e-07  8.2617076e-08 -1.7290972e-07  21.352754    
     46840   21.520827      50000          50000          50000         -2.0421246e-07 -5.8602649e-07  1.209715e-07  -1.4758239e-07  21.520827    
     46860   21.793666      50000          50000          50000         -1.8276062e-07 -5.9247838e-07  1.5311402e-07 -1.089175e-07   21.793666    
     46880   22.22806       50000          50000          50000         -1.5825469e-07 -5.9120431e-07  1.7634153e-07 -5.9901295e-08  22.22806     
     46900   22.844138      50000          50000          50000         -1.3107093e-07 -5.775147e-07   1.8880034e-07 -4.4984366e-09  22.844138    
     46920   23.597509      50000          50000          50000         -1.0171094e-07 -5.4754315e-07  1.8968375e-07  5.2726579e-08  23.597509    
     46940   24.371266      50000          50000          50000         -7.0771925e-08 -4.9867044e-07  1.7930931e-07  1.0704535e-07  24.371266    
     46960   24.995825      50000          50000          50000         -3.8931445e-08 -4.2986378e-07  1.590664e-07   1.5400305e-07  24.995825    
     46980   25.293596      50000          50000          50000         -6.9505913e-09 -3.4190586e-07  1.3124613e-07  1.8980795e-07  25.293596    
     47000   25.134784      50000          50000          50000          2.4307844e-08 -2.3749538e-07  9.8781647e-08  2.1163727e-07  25.134784    
     47020   24.484728      50000          50000          50000          5.3858406e-08 -1.2120669e-07  6.49352e-08    2.1784671e-07  24.484728    
     47040   23.424294      50000          50000          50000          8.0593492e-08  7.1914556e-10  3.2966247e-08  2.0809508e-07  23.424294    
     47060   22.132663      50000          50000          50000          1.0333772e-07  1.208117e-07   5.8041474e-09  1.8339731e-07  22.132663    
     47080   20.834842      50000          50000          50000          1.2096898e-07  2.3108273e-07 -1.4261563e-08  1.4608576e-07  20.834842    
     47100   19.731417      50000          50000          50000          1.3256945e-07  3.2393876e-07 -2.5857056e-08  9.9626656e-08  19.731417    
     47120   18.937755      50000          50000          50000          1.3753964e-07  3.9309023e-07 -2.8736174e-08  4.8264856e-08  18.937755    
     47140   18.455518      50000          50000          50000          1.356447e-07   4.342781e-07  -2.3889254e-08 -3.4547601e-09  18.455518    
     47160   18.183071      50000          50000          50000          1.2710981e-07  4.4591458e-07 -1.3439396e-08 -5.1145765e-08  18.183071    
     47180   17.96072       50000          50000          50000          1.1302398e-07  4.2993092e-07 -2.62817e-11   -9.0832696e-08  17.96072     
     47200   17.651684      50000          50000          50000          9.5398174e-08  3.915655e-07   1.401993e-08  -1.1939091e-07  17.651684    
     47220   17.232509      50000          50000          50000          7.5822985e-08  3.3660259e-07  2.6419423e-08 -1.3555306e-07  17.232509    
     47240   16.817548      50000          50000          50000          5.4963987e-08  2.700836e-07   3.4661278e-08 -1.3985292e-07  16.817548    
     47260   16.593921      50000          50000          50000          3.3351637e-08  1.9721906e-07  3.661204e-08  -1.3377619e-07  16.593921    
     47280   16.720136      50000          50000          50000          1.1741101e-08  1.2361085e-07  3.098782e-08  -1.1937536e-07  16.720136    
     47300   17.246304      50000          50000          50000         -8.9138745e-09  5.481816e-08   1.7511502e-08 -9.9071285e-08  17.246304    
     47320   18.087894      50000          50000          50000         -2.754327e-08  -4.155416e-09  -3.0797311e-09 -7.5394663e-08  18.087894    
     47340   19.058964      50000          50000          50000         -4.3054451e-08 -4.931966e-08  -2.913529e-08  -5.0708404e-08  19.058964    
     47360   19.947646      50000          50000          50000         -5.4441629e-08 -7.8064556e-08 -5.8283226e-08 -2.6977107e-08  19.947646    
     47380   20.601415      50000          50000          50000         -6.0899251e-08 -8.9400209e-08 -8.7683026e-08 -5.6145176e-09  20.601415    
     47400   20.986918      50000          50000          50000         -6.1915262e-08 -8.4035199e-08 -1.1430718e-07  1.2596588e-08  20.986918    
     47420   21.198893      50000          50000          50000         -5.7318334e-08 -6.4253294e-08 -1.3523342e-07  2.7531713e-08  21.198893    
     47440   21.412327      50000          50000          50000         -4.7268947e-08 -3.3559119e-08 -1.4794227e-07  3.969455e-08   21.412327    
     47460   21.796835      50000          50000          50000         -3.2212209e-08  3.8664986e-09 -1.5060226e-07  5.0099131e-08  21.796835    
     47480   22.431904      50000          50000          50000         -1.2823818e-08  4.3771392e-08 -1.422993e-07   6.0056455e-08  22.431904    
     47500   23.262964      50000          50000          50000          1.0027596e-08  8.2346621e-08 -1.2316533e-07  7.0901498e-08  23.262964    
     47520   24.118689      50000          50000          50000          3.5293614e-08  1.1655701e-07 -9.4387679e-08  8.3711513e-08  24.118689    
     47540   24.780468      50000          50000          50000          6.1742032e-08  1.4427438e-07 -5.8106423e-08  9.9058137e-08  24.780468    
     47560   25.071108      50000          50000          50000          8.7956851e-08  1.642621e-07  -1.7218198e-08  1.1682665e-07  25.071108    
     47580   24.922355      50000          50000          50000          1.1236852e-07  1.7608338e-07  2.489195e-08   1.3613023e-07  24.922355    
     47600   24.391709      50000          50000          50000          1.3333288e-07  1.7999073e-07  6.4667712e-08  1.5534019e-07  24.391709    
     47620   23.624363      50000          50000          50000          1.4926188e-07  1.7682175e-07  9.8722046e-08  1.7224185e-07  23.624363    
     47640   22.776605      50000          50000          50000          1.587853e-07   1.6787489e-07  1.2417166e-07  1.8430934e-07  22.776605    
     47660   21.941522      50000          50000          50000          1.6091993e-07  1.5475082e-07  1.3893461e-07  1.8907437e-07  21.941522    
     47680   21.110085      50000          50000          50000          1.5520932e-07  1.3913032e-07  1.4195769e-07  1.8453996e-07  21.110085    
     47700   20.189093      50000          50000          50000          1.4178934e-07  1.2249334e-07  1.333256e-07   1.6954907e-07  20.189093    
     47720   19.068169      50000          50000          50000          1.2131985e-07  1.0579286e-07  1.1418872e-07  1.4397795e-07  19.068169    
     47740   17.70242       50000          50000          50000          9.4785477e-08  8.9155108e-08  8.6507818e-08  1.0869351e-07  17.70242     
     47760   16.169634      50000          50000          50000          6.3297308e-08  7.1753577e-08  5.2745471e-08  6.5392876e-08  16.169634    
     47780   14.67497       50000          50000          50000          2.8016586e-08  5.194543e-08   1.5633941e-08  1.6470386e-08  14.67497     
     47800   13.499472      50000          50000          50000         -9.8237782e-09  2.7609056e-08 -2.1986106e-08 -3.5094286e-08  13.499472    
     47820   12.910568      50000          50000          50000         -4.8883292e-08 -3.4369695e-09 -5.7317268e-08 -8.5895639e-08  12.910568    
     47840   13.067312      50000          50000          50000         -8.7713024e-08 -4.3042319e-08 -8.7767992e-08 -1.3232876e-07  13.067312    
     47860   13.964652      50000          50000          50000         -1.2479778e-07 -9.243086e-08  -1.1110685e-07 -1.7085564e-07  13.964652    
     47880   15.428687      50000          50000          50000         -1.586621e-07  -1.521331e-07  -1.2558186e-07 -1.9827134e-07  15.428687    
     47900   17.186641      50000          50000          50000         -1.8805085e-07 -2.221551e-07  -1.300293e-07  -2.1196815e-07  17.186641    
     47920   18.96315       50000          50000          50000         -2.123014e-07  -3.0239135e-07 -1.2416621e-07 -2.1034664e-07  18.96315     
     47940   20.550851      50000          50000          50000         -2.3158995e-07 -3.924264e-07  -1.0898519e-07 -1.9335827e-07  20.550851    
     47960   21.837985      50000          50000          50000         -2.4629438e-07 -4.9013146e-07 -8.6315242e-08 -1.6243643e-07  21.837985    
     47980   22.825051      50000          50000          50000         -2.5660105e-07 -5.9156255e-07 -5.8121166e-08 -1.2011945e-07  22.825051    
     48000   23.617722      50000          50000          50000         -2.6303356e-07 -6.9243528e-07 -2.6582987e-08 -7.0082408e-08  23.617722    
     48020   24.372517      50000          50000          50000         -2.6662078e-07 -7.8875137e-07  5.8613427e-09 -1.6972319e-08  24.372517    
     48040   25.213543      50000          50000          50000         -2.6862856e-07 -8.7673005e-07  3.6751524e-08  3.4092858e-08  25.213543    
     48060   26.159546      50000          50000          50000         -2.7028321e-07 -9.5281403e-07  6.3848621e-08  7.811578e-08   26.159546    
     48080   27.096819      50000          50000          50000         -2.725827e-07  -1.0138437e-06  8.5311527e-08  1.1078413e-07  27.096819    
     48100   27.806027      50000          50000          50000         -2.7619974e-07 -1.0573369e-06  9.9806198e-08  1.289315e-07   27.806027    
     48120   28.04721       50000          50000          50000         -2.8144681e-07 -1.0817354e-06  1.0655561e-07  1.3083936e-07  28.04721     
     48140   27.65128       50000          50000          50000         -2.883007e-07  -1.0866107e-06  1.0534442e-07  1.1636416e-07  27.65128     
     48160   26.596417      50000          50000          50000         -2.9644011e-07 -1.0727242e-06  9.6494405e-08  8.6909438e-08  26.596417    
     48180   25.033497      50000          50000          50000         -3.0528074e-07 -1.0419375e-06  8.08207e-08    4.5274601e-08  25.033497    
     48200   23.249403      50000          50000          50000         -3.1399815e-07 -9.9697056e-07  5.9570272e-08 -4.5941573e-09  23.249403    
     48220   21.577922      50000          50000          50000         -3.2154454e-07 -9.4103454e-07  3.4338015e-08 -5.793711e-08   21.577922    
     48240   20.288318      50000          50000          50000         -3.266784e-07  -8.7740101e-07  6.9557549e-09 -1.0958994e-07  20.288318    
     48260   19.493283      50000          50000          50000         -3.2803098e-07 -8.0899583e-07 -2.0644354e-08 -1.5445277e-07  19.493283    
     48280   19.114258      50000          50000          50000         -3.2422679e-07 -7.3811401e-07 -4.6580545e-08 -1.8798583e-07  19.114258    
     48300   18.921516      50000          50000          50000         -3.1405496e-07 -6.6632054e-07 -6.9166424e-08 -2.0667791e-07  18.921516    
     48320   18.635803      50000          50000          50000         -2.9666381e-07 -5.9453967e-07 -8.7028794e-08 -2.0842296e-07  18.635803    
     48340   18.051438      50000          50000          50000         -2.7173325e-07 -5.2327048e-07 -9.9183483e-08 -1.9274577e-07  18.051438    
     48360   17.130501      50000          50000          50000         -2.3957869e-07 -4.5282902e-07 -1.0506557e-07 -1.6084146e-07  17.130501    
     48380   16.028135      50000          50000          50000         -2.0115744e-07 -3.8352633e-07 -1.0452134e-07 -1.1542465e-07  16.028135    
     48400   15.043697      50000          50000          50000         -1.5796608e-07 -3.1570903e-07 -9.7775665e-08 -6.0413539e-08  15.043697    
     48420   14.502291      50000          50000          50000         -1.1186696e-07 -2.4971639e-07 -8.5389304e-08 -4.9519601e-10  14.502291    
     48440   14.631092      50000          50000          50000         -6.4861993e-08 -1.8573945e-07 -6.8214765e-08  5.9368236e-08  14.631092    
     48460   15.465227      50000          50000          50000         -1.8879223e-08 -1.2371082e-07 -4.7351947e-08  1.144251e-07   15.465227    
     48480   16.82666       50000          50000          50000          2.4393875e-08 -6.3271003e-08 -2.4097442e-08  1.6055007e-07  16.82666     
     48500   18.384176      50000          50000          50000          6.3608545e-08 -3.8400472e-09  1.1999604e-10  1.9454569e-07  18.384176    
     48520   19.772193      50000          50000          50000          9.7775165e-08  5.5214838e-08  2.3813287e-08  2.1429737e-07  19.772193    
     48540   20.723824      50000          50000          50000          1.2617151e-07  1.1429488e-07  4.5476305e-08  2.1874336e-07  20.723824    
     48560   21.168772      50000          50000          50000          1.4809121e-07  1.73085e-07    6.3512253e-08  2.0767638e-07  21.168772    
     48580   21.257446      50000          50000          50000          1.6266241e-07  2.3010657e-07  7.6164099e-08  1.8171657e-07  21.257446    
     48600   21.289734      50000          50000          50000          1.6925549e-07  2.8310815e-07  8.1837285e-08  1.4282104e-07  21.289734    
     48620   21.567132      50000          50000          50000          1.6810377e-07  3.3008397e-07  7.9630672e-08  9.4596685e-08  21.567132    
     48640   22.239376      50000          50000          50000          1.6036042e-07  3.6978889e-07  6.9499385e-08  4.1792974e-08  22.239376    
     48660   23.226235      50000          50000          50000          1.4783316e-07  4.017706e-07   5.2154981e-08 -1.0426112e-08  23.226235    
     48680   24.240547      50000          50000          50000          1.327195e-07   4.2627574e-07  2.8944975e-08 -5.7062233e-08  24.240547    
     48700   24.901208      50000          50000          50000          1.1733965e-07  4.4407342e-07  1.722195e-09  -9.3776667e-08  24.901208    
     48720   24.890369      50000          50000          50000          1.0385556e-07  4.5620607e-07 -2.7316676e-08 -1.1732272e-07  24.890369    
     48740   24.091496      50000          50000          50000          9.4023098e-08  4.6374808e-07 -5.5812031e-08 -1.2586675e-07  24.091496    
     48760   22.651765      50000          50000          50000          8.9030412e-08  4.6766125e-07 -8.1423506e-08 -1.1914651e-07  22.651765    
     48780   20.941383      50000          50000          50000          8.9450589e-08  4.6879341e-07 -1.0200251e-07 -9.8439135e-08  20.941383    
     48800   19.422945      50000          50000          50000          9.5304447e-08  4.6800008e-07 -1.1574936e-07 -6.6337386e-08  19.422945    
     48820   18.481301      50000          50000          50000          1.0619863e-07  4.6630475e-07 -1.2134646e-07 -2.6362388e-08  18.481301    
     48840   18.283444      50000          50000          50000          1.2148054e-07  4.6497697e-07 -1.1805376e-07  1.7518408e-08  18.283444    
     48860   18.726355      50000          50000          50000          1.4034735e-07  4.6543157e-07 -1.0575262e-07  6.1363106e-08  18.726355    
     48880   19.490656      50000          50000          50000          1.618768e-07   4.6894608e-07 -8.4933352e-08  1.0161768e-07  19.490656    
     48900   20.171252      50000          50000          50000          1.849993e-07   4.7629723e-07 -5.6633428e-08  1.353341e-07   20.171252    
     48920   20.430033      50000          50000          50000          2.0846002e-07  4.8744195e-07 -2.2341446e-08  1.6027955e-07  20.430033    
     48940   20.11666       50000          50000          50000          2.3080958e-07  5.0132376e-07  1.6117634e-08  1.7498735e-07  20.11666     
     48960   19.31998       50000          50000          50000          2.5044292e-07  5.1584499e-07  5.6707224e-08  1.7877654e-07  19.31998     
     48980   18.335827      50000          50000          50000          2.6569266e-07  5.2802044e-07  9.7311165e-08  1.7174638e-07  18.335827    
     49000   17.563603      50000          50000          50000          2.7496445e-07  5.3428695e-07  1.3586782e-07  1.5473859e-07  17.563603    
     49020   17.368282      50000          50000          50000          2.7686417e-07  5.3086879e-07  1.7047869e-07  1.2924503e-07  17.368282    
     49040   17.955123      50000          50000          50000          2.7022531e-07  5.1403022e-07  1.9941857e-07  9.7227143e-08  17.955123    
     49060   19.291667      50000          50000          50000          2.5403065e-07  4.8019768e-07  2.2101083e-07  6.0883439e-08  19.291667    
     49080   21.083354      50000          50000          50000          2.2752861e-07  4.2637772e-07  2.3362591e-07  2.2582205e-08  21.083354    
     49100   22.843887      50000          50000          50000          1.9069703e-07  3.5103761e-07  2.3607471e-07 -1.5021249e-08  22.843887    
     49120   24.059967      50000          50000          50000          1.4440922e-07  2.5439767e-07  2.279797e-07  -4.9149716e-08  24.059967    
     49140   24.40081       50000          50000          50000          9.0085257e-08  1.3790882e-07  2.0974237e-07 -7.7395419e-08  24.40081     
     49160   23.852745      50000          50000          50000          2.9290374e-08  3.6767902e-09  1.8231524e-07 -9.8120906e-08  23.852745    
     49180   22.715454      50000          50000          50000         -3.6443089e-08 -1.4572192e-07  1.470021e-07  -1.1060944e-07  22.715454    
     49200   21.470113      50000          50000          50000         -1.0559277e-07 -3.0708655e-07  1.0533616e-07 -1.1502793e-07  21.470113    
     49220   20.581967      50000          50000          50000         -1.7653148e-07 -4.7632818e-07  5.9017462e-08 -1.1228371e-07  20.581967    
     49240   20.320519      50000          50000          50000         -2.4743199e-07 -6.4833989e-07  9.8744666e-09 -1.0383056e-07  20.320519    
     49260   20.668638      50000          50000          50000         -3.1626564e-07 -8.1716124e-07 -4.0177237e-08 -9.1458455e-08  20.668638    
     49280   21.352164      50000          50000          50000         -3.8090798e-07 -9.7644757e-07 -8.9187328e-08 -7.7089047e-08  21.352164    
     49300   21.968654      50000          50000          50000         -4.3931378e-07 -1.1201217e-06 -1.3522872e-07 -6.2590938e-08  21.968654    
     49320   22.160173      50000          50000          50000         -4.8969739e-07 -1.2430145e-06 -1.764547e-07  -4.9622964e-08  22.160173    
     49340   21.756566      50000          50000          50000         -5.3067428e-07 -1.3413563e-06 -2.1115702e-07 -3.950955e-08   21.756566    
     49360   20.840213      50000          50000          50000         -5.6133418e-07 -1.4130208e-06 -2.3783099e-07 -3.3150702e-08  20.840213    
     49380   19.712308      50000          50000          50000         -5.8124128e-07 -1.4575041e-06 -2.5525086e-07 -3.096893e-08   19.712308    
     49400   18.771884      50000          50000          50000         -5.903807e-07  -1.4756963e-06 -2.6255066e-07 -3.2895168e-08  18.771884    
     49420   18.370021      50000          50000          50000         -5.8906075e-07 -1.4694885e-06 -2.5929875e-07 -3.8394972e-08  18.370021    
     49440   18.677645      50000          50000          50000         -5.7782759e-07 -1.4413963e-06 -2.4555287e-07 -4.6533638e-08  18.677645    
     49460   19.6311        50000          50000          50000         -5.5740386e-07 -1.3942532e-06 -2.2188495e-07 -5.6073425e-08  19.6311      
     49480   20.967217      50000          50000          50000         -5.2866855e-07 -1.3310439e-06 -1.8937225e-07 -6.5589531e-08  20.967217    
     49500   22.329664      50000          50000          50000         -4.9266351e-07 -1.2548452e-06 -1.4955739e-07 -7.3587989e-08  22.329664    
     49520   23.400505      50000          50000          50000         -4.5060109e-07 -1.1688034e-06 -1.0438583e-07 -7.861409e-08   23.400505    
     49540   24.0056        50000          50000          50000         -4.038658e-07  -1.0760938e-06 -5.6143479e-08 -7.9360075e-08  24.0056      
     49560   24.157911      50000          50000          50000         -3.5405057e-07 -9.7990148e-07 -7.4428912e-09 -7.4807328e-08  24.157911    
     49580   24.027859      50000          50000          50000         -3.0305638e-07 -8.8348095e-07  3.8721208e-08 -6.4409379e-08  24.027859    
     49600   23.85182       50000          50000          50000         -2.5309385e-07 -7.9009098e-07  7.9002816e-08 -4.8193398e-08  23.85182     
     49620   23.810708      50000          50000          50000         -2.0636569e-07 -7.0247332e-07  1.1005565e-07 -2.6679391e-08  23.810708    
     49640   23.937633      50000          50000          50000         -1.6461813e-07 -6.2216841e-07  1.2909622e-07 -7.822116e-10   23.937633    
     49660   24.104682      50000          50000          50000         -1.2891435e-07 -5.4929063e-07  1.3436217e-07  2.8185413e-08  24.104682    
     49680   24.096588      50000          50000          50000         -9.9641508e-08 -4.8281675e-07  1.2536684e-07  5.852539e-08   24.096588    
     49700   23.721934      50000          50000          50000         -7.661177e-08  -4.2109614e-07  1.0298691e-07  8.8273925e-08  23.721934    
     49720   22.904325      50000          50000          50000         -5.9165303e-08 -3.6230889e-07  6.9394978e-08  1.1541801e-07  22.904325    
     49740   21.713735      50000          50000          50000         -4.6261654e-08 -3.0474576e-07  2.781979e-08   1.3814101e-07  21.713735    
     49760   20.334003      50000          50000          50000         -3.6606398e-08 -2.4694917e-07 -1.7854985e-08  1.5498496e-07  20.334003    
     49780   18.993287      50000          50000          50000         -2.8834645e-08 -1.8782893e-07 -6.3536659e-08  1.6486165e-07  18.993287    
     49800   17.891581      50000          50000          50000         -2.1663515e-08 -1.267568e-07  -1.0524126e-07  1.6700752e-07  17.891581    
     49820   17.149231      50000          50000          50000         -1.3930586e-08 -6.355355e-08  -1.3926133e-07  1.6102312e-07  17.149231    
     49840   16.785291      50000          50000          50000         -4.5835375e-09  1.5944064e-09 -1.6232299e-07  1.4697797e-07  16.785291    
     49860   16.734888      50000          50000          50000          7.2871935e-09  6.8198796e-08 -1.7180969e-07  1.2547248e-07  16.734888    
     49880   16.8922        50000          50000          50000          2.2367431e-08  1.35485e-07   -1.6600541e-07  9.7622708e-08  16.8922      
     49900   17.156911      50000          50000          50000          4.103925e-08   2.0241997e-07 -1.4429341e-07  6.4991191e-08  17.156911    
     49920   17.468532      50000          50000          50000          6.3342151e-08  2.6782008e-07 -1.0727692e-07  2.9483296e-08  17.468532    
     49940   17.803783      50000          50000          50000          8.8967852e-08  3.3048788e-07 -5.6803317e-08 -6.7810006e-09  17.803783    
     49960   18.163658      50000          50000          50000          1.1730436e-07  3.8940347e-07  4.1210163e-09 -4.1611399e-08  18.163658    
     49980   18.549989      50000          50000          50000          1.4749641e-07  4.4385645e-07  7.1529474e-08 -7.2896695e-08  18.549989    
     50000   18.952033      50000          50000          50000          1.7851157e-07  4.9348359e-07  1.4079704e-07 -9.8745907e-08  18.952033    
     50020   19.355017      50000          50000          50000          2.0920737e-07  5.3821323e-07  2.0701642e-07 -1.1760754e-07  19.355017    
     50040   19.750051      50000          50000          50000          2.3838002e-07  5.7809414e-07  2.6540342e-07 -1.283575e-07   19.750051    
     50060   20.152816      50000          50000          50000          2.6482111e-07  6.1313583e-07  3.1168038e-07 -1.3035287e-07  20.152816    
     50080   20.601777      50000          50000          50000          2.8736904e-07  6.4317333e-07  3.4239147e-07 -1.2345767e-07  20.601777    
     50100   21.136496      50000          50000          50000          3.0496461e-07  6.6781942e-07  3.5512619e-07 -1.0805178e-07  21.136496    
     50120   21.762137      50000          50000          50000          3.167133e-07   6.8651184e-07  3.4865871e-07 -8.5030643e-08  21.762137    
     50140   22.418854      50000          50000          50000          3.2195879e-07  6.9863443e-07  3.2302988e-07 -5.578794e-08   22.418854    
     50160   22.97903       50000          50000          50000          3.2035726e-07  7.0365033e-07  2.7958155e-07 -2.2160109e-08  22.97903     
     50180   23.286907      50000          50000          50000          3.1191803e-07  7.0115582e-07  2.2091628e-07  1.3681978e-08  23.286907    
     50200   23.231283      50000          50000          50000          2.9697782e-07  6.9079436e-07  1.5075253e-07  4.9386575e-08  23.231283    
     50220   22.821256      50000          50000          50000          2.7612309e-07  6.7209064e-07  7.3680987e-08  8.2597643e-08  22.821256    
     50240   22.215346      50000          50000          50000          2.5010522e-07  6.4433352e-07 -5.1486442e-09  1.111308e-07   22.215346    
     50260   21.675337      50000          50000          50000          2.1982033e-07  6.0668858e-07 -8.0380618e-08  1.3315301e-07  21.675337    
     50280   21.448621      50000          50000          50000          1.8643671e-07  5.5868284e-07 -1.4682995e-07  1.4745724e-07  21.448621    
     50300   21.629222      50000          50000          50000          1.5160027e-07  5.0087128e-07 -1.999562e-07   1.5388573e-07  21.629222    
     50320   22.108969      50000          50000          50000          1.1713718e-07  4.3470443e-07 -2.3660161e-07  1.5330873e-07  22.108969    
     50340   22.628193      50000          50000          50000          8.4193658e-08  3.6135647e-07 -2.5552473e-07  1.4674923e-07  22.628193    
     50360   22.873032      50000          50000          50000          5.3136963e-08  2.815405e-07  -2.570707e-07   1.3494109e-07  22.873032    
     50380   22.567183      50000          50000          50000          2.3997987e-08  1.9608553e-07 -2.426822e-07   1.1859063e-07  22.567183    
     50400   21.565613      50000          50000          50000         -3.3922274e-09  1.0600388e-07 -2.1471614e-07  9.8535575e-08  21.565613    
     50420   19.928806      50000          50000          50000         -2.946987e-08   1.2188131e-08 -1.7630912e-07  7.5711375e-08  19.928806    
     50440   17.939443      50000          50000          50000         -5.4968378e-08 -8.4836714e-08 -1.3115821e-07  5.1089787e-08  17.939443    
     50460   16.041724      50000          50000          50000         -8.0842173e-08 -1.8493326e-07 -8.323544e-08   2.5642182e-08  16.041724    
     50480   14.709816      50000          50000          50000         -1.080948e-07  -2.8813706e-07 -3.6467099e-08  3.1977403e-10  14.709816    
     50500   14.284777      50000          50000          50000         -1.375579e-07  -3.9429215e-07  5.5887964e-09 -2.3970331e-08  14.284777    
     50520   14.845123      50000          50000          50000         -1.6969067e-07 -5.0268473e-07  4.0019867e-08 -4.6407129e-08  14.845123    
     50540   16.168654      50000          50000          50000         -2.0447013e-07 -6.1183688e-07  6.473836e-08  -6.6311878e-08  16.168654    
     50560   17.808702      50000          50000          50000         -2.4140156e-07 -7.1955138e-07  7.8544598e-08 -8.3197888e-08  17.808702    
     50580   19.25723       50000          50000          50000         -2.796255e-07  -8.2317264e-07  8.1087796e-08 -9.6791657e-08  19.25723     
     50600   20.129205      50000          50000          50000         -3.1806256e-07 -9.1993775e-07  7.2765114e-08 -1.0701503e-07  20.129205    
     50620   20.295371      50000          50000          50000         -3.5553384e-07 -1.0072677e-06  5.4600081e-08 -1.1393391e-07  20.295371    
     50640   19.913652      50000          50000          50000         -3.9082013e-07 -1.0828977e-06  2.8128349e-08 -1.1769104e-07  19.913652    
     50660   19.350142      50000          50000          50000         -4.2265744e-07 -1.1448295e-06 -4.6987661e-09 -1.1844401e-07  19.350142    
     50680   19.023311      50000          50000          50000         -4.496961e-07  -1.1911678e-06 -4.1595506e-08 -1.1632501e-07  19.023311    
     50700   19.228794      50000          50000          50000         -4.7047311e-07 -1.2199735e-06 -8.0018141e-08 -1.1142773e-07  19.228794    
     50720   20.025773      50000          50000          50000         -4.8343288e-07 -1.2292236e-06 -1.1725422e-07 -1.0382086e-07  20.025773    
     50740   21.216706      50000          50000          50000         -4.8704568e-07 -1.2170114e-06 -1.505408e-07  -9.3584798e-08  21.216706    
     50760   22.436295      50000          50000          50000         -4.7999773e-07 -1.1819239e-06 -1.7720885e-07 -8.0860503e-08  22.436295    
     50780   23.301981      50000          50000          50000         -4.6140047e-07 -1.123484e-06  -1.9482887e-07 -6.5888558e-08  23.301981    
     50800   23.56259       50000          50000          50000         -4.309546e-07  -1.0425039e-06 -2.0133743e-07 -4.9022455e-08  23.56259     
     50820   23.183873      50000          50000          50000         -3.8904529e-07 -9.4126869e-07 -1.9514783e-07 -3.071934e-08   23.183873    
     50840   22.358966      50000          50000          50000         -3.3675517e-07 -8.2348151e-07 -1.7526204e-07 -1.1521951e-08  22.358966    
     50860   21.431544      50000          50000          50000         -2.758325e-07  -6.9405478e-07 -1.4139587e-07  7.9531585e-09  21.431544    
     50880   20.771858      50000          50000          50000         -2.0861786e-07 -5.5876209e-07 -9.4113596e-08  2.7022101e-08  20.771858    
     50900   20.645309      50000          50000          50000         -1.3792951e-07 -4.237978e-07  -3.4942469e-08  4.4951736e-08  20.645309    
     50920   21.119307      50000          50000          50000         -6.6893531e-08 -2.9527439e-07  3.3584727e-08  6.1009073e-08  21.119307    
     50940   22.037569      50000          50000          50000          1.2611966e-09 -1.7875616e-07  1.0800157e-07  7.4538187e-08  22.037569    
     50960   23.087086      50000          50000          50000          6.3413076e-08 -7.8894138e-08  1.8409518e-07  8.5038189e-08  23.087086    
     50980   23.911876      50000          50000          50000          1.1670276e-07  7.2929692e-10  2.5716403e-07  9.2214951e-08  23.911876    
     51000   24.239695      50000          50000          50000          1.5865442e-07  5.7658103e-08  3.2230545e-07  9.5999697e-08  24.239695    
     51020   23.966306      50000          50000          50000          1.8728596e-07  9.0608799e-08  3.7471243e-07  9.6536632e-08  23.966306    
     51040   23.172874      50000          50000          50000          2.0123523e-07  9.9574936e-08  4.0998511e-07  9.414566e-08   23.172874    
     51060   22.075705      50000          50000          50000          1.9990299e-07  8.5964127e-08  4.2447465e-07  8.9270204e-08  22.075705    
     51080   20.939124      50000          50000          50000          1.8360451e-07  5.2707994e-08  4.156748e-07   8.2430734e-08  20.939124    
     51100   19.98474       50000          50000          50000          1.5369111e-07  4.2250224e-09  3.8263731e-07  7.4210993e-08  19.98474     
     51120   19.333033      50000          50000          50000          1.1253412e-07 -5.392324e-08   3.2626276e-07  6.5262844e-08  19.333033    
     51140   18.996278      50000          50000          50000          6.3189137e-08 -1.1584077e-07  2.4918547e-07  5.6222709e-08  18.996278    
     51160   18.919686      50000          50000          50000          8.8304151e-09 -1.7628706e-07  1.5526258e-07  4.7515724e-08  18.919686    
     51180   19.016705      50000          50000          50000         -4.7596705e-08 -2.312508e-07   4.9194742e-08  3.9265943e-08  19.016705    
     51200   19.197213      50000          50000          50000         -1.0334478e-07 -2.7792149e-07 -6.3508064e-08  3.1395214e-08  19.197213    
     51220   19.361642      50000          50000          50000         -1.5579809e-07 -3.1457615e-07 -1.7656383e-07  2.3745705e-08  19.361642    
     51240   19.407173      50000          50000          50000         -2.0250988e-07 -3.4048127e-07 -2.8318208e-07  1.6133703e-08  19.407173    
     51260   19.243156      50000          50000          50000         -2.4132541e-07 -3.5582565e-07 -3.7650618e-07  8.3555835e-09  19.243156    
     51280   18.822934      50000          50000          50000         -2.7052315e-07 -3.6161889e-07 -4.5013331e-07  1.8273752e-10  18.822934    
     51300   18.178904      50000          50000          50000         -2.8894021e-07 -3.5953808e-07 -4.9865213e-07 -8.6304303e-09  18.178904    
     51320   17.440534      50000          50000          50000         -2.9605828e-07 -3.5170063e-07 -5.1816305e-07 -1.8311151e-08  17.440534    
     51340   16.816765      50000          50000          50000         -2.9202816e-07 -3.4034814e-07 -5.0673303e-07 -2.9003295e-08  16.816765    
     51360   16.537906      50000          50000          50000         -2.7761957e-07 -3.2746315e-07 -4.6470908e-07 -4.0686489e-08  16.537906    
     51380   16.773143      50000          50000          50000         -2.5410279e-07 -3.143917e-07  -3.9481226e-07 -5.310442e-08   16.773143    
     51400   17.556769      50000          50000          50000         -2.23091e-07   -3.0157422e-07 -3.0197161e-07 -6.5727165e-08  17.556769    
     51420   18.75803       50000          50000          50000         -1.8638383e-07 -2.8847598e-07 -1.929121e-07  -7.77634e-08    18.75803     
     51440   20.113112      50000          50000          50000         -1.458457e-07  -2.7375438e-07 -7.5557494e-08 -8.8225235e-08  20.113112    
     51460   21.310651      50000          50000          50000         -1.0333179e-07 -2.5562569e-07  4.1664986e-08 -9.603467e-08   21.310651    
     51480   22.097946      50000          50000          50000         -6.0650402e-08 -2.3232988e-07  1.5052975e-07 -1.0015108e-07  22.097946    
     51500   22.365306      50000          50000          50000         -1.9535708e-08 -2.0256828e-07  2.4365879e-07 -9.9697628e-08  22.365306    
     51520   22.17474       50000          50000          50000          1.839571e-08  -1.6580837e-07  3.150654e-07  -9.40699e-08    22.17474     
     51540   21.721889      50000          50000          50000          5.1717941e-08 -1.2239949e-07  3.6057028e-07 -8.3016975e-08  21.721889    
     51560   21.247443      50000          50000          50000          7.929125e-08  -7.3505813e-08  3.7806937e-07 -6.6689809e-08  21.247443    
     51580   20.93726       50000          50000          50000          1.0035514e-07 -2.0914355e-08  3.6763371e-07 -4.5653929e-08  20.93726     
     51600   20.851527      50000          50000          50000          1.1457973e-07  3.3176357e-08  3.31429e-07   -2.0866173e-08  20.851527    
     51620   20.91768       50000          50000          50000          1.2205072e-07  8.6311844e-08  2.7346191e-07  6.3784058e-09  20.91768     
     51640   20.986196      50000          50000          50000          1.231794e-07   1.3583029e-07  1.9919271e-07  3.45152e-08    20.986196    
     51660   20.91615       50000          50000          50000          1.1857495e-07  1.7884348e-07  1.1508769e-07  6.1793691e-08  20.91615     
     51680   20.661814      50000          50000          50000          1.0896583e-07  2.1233872e-07  2.8157454e-08  8.6401324e-08  20.661814    
     51700   20.300514      50000          50000          50000          9.5167182e-08  2.3343288e-07 -5.4555445e-08  1.0662411e-07  20.300514    
     51720   20.000455      50000          50000          50000          7.8092191e-08  2.3981748e-07 -1.26556e-07    1.2101509e-07  20.000455    
     51740   19.936758      50000          50000          50000          5.878145e-08   2.3028651e-07 -1.824849e-07   1.2854273e-07  19.936758    
     51760   20.198012      50000          50000          50000          3.8423871e-08  2.0519266e-07 -2.1861882e-07  1.2869777e-07  20.198012    
     51780   20.731437      50000          50000          50000          1.833459e-08   1.6665091e-07 -2.33187e-07    1.2153986e-07  20.731437    
     51800   21.35587       50000          50000          50000         -1.2849229e-10  1.1837778e-07 -2.2643839e-07  1.0767514e-07  21.35587     
     51820   21.836705      50000          50000          50000         -1.5693415e-08  6.5198684e-08 -2.0045424e-07  8.8175315e-08  21.836705    
     51840   21.986174      50000          50000          50000         -2.7305024e-08  1.2384543e-08 -1.5876722e-07  6.44676e-08    21.986174    
     51860   21.742251      50000          50000          50000         -3.4216579e-08 -3.4993116e-08 -1.0588116e-07  3.8224538e-08  21.742251    
     51880   21.191837      50000          50000          50000         -3.602384e-08  -7.2561221e-08 -4.6775163e-08  1.1264865e-08  21.191837    
     51900   20.5293        50000          50000          50000         -3.2646306e-08 -9.6951111e-08  1.3553426e-08 -1.4541233e-08  20.5293      
     51920   19.969651      50000          50000          50000         -2.4272897e-08 -1.0592025e-07  7.0474876e-08 -3.7373316e-08  19.969651    
     51940   19.64777       50000          50000          50000         -1.1304743e-08 -9.8363347e-08  1.2002265e-07 -5.557353e-08   19.64777     
     51960   19.561294      50000          50000          50000          5.6944463e-09 -7.4240958e-08  1.5909236e-07 -6.7768059e-08  19.561294    
     51980   19.565547      50000          50000          50000          2.5997129e-08 -3.456808e-08   1.855483e-07  -7.298883e-08   19.565547    
     52000   19.44066       50000          50000          50000          4.8673945e-08  1.8548194e-08  1.9825836e-07 -7.0784719e-08  19.44066     
     52020   18.994307      50000          50000          50000          7.2525337e-08  8.1798528e-08  1.9708765e-07 -6.1310163e-08  18.994307    
     52040   18.173889      50000          50000          50000          9.6046852e-08  1.5063225e-07  1.8288053e-07 -4.5372227e-08  18.173889    
     52060   17.119324      50000          50000          50000          1.1746072e-07  2.1935767e-07  1.5743286e-07 -2.4408364e-08  17.119324    
     52080   16.142818      50000          50000          50000          1.348668e-07   2.8156307e-07  1.2341143e-07 -3.7408931e-10  16.142818    
     52100   15.622248      50000          50000          50000          1.4647852e-07  3.3082291e-07  8.4161361e-08  2.4451307e-08  15.622248    
     52120   15.855625      50000          50000          50000          1.5089382e-07  3.6158556e-07  4.3386933e-08  4.7708956e-08  15.855625    
     52140   16.921841      50000          50000          50000          1.4732181e-07  3.6998354e-07  4.7557319e-09  6.722615e-08   16.921841    
     52160   18.629079      50000          50000          50000          1.3575785e-07  3.5445097e-07 -2.8482541e-08  8.1305125e-08  18.629079    
     52180   20.568364      50000          50000          50000          1.1704154e-07  3.1589849e-07 -5.3787191e-08  8.9013309e-08  20.568364    
     52200   22.263123      50000          50000          50000          9.2627739e-08  2.5714213e-07 -6.952199e-08   9.0263079e-08  22.263123    
     52220   23.33955       50000          50000          50000          6.4034425e-08  1.816725e-07  -7.5054663e-08  8.5485439e-08  23.33955     
     52240   23.633654      50000          50000          50000          3.2453315e-08  9.2747473e-08 -7.0662379e-08  7.5274849e-08  23.633654    
     52260   23.211452      50000          50000          50000         -1.2207113e-09 -6.7244027e-09 -5.7294096e-08  6.0356364e-08  23.211452    
     52280   22.321601      50000          50000          50000         -3.6247943e-08 -1.1402653e-07 -3.6382292e-08  4.1664991e-08  22.321601    
     52300   21.30679       50000          50000          50000         -7.1975905e-08 -2.2652739e-07 -9.7517849e-09  2.0351458e-08  21.30679     
     52320   20.489604      50000          50000          50000         -1.0783399e-07 -3.4165541e-07  2.0424571e-08 -2.2711352e-09  20.489604    
     52340   20.094617      50000          50000          50000         -1.4331861e-07 -4.5683316e-07  5.1674062e-08 -2.4796714e-08  20.094617    
     52360   20.189926      50000          50000          50000         -1.7800904e-07 -5.6954025e-07  8.1312335e-08 -4.5799198e-08  20.189926    
     52380   20.690918      50000          50000          50000         -2.1159032e-07 -6.7744569e-07  1.0659112e-07 -6.3916407e-08  20.690918    
     52400   21.408056      50000          50000          50000         -2.4389934e-07 -7.7863673e-07  1.2489013e-07 -7.795142e-08   21.408056    
     52420   22.118742      50000          50000          50000         -2.7497083e-07 -8.7184934e-07  1.3391805e-07 -8.6981213e-08  22.118742    
     52440   22.635253      50000          50000          50000         -3.0505016e-07 -9.5659043e-07  1.3189125e-07 -9.0451304e-08  22.635253    
     52460   22.848296      50000          50000          50000         -3.3455279e-07 -1.0330914e-06  1.1767238e-07 -8.8239326e-08  22.848296    
     52480   22.740143      50000          50000          50000         -3.6397426e-07 -1.1021057e-06  9.086264e-08  -8.0679716e-08  22.740143    
     52500   22.373194      50000          50000          50000         -3.937699e-07  -1.1646131e-06  5.1849998e-08 -6.8546628e-08  22.373194    
     52520   21.864179      50000          50000          50000         -4.2422737e-07 -1.2215106e-06  1.8224609e-09 -5.2994013e-08  21.864179    
     52540   21.352233      50000          50000          50000         -4.5535243e-07 -1.2733586e-06 -5.7243628e-08 -3.5455085e-08  21.352233    
     52560   20.964959      50000          50000          50000         -4.8678359e-07 -1.3202236e-06 -1.2261769e-07 -1.7509518e-08  20.964959    
     52580   20.784995      50000          50000          50000         -5.1774754e-07 -1.3616265e-06 -1.9088211e-07 -7.3398996e-10  20.784995    
     52600   20.821911      50000          50000          50000         -5.4706451e-07 -1.3965812e-06 -2.580553e-07   1.3442976e-08  20.821911    
     52620   20.998416      50000          50000          50000         -5.7320968e-07 -1.4236948e-06 -3.1979487e-07  2.3860617e-08  20.998416    
     52640   21.16101       50000          50000          50000         -5.9443131e-07 -1.4413058e-06 -3.7169258e-07  2.9704492e-08  21.16101     
     52660   21.12001       50000          50000          50000         -6.0891765e-07 -1.4476432e-06 -4.0964887e-07  3.0539077e-08  21.12001     
     52680   20.71146       50000          50000          50000         -6.1499577e-07 -1.4409984e-06 -4.3029047e-07  2.6301541e-08  20.71146     
     52700   19.867843      50000          50000          50000         -6.113265e-07  -1.4198778e-06 -4.3137632e-07  1.7274571e-08  19.867843    
     52720   18.65499       50000          50000          50000         -5.9706913e-07 -1.3831459e-06 -4.1212241e-07  4.0608892e-09  18.65499     
     52740   17.2723        50000          50000          50000         -5.7193856e-07 -1.3300366e-06 -3.7334584e-07 -1.2433243e-08  17.2723      
     52760   15.995132      50000          50000          50000         -5.3615083e-07 -1.2600584e-06 -3.1734106e-07 -3.105303e-08   15.995132    
     52780   15.087094      50000          50000          50000         -4.903125e-07  -1.1728717e-06 -2.4752082e-07 -5.0544951e-08  15.087094    
     52800   14.71909       50000          50000          50000         -4.3532721e-07 -1.068247e-06  -1.6800168e-07 -6.9732926e-08  14.71909     
     52820   14.918359      50000          50000          50000         -3.7231896e-07 -9.4609814e-07 -8.3266012e-08 -8.7592735e-08  14.918359    
     52840   15.564442      50000          50000          50000         -3.0254407e-07 -8.0651989e-07  2.1144383e-09 -1.0322676e-07  15.564442    
     52860   16.432978      50000          50000          50000         -2.2730129e-07 -6.4982342e-07  8.3738806e-08 -1.1581926e-07  16.432978    
     52880   17.280912      50000          50000          50000         -1.4785689e-07 -4.7656772e-07  1.5760827e-07 -1.2461122e-07  17.280912    
     52900   17.93945       50000          50000          50000         -6.5465774e-08 -2.8771393e-07  2.2023816e-07 -1.2892155e-07  17.93945     
     52920   18.391148      50000          50000          50000          1.8350033e-08 -8.5216285e-08  2.6853938e-07 -1.28273e-07    18.391148    
     52940   18.771299      50000          50000          50000          1.0136425e-07  1.2686898e-07  2.9974897e-07 -1.225252e-07   18.771299    
     52960   19.289806      50000          50000          50000          1.8094873e-07  3.4239394e-07  3.1213064e-07 -1.1167839e-07  19.289806    
     52980   20.103286      50000          50000          50000          2.5504647e-07  5.5490313e-07  3.0586826e-07 -9.5631979e-08  20.103286    
     53000   21.216288      50000          50000          50000          3.2255048e-07  7.5897734e-07  2.8303237e-07 -7.4358279e-08  21.216288    
     53020   22.45635       50000          50000          50000          3.8312572e-07  9.5038693e-07  2.4710734e-07 -4.8117093e-08  22.45635     
     53040   23.52465       50000          50000          50000          4.3699058e-07  1.1258947e-06  2.0257939e-07 -1.750239e-08   23.52465     
     53060   24.110349      50000          50000          50000          4.8471068e-07  1.2830449e-06  1.5451444e-07  1.6572707e-08  24.110349    
     53080   24.013394      50000          50000          50000          5.2696585e-07  1.4199031e-06  1.0808444e-07  5.2909978e-08  24.013394    
     53100   23.244781      50000          50000          50000          5.6434789e-07  1.5348707e-06  6.8088327e-08  9.0084605e-08  23.244781    
     53120   22.045109      50000          50000          50000          5.9721826e-07  1.6266083e-06  3.851441e-08   1.2653209e-07  22.045109    
     53140   20.811093      50000          50000          50000          6.2566024e-07  1.6941382e-06  2.2181923e-08  1.6066055e-07  20.811093    
     53160   19.949952      50000          50000          50000          6.4951993e-07  1.7370918e-06  2.0492451e-08  1.9097557e-07  19.949952    
     53180   19.716993      50000          50000          50000          6.6849841e-07  1.7559787e-06  3.3319058e-08  2.1619746e-07  19.716993    
     53200   20.106108      50000          50000          50000          6.8223936e-07  1.7523151e-06  5.905162e-08   2.3535142e-07  20.106108    
     53220   20.845423      50000          50000          50000          6.9036447e-07  1.7284757e-06  9.4798138e-08  2.4781954e-07  20.845423    
     53240   21.505102      50000          50000          50000          6.9243857e-07  1.6872471e-06  1.3671657e-07  2.5335202e-07  21.505102    
     53260   21.672838      50000          50000          50000          6.8788449e-07  1.6311881e-06  1.8042521e-07  2.5204014e-07  21.672838    
     53280   21.122476      50000          50000          50000          6.7589964e-07  1.5620096e-06  2.214264e-07   2.4426292e-07  21.122476    
     53300   19.907894      50000          50000          50000          6.5543633e-07  1.4801838e-06  2.5549497e-07  2.3063025e-07  19.907894    
     53320   18.349135      50000          50000          50000          6.252835e-07   1.3848926e-06  2.7901703e-07  2.1194086e-07  18.349135    
     53340   16.919458      50000          50000          50000          5.8424153e-07  1.2742925e-06  2.8927935e-07  1.8915276e-07  16.919458    
     53360   16.075599      50000          50000          50000          5.3134225e-07  1.1459844e-06  2.8469381e-07  1.6334854e-07  16.075599    
     53380   16.092526      50000          50000          50000          4.6604722e-07  9.9754071e-07  2.6492072e-07  1.3568025e-07  16.092526    
     53400   16.962981      50000          50000          50000          3.8836122e-07  8.2693771e-07  2.3085473e-07  1.0729122e-07  16.962981    
     53420   18.397152      50000          50000          50000          2.988194e-07   6.3277129e-07  1.8446117e-07  7.9225739e-08  18.397152    
     53440   19.924575      50000          50000          50000          1.9834322e-07  4.1420549e-07  1.2848174e-07  5.2342423e-08  19.924575    
     53460   21.055187      50000          50000          50000          8.79785e-08    1.7065632e-07  6.6049839e-08  2.7229343e-08  21.055187    
     53480   21.443693      50000          50000          50000         -3.1392698e-08 -9.8533859e-08  2.8257018e-10  4.0731956e-09  21.443693    
     53500   21.003114      50000          50000          50000         -1.5905225e-07 -3.9365051e-07 -6.5983818e-08 -1.7522412e-08  21.003114    
     53520   19.938371      50000          50000          50000         -2.937338e-07  -7.126918e-07  -1.3007288e-07 -3.8436732e-08  19.938371    
     53540   18.678698      50000          50000          50000         -4.3279412e-07 -1.0496487e-06 -1.8925005e-07 -5.9483637e-08  18.678698    
     53560   17.71917       50000          50000          50000         -5.724579e-07  -1.3951383e-06 -2.4107519e-07 -8.1160186e-08  17.71917     
     53580   17.447236      50000          50000          50000         -7.0855787e-07 -1.7379419e-06 -2.8394183e-07 -1.0378989e-07  17.447236    
     53600   18.025584      50000          50000          50000         -8.3690438e-07 -2.0659339e-06 -3.1723288e-07 -1.2754637e-07  18.025584    
     53620   19.357765      50000          50000          50000         -9.5344066e-07 -2.3667997e-06 -3.4118329e-07 -1.5233895e-07  19.357765    
     53640   21.141178      50000          50000          50000         -1.0544308e-06 -2.6289338e-06 -3.5663802e-07 -1.7772054e-07  21.141178    
     53660   22.966185      50000          50000          50000         -1.1367039e-06 -2.8424295e-06 -3.6479065e-07 -2.0289145e-07  22.966185    
     53680   24.440352      50000          50000          50000         -1.1978279e-06 -2.9997542e-06 -3.6694249e-07 -2.2678694e-07  24.440352    
     53700   25.283777      50000          50000          50000         -1.2361612e-06 -3.095994e-06  -3.6429656e-07 -2.4819315e-07  25.283777    
     53720   25.382675      50000          50000          50000         -1.2508094e-06 -3.1287866e-06 -3.5778919e-07 -2.6585256e-07  25.382675    
     53740   24.799289      50000          50000          50000         -1.241571e-06  -3.0981744e-06 -3.4797385e-07 -2.7856472e-07  24.799289    
     53760   23.744723      50000          50000          50000         -1.2089088e-06 -3.0064613e-06 -3.349732e-07  -2.8529188e-07  23.744723    
     53780   22.521814      50000          50000          50000         -1.1539363e-06 -2.8580499e-06 -3.1850163e-07 -2.8525746e-07  22.521814    
     53800   21.454269      50000          50000          50000         -1.0783841e-06 -2.6591882e-06 -2.9794816e-07 -2.7801608e-07  21.454269    
     53820   20.800039      50000          50000          50000         -9.8454644e-07 -2.4176526e-06 -2.7250441e-07 -2.634823e-07   20.800039    
     53840   20.687403      50000          50000          50000         -8.7517742e-07 -2.1422955e-06 -2.4131995e-07 -2.4191683e-07  20.687403    
     53860   21.077412      50000          50000          50000         -7.5336119e-07 -1.842535e-06  -2.0366659e-07 -2.1388193e-07  21.077412    
     53880   21.773609      50000          50000          50000         -6.2236341e-07 -1.5278166e-06 -1.5909217e-07 -1.8018147e-07  21.773609    
     53900   22.480818      50000          50000          50000         -4.8548671e-07 -1.2071124e-06 -1.0754754e-07 -1.4180024e-07  22.480818    
     53920   22.899648      50000          50000          50000         -3.4596371e-07 -8.8854739e-07 -4.9483888e-08 -9.9859847e-08  22.899648    
     53940   22.827966      50000          50000          50000         -2.0695651e-07 -5.7929519e-07  1.4049821e-08 -5.5624176e-08  22.827966    
     53960   22.24185       50000          50000          50000         -7.1710313e-08 -2.8582773e-07  8.1270326e-08 -1.0573532e-08  22.24185     
     53980   21.310492      50000          50000          50000          5.6269284e-08 -1.4278179e-08  1.4954317e-07  3.3542858e-08  21.310492    
     54000   20.34727       50000          50000          50000          1.7335434e-07  2.2973687e-07  2.1548153e-07  7.4844624e-08  20.34727     
     54020   19.6876        50000          50000          50000          2.7625376e-07  4.4184181e-07  2.753086e-07   1.1161089e-07  19.6876      
     54040   19.544602      50000          50000          50000          3.6249211e-07  6.1960128e-07  3.2533696e-07  1.4253808e-07  19.544602    
     54060   19.902905      50000          50000          50000          4.3076641e-07  7.6287932e-07  3.6249199e-07  1.6692793e-07  19.902905    
     54080   20.512146      50000          50000          50000          4.8131243e-07  8.7408552e-07  3.849409e-07   1.8491089e-07  20.512146    
     54100   20.998556      50000          50000          50000          5.1601101e-07  9.5806583e-07  3.924943e-07   1.974729e-07   20.998556    
     54120   21.041282      50000          50000          50000          5.3748035e-07  1.0206679e-06  3.8601476e-07  2.0575835e-07  21.041282    
     54140   20.504012      50000          50000          50000          5.4795836e-07  1.0669192e-06  3.6658515e-07  2.1037072e-07  20.504012    
     54160   19.473331      50000          50000          50000          5.4918005e-07  1.1005381e-06  3.3555286e-07  2.114492e-07   19.473331    
     54180   18.216255      50000          50000          50000          5.426256e-07   1.1241712e-06  2.9479558e-07  2.0891001e-07  18.216255    
     54200   17.086705      50000          50000          50000          5.2962909e-07  1.1396176e-06  2.4672565e-07  2.0254397e-07  17.086705    
     54220   16.399339      50000          50000          50000          5.1140139e-07  1.1479634e-06  1.9414877e-07  1.9209195e-07  16.399339    
     54240   16.332859      50000          50000          50000          4.8905444e-07  1.1497404e-06  1.4007467e-07  1.7734823e-07  16.332859    
     54260   16.88132       50000          50000          50000          4.6360291e-07  1.1450442e-06  8.749559e-08   1.5826891e-07  16.88132     
     54280   17.873274      50000          50000          50000          4.3593925e-07  1.1336135e-06  3.9146971e-08  1.3505726e-07  17.873274    
     54300   19.045711      50000          50000          50000          4.0678826e-07  1.1148747e-06 -2.7214533e-09  1.0821155e-07  19.045711    
     54320   20.141307      50000          50000          50000          3.7666332e-07  1.0879819e-06 -3.652872e-08   7.853675e-08   20.141307    
     54340   20.99194       50000          50000          50000          3.4584763e-07  1.0518851e-06 -6.1471965e-08  4.7129728e-08  20.99194     
     54360   21.560409      50000          50000          50000          3.1441452e-07  1.0054475e-06 -7.7550644e-08  1.5346671e-08  21.560409    
     54380   21.929908      50000          50000          50000          2.8228853e-07  9.4762083e-07 -8.5511373e-08 -1.5243868e-08  21.929908    
     54400   22.249201      50000          50000          50000          2.4934163e-07  8.7767686e-07 -8.6727268e-08 -4.2924705e-08  22.249201    
     54420   22.655221      50000          50000          50000          2.1551405e-07  7.9548168e-07 -8.3021413e-08 -6.5918119e-08  22.655221    
     54440   23.202225      50000          50000          50000          1.8093265e-07  7.0175407e-07 -7.6441617e-08 -8.2514515e-08  23.202225    
     54460   23.826097      50000          50000          50000          1.4597772e-07  5.9820394e-07 -6.9012315e-08 -9.1258455e-08  23.826097    
     54480   24.360262      50000          50000          50000          1.1125936e-07  4.8747075e-07 -6.2511758e-08 -9.1180927e-08  24.360262    
     54500   24.597474      50000          50000          50000          7.7511041e-08  3.7287313e-07 -5.8313896e-08 -8.2026112e-08  24.597474    
     54520   24.370085      50000          50000          50000          4.5444951e-08  2.5804654e-07 -5.7302948e-08 -6.4408741e-08  24.370085    
     54540   23.621328      50000          50000          50000          1.5623751e-08  1.4657635e-07 -5.984533e-08  -3.9859768e-08  23.621328    
     54560   22.426017      50000          50000          50000         -1.1633629e-08  4.1643891e-08 -6.5798884e-08 -1.0745894e-08  22.426017    
     54580   20.971761      50000          50000          50000         -3.6253401e-08 -5.4185738e-08 -7.4528543e-08  1.9954078e-08  20.971761    
     54600   19.494082      50000          50000          50000         -5.8267207e-08 -1.3901772e-07 -8.4876293e-08  4.9092394e-08  19.494082    
     54620   18.199182      50000          50000          50000         -7.7583269e-08 -2.116246e-07  -9.5132281e-08  7.4007075e-08  18.199182    
     54640   17.223454      50000          50000          50000         -9.4142172e-08 -2.7188185e-07 -1.033662e-07   9.2821539e-08  17.223454    
     54660   16.642326      50000          50000          50000         -1.0841627e-07 -3.2130531e-07 -1.0801746e-07  1.0407397e-07  16.642326    
     54680   16.481979      50000          50000          50000         -1.2133976e-07 -3.62575e-07   -1.0800887e-07  1.0656458e-07  16.481979    
     54700   16.703108      50000          50000          50000         -1.3387582e-07 -3.9867921e-07 -1.0257977e-07  9.963152e-08   16.703108    
     54720   17.189146      50000          50000          50000         -1.4681121e-07 -4.3251495e-07 -9.1275848e-08  8.3357168e-08  17.189146    
     54740   17.767968      50000          50000          50000         -1.6075149e-07 -4.6681518e-07 -7.4032025e-08  5.8592737e-08  17.767968    
     54760   18.265155      50000          50000          50000         -1.7616136e-07 -5.0415803e-07 -5.1223733e-08  2.6897689e-08  18.265155    
     54780   18.568368      50000          50000          50000         -1.9340094e-07 -5.469727e-07  -2.3670635e-08 -9.5594809e-09  18.568368    
     54800   18.675929      50000          50000          50000         -2.1274483e-07 -5.9748731e-07  7.3871148e-09 -4.8134279e-08  18.675929    
     54820   18.705486      50000          50000          50000         -2.3436884e-07 -6.5755734e-07  4.0328568e-08 -8.5877762e-08  18.705486    
     54840   18.850738      50000          50000          50000         -2.5829569e-07 -7.2834422e-07  7.3210773e-08 -1.1975362e-07  18.850738    
     54860   19.294991      50000          50000          50000         -2.8431427e-07 -8.0989228e-07  1.0385394e-07 -1.4690447e-07  19.294991    
     54880   20.113636      50000          50000          50000         -3.1191307e-07 -9.0074252e-07  1.299552e-07  -1.649519e-07   20.113636    
     54900   21.21096       50000          50000          50000         -3.4027115e-07 -9.9775969e-07  1.4923085e-07 -1.7228463e-07  21.21096     
     54920   22.328381      50000          50000          50000         -3.6832754e-07 -1.0962975e-06  1.5958869e-07 -1.6827378e-07  22.328381    
     54940   23.131652      50000          50000          50000         -3.9491761e-07 -1.1907112e-06  1.5932756e-07 -1.5336918e-07  23.131652    
     54960   23.347596      50000          50000          50000         -4.1893892e-07 -1.2751038e-06  1.4734989e-07 -1.2906286e-07  23.347596    
     54980   22.894335      50000          50000          50000         -4.3949665e-07 -1.3441168e-06  1.23361e-07   -9.773414e-08   22.894335    
     55000   21.945028      50000          50000          50000         -4.5598359e-07 -1.3935666e-06  8.8021584e-08 -6.2405798e-08  21.945028    
     55020   20.885854      50000          50000          50000         -4.6807132e-07 -1.4207869e-06  4.3016972e-08 -2.6444038e-08  20.885854    
     55040   20.177491      50000          50000          50000         -4.756125e-07  -1.4246175e-06 -8.9874937e-09  6.7675473e-09  20.177491    
     55060   20.154015      50000          50000          50000         -4.7850487e-07 -1.4051572e-06 -6.4517827e-08  3.4160454e-08  20.154015    
     55080   20.862629      50000          50000          50000         -4.7653253e-07 -1.3633421e-06 -1.1957932e-07  5.3323848e-08  20.862629    
     55100   22.014057      50000          50000          50000         -4.6924726e-07 -1.3005294e-06 -1.7005448e-07  6.2842097e-08  22.014057    
     55120   23.091439      50000          50000          50000         -4.5600476e-07 -1.2182614e-06 -2.1220675e-07  6.2453894e-08  23.091439    
     55140   23.56599       50000          50000          50000         -4.3623112e-07 -1.1184033e-06 -2.4312954e-07  5.2839471e-08  23.56599     
     55160   23.113356      50000          50000          50000         -4.096786e-07  -1.0034449e-06 -2.6087401e-07  3.5283158e-08  23.113356    
     55180   21.735628      50000          50000          50000         -3.76503e-07   -8.7670676e-07 -2.6433436e-07  1.1532105e-08  21.735628    
     55200   19.780954      50000          50000          50000         -3.3723254e-07 -7.4229579e-07 -2.5316019e-07 -1.624165e-08   19.780954    
     55220   17.839676      50000          50000          50000         -2.9271378e-07 -6.0485262e-07 -2.2775591e-07 -4.553282e-08   17.839676    
     55240   16.546735      50000          50000          50000         -2.4402591e-07 -4.6910586e-07 -1.8930832e-07 -7.3663541e-08  16.546735    
     55260   16.347927      50000          50000          50000         -1.923727e-07  -3.3933657e-07 -1.3979973e-07 -9.7981802e-08  16.347927    
     55280   17.312034      50000          50000          50000         -1.3897065e-07 -2.1886939e-07 -8.1970166e-08 -1.1607239e-07  17.312034    
     55300   19.071015      50000          50000          50000         -8.4958681e-08 -1.0972289e-07 -1.9186716e-08 -1.2596643e-07  19.071015    
     55320   20.934926      50000          50000          50000         -3.1372136e-08 -1.2571604e-08  4.4792165e-08 -1.2633697e-07  20.934926    
     55340   22.152899      50000          50000          50000          2.0790589e-08  7.2909072e-08  1.0611529e-07 -1.166526e-07   22.152899    
     55360   22.221331      50000          50000          50000          7.0450285e-08  1.4747376e-07  1.6113104e-07 -9.7253946e-08  22.221331    
     55380   21.083912      50000          50000          50000          1.1633781e-07  2.1172619e-07  2.0662408e-07 -6.9336829e-08  21.083912    
     55400   19.168267      50000          50000          50000          1.5702395e-07  2.6590686e-07  2.4000618e-07 -3.4841201e-08  19.168267    
     55420   17.211618      50000          50000          50000          1.9109042e-07  3.1003758e-07  2.5949478e-07  3.7389082e-09  17.211618    
     55440   15.965071      50000          50000          50000          2.1742449e-07  3.44384e-07    2.6428328e-07  4.3606198e-08  15.965071    
     55460   15.890833      50000          50000          50000          2.3551866e-07  3.6994714e-07  2.5466311e-07  8.1945739e-08  15.890833    
     55480   16.983938      50000          50000          50000          2.4564625e-07  3.8869212e-07  2.3204035e-07  1.1620629e-07  16.983938    
     55500   18.791047      50000          50000          50000          2.4881955e-07  4.0332656e-07  1.9880657e-07  1.4432551e-07  18.791047    
     55520   20.621597      50000          50000          50000          2.465523e-07   4.1672616e-07  1.5807268e-07  1.6485806e-07  20.621597    
     55540   21.833529      50000          50000          50000          2.4051148e-07  4.3121016e-07  1.1332634e-07  1.7699794e-07  21.833529    
     55560   22.088145      50000          50000          50000          2.3221749e-07  4.4803383e-07  6.8091306e-08  1.8052732e-07  22.088145    
     55580   21.461661      50000          50000          50000          2.2286554e-07  4.6722751e-07  2.5635764e-08  1.7573334e-07  21.461661    
     55600   20.386097      50000          50000          50000          2.1329473e-07  4.8782409e-07 -1.1260541e-08  1.6332063e-07  20.386097    
     55620   19.451184      50000          50000          50000          2.0407099e-07  5.0836789e-07 -4.048303e-08   1.4432811e-07  19.451184    
     55640   19.151133      50000          50000          50000          1.9562048e-07  5.2751161e-07 -6.069782e-08   1.2004765e-07  19.151133    
     55660   19.682008      50000          50000          50000          1.8833864e-07  5.4447053e-07 -7.1394783e-08  9.1940168e-08  19.682008    
     55680   20.867436      50000          50000          50000          1.8260337e-07  5.5912088e-07 -7.2856354e-08  6.1545572e-08  20.867436    
     55700   22.254043      50000          50000          50000          1.7868151e-07  5.7172872e-07 -6.6073615e-08  3.0389437e-08  22.254043    
     55720   23.312757      50000          50000          50000          1.7653604e-07  5.8235781e-07 -5.2649847e-08 -9.9852401e-11  23.312757    
     55740   23.673593      50000          50000          50000          1.7565026e-07  5.9027324e-07 -3.4696958e-08 -2.86255e-08    23.673593    
     55760   23.291199      50000          50000          50000          1.7499624e-07  5.9363888e-07 -1.466484e-08  -5.3985301e-08  23.291199    
     55780   22.464212      50000          50000          50000          1.73201e-07    5.897043e-07   4.9264737e-09 -7.502776e-08   22.464212    
     55800   21.684108      50000          50000          50000          1.6883485e-07  5.7543191e-07  2.1770274e-08 -9.0697632e-08  21.684108    
     55820   21.37789       50000          50000          50000          1.6072525e-07  5.4834109e-07  3.3992539e-08 -1.0015786e-07  21.37789     
     55840   21.676235      50000          50000          50000          1.4822469e-07  5.0727311e-07  4.0305335e-08 -1.0290437e-07  21.676235    
     55860   22.332592      50000          50000          50000          1.3136204e-07  4.5278539e-07  4.0115039e-08 -9.8814325e-08  22.332592    
     55880   22.842544      50000          50000          50000          1.1081098e-07  3.8697068e-07  3.3568795e-08 -8.8106539e-08  22.842544    
     55900   22.702292      50000          50000          50000          8.7605271e-08  3.1264874e-07  2.1442518e-08 -7.127545e-08   22.702292    
     55920   21.67028       50000          50000          50000          6.2671038e-08  2.3230595e-07  4.8256362e-09 -4.9118474e-08  21.67028     
     55940   19.902502      50000          50000          50000          3.6525389e-08  1.475461e-07  -1.515977e-08  -2.281016e-08   19.902502    
     55960   17.919691      50000          50000          50000          9.3645408e-09  5.9351829e-08 -3.7391779e-08  6.1335726e-09  17.919691    
     55980   16.419255      50000          50000          50000         -1.8653517e-08 -3.1293741e-08 -6.0666968e-08  3.6000157e-08  16.419255    
     56000   15.997114      50000          50000          50000         -4.716602e-08  -1.2285101e-07 -8.3684334e-08  6.5037279e-08  15.997114    
     56020   16.886441      50000          50000          50000         -7.5483318e-08 -2.1292415e-07 -1.0510218e-07  9.1576378e-08  16.886441    
     56040   18.842615      50000          50000          50000         -1.0258548e-07 -2.9826917e-07 -1.236113e-07   1.1412403e-07  18.842615    
     56060   21.216202      50000          50000          50000         -1.2726053e-07 -3.7520016e-07 -1.380008e-07   1.3141936e-07  21.216202    
     56080   23.184865      50000          50000          50000         -1.4834752e-07 -4.4029005e-07 -1.4721104e-07  1.4245852e-07  23.184865    
     56100   24.061846      50000          50000          50000         -1.6498866e-07 -4.9109386e-07 -1.503735e-07   1.4650138e-07  24.061846    
     56120   23.548999      50000          50000          50000         -1.768262e-07  -5.2671154e-07 -1.4684578e-07  1.4307873e-07  23.548999    
     56140   21.848869      50000          50000          50000         -1.8408717e-07 -5.4802605e-07 -1.3625419e-07  1.3201872e-07  21.848869    
     56160   19.592536      50000          50000          50000         -1.8753573e-07 -5.5757056e-07 -1.1854908e-07  1.1351246e-07  19.592536    
     56180   17.614036      50000          50000          50000         -1.8827212e-07 -5.5898982e-07 -9.4054842e-08  8.8228288e-08  17.614036    
     56200   16.619334      50000          50000          50000         -1.8744803e-07 -5.5629122e-07 -6.3485221e-08  5.7432346e-08  16.619334    
     56220   16.912275      50000          50000          50000         -1.8597359e-07 -5.5302975e-07 -2.7912387e-08  2.3021362e-08  16.912275    
     56240   18.288417      50000          50000          50000         -1.8436994e-07 -5.5180184e-07  1.1289737e-08 -1.2597717e-08  18.288417    
     56260   20.140408      50000          50000          50000         -1.8283167e-07 -5.5423145e-07  5.2500067e-08 -4.6763631e-08  20.140408    
     56280   21.731918      50000          50000          50000         -1.8142889e-07 -5.6129561e-07  9.388987e-08  -7.6880911e-08  21.731918    
     56300   22.50358       50000          50000          50000         -1.8033412e-07 -5.7372915e-07  1.3345698e-07 -1.0073019e-07  22.50358     
     56320   22.277728      50000          50000          50000         -1.7994804e-07 -5.9222651e-07  1.690927e-07  -1.1671033e-07  22.277728    
     56340   21.284326      50000          50000          50000         -1.8085259e-07 -6.1730929e-07  1.9872683e-07 -1.2397532e-07  21.284326    
     56360   20.015853      50000          50000          50000         -1.8363453e-07 -6.4897262e-07  2.2053083e-07 -1.2246181e-07  20.015853    
     56380   18.998125      50000          50000          50000         -1.8873691e-07 -6.8642416e-07  2.3305365e-07 -1.1284022e-07  18.998125    
     56400   18.592457      50000          50000          50000         -1.9642925e-07 -7.2809818e-07  2.352256e-07  -9.6415179e-08  18.592457    
     56420   18.900432      50000          50000          50000         -2.0681033e-07 -7.7181651e-07  2.2635701e-07 -7.4971487e-08  18.900432    
     56440   19.777953      50000          50000          50000         -2.1978603e-07 -8.1499615e-07  2.0622744e-07 -5.0589392e-08  19.777953    
     56460   20.930468      50000          50000          50000         -2.3507337e-07 -8.5495319e-07  1.7520304e-07 -2.5469948e-08  20.930468    
     56480   22.044193      50000          50000          50000         -2.5225834e-07 -8.8928333e-07  1.343005e-07  -1.7921863e-09  22.044193    
     56500   22.899319      50000          50000          50000         -2.7088113e-07 -9.1620457e-07  8.5180512e-08  1.8380655e-08  22.899319    
     56520   23.420424      50000          50000          50000         -2.9050248e-07 -9.3475847e-07  3.0110974e-08  3.3140061e-08  23.420424    
     56540   23.646674      50000          50000          50000         -3.1066557e-07 -9.4476719e-07 -2.8039017e-08  4.0809515e-08  23.646674    
     56560   23.641985      50000          50000          50000         -3.3068517e-07 -9.4645273e-07 -8.5832817e-08  4.0230032e-08  23.641985    
     56580   23.403537      50000          50000          50000         -3.4948642e-07 -9.3998932e-07 -1.3956412e-07  3.1094188e-08  23.403537    
     56600   22.837247      50000          50000          50000         -3.6576931e-07 -9.2545643e-07 -1.8579365e-07  1.3942158e-08  22.837247    
     56620   21.817976      50000          50000          50000         -3.7828121e-07 -9.0306116e-07 -2.2174713e-07 -1.0035354e-08  21.817976    
     56640   20.30372       50000          50000          50000         -3.8598568e-07 -8.7333729e-07 -2.4549077e-07 -3.9128987e-08  20.30372     
     56660   18.43554       50000          50000          50000         -3.8817594e-07 -8.3729065e-07 -2.5602522e-07 -7.1211947e-08  18.43554     
     56680   16.564999      50000          50000          50000         -3.8453113e-07 -7.963882e-07  -2.533418e-07  -1.038634e-07   16.564999    
     56700   15.170213      50000          50000          50000         -3.7508726e-07 -7.523152e-07  -2.3842259e-07 -1.3452398e-07  15.170213    
     56720   14.682003      50000          50000          50000         -3.601174e-07  -7.0651105e-07 -2.1316022e-07 -1.6068091e-07  14.682003    
     56740   15.292007      50000          50000          50000         -3.3996654e-07 -6.5964528e-07 -1.8018293e-07 -1.800714e-07   15.292007    
     56760   16.834953      50000          50000          50000         -3.1492062e-07 -6.1128766e-07 -1.4259332e-07 -1.908809e-07   16.834953    
     56780   18.816753      50000          50000          50000         -2.8517296e-07 -5.5995407e-07 -1.0366173e-07 -1.9190308e-07  18.816753    
     56800   20.581572      50000          50000          50000         -2.5090478e-07 -5.0354887e-07 -6.6535014e-08 -1.8263046e-07  20.581572    
     56820   21.547599      50000          50000          50000         -2.1241982e-07 -4.4e-07       -3.3998477e-08 -1.6326097e-07  21.547599    
     56840   21.415877      50000          50000          50000         -1.7025007e-07 -3.6782723e-07 -8.2870394e-09 -1.3463594e-07  21.415877    
     56860   20.277151      50000          50000          50000         -1.2518194e-07 -2.8647463e-07  9.0705017e-09 -9.8141691e-08  20.277151    
     56880   18.581119      50000          50000          50000         -7.818939e-08  -1.9634626e-07  1.7373695e-08 -5.5595604e-08  18.581119    
     56900   16.977377      50000          50000          50000         -3.0285545e-08 -9.8561352e-08  1.6824552e-08 -9.1198349e-09  16.977377    
     56920   16.081464      50000          50000          50000          1.7670446e-08  5.4781153e-09  8.5348352e-09  3.8998388e-08  16.081464    
     56940   16.249799      50000          50000          50000          6.5149102e-08  1.1454498e-07 -5.549702e-09   8.6452029e-08  16.249799    
     56960   17.451034      50000          50000          50000          1.1203897e-07  2.2788614e-07 -2.2815223e-08  1.3104599e-07  17.451034    
     56980   19.282435      50000          50000          50000          1.585917e-07   3.4520998e-07 -4.0227676e-08  1.707928e-07   19.282435    
     57000   21.137969      50000          50000          50000          2.0523444e-07  4.663757e-07  -5.4638904e-08  2.0396652e-07  21.137969    
     57020   22.447836      50000          50000          50000          2.5228829e-07  5.908463e-07  -6.3119836e-08  2.2913839e-07  22.447836    
     57040   22.915296      50000          50000          50000          2.9971858e-07  7.1720898e-07 -6.3289625e-08  2.4523638e-07  22.915296    
     57060   22.636285      50000          50000          50000          3.4699744e-07  8.4295991e-07 -5.3608901e-08  2.516413e-07   22.636285    
     57080   22.046185      50000          50000          50000          3.9313188e-07  9.6470932e-07 -3.3597842e-08  2.4828416e-07  22.046185    
     57100   21.705577      50000          50000          50000          4.3683345e-07  1.0787364e-06 -3.936603e-09   2.3570059e-07  21.705577    
     57120   22.019392      50000          50000          50000          4.7675046e-07  1.1816468e-06  3.3577909e-08  2.1502672e-07  22.019392    
     57140   23.023211      50000          50000          50000          5.1166859e-07  1.2708409e-06  7.6218956e-08  1.8794594e-07  23.023211    
     57160   24.343037      50000          50000          50000          5.4064461e-07  1.344651e-06   1.2066914e-07  1.5661372e-07  24.343037    
     57180   25.354483      50000          50000          50000          5.6313194e-07  1.4022558e-06  1.6356334e-07  1.2357672e-07  25.354483    
     57200   25.47459       50000          50000          50000          5.7901784e-07  1.4434049e-06  2.0210127e-07  9.1547347e-08  25.47459     
     57220   24.422838      50000          50000          50000          5.882145e-07   1.4675541e-06  2.3419429e-07  6.2895096e-08  24.422838    
     57240   22.343161      50000          50000          50000          5.901413e-07   1.4729291e-06  2.5816524e-07  3.9329533e-08  22.343161    
     57260   19.750503      50000          50000          50000          5.8374021e-07  1.4564983e-06  2.7266845e-07  2.2053838e-08  19.750503    
     57280   17.348724      50000          50000          50000          5.6787579e-07  1.414824e-06   2.7687513e-07  1.1928231e-08  17.348724    
     57300   15.767052      50000          50000          50000          5.4173454e-07  1.3451367e-06  2.706291e-07   9.4377851e-09  15.767052    
     57320   15.317947      50000          50000          50000          5.0507586e-07  1.2461843e-06  2.5445849e-07  1.4584825e-08  15.317947    
     57340   15.883831      50000          50000          50000          4.5830739e-07  1.1186319e-06  2.2947499e-07  2.6815306e-08  15.883831    
     57360   16.982438      50000          50000          50000          4.0238744e-07  9.6494361e-07  1.9721361e-07  4.5005103e-08  16.982438    
     57380   17.984937      50000          50000          50000          3.3859847e-07  7.888495e-07   1.5945161e-07  6.74943e-08    17.984937    
     57400   18.388602      50000          50000          50000          2.6827487e-07  5.9462919e-07  1.1803989e-07  9.2155549e-08  18.388602    
     57420   18.032638      50000          50000          50000          1.9259228e-07  3.8651123e-07  7.4771421e-08  1.164942e-07   18.032638    
     57440   17.167216      50000          50000          50000          1.1248963e-07  1.6838401e-07  3.1296194e-08  1.3778868e-07  17.167216    
     57460   16.346001      50000          50000          50000          2.8741166e-08 -5.6135751e-08 -1.0924568e-08  1.5328382e-07  16.346001    
     57480   16.182502      50000          50000          50000         -5.7865366e-08 -2.8339029e-07 -5.064255e-08   1.6043674e-07  16.182502    
     57500   17.070292      50000          50000          50000         -1.4633593e-07 -5.093521e-07  -8.6842598e-08  1.571869e-07   17.070292    
     57520   18.989835      50000          50000          50000         -2.3536545e-07 -7.2952879e-07 -1.1876508e-07  1.4219751e-07  18.989835    
     57540   21.492937      50000          50000          50000         -3.2338119e-07 -9.3924114e-07 -1.4592081e-07  1.1501837e-07  21.492937    
     57560   23.871115      50000          50000          50000         -4.0872468e-07 -1.1342377e-06 -1.6808215e-07  7.6145795e-08  23.871115    
     57580   25.437547      50000          50000          50000         -4.8988867e-07 -1.3114128e-06 -1.8524031e-07  2.6987096e-08  25.437547    
     57600   25.798997      50000          50000          50000         -5.6571555e-07 -1.4693649e-06 -1.9753532e-07 -3.0246446e-08  25.798997    
     57620   25.010288      50000          50000          50000         -6.3548352e-07 -1.60858e-06   -2.0518074e-07 -9.2689821e-08  25.010288    
     57640   23.555647      50000          50000          50000         -6.9885165e-07 -1.731161e-06  -2.0840773e-07 -1.569862e-07   23.555647    
     57660   22.166208      50000          50000          50000         -7.5567549e-07 -1.8401541e-06 -2.0743496e-07 -2.1943738e-07  22.166208    
     57680   21.536238      50000          50000          50000         -8.0574864e-07 -1.9386222e-06 -2.0245606e-07 -2.7616771e-07  21.536238    
     57700   22.040788      50000          50000          50000         -8.4857493e-07 -2.0287004e-06 -1.9365382e-07 -3.2337056e-07  22.040788    
     57720   23.5739        50000          50000          50000         -8.8328786e-07 -2.1109324e-06 -1.8126739e-07 -3.5766379e-07  23.5739      
     57740   25.587351      50000          50000          50000         -9.0876744e-07 -2.1841078e-06 -1.6570888e-07 -3.7648562e-07  25.587351    
     57760   27.316877      50000          50000          50000         -9.2390434e-07 -2.2456061e-06 -1.4768236e-07 -3.7842461e-07  27.316877    
     57780   28.092585      50000          50000          50000         -9.2789898e-07 -2.2920377e-06 -1.2824879e-07 -3.6341048e-07  28.092585    
     57800   27.596216      50000          50000          50000         -9.2048026e-07 -2.3198984e-06 -1.088011e-07  -3.3274126e-07  27.596216    
     57820   25.960043      50000          50000          50000         -9.0197394e-07 -2.3260238e-06 -9.0942274e-08 -2.8895576e-07  25.960043    
     57840   23.691052      50000          50000          50000         -8.7319825e-07 -2.3077385e-06 -7.6283595e-08 -2.3557264e-07  23.691052    
     57860   21.452154      50000          50000          50000         -8.3525066e-07 -2.2628224e-06 -6.6200269e-08 -1.7672929e-07  21.452154    
     57880   19.811065      50000          50000          50000         -7.8925049e-07 -2.1893945e-06 -6.1596452e-08 -1.1676051e-07  19.811065    
     57900   19.0536        50000          50000          50000         -7.3612949e-07 -2.0858755e-06 -6.2733574e-08 -5.9779407e-08  19.0536      
     57920   19.122797      50000          50000          50000         -6.7653377e-07 -1.9511197e-06 -6.9154576e-08 -9.3269934e-09  19.122797    
     57940   19.692343      50000          50000          50000         -6.1084045e-07 -1.7846904e-06 -7.9700912e-08  3.1869914e-08  19.692343    
     57960   20.323354      50000          50000          50000         -5.3925414e-07 -1.587198e-06  -9.2596827e-08  6.2032381e-08  20.323354    
     57980   20.636626      50000          50000          50000         -4.6192722e-07 -1.3605803e-06 -1.055777e-07   8.0376287e-08  20.636626    
     58000   20.43864       50000          50000          50000         -3.7905979e-07 -1.1082202e-06 -1.1605141e-07  8.7092233e-08  20.43864     
     58020   19.766072      50000          50000          50000         -2.9095586e-07 -8.3484924e-07 -1.2128844e-07  8.3270101e-08  19.766072    
     58040   18.845199      50000          50000          50000         -1.9803982e-07 -5.4625533e-07 -1.1863847e-07  7.0774334e-08  18.845199    
     58060   17.998432      50000          50000          50000         -1.0086141e-07 -2.488832e-07  -1.0577475e-07  5.207372e-08   17.998432    
     58080   17.523245      50000          50000          50000         -1.6809569e-10  5.0441843e-08 -8.0976662e-08  3.0030532e-08  17.523245    
     58100   17.602099      50000          50000          50000          1.0294721e-07  3.4461531e-07 -4.3450056e-08  7.6763845e-09  17.602099    
     58120   18.251364      50000          50000          50000          2.0690382e-07  6.2633137e-07  6.3680869e-09 -1.1987993e-08  18.251364    
     58140   19.327         50000          50000          50000          3.0965899e-07  8.8852494e-07  6.6633745e-08 -2.6181721e-08  19.327       
     58160   20.584573      50000          50000          50000          4.0887779e-07  1.1250989e-06  1.3412307e-07 -3.2588564e-08  20.584573    
     58180   21.768848      50000          50000          50000          5.0209583e-07  1.331471e-06   2.0445727e-07 -2.9640763e-08  21.768848    
     58200   22.684461      50000          50000          50000          5.8682119e-07  1.5047083e-06  2.7248866e-07 -1.6733364e-08  22.684461    
     58220   23.233807      50000          50000          50000          6.606426e-07   1.6434203e-06  3.328026e-07   5.7049226e-09  23.233807    
     58240   23.401113      50000          50000          50000          7.2135613e-07  1.7475109e-06  3.8027421e-07  3.6283255e-08  23.401113    
     58260   23.218735      50000          50000          50000          7.6712173e-07  1.8179171e-06  4.1061365e-07  7.2834457e-08  23.218735    
     58280   22.74278       50000          50000          50000          7.9662657e-07  1.8563648e-06  4.2083252e-07  1.1268244e-07  22.74278     
     58300   22.034823      50000          50000          50000          8.0920179e-07  1.8650892e-06  4.0956056e-07  1.5295563e-07  22.034823    
     58320   21.17354       50000          50000          50000          8.0486951e-07  1.8465698e-06  3.7713994e-07  1.9089876e-07  21.17354     
     58340   20.264078      50000          50000          50000          7.8425272e-07  1.803194e-06   3.2545903e-07  2.2410513e-07  20.264078    
     58360   19.439546      50000          50000          50000          7.4839313e-07  1.736953e-06   2.5761162e-07  2.5061474e-07  19.439546    
     58380   18.841454      50000          50000          50000          6.9859297e-07  1.6493214e-06  1.7756141e-07  2.6889614e-07  18.841454    
     58400   18.583961      50000          50000          50000          6.3639363e-07  1.5414525e-06  8.9941028e-08  2.7778737e-07  18.583961    
     58420   18.70752       50000          50000          50000          5.637579e-07   1.4147242e-06 -1.5588694e-11  2.7656511e-07  18.70752     
     58440   19.147875      50000          50000          50000          4.8321338e-07  1.2711988e-06 -8.670884e-08   2.6515021e-07  19.147875    
     58460   19.749698      50000          50000          50000          3.9763814e-07  1.1135282e-06 -1.6473404e-07  2.4412023e-07  19.749698    
     58480   20.323347      50000          50000          50000          3.0996486e-07  9.4472483e-07 -2.2940806e-07  2.1457779e-07  20.323347    
     58500   20.717405      50000          50000          50000          2.2296692e-07  7.6802952e-07 -2.7713886e-07  1.780101e-07   20.717405    
     58520   20.876105      50000          50000          50000          1.3910744e-07  5.8685126e-07 -3.0567989e-07  1.3615094e-07  20.876105    
     58540   20.858003      50000          50000          50000          6.0445576e-08  4.0476309e-07 -3.1428084e-07  9.0854481e-08  20.858003    
     58560   20.807203      50000          50000          50000         -1.1405746e-08  2.2551604e-07 -3.0372469e-07  4.3991413e-08  20.807203    
     58580   20.887497      50000          50000          50000         -7.5286661e-08  5.2998003e-08 -2.7622882e-07 -2.6291632e-09  20.887497    
     58600   21.206455      50000          50000          50000         -1.3047959e-07 -1.0893296e-07 -2.3519449e-07 -4.7311326e-08  21.206455    
     58620   21.762764      50000          50000          50000         -1.7669296e-07 -2.5676265e-07 -1.848208e-07  -8.8495418e-08  21.762764    
     58640   22.440625      50000          50000          50000         -2.1404344e-07 -3.87735e-07   -1.2963917e-07 -1.2475614e-07  22.440625    
     58660   23.053328      50000          50000          50000         -2.4303395e-07 -5.0026597e-07 -7.4043384e-08 -1.5479249e-07  23.053328    
     58680   23.415954      50000          50000          50000         -2.6451821e-07 -5.9423582e-07 -2.1883101e-08 -1.7743572e-07  23.415954    
     58700   23.413895      50000          50000          50000         -2.7964207e-07 -6.7106435e-07  2.3835606e-08 -1.9169747e-07  23.413895    
     58720   23.042492      50000          50000          50000         -2.8974993e-07 -7.3351297e-07  6.1126669e-08 -1.9686348e-07  23.042492    
     58740   22.399903      50000          50000          50000         -2.9626459e-07 -7.8525562e-07  8.9078244e-08 -1.926164e-07   22.399903    
     58760   21.649988      50000          50000          50000         -3.0054503e-07 -8.3027885e-07  1.0779655e-07 -1.7915279e-07  21.649988    
     58780   20.9593        50000          50000          50000         -3.0376774e-07 -8.722944e-07   1.1824596e-07 -1.5725476e-07  20.9593      
     58800   20.453081      50000          50000          50000         -3.0684047e-07 -9.1423495e-07  1.2200131e-07 -1.2828775e-07  20.453081    
     58820   20.190048      50000          50000          50000         -3.1038515e-07 -9.5796496e-07  1.2093497e-07 -9.4125454e-08  20.190048    
     58840   20.163268      50000          50000          50000         -3.1477309e-07 -1.0041836e-06  1.168884e-07  -5.7024029e-08  20.163268    
     58860   20.316145      50000          50000          50000         -3.2018007e-07 -1.0524544e-06  1.1138521e-07 -1.9470975e-08  20.316145    
     58880   20.562059      50000          50000          50000         -3.2663308e-07 -1.1013006e-06  1.0542498e-07  1.5976372e-08  20.562059    
     58900   20.802027      50000          50000          50000         -3.340421e-07  -1.1483528e-06  9.9372249e-08  4.6854237e-08  20.802027    
     58920   20.941556      50000          50000          50000         -3.4222283e-07 -1.1905618e-06  9.2942708e-08  7.0950577e-08  20.941556    
     58940   20.910593      50000          50000          50000         -3.5091626e-07 -1.2244833e-06  8.5283917e-08  8.6450598e-08  20.910593    
     58960   20.688167      50000          50000          50000         -3.598114e-07  -1.2466272e-06  7.5135022e-08  9.2058018e-08  20.688167    
     58980   20.327294      50000          50000          50000         -3.6858946e-07 -1.2538582e-06  6.1022365e-08  8.7067511e-08  20.327294    
     59000   19.968783      50000          50000          50000         -3.7702124e-07 -1.2438662e-06  4.1433155e-08  7.1369279e-08  19.968783    
     59020   19.823192      50000          50000          50000         -3.8505688e-07 -1.2156865e-06  1.5028568e-08  4.5487321e-08  19.823192    
     59040   20.105381      50000          50000          50000         -3.9266075e-07 -1.1699758e-06 -1.8868744e-08  1.0862307e-08  20.105381    
     59060   20.930127      50000          50000          50000         -3.994429e-07  -1.1088269e-06 -5.9670908e-08 -2.9830836e-08  20.930127    
     59080   22.239215      50000          50000          50000         -4.045343e-07  -1.0353751e-06 -1.0538331e-07 -7.2844495e-08  22.239215    
     59100   23.792244      50000          50000          50000         -4.067841e-07  -9.5347895e-07 -1.5294702e-07 -1.1392633e-07  23.792244    
     59120   25.247361      50000          50000          50000         -4.0499969e-07 -8.6737016e-07 -1.987085e-07  -1.4892041e-07  25.247361    
     59140   26.266776      50000          50000          50000         -3.9815484e-07 -7.8135249e-07 -2.3886024e-07 -1.7425177e-07  26.266776    
     59160   26.630356      50000          50000          50000         -3.8552616e-07 -6.9947644e-07 -2.6982035e-07 -1.872817e-07   26.630356    
     59180   26.309197      50000          50000          50000         -3.6676993e-07 -6.2518695e-07 -2.8857228e-07 -1.8655056e-07  26.309197    
     59200   25.465555      50000          50000          50000         -3.4194903e-07 -5.6096497e-07 -2.9296817e-07 -1.7191395e-07  25.465555    
     59220   24.395038      50000          50000          50000         -3.1148948e-07 -5.0792898e-07 -2.8197855e-07 -1.4456092e-07  24.395038    
     59240   23.415753      50000          50000          50000         -2.7609288e-07 -4.6552247e-07 -2.558541e-07  -1.0690207e-07  23.415753    
     59260   22.750815      50000          50000          50000         -2.3662223e-07 -4.3137801e-07 -2.1616236e-07 -6.2326312e-08  22.750815    
     59280   22.449402      50000          50000          50000         -1.9399679e-07 -4.0146504e-07 -1.6567642e-07 -1.4848911e-08  22.449402    
     59300   22.379343      50000          50000          50000         -1.491266e-07  -3.7056492e-07 -1.0811962e-07  3.1304746e-08  22.379343    
     59320   22.295258      50000          50000          50000         -1.0289831e-07 -3.3302063e-07 -4.7798797e-08  7.2124487e-08  22.295258    
     59340   21.95449       50000          50000          50000         -5.619947e-08  -2.8362214e-07  1.0823111e-08  1.0420062e-07  21.95449     
     59360   21.232571      50000          50000          50000         -9.9503133e-09 -2.1845028e-07  6.3562745e-08  1.2503659e-07  21.232571    
     59380   20.191333      50000          50000          50000          3.4891698e-08 -1.355142e-07   1.0691765e-07  1.3327164e-07  20.191333    
     59400   19.066892      50000          50000          50000          7.7371895e-08 -3.5085881e-08  1.3840001e-07  1.2880156e-07  19.066892    
     59420   18.183656      50000          50000          50000          1.1662593e-07  8.0317128e-08  1.5677446e-07  1.127862e-07   18.183656    
     59440   17.824123      50000          50000          50000          1.5198435e-07  2.0624516e-07  1.6217397e-07  8.753392e-08   17.824123    
     59460   18.109377      50000          50000          50000          1.830556e-07   3.3682403e-07  1.5607685e-07  5.6265925e-08  18.109377    
     59480   18.941659      50000          50000          50000          2.0975474e-07  4.653365e-07   1.4114434e-07  2.2783376e-08  18.941659    
     59500   20.034158      50000          50000          50000          2.3225988e-07  5.8477941e-07  1.2092918e-07 -8.9289645e-09  20.034158    
     59520   21.028022      50000          50000          50000          2.5089373e-07  6.8834572e-07  9.946658e-08  -3.5131106e-08  21.028022    
     59540   21.630524      50000          50000          50000          2.6592532e-07  7.6970874e-07  8.0795046e-08 -5.2727835e-08  21.630524    
     59560   21.726093      50000          50000          50000          2.7738687e-07  8.2322244e-07  6.8498964e-08 -5.9560794e-08  21.726093    
     59580   21.410736      50000          50000          50000          2.8497321e-07  8.4416349e-07  6.5329044e-08 -5.4572919e-08  21.410736    
     59600   20.941702      50000          50000          50000          2.8803614e-07  8.2909765e-07  7.2895985e-08 -3.7885209e-08  20.941702    
     59620   20.624396      50000          50000          50000          2.8565719e-07  7.7636733e-07  9.1424144e-08 -1.0819922e-08  20.624396    
     59640   20.679457      50000          50000          50000          2.7678992e-07  6.8664981e-07  1.1958294e-07  2.4137003e-08  20.679457    
     59660   21.144134      50000          50000          50000          2.6046001e-07  5.6344465e-07  1.5445375e-07  6.3481646e-08  21.144134    
     59680   21.851473      50000          50000          50000          2.3596124e-07  4.1319375e-07  1.9170055e-07  1.0298942e-07  21.851473    
     59700   22.509036      50000          50000          50000          2.0297483e-07  2.4480394e-07  2.2596811e-07  1.3815243e-07  22.509036    
     59720   22.841566      50000          50000          50000          1.6159321e-07  6.8620355e-08  2.514665e-07   1.6469278e-07  22.841566    
     59740   22.728036      50000          50000          50000          1.1230873e-07 -1.0481769e-07  2.6266454e-07  1.7907934e-07  22.728036    
     59760   22.261683      50000          50000          50000          5.603309e-08  -2.6589326e-07  2.5500734e-07  1.7898519e-07  22.261683    
     59780   21.700671      50000          50000          50000         -5.8322363e-09 -4.0669839e-07  2.255731e-07   1.6362858e-07  21.700671    
     59800   21.333441      50000          50000          50000         -7.1309747e-08 -5.2145283e-07  1.7358176e-07  1.3394183e-07  21.333441    
     59820   21.328226      50000          50000          50000         -1.378165e-07  -6.0663437e-07  1.0066539e-07  9.2519491e-08  21.328226    
     59840   21.646905      50000          50000          50000         -2.0226984e-07 -6.6093999e-07  1.0815506e-08  4.331497e-08   21.646905    
     59860   22.070391      50000          50000          50000         -2.6136691e-07 -6.8515698e-07 -9.0038638e-08 -8.9050951e-09  22.070391    
     59880   22.320355      50000          50000          50000         -3.1197652e-07 -6.8194521e-07 -1.9473791e-07 -5.9246433e-08  22.320355    
     59900   22.208653      50000          50000          50000         -3.5148006e-07 -6.5549499e-07 -2.9564029e-07 -1.033049e-07   22.208653    
     59920   21.737684      50000          50000          50000         -3.7793954e-07 -6.1106032e-07 -3.8519865e-07 -1.3755966e-07  21.737684    
     59940   21.107413      50000          50000          50000         -3.9012355e-07 -5.5439564e-07 -4.5640185e-07 -1.5957316e-07  21.107413    
     59960   20.627903      50000          50000          50000         -3.874747e-07  -4.9111358e-07 -5.0321239e-07 -1.6809811e-07  20.627903    
     59980   20.574289      50000          50000          50000         -3.7005648e-07 -4.2601136e-07 -5.2103574e-07 -1.6312235e-07  20.574289    
     60000   21.047882      50000          50000          50000         -3.3849222e-07 -3.6248529e-07 -5.0716075e-07 -1.4583062e-07  21.047882    
     60020   21.902036      50000          50000          50000         -2.939261e-07  -3.0221312e-07 -4.6109675e-07 -1.1846843e-07  21.902036    
     60040   22.78654       50000          50000          50000         -2.3801506e-07 -2.451736e-07  -3.8475487e-07 -8.4116706e-08  22.78654     
     60060   23.281944      50000          50000          50000         -1.7297803e-07 -1.9007069e-07 -2.8246362e-07 -4.639977e-08   23.281944    
     60080   23.086022      50000          50000          50000         -1.0164425e-07 -1.3499494e-07 -1.6079892e-07 -9.1388939e-09  23.086022    
     60100   22.166203      50000          50000          50000         -2.7414699e-08 -7.8129807e-08 -2.8168871e-08  2.4054581e-08  22.166203    
     60120   20.803434      50000          50000          50000          4.5958005e-08 -1.8277231e-08  1.0591972e-07  5.0231528e-08  20.803434    
     60140   19.493057      50000          50000          50000          1.147532e-07   4.4910113e-08  2.3184434e-07  6.7505146e-08  19.493057    
     60160   18.744835      50000          50000          50000          1.7569435e-07  1.1096047e-07  3.408512e-07   7.5271373e-08  18.744835    
     60180   18.85813       50000          50000          50000          2.2626013e-07  1.7871831e-07  4.2583892e-07  7.4223162e-08  18.85813     
     60200   19.792373      50000          50000          50000          2.6488042e-07  2.4652964e-07  4.8190954e-07  6.6202074e-08  19.792373    
     60220   21.17874       50000          50000          50000          2.9096278e-07  3.1231059e-07  5.0666759e-07  5.3910164e-08  21.17874     
     60240   22.475099      50000          50000          50000          3.0474439e-07  3.7347546e-07  5.0024666e-07  4.0511055e-08  22.475099    
     60260   23.194441      50000          50000          50000          3.0702622e-07  4.2680809e-07  4.6508992e-07  2.9180631e-08  23.194441    
     60280   23.106635      50000          50000          50000          2.9889205e-07  4.6843897e-07  4.0556112e-07  2.2676062e-08  23.106635    
     60300   22.328006      50000          50000          50000          2.8150433e-07  4.9407107e-07  3.2746718e-07  2.2974755e-08  22.328006    
     60320   21.262369      50000          50000          50000          2.5602018e-07  4.9950438e-07  2.3754205e-07  3.1014126e-08  21.262369    
     60340   20.418966      50000          50000          50000          2.2361441e-07  4.8138191e-07  1.4290867e-07  4.6552657e-08  20.418966    
     60360   20.185044      50000          50000          50000          1.8555142e-07  4.3795974e-07  5.0526103e-08  6.8168436e-08  20.185044    
     60380   20.654061      50000          50000          50000          1.4323058e-07  3.6964534e-07 -3.3355649e-08  9.3402054e-08  20.654061    
     60400   21.582233      50000          50000          50000          9.8140178e-08  2.7907608e-07 -1.0368694e-07  1.190314e-07   21.582233    
     60420   22.508428      50000          50000          50000          5.1729119e-08  1.7073464e-07 -1.5699017e-07  1.4144289e-07  22.508428    
     60440   22.965767      50000          50000          50000          5.2202463e-09  5.0180212e-08 -1.9156717e-07  1.5704769e-07  22.965767    
     60460   22.703472      50000          50000          50000         -4.0541703e-08 -7.6795813e-08 -2.0751892e-07  1.6268963e-07  22.703472    
     60480   21.815353      50000          50000          50000         -8.514526e-08  -2.0484617e-07 -2.0659557e-07  1.5600596e-07  21.815353    
     60500   20.717332      50000          50000          50000         -1.2853424e-07 -3.2941814e-07 -1.9191232e-07  1.3572773e-07  20.717332    
     60520   19.980618      50000          50000          50000         -1.7079989e-07 -4.4675892e-07 -1.6756048e-07  1.0191972e-07  19.980618    
     60540   20.078761      50000          50000          50000         -2.1190671e-07 -5.5372241e-07 -1.3812791e-07  5.6130189e-08  20.078761    
     60560   21.158068      50000          50000          50000         -2.5145405e-07 -6.475813e-07  -1.0815799e-07  1.3771225e-09  21.158068    
     60580   22.939782      50000          50000          50000         -2.8858482e-07 -7.2604236e-07 -8.1619129e-08 -5.8092987e-08  22.939782    
     60600   24.809944      50000          50000          50000         -3.2208917e-07 -7.875264e-07  -6.1480211e-08 -1.1726089e-07  24.809944    
     60620   26.069535      50000          50000          50000         -3.5065138e-07 -8.3157855e-07 -4.9459656e-08 -1.7091594e-07  26.069535    
     60640   26.22027       50000          50000          50000         -3.7315043e-07 -8.5923191e-07 -4.5968343e-08 -2.1425104e-07  26.22027     
     60660   25.178387      50000          50000          50000         -3.8888117e-07 -8.73051e-07   -5.0208909e-08 -2.433836e-07   25.178387    
     60680   23.312124      50000          50000          50000         -3.9764454e-07 -8.7679449e-07 -6.0384714e-08 -2.5575443e-07  23.312124    
     60700   21.294035      50000          50000          50000         -3.9968708e-07 -8.7470833e-07 -7.3972873e-08 -2.5038003e-07  21.294035    
     60720   19.830508      50000          50000          50000         -3.9552765e-07 -8.7061197e-07 -8.8036673e-08 -2.2793431e-07  19.830508    
     60740   19.379062      50000          50000          50000         -3.8575826e-07 -8.6707109e-07 -9.956841e-08  -1.9063528e-07  19.379062    
     60760   19.991476      50000          50000          50000         -3.7090201e-07 -8.6491703e-07 -1.0584555e-07 -1.4194343e-07  19.991476    
     60780   21.327957      50000          50000          50000         -3.5142035e-07 -8.633473e-07  -1.0477233e-07 -8.6141419e-08  21.327957    
     60800   22.831125      50000          50000          50000         -3.2783069e-07 -8.6045214e-07 -9.5142026e-08 -2.7897905e-08  22.831125    
     60820   23.960309      50000          50000          50000         -3.008429e-07  -8.5387764e-07 -7.6772531e-08  2.8121464e-08  23.960309    
     60840   24.381166      50000          50000          50000         -2.7143774e-07 -8.4139161e-07 -5.0514544e-08  7.7592945e-08  24.381166    
     60860   24.06259       50000          50000          50000         -2.408429e-07  -8.212034e-07  -1.8159323e-08  1.1683402e-07  24.06259     
     60880   23.2427        50000          50000          50000         -2.1044117e-07 -7.921069e-07   1.7732088e-08  1.430513e-07   23.2427      
     60900   22.304774      50000          50000          50000         -1.8164077e-07 -7.5347401e-07  5.404707e-08   1.5450463e-07  22.304774    
     60920   21.611253      50000          50000          50000         -1.5578548e-07 -7.0526507e-07  8.7338651e-08  1.5056996e-07  21.611253    
     60940   21.356385      50000          50000          50000         -1.3409183e-07 -6.4812744e-07  1.1406796e-07  1.31784e-07    21.356385    
     60960   21.487799      50000          50000          50000         -1.174583e-07  -5.8342356e-07  1.3104803e-07  1.0000063e-07  21.487799    
     60980   21.739137      50000          50000          50000         -1.0616963e-07 -5.1309517e-07  1.3609341e-07  5.8492851e-08  21.739137    
     61000   21.777143      50000          50000          50000         -9.9814031e-08 -4.3958287e-07  1.2849618e-07  1.1644588e-08  21.777143    
     61020   21.391077      50000          50000          50000         -9.7485836e-08 -3.6583443e-07  1.0909114e-07 -3.5714216e-08  21.391077    
     61040   20.613099      50000          50000          50000         -9.8044933e-08 -2.9517003e-07  8.0031715e-08 -7.8996486e-08  20.613099    
     61060   19.710414      50000          50000          50000         -1.0026213e-07 -2.3084797e-07  4.4444947e-08 -1.1438337e-07  19.710414    
     61080   19.056525      50000          50000          50000         -1.0284836e-07 -1.7542161e-07  6.0378165e-09 -1.391613e-07   19.056525    
     61100   18.952113      50000          50000          50000         -1.0443627e-07 -1.3010625e-07 -3.1318069e-08 -1.518845e-07   18.952113    
     61120   19.484148      50000          50000          50000         -1.0359076e-07 -9.440483e-08  -6.3992667e-08 -1.5237478e-07  19.484148    
     61140   20.487809      50000          50000          50000         -9.8891446e-08 -6.6142137e-08 -8.8952091e-08 -1.4158011e-07  20.487809    
     61160   21.622099      50000          50000          50000         -8.9079376e-08 -4.1882848e-08 -1.0402298e-07 -1.213323e-07   21.622099    
     61180   22.515635      50000          50000          50000         -7.3224092e-08 -1.7568556e-08 -1.0804887e-07 -9.4054846e-08  22.515635    
     61200   22.92128       50000          50000          50000         -5.085114e-08   1.0855154e-08 -1.009429e-07  -6.2465672e-08  22.92128     
     61220   22.797962      50000          50000          50000         -2.201487e-08   4.6912238e-08 -8.3650989e-08 -2.930586e-08   22.797962    
     61240   22.312503      50000          50000          50000          1.2725444e-08  9.3316305e-08 -5.8033364e-08  2.8933919e-09  22.312503    
     61260   21.749727      50000          50000          50000          5.2397389e-08  1.5186163e-07 -2.6669244e-08  3.1999776e-08  21.749727    
     61280   21.380696      50000          50000          50000          9.5754862e-08  2.2343262e-07  7.4089004e-09  5.6423068e-08  21.380696    
     61300   21.347254      50000          50000          50000          1.4142193e-07  3.0802505e-07  4.1033319e-08  7.5207425e-08  21.347254    
     61320   21.61418       50000          50000          50000          1.8800042e-07  4.0469844e-07  7.1238149e-08  8.8064662e-08  21.61418     
     61340   22.009177      50000          50000          50000          2.3411894e-07  5.1144327e-07  9.5572191e-08  9.5341352e-08  22.009177    
     61360   22.328269      50000          50000          50000          2.7842719e-07  6.2501893e-07  1.1234407e-07  9.7918559e-08  22.328269    
     61380   22.457648      50000          50000          50000          3.195654e-07   7.4087755e-07  1.2076738e-07  9.705128e-08   22.457648    
     61400   22.448952      50000          50000          50000          3.5613241e-07  8.5324723e-07  1.2098914e-07  9.4160858e-08  22.448952    
     61420   22.50536       50000          50000          50000          3.8666867e-07  9.5539413e-07  1.1400931e-07  9.0602591e-08  22.50536     
     61440   22.888829      50000          50000          50000          4.0970946e-07  1.0401337e-06  1.0153694e-07  8.7457742e-08  22.888829    
     61460   23.763745      50000          50000          50000          4.239449e-07   1.1006024e-06  8.5832932e-08  8.5399354e-08  23.763745    
     61480   25.062621      50000          50000          50000          4.2846838e-07  1.1312507e-06  6.9514663e-08  8.4639748e-08  25.062621    
     61500   26.446884      50000          50000          50000          4.2293975e-07  1.1286462e-06  5.5250641e-08  8.492244e-08   26.446884    
     61520   27.40365       50000          50000          50000          4.075583e-07   1.0917584e-06  4.535792e-08   8.5558606e-08  27.40365     
     61540   27.446625      50000          50000          50000          3.8291949e-07  1.0217988e-06  4.1408903e-08  8.5550736e-08  27.446625    
     61560   26.331408      50000          50000          50000          3.4993061e-07  9.2194116e-07  4.3985478e-08  8.3865189e-08  26.331408    
     61580   24.179755      50000          50000          50000          3.0984685e-07  7.969909e-07   5.2692316e-08  7.9857318e-08  24.179755    
     61600   21.447399      50000          50000          50000          2.6406471e-07  6.5240974e-07  6.6288412e-08  7.3495961e-08  21.447399    
     61620   18.771689      50000          50000          50000          2.13518e-07    4.9286175e-07  8.2661016e-08  6.5031225e-08  18.771689    
     61640   16.782063      50000          50000          50000          1.5859366e-07  3.2212122e-07  9.8918875e-08  5.4740869e-08  16.782063    
     61660   15.914109      50000          50000          50000          9.9707973e-08  1.4419342e-07  1.1181545e-07  4.311505e-08   15.914109    
     61680   16.267763      50000          50000          50000          3.7702092e-08 -3.6110554e-08  1.1823273e-07  3.09841e-08    16.267763    
     61700   17.580789      50000          50000          50000         -2.6140049e-08 -2.1342245e-07  1.1557983e-07  1.9422474e-08  17.580789    
     61720   19.337659      50000          50000          50000         -9.0261707e-08 -3.8242565e-07  1.0208932e-07  9.5512076e-09  19.337659    
     61740   20.966597      50000          50000          50000         -1.5305557e-07 -5.384897e-07   7.6995824e-08  2.3271755e-09  20.966597    
     61760   22.043013      50000          50000          50000         -2.1305807e-07 -6.7813117e-07  4.0595977e-08 -1.6390189e-09  22.043013    
     61780   22.423029      50000          50000          50000         -2.6906609e-07 -7.9919576e-07 -5.7879419e-09 -2.2145566e-09  22.423029    
     61800   22.264071      50000          50000          50000         -3.2015918e-07 -9.0075364e-07 -5.9908035e-08  1.8412354e-10  22.264071    
     61820   21.932294      50000          50000          50000         -3.6563918e-07 -9.8277984e-07 -1.187233e-07   4.5856011e-09  21.932294    
     61840   21.833859      50000          50000          50000         -4.0491622e-07 -1.0457388e-06 -1.7854863e-07  9.5387122e-09  21.833859    
     61860   22.232587      50000          50000          50000         -4.3738632e-07 -1.0902113e-06 -2.3523909e-07  1.329141e-08   22.232587    
     61880   23.12742       50000          50000          50000         -4.6236649e-07 -1.1167095e-06 -2.8445705e-07  1.4067035e-08  23.12742     
     61900   24.247682      50000          50000          50000         -4.7914609e-07 -1.1257749e-06 -3.2204074e-07  1.0377401e-08  24.247682    
     61920   25.173267      50000          50000          50000         -4.8714917e-07 -1.1183202e-06 -3.4442283e-07  1.2955134e-09  25.173267    
     61940   25.524258      50000          50000          50000         -4.8613659e-07 -1.0960306e-06 -3.4901981e-07 -1.3359328e-08  25.524258    
     61960   25.130742      50000          50000          50000         -4.763639e-07  -1.0616132e-06 -3.3453824e-07 -3.2940261e-08  25.130742    
     61980   24.106095      50000          50000          50000         -4.5863726e-07 -1.0187424e-06 -3.0117103e-07 -5.59984e-08    24.106095    
     62000   22.793687      50000          50000          50000         -4.3424843e-07 -9.7166902e-07 -2.5066232e-07 -8.0413966e-08  22.793687    
     62020   21.614106      50000          50000          50000         -4.0480811e-07 -9.2458152e-07 -1.862161e-07  -1.0362672e-07  21.614106    
     62040   20.884026      50000          50000          50000         -3.7202575e-07 -8.8090265e-07 -1.1222752e-07 -1.2294707e-07  20.884026    
     62060   20.690307      50000          50000          50000         -3.3749429e-07 -8.4273832e-07 -3.3834878e-08 -1.3590968e-07  20.690307    
     62080   20.87668       50000          50000          50000         -3.025323e-07  -8.1064936e-07  4.366647e-08  -1.40614e-07    20.87668     
     62100   21.145165      50000          50000          50000         -2.681303e-07  -7.8381968e-07  1.1542376e-07 -1.3599498e-07  21.145165    
     62120   21.214855      50000          50000          50000         -2.3502567e-07 -7.6053956e-07  1.7744699e-07 -1.2198444e-07  21.214855    
     62140   20.960624      50000          50000          50000         -2.0383823e-07 -7.3872398e-07  2.2675535e-07 -9.9546043e-08  20.960624    
     62160   20.468468      50000          50000          50000         -1.7515417e-07 -7.1622473e-07  2.6136146e-07 -7.0599242e-08  20.468468    
     62180   19.994968      50000          50000          50000         -1.4950607e-07 -6.9089686e-07  2.8024277e-07 -3.7864134e-08  19.994968    
     62200   19.848924      50000          50000          50000         -1.272764e-07  -6.6053709e-07  2.8334169e-07 -4.6338097e-09  19.848924    
     62220   20.242573      50000          50000          50000         -1.0855719e-07 -6.2279344e-07  2.7157083e-07  2.5551049e-08  20.242573    
     62240   21.17192       50000          50000          50000         -9.3025387e-08 -5.7515963e-07  2.4676314e-07  4.9320329e-08  21.17192     
     62260   22.389332      50000          50000          50000         -7.9925849e-08 -5.1516708e-07  2.1149544e-07  6.3894096e-08  22.389332    
     62280   23.48579       50000          50000          50000         -6.8204545e-08 -4.4081927e-07  1.6880265e-07  6.740298e-08   23.48579     
     62300   24.052738      50000          50000          50000         -5.6730196e-08 -3.5115167e-07  1.2187545e-07  5.9085627e-08  24.052738    
     62320   23.856927      50000          50000          50000         -4.4527431e-08 -2.4676134e-07  7.3802647e-08  3.93764e-08    23.856927    
     62340   22.956144      50000          50000          50000         -3.0960942e-08 -1.3015835e-07  2.7376653e-08  9.8988659e-09  22.956144    
     62360   21.703506      50000          50000          50000         -1.5824252e-08 -5.8071632e-09 -1.5039626e-08 -2.6625967e-08  21.703506    
     62380   20.62697       50000          50000          50000          6.8956609e-10  1.2022757e-07 -5.1595293e-08 -6.6563578e-08  20.62697     
     62400   20.220729      50000          50000          50000          1.8117489e-08  2.410075e-07  -8.0996465e-08 -1.0565857e-07  20.220729    
     62420   20.729809      50000          50000          50000          3.5894683e-08  3.496452e-07  -1.0252354e-07 -1.3943761e-07  20.729809    
     62440   22.02426       50000          50000          50000          5.3482578e-08  4.4016397e-07 -1.1602574e-07 -1.636905e-07   22.02426     
     62460   23.619695      50000          50000          50000          7.0394946e-08  5.0804924e-07 -1.2189505e-07 -1.7496935e-07  23.619695    
     62480   24.856559      50000          50000          50000          8.6137811e-08  5.5046529e-07 -1.2101776e-07 -1.7103409e-07  24.856559    
     62500   25.14883       50000          50000          50000          1.000917e-07   5.6616139e-07 -1.1470109e-07 -1.5118521e-07  25.14883     
     62520   24.216553      50000          50000          50000          1.1142932e-07  5.5529768e-07 -1.0456905e-07 -1.1644066e-07  24.216553    
     62540   22.205335      50000          50000          50000          1.1912874e-07  5.1934281e-07 -9.2423077e-08 -6.9533514e-08  22.205335    
     62560   19.646114      50000          50000          50000          1.2211864e-07  4.6112946e-07 -8.0063067e-08 -1.4710461e-08  19.646114    
     62580   17.265451      50000          50000          50000          1.19552e-07    3.8502904e-07 -6.9068141e-08  4.2695113e-08  17.265451    
     62600   15.714948      50000          50000          50000          1.1115315e-07  2.9706941e-07 -6.0546657e-08  9.6936685e-08  15.714948    
     62620   15.33114       50000          50000          50000          9.7496591e-08  2.0470092e-07 -5.4918297e-08  1.4270715e-07  15.33114     
     62640   16.036195      50000          50000          50000          7.9996354e-08  1.1596423e-07 -5.1869754e-08  1.7589459e-07  16.036195    
     62660   17.415997      50000          50000          50000          6.0553468e-08  3.8300021e-08 -5.0556232e-08  1.9391661e-07  17.415997    
     62680   18.910401      50000          50000          50000          4.1164969e-08 -2.2341149e-08 -4.9868697e-08  1.9570475e-07  18.910401    
     62700   20.015089      50000          50000          50000          2.3711543e-08 -6.1919808e-08 -4.8592688e-08  1.8164713e-07  20.015089    
     62720   20.446149      50000          50000          50000          9.8416413e-09 -7.8512774e-08 -4.5504266e-08  1.5354196e-07  20.446149    
     62740   20.215749      50000          50000          50000          8.4112797e-10 -7.2465683e-08 -3.9477987e-08  1.1446705e-07  20.215749    
     62760   19.61174       50000          50000          50000         -2.4847962e-09 -4.6381555e-08 -2.961064e-08   6.8537806e-08  19.61174     
     62780   19.081223      50000          50000          50000          1.1258664e-10 -4.9136277e-09 -1.5339528e-08  2.0590916e-08  19.081223    
     62800   19.049228      50000          50000          50000          8.3355178e-09  4.5707209e-08  3.490303e-09  -2.4190958e-08  19.049228    
     62820   19.737144      50000          50000          50000          2.1456392e-08  9.8479036e-08  2.6649401e-08 -6.0759261e-08  19.737144    
     62840   21.059152      50000          50000          50000          3.843762e-08   1.465436e-07   5.3582925e-08 -8.4813668e-08  21.059152    
     62860   22.656185      50000          50000          50000          5.794749e-08   1.8383666e-07  8.3415112e-08 -9.3409298e-08  22.656185    
     62880   24.04781       50000          50000          50000          7.8308485e-08  2.0538362e-07  1.1490864e-07 -8.5366804e-08  24.04781     
     62900   24.827193      50000          50000          50000          9.7474377e-08  2.0741491e-07  1.464376e-07  -6.1429378e-08  24.827193    
     62920   24.815676      50000          50000          50000          1.1308579e-07  1.874599e-07   1.7600397e-07 -2.4206502e-08  24.815676    
     62940   24.118272      50000          50000          50000          1.2262669e-07  1.4450122e-07  2.0131567e-07  2.2063197e-08  24.118272    
     62960   23.062888      50000          50000          50000          1.2368625e-07  7.9196406e-08  2.1994289e-07  7.1919453e-08  23.062888    
     62980   22.052448      50000          50000          50000          1.1429685e-07 -5.9122896e-09  2.2955389e-07  1.1924895e-07  22.052448    
     63000   21.395997      50000          50000          50000          9.3280054e-08 -1.0633952e-07  2.2820393e-07  1.5797575e-07  21.395997    
     63020   21.189075      50000          50000          50000          6.0502485e-08 -2.1590963e-07  2.146168e-07   1.8280028e-07  21.189075    
     63040   21.297475      50000          50000          50000          1.6968731e-08 -3.2737263e-07  1.8840212e-07  1.898767e-07   21.297475    
     63060   21.455335      50000          50000          50000         -3.5260181e-08 -4.3326547e-07  1.5016062e-07  1.7732431e-07  21.455335    
     63080   21.411565      50000          50000          50000         -9.3300255e-08 -5.2687178e-07  1.0146984e-07  1.4550117e-07  21.411565    
     63100   21.072108      50000          50000          50000         -1.5372802e-07 -6.0296497e-07  4.4769789e-08  9.7011106e-08  21.072108    
     63120   20.546164      50000          50000          50000         -2.1287318e-07 -6.5824164e-07 -1.6822652e-08  3.6444762e-08  20.546164    
     63140   20.085187      50000          50000          50000         -2.6707361e-07 -6.9133953e-07 -7.9751548e-08 -3.0129744e-08  20.085187    
     63160   19.953158      50000          50000          50000         -3.1288982e-07 -7.0248679e-07 -1.4029365e-07 -9.5889018e-08  19.953158    
     63180   20.278325      50000          50000          50000         -3.4731545e-07 -6.9301005e-07 -1.9484453e-07 -1.5409178e-07  20.278325    
     63200   20.972555      50000          50000          50000         -3.6795733e-07 -6.6484952e-07 -2.4016137e-07 -1.9886109e-07  20.972555    
     63220   21.746554      50000          50000          50000         -3.7316792e-07 -6.202189e-07  -2.7352328e-07 -2.2576157e-07  21.746554    
     63240   22.211815      50000          50000          50000         -3.6213151e-07 -5.6142902e-07 -2.9282389e-07 -2.3214162e-07  22.211815    
     63260   22.029403      50000          50000          50000         -3.349184e-07  -4.9083284e-07 -2.9663819e-07 -2.1728417e-07  22.029403    
     63280   21.052756      50000          50000          50000         -2.9248779e-07 -4.1080818e-07 -2.8427246e-07 -1.8238272e-07  21.052756    
     63300   19.414372      50000          50000          50000         -2.3661945e-07 -3.2372301e-07 -2.5578535e-07 -1.3034998e-07  19.414372    
     63320   17.526601      50000          50000          50000         -1.6991568e-07 -2.3205217e-07 -2.1207873e-07 -6.5616146e-08  17.526601    
     63340   15.989672      50000          50000          50000         -9.6168338e-08 -1.3897738e-07 -1.5530844e-07  5.7808003e-09  15.989672    
     63360   15.39472       50000          50000          50000         -2.05421e-08   -4.8659997e-08 -8.9254011e-08  7.6287708e-08  15.39472     
     63380   16.053996      50000          50000          50000          5.1495503e-08  3.5084088e-08 -1.8716517e-08  1.3811894e-07  16.053996    
     63400   17.831975      50000          50000          50000          1.1543398e-07  1.1001869e-07  5.146686e-08   1.8481637e-07  17.831975    
     63420   20.211797      50000          50000          50000          1.680664e-07   1.752809e-07   1.1693484e-07  2.1198347e-07  20.211797    
     63440   22.517925      50000          50000          50000          2.0734778e-07  2.3055723e-07  1.7401828e-07  2.1746782e-07  22.517925    
     63460   24.185129      50000          50000          50000          2.3220249e-07  2.7539647e-07  2.1987967e-07  2.0133133e-07  24.185129    
     63480   24.951142      50000          50000          50000          2.4235373e-07  3.0878983e-07  2.5258947e-07  1.6568189e-07  24.951142    
     63500   24.916749      50000          50000          50000          2.382101e-07   3.2909309e-07  2.711455e-07   1.1439172e-07  24.916749    
     63520   24.463576      50000          50000          50000          2.2081859e-07  3.3427756e-07  2.7545405e-07  5.2724153e-08  24.463576    
     63540   24.071566      50000          50000          50000          1.9185643e-07  3.2241225e-07  2.6628254e-07 -1.3125493e-08  24.071566    
     63560   24.111246      50000          50000          50000          1.5360489e-07  2.9221207e-07  2.4517797e-07 -7.6575377e-08  24.111246    
     63580   24.691556      50000          50000          50000          1.0884627e-07  2.4347245e-07  2.1433819e-07 -1.3127181e-07  24.691556    
     63600   25.619265      50000          50000          50000          6.0656732e-08  1.7726318e-07  1.7643086e-07 -1.7172384e-07  25.619265    
     63620   26.479993      50000          50000          50000          1.2114571e-08  9.5855917e-08  1.3437044e-07 -1.9388264e-07  26.479993    
     63640   26.803555      50000          50000          50000         -3.4017777e-08  2.4581692e-09  9.1076973e-08 -1.9558847e-07  26.803555    
     63660   26.248115      50000          50000          50000         -7.5570337e-08 -9.9126519e-08  4.9243206e-08 -1.768277e-07   26.248115    
     63680   24.736879      50000          50000          50000         -1.1114985e-07 -2.0480741e-07  1.113064e-08  -1.3977279e-07  24.736879    
     63700   22.503351      50000          50000          50000         -1.4021144e-07 -3.1042994e-07 -2.15928e-08   -8.8611589e-08  22.503351    
     63720   20.034285      50000          50000          50000         -1.6302571e-07 -4.1190829e-07 -4.7965048e-08 -2.9203778e-08  20.034285    
     63740   17.929785      50000          50000          50000         -1.8055175e-07 -5.052868e-07  -6.7779623e-08  3.141117e-08   17.929785    
     63760   16.719483      50000          50000          50000         -1.9420369e-07 -5.8677736e-07 -8.1549935e-08  8.5716234e-08  16.719483    
     63780   16.689526      50000          50000          50000         -2.0553062e-07 -6.5290075e-07 -9.0374712e-08  1.2668361e-07  16.689526    
     63800   17.785649      50000          50000          50000         -2.1591754e-07 -7.0086815e-07 -9.5723862e-08  1.4883938e-07  17.785649    
     63820   19.635916      50000          50000          50000         -2.2639291e-07 -7.2913674e-07 -9.9172361e-08  1.4913038e-07  19.635916    
     63840   21.683311      50000          50000          50000         -2.3750974e-07 -7.3785925e-07 -1.0209069e-07  1.2742071e-07  21.683311    
     63860   23.374037      50000          50000          50000         -2.4926272e-07 -7.2895672e-07 -1.0533123e-07  8.6499791e-08  23.374037    
     63880   24.328453      50000          50000          50000         -2.6119209e-07 -7.0584872e-07 -1.0910421e-07  3.1376646e-08  24.328453    
     63900   24.427088      50000          50000          50000         -2.727483e-07  -6.7312172e-07 -1.1318521e-07 -3.1937962e-08  24.427088    
     63920   23.794204      50000          50000          50000         -2.8349375e-07 -6.3608251e-07 -1.1713397e-07 -9.7264757e-08  23.794204    
     63940   22.716603      50000          50000          50000         -2.9296432e-07 -6.0007487e-07 -1.2030305e-07 -1.5851504e-07  22.716603    
     63960   21.539471      50000          50000          50000         -3.0051076e-07 -5.6976399e-07 -1.2183225e-07 -2.0993604e-07  21.539471    
     63980   20.570205      50000          50000          50000         -3.0527031e-07 -5.4855692e-07 -1.2073456e-07 -2.4651944e-07  20.570205    
     64000   20.006592      50000          50000          50000         -3.0623457e-07 -5.3823139e-07 -1.1603276e-07 -2.6443956e-07  20.006592    
     64020   19.914764      50000          50000          50000         -3.0235357e-07 -5.3875041e-07 -1.0689861e-07 -2.6141169e-07  19.914764    
     64040   20.238901      50000          50000          50000         -2.9266979e-07 -5.4830504e-07 -9.2780168e-08 -2.3692415e-07  20.238901    
     64060   20.836668      50000          50000          50000         -2.7645768e-07 -5.6354074e-07 -7.3508351e-08 -1.9232396e-07  20.836668    
     64080   21.531669      50000          50000          50000         -2.5334525e-07 -5.7991582e-07 -4.9371484e-08 -1.3074846e-07  21.531669    
     64100   22.161334      50000          50000          50000         -2.2341225e-07 -5.9217672e-07 -2.1155804e-08 -5.6904221e-08  22.161334    
     64120   22.622255      50000          50000          50000         -1.872399e-07  -5.948832e-07   9.8613787e-09  2.3302129e-08  22.622255    
     64140   22.894896      50000          50000          50000         -1.4591253e-07 -5.8298067e-07  4.197483e-08   1.0326825e-07  22.894896    
     64160   23.045958      50000          50000          50000         -1.009567e-07  -5.5235697e-07  7.3177474e-08  1.7630938e-07  23.045958    
     64180   23.202902      50000          50000          50000         -5.4217762e-08 -5.0032345e-07  1.0134349e-07  2.3632667e-07  23.202902    
     64200   23.502813      50000          50000          50000         -7.6863145e-09 -4.259519e-07   1.2444639e-07  2.7844657e-07  23.502813    
     64220   24.028232      50000          50000          50000          3.6695865e-08 -3.3022049e-07  1.4077656e-07  2.9953153e-07  24.028232    
     64240   24.752144      50000          50000          50000          7.7207849e-08 -2.1597112e-07  1.491183e-07   2.9847637e-07  24.752144    
     64260   25.516211      50000          50000          50000          1.1245329e-07 -8.7743554e-08  1.4885495e-07  2.7624847e-07  25.516211    
     64280   26.059081      50000          50000          50000          1.4138147e-07  4.8434284e-08  1.400047e-07   2.3570542e-07  26.059081    
     64300   26.089564      50000          50000          50000          1.6333168e-07  1.8540542e-07  1.2327204e-07  1.8131757e-07  26.089564    
     64320   25.398315      50000          50000          50000          1.7826654e-07  3.1584376e-07  1.0015041e-07  1.1880544e-07  25.398315    
     64340   23.95138       50000          50000          50000          1.8685495e-07  4.3346522e-07  7.2756642e-08  5.4342985e-08  23.95138     
     64360   21.939219      50000          50000          50000          1.9008608e-07  5.3347333e-07  4.3310235e-08 -6.5253324e-09  21.939219    
     64380   19.742891      50000          50000          50000          1.8888074e-07  6.1226895e-07  1.3808504e-08 -5.9435237e-08  19.742891    
     64400   17.831067      50000          50000          50000          1.8408913e-07  6.6737837e-07 -1.394214e-08  -1.0116884e-07  17.831067    
     64420   16.614253      50000          50000          50000          1.7664109e-07  6.9774285e-07 -3.8262946e-08 -1.2955663e-07  16.614253    
     64440   16.307002      50000          50000          50000          1.6763381e-07  7.0401212e-07 -5.7643397e-08 -1.4346731e-07  16.307002    
     64460   16.854487      50000          50000          50000          1.5832005e-07  6.8859836e-07 -7.0839436e-08 -1.4279877e-07  16.854487    
     64480   17.956962      50000          50000          50000          1.5000749e-07  6.5541668e-07 -7.6978455e-08 -1.2841575e-07  17.956962    
     64500   19.186414      50000          50000          50000          1.4389188e-07  6.0935485e-07 -7.56445e-08   -1.020347e-07   19.186414    
     64520   20.152466      50000          50000          50000          1.4085981e-07  5.5559777e-07 -6.6935161e-08 -6.6083168e-08  20.152466    
     64540   20.655051      50000          50000          50000          1.4130302e-07  4.9896902e-07 -5.1495638e-08 -2.3564334e-08  20.655051    
     64560   20.76438       50000          50000          50000          1.4500104e-07  4.4344248e-07 -3.0523173e-08  2.2083805e-08  20.76438     
     64580   20.787362      50000          50000          50000          1.5114714e-07  3.919116e-07  -5.6864782e-09  6.7216294e-08  20.787362    
     64600   21.131369      50000          50000          50000          1.58556e-07    3.4623115e-07  2.1089346e-08  1.0834749e-07  21.131369    
     64620   22.087295      50000          50000          50000          1.6591875e-07  3.073018e-07   4.7905828e-08  1.4254862e-07  22.087295    
     64640   23.669016      50000          50000          50000          1.7202185e-07  2.7522973e-07  7.3115487e-08  1.6772034e-07  23.669016    
     64660   25.562763      50000          50000          50000          1.7584169e-07  2.494141e-07   9.5427281e-08  1.826837e-07   25.562763    
     64680   27.226214      50000          50000          50000          1.7653287e-07  2.2857922e-07  1.1390266e-07  1.8711674e-07  27.226214    
     64700   28.088605      50000          50000          50000          1.7333554e-07  2.1073753e-07  1.2787988e-07  1.8138922e-07  28.088605    
     64720   27.783572      50000          50000          50000          1.6548006e-07  1.9320688e-07  1.3687642e-07  1.6635689e-07  27.783572    
     64740   26.303253      50000          50000          50000          1.5213407e-07  1.7271176e-07  1.4051851e-07  1.4317196e-07  26.303253    
     64760   24.025164      50000          50000          50000          1.3245712e-07  1.4568957e-07  1.3853161e-07  1.1315018e-07  24.025164    
     64780   21.590088      50000          50000          50000          1.0576496e-07  1.0878682e-07  1.3079862e-07  7.7709446e-08  21.590088    
     64800   19.673066      50000          50000          50000          7.1764611e-08  5.9463046e-08  1.1746198e-07  3.8368806e-08  19.673066    
     64820   18.735312      50000          50000          50000          3.077676e-08  -3.4680074e-09  9.9021833e-08 -3.2235449e-09  18.735312    
     64840   18.859943      50000          50000          50000         -1.6152838e-08 -7.955977e-08   7.6376289e-08 -4.5275035e-08  18.859943    
     64860   19.74322       50000          50000          50000         -6.7324027e-08 -1.6685526e-07  5.0767152e-08 -8.5883971e-08  19.74322     
     64880   20.843876      50000          50000          50000         -1.2064288e-07 -2.6240917e-07  2.3625096e-08 -1.2314456e-07  20.843876    
     64900   21.619338      50000          50000          50000         -1.7399097e-07 -3.6302477e-07 -3.647084e-09  -1.5530105e-07  21.619338    
     64920   21.742301      50000          50000          50000         -2.2554386e-07 -4.6588284e-07 -2.9864672e-08 -1.8088407e-07  21.742301    
     64940   21.214098      50000          50000          50000         -2.7390943e-07 -5.6881155e-07 -5.4142979e-08 -1.9877376e-07  21.214098    
     64960   20.345523      50000          50000          50000         -3.1809046e-07 -6.7019525e-07 -7.5868974e-08 -2.0820716e-07  20.345523    
     64980   19.623775      50000          50000          50000         -3.5735409e-07 -7.686765e-07  -9.4613342e-08 -2.0877244e-07  19.623775    
     65000   19.518907      50000          50000          50000         -3.910662e-07  -8.6280325e-07 -1.1001368e-07 -2.0038167e-07  19.518907    
     65020   20.307958      50000          50000          50000         -4.1850967e-07 -9.5075751e-07 -1.2162494e-07 -1.8314655e-07  20.307958    
     65040   21.99775       50000          50000          50000         -4.3888716e-07 -1.0305237e-06 -1.2890327e-07 -1.572345e-07   21.99775     
     65060   24.343032      50000          50000          50000         -4.5219822e-07 -1.1009261e-06 -1.3199998e-07 -1.2366858e-07  24.343032    
     65080   26.825536      50000          50000          50000         -4.5927136e-07 -1.1605819e-06 -1.3193711e-07 -8.5295029e-08  26.825536    
     65100   28.720646      50000          50000          50000         -4.5986003e-07 -1.2055087e-06 -1.2892544e-07 -4.5145904e-08  28.720646    
     65120   29.401085      50000          50000          50000         -4.534334e-07  -1.2315943e-06 -1.2285058e-07 -5.8553328e-09  29.401085    
     65140   28.616809      50000          50000          50000         -4.4022608e-07 -1.236502e-06  -1.140997e-07   2.992352e-08   28.616809    
     65160   26.595401      50000          50000          50000         -4.2122811e-07 -1.2197351e-06 -1.0353547e-07  5.9586254e-08  26.595401    
     65180   23.951964      50000          50000          50000         -3.9794694e-07 -1.1823808e-06 -9.2289937e-08  8.0829945e-08  23.951964    
     65200   21.454177      50000          50000          50000         -3.7208501e-07 -1.1267053e-06 -8.1509375e-08  9.1959586e-08  21.454177    
     65220   19.739478      50000          50000          50000         -3.4515769e-07 -1.0556008e-06 -7.2071517e-08  9.2199235e-08  19.739478    
     65240   19.103404      50000          50000          50000         -3.1817342e-07 -9.7204812e-07 -6.4362922e-08  8.1890776e-08  19.103404    
     65260   19.451773      50000          50000          50000         -2.9154244e-07 -8.7883466e-07 -5.8232489e-08  6.2439815e-08  19.451773    
     65280   20.399629      50000          50000          50000         -2.6525899e-07 -7.7868788e-07 -5.3127646e-08  3.6038549e-08  20.399629    
     65300   21.458468      50000          50000          50000         -2.3913533e-07 -6.7452072e-07 -4.8272349e-08  5.3870799e-09  21.458468    
     65320   22.211248      50000          50000          50000         -2.1295282e-07 -5.6956962e-07 -4.2797473e-08 -2.6491371e-08  22.211248    
     65340   22.431608      50000          50000          50000         -1.8653925e-07 -4.6734207e-07 -3.5846037e-08 -5.6429634e-08  22.431608    
     65360   22.124953      50000          50000          50000         -1.5980737e-07 -3.714035e-07  -2.6671603e-08 -8.1346997e-08  22.124953    
     65380   21.492216      50000          50000          50000         -1.3275694e-07 -2.8504177e-07 -1.4718471e-08 -9.8510588e-08  21.492216    
     65400   20.837651      50000          50000          50000         -1.0544479e-07 -2.1086735e-07  3.2452101e-10 -1.0579153e-07  20.837651    
     65420   20.455387      50000          50000          50000         -7.7941023e-08 -1.5042591e-07  1.8491519e-08 -1.0188868e-07  20.455387    
     65440   20.531402      50000          50000          50000         -5.0293865e-08 -1.0389916e-07  3.9517074e-08 -8.6499512e-08  20.531402    
     65460   21.088898      50000          50000          50000         -2.2519132e-08 -6.995203e-08   6.2814565e-08 -6.041993e-08   21.088898    
     65480   21.990818      50000          50000          50000          5.3828017e-09 -4.5754844e-08  8.7456237e-08 -2.5552988e-08  21.990818    
     65500   22.98991       50000          50000          50000          3.3383939e-08 -2.7207426e-08  1.1216457e-07  1.5194673e-08  22.98991     
     65520   23.816274      50000          50000          50000          6.1382818e-08 -9.3322416e-09  1.35338e-07    5.8142691e-08  23.816274    
     65540   24.268022      50000          50000          50000          8.9165895e-08  1.3184371e-08  1.5512726e-07  9.9186049e-08  24.268022    
     65560   24.269843      50000          50000          50000          1.1638729e-07  4.5354986e-08  1.6957857e-07  1.3422831e-07  24.269843    
     65580   23.888405      50000          50000          50000          1.425902e-07   9.1282078e-08  1.7684361e-07  1.5964492e-07  23.888405    
     65600   23.296359      50000          50000          50000          1.6726602e-07  1.5364795e-07  1.754351e-07   1.72715e-07    23.296359    
     65620   22.701068      50000          50000          50000          1.8993818e-07  2.3336536e-07  1.6448619e-07  1.7196299e-07  22.701068    
     65640   22.265219      50000          50000          50000          2.1024561e-07  3.2941362e-07  1.4396056e-07  1.5736266e-07  22.265219    
     65660   22.048194      50000          50000          50000          2.2800375e-07  4.3886539e-07  1.1476754e-07  1.3037832e-07  22.048194    
     65680   21.988813      50000          50000          50000          2.4324985e-07  5.5713879e-07  7.8763301e-08  9.3847465e-08  21.988813    
     65700   21.936444      50000          50000          50000          2.5630951e-07  6.7859495e-07  3.8627531e-08  5.1706047e-08  21.936444    
     65720   21.722418      50000          50000          50000          2.6782874e-07  7.9747891e-07 -2.4702905e-09  8.4776004e-09  21.722418    
     65740   21.244867      50000          50000          50000          2.7855318e-07  9.085988e-07  -4.1463635e-08 -3.1475642e-08  21.244867    
     65760   20.526468      50000          50000          50000          2.8894908e-07  1.0072123e-06 -7.5859365e-08 -6.4505687e-08  20.526468    
     65780   19.71789       50000          50000          50000          2.9907281e-07  1.0887383e-06 -1.0376214e-07 -8.775778e-08   19.71789     
     65800   19.046359      50000          50000          50000          3.0867477e-07  1.1489135e-06 -1.2375209e-07 -9.9137133e-08  19.046359    
     65820   18.735025      50000          50000          50000          3.1733646e-07  1.184286e-06  -1.348702e-07  -9.7406383e-08  18.735025    
     65840   18.908998      50000          50000          50000          3.2455541e-07  1.192667e-06  -1.3666939e-07 -8.2331339e-08  18.908998    
     65860   19.544378      50000          50000          50000          3.297934e-07   1.1733899e-06 -1.2924761e-07 -5.476211e-08   19.544378    
     65880   20.461787      50000          50000          50000          3.324674e-07   1.1272451e-06 -1.1323379e-07 -1.6609072e-08  20.461787    
     65900   21.388583      50000          50000          50000          3.3191983e-07  1.0562123e-06 -8.9733469e-08  2.9280636e-08  21.388583    
     65920   22.04811       50000          50000          50000          3.2736305e-07  9.63019e-07   -6.0252454e-08  7.9322614e-08  22.04811     
     65940   22.264607      50000          50000          50000          3.1785073e-07  8.5070596e-07 -2.6608985e-08  1.2945521e-07  22.264607    
     65960   22.025345      50000          50000          50000          3.0228345e-07  7.2223318e-07  9.1658017e-09  1.7545136e-07  22.025345    
     65980   21.493686      50000          50000          50000          2.7949495e-07  5.8026055e-07  4.4946903e-08  2.132774e-07   21.493686    
     66000   20.949346      50000          50000          50000          2.4840175e-07  4.2707411e-07  7.8656829e-08  2.3947431e-07  20.949346    
     66020   20.678741      50000          50000          50000          2.0819226e-07  2.6464636e-07  1.0841921e-07  2.5151122e-07  20.678741    
     66040   20.859235      50000          50000          50000          1.5850831e-07  9.477634e-08   1.3270152e-07  2.4804707e-07  20.859235    
     66060   21.481828      50000          50000          50000          9.9562081e-08 -8.0780655e-08  1.5041926e-07  2.2904764e-07  21.481828    
     66080   22.350378      50000          50000          50000          3.2159373e-08 -2.6024056e-07  1.6098038e-07  1.957383e-07   22.350378    
     66100   23.158766      50000          50000          50000         -4.237212e-08  -4.417895e-07   1.642631e-07   1.5041004e-07  23.158766    
     66120   23.614872      50000          50000          50000         -1.2231536e-07 -6.2361045e-07  1.6053787e-07  9.6126503e-08  23.614872    
     66140   23.559356      50000          50000          50000         -2.0570632e-07 -8.0386845e-07  1.5035858e-07  3.6390909e-08  23.559356    
     66160   23.030905      50000          50000          50000         -2.9043971e-07 -9.8059579e-07  1.3445271e-07 -2.5176041e-08  23.030905    
     66180   22.247355      50000          50000          50000         -3.7432155e-07 -1.1514834e-06  1.1363567e-07 -8.5116957e-08  22.247355    
     66200   21.513584      50000          50000          50000         -4.5507461e-07 -1.3136242e-06  8.8764549e-08 -1.4036423e-07  21.513584    
     66220   21.091271      50000          50000          50000         -5.3034112e-07 -1.4633398e-06  6.0730179e-08 -1.8841374e-07  21.091271    
     66240   21.089864      50000          50000          50000         -5.9774753e-07 -1.596249e-06   3.0457722e-08 -2.2745128e-07  21.089864    
     66260   21.430863      50000          50000          50000         -6.5508216e-07 -1.7076752e-06 -1.1384106e-09 -2.5643287e-07  21.430863    
     66280   21.900092      50000          50000          50000         -7.0052385e-07 -1.7932403e-06 -3.3243021e-08 -2.7508826e-07  21.900092    
     66300   22.252694      50000          50000          50000         -7.3276979e-07 -1.8493255e-06 -6.5176928e-08 -2.8380695e-07  22.252694    
     66320   22.322955      50000          50000          50000         -7.5101428e-07 -1.8732759e-06 -9.6333328e-08 -2.8343363e-07  22.322955    
     66340   22.084754      50000          50000          50000         -7.5487678e-07 -1.8635025e-06 -1.2608234e-07 -2.7504552e-07  22.084754    
     66360   21.662755      50000          50000          50000         -7.4430621e-07 -1.8194666e-06 -1.5369902e-07 -2.5975301e-07  21.662755    
     66380   21.279518      50000          50000          50000         -7.195172e-07  -1.7416241e-06 -1.7835041e-07 -2.3857707e-07  21.279518    
     66400   21.173418      50000          50000          50000         -6.8110595e-07 -1.6316045e-06 -1.9916808e-07 -2.1254524e-07  21.173418    
     66420   21.480527      50000          50000          50000         -6.3037806e-07 -1.4928911e-06 -2.1530856e-07 -1.8293448e-07  21.480527    
     66440   22.125613      50000          50000          50000         -5.6920612e-07 -1.3308278e-06 -2.2574184e-07 -1.5104872e-07  22.125613    
     66460   22.811116      50000          50000          50000         -4.9944457e-07 -1.1514562e-06 -2.2915079e-07 -1.177267e-07   22.811116    
     66480   23.15751       50000          50000          50000         -4.2280128e-07 -9.6071278e-07 -2.242947e-07  -8.3396363e-08  23.15751     
     66500   22.907587      50000          50000          50000         -3.4103309e-07 -7.6435246e-07 -2.1036571e-07 -4.8381102e-08  22.907587    
     66520   22.075631      50000          50000          50000         -2.5606267e-07 -5.6795834e-07 -1.8715329e-07 -1.3076394e-08  22.075631    
     66540   20.968659      50000          50000          50000         -1.699653e-07  -3.767505e-07  -1.5512974e-07  2.1984351e-08  20.968659    
     66560   20.071161      50000          50000          50000         -8.4836246e-08 -1.951601e-07  -1.154809e-07   5.6132269e-08  20.071161    
     66580   19.831414      50000          50000          50000         -2.5823478e-09 -2.6310293e-08 -7.0053808e-08  8.8617058e-08  19.831414    
     66600   20.447461      50000          50000          50000          7.5290257e-08  1.2839727e-07 -2.1209238e-08  1.1868274e-07  20.447461    
     66620   21.764029      50000          50000          50000          1.4780405e-07  2.693856e-07   2.8401186e-08  1.4562536e-07  21.764029    
     66640   23.309236      50000          50000          50000          2.1445324e-07  3.9848333e-07  7.6073134e-08  1.6880326e-07  23.309236    
     66660   24.483643      50000          50000          50000          2.7500723e-07  5.18159e-07    1.1925568e-07  1.87607e-07    24.483643    
     66680   24.790197      50000          50000          50000          3.292312e-07   6.3056715e-07  1.5570016e-07  2.0142628e-07  24.790197    
     66700   24.036774      50000          50000          50000          3.7666565e-07  7.3677432e-07  1.835695e-07   2.0965314e-07  24.036774    
     66720   22.421292      50000          50000          50000          4.1651992e-07  8.3629695e-07  2.0152782e-07  2.1173498e-07  22.421292    
     66740   20.474477      50000          50000          50000          4.4771281e-07  9.2704945e-07  2.0881782e-07  2.0727117e-07  20.474477    
     66760   18.870034      50000          50000          50000          4.69038e-07    1.0056623e-06  2.0531756e-07  1.9613413e-07  18.870034    
     66780   18.181863      50000          50000          50000          4.7941951e-07  1.0681066e-06  1.9156751e-07  1.7858438e-07  18.181863    
     66800   18.661075      50000          50000          50000          4.7815138e-07  1.1103734e-06  1.6874148e-07  1.5533923e-07  18.661075    
     66820   20.137119      50000          50000          50000          4.6504893e-07  1.1290342e-06  1.3855394e-07  1.2755867e-07  20.137119    
     66840   22.081436      50000          50000          50000          4.4045198e-07  1.1215152e-06  1.0310575e-07  9.6734976e-08  22.081436    
     66860   23.813182      50000          50000          50000          4.0510317e-07  1.0861023e-06  6.4695318e-08  6.4511909e-08  23.813182    
     66880   24.769359      50000          50000          50000          3.599968e-07   1.0218635e-06  2.5634709e-08  3.2492238e-08  24.769359    
     66900   24.73735       50000          50000          50000          3.0630999e-07  9.2873863e-07 -1.1901644e-08  2.092984e-09   24.73735     
     66920   23.954166      50000          50000          50000          2.4545722e-07  8.0790863e-07 -4.6000107e-08 -2.553685e-08   23.954166    
     66940   23.014024      50000          50000          50000          1.792176e-07   6.6233951e-07 -7.5122634e-08 -4.9564084e-08  23.014024    
     66960   22.602175      50000          50000          50000          1.0986049e-07  4.9728465e-07 -9.8205414e-08 -6.9497764e-08  22.602175    
     66980   23.170538      50000          50000          50000          4.0223163e-08  3.2054675e-07 -1.1470234e-07 -8.5174921e-08  23.170538    
     67000   24.692712      50000          50000          50000         -2.6335013e-08  1.4223023e-07 -1.2454638e-07 -9.6688887e-08  24.692712    
     67020   26.649333      50000          50000          50000         -8.6145164e-08 -2.6168535e-08 -1.2800625e-07 -1.0426071e-07  26.649333    
     67040   28.23827       50000          50000          50000         -1.3573849e-07 -1.7356098e-07 -1.2551863e-07 -1.0813586e-07  28.23827     
     67060   28.724855      50000          50000          50000         -1.7254153e-07 -2.9127986e-07 -1.1768945e-07 -1.0865527e-07  28.724855    
     67080   27.725409      50000          50000          50000         -1.9525969e-07 -3.7400741e-07 -1.0540088e-07 -1.0637079e-07  27.725409    
     67100   25.348419      50000          50000          50000         -2.0372564e-07 -4.1946599e-07 -8.9757249e-08 -1.0195368e-07  25.348419    
     67120   22.156774      50000          50000          50000         -1.9867619e-07 -4.2808864e-07 -7.1933462e-08 -9.6006456e-08  22.156774    
     67140   18.992777      50000          50000          50000         -1.8159138e-07 -4.0279671e-07 -5.3056643e-08 -8.8920799e-08  18.992777    
     67160   16.687382      50000          50000          50000         -1.5451631e-07 -3.4864329e-07 -3.4117685e-08 -8.0787969e-08  16.687382    
     67180   15.777722      50000          50000          50000         -1.1980922e-07 -2.7217905e-07 -1.5891458e-08 -7.1357137e-08  15.777722    
     67200   16.324322      50000          50000          50000         -7.99089e-08   -1.8078822e-07  1.1246969e-09 -6.0063183e-08  16.324322    
     67220   17.920238      50000          50000          50000         -3.7178052e-08 -8.212533e-08   1.6731972e-08 -4.6140797e-08  17.920238    
     67240   19.869102      50000          50000          50000          6.1298731e-09  1.6204687e-08  3.0996742e-08 -2.881181e-08   19.869102    
     67260   21.458203      50000          50000          50000          4.7820805e-08  1.0679611e-07  4.4170053e-08 -7.5037477e-09  21.458203    
     67280   22.214672      50000          50000          50000          8.5697754e-08  1.825571e-07   5.6582893e-08  1.7953271e-08  22.214672    
     67300   22.052962      50000          50000          50000          1.1755375e-07  2.3692656e-07  6.8543198e-08  4.7191483e-08  22.052962    
     67320   21.271847      50000          50000          50000          1.4125574e-07  2.6425984e-07  8.0253955e-08  7.9253415e-08  21.271847    
     67340   20.415007      50000          50000          50000          1.5491504e-07  2.6035343e-07  9.1763577e-08  1.1262811e-07  20.415007    
     67360   20.05393       50000          50000          50000          1.5710312e-07  2.2298893e-07  1.0295263e-07  1.453678e-07   20.05393     
     67380   20.573784      50000          50000          50000          1.4704412e-07  1.5231707e-07  1.1355303e-07  1.7526224e-07  20.573784    
     67400   22.044609      50000          50000          50000          1.2471985e-07  5.0939217e-08  1.231865e-07   2.0003384e-07  22.044609    
     67420   24.204393      50000          50000          50000          9.0828965e-08 -7.6426514e-08  1.3140205e-07  2.1751135e-07  24.204393    
     67440   26.56753       50000          50000          50000          4.6639617e-08 -2.2353787e-07  1.3769558e-07  2.2576114e-07  26.56753     
     67460   28.594156      50000          50000          50000         -6.21055e-09   -3.8333052e-07  1.415095e-07   2.2318937e-07  28.594156    
     67480   29.86136       50000          50000          50000         -6.5880942e-08 -5.4853085e-07  1.4222882e-07  2.086592e-07   29.86136     
     67500   30.178821      50000          50000          50000         -1.3042965e-07 -7.1212854e-07  1.3919044e-07  1.8164917e-07  30.178821    
     67520   29.61626       50000          50000          50000         -1.9787062e-07 -8.6774387e-07  1.3170766e-07  1.4242434e-07  29.61626     
     67540   28.442667      50000          50000          50000         -2.6621252e-07 -1.0099094e-06  1.1910865e-07  9.2163245e-08  28.442667    
     67560   27.010307      50000          50000          50000         -3.334807e-07  -1.1342549e-06  1.0080604e-07  3.3006765e-08  27.010307    
     67580   25.633355      50000          50000          50000         -3.9770718e-07 -1.2375883e-06  7.6434325e-08 -3.1967559e-08  25.633355    
     67600   24.503752      50000          50000          50000         -4.5685331e-07 -1.3178347e-06  4.6106475e-08 -9.883166e-08   24.503752    
     67620   23.670292      50000          50000          50000         -5.0874285e-07 -1.3738461e-06  1.0709963e-08 -1.6309236e-07  23.670292    
     67640   23.092567      50000          50000          50000         -5.5150345e-07 -1.4056242e-06 -2.8306472e-08 -2.2057974e-07  23.092567    
     67660   22.732128      50000          50000          50000         -5.8429083e-07 -1.4148646e-06 -6.9638503e-08 -2.6836936e-07  22.732128    
     67680   22.58962       50000          50000          50000         -6.0699215e-07 -1.4043523e-06 -1.1208288e-07 -3.0454125e-07  22.58962     
     67700   22.663771      50000          50000          50000         -6.1953899e-07 -1.3768481e-06 -1.540775e-07  -3.2769133e-07  22.663771    
     67720   22.893082      50000          50000          50000         -6.2173522e-07 -1.3345584e-06 -1.9368035e-07 -3.3696692e-07  22.893082    
     67740   23.134359      50000          50000          50000         -6.1333521e-07 -1.278976e-06  -2.2880359e-07 -3.3222608e-07  23.134359    
     67760   23.195857      50000          50000          50000         -5.941409e-07  -1.210892e-06  -2.5744813e-07 -3.1408254e-07  23.195857    
     67780   22.913187      50000          50000          50000         -5.6410177e-07 -1.1305681e-06 -2.7788561e-07 -2.8385165e-07  22.913187    
     67800   22.234509      50000          50000          50000         -5.2341921e-07 -1.0380254e-06 -2.8878772e-07 -2.4344456e-07  22.234509    
     67820   21.273048      50000          50000          50000         -4.726356e-07  -9.3335702e-07 -2.893108e-07  -1.9523897e-07  21.273048    
     67840   20.294053      50000          50000          50000         -4.1267966e-07 -8.1695773e-07 -2.7914567e-07 -1.4193558e-07  20.294053    
     67860   19.628498      50000          50000          50000         -3.4484503e-07 -6.8959856e-07 -2.5854044e-07 -8.6396082e-08  19.628498    
     67880   19.539741      50000          50000          50000         -2.7070128e-07 -5.5234145e-07 -2.2830027e-07 -3.1462114e-08  19.539741    
     67900   20.09812       50000          50000          50000         -1.9196984e-07 -4.0637407e-07 -1.8976562e-07  2.0230168e-08  20.09812     
     67920   21.124764      50000          50000          50000         -1.1041892e-07 -2.5290131e-07 -1.4476865e-07  6.6413189e-08  21.124764    
     67940   22.240651      50000          50000          50000         -2.7821326e-08 -9.3207689e-08 -9.5562418e-08  1.0530613e-07  22.240651    
     67960   23.00957       50000          50000          50000          5.4018502e-08  7.1087965e-08 -4.4713497e-08  1.3568104e-07  23.00957     
     67980   23.118376      50000          50000          50000          1.3320423e-07  2.3767623e-07  5.0508515e-09  1.5688561e-07  23.118376    
     68000   22.517483      50000          50000          50000          2.0771531e-07  4.0326145e-07  5.1044453e-08  1.6884002e-07  22.517483    
     68020   21.457776      50000          50000          50000          2.7546316e-07  5.6349828e-07  9.0867259e-08  1.7202396e-07  21.457776    
     68040   20.401108      50000          50000          50000          3.3447013e-07  7.1327848e-07  1.2267433e-07  1.6745757e-07  20.401108    
     68060   19.835633      50000          50000          50000          3.8314844e-07  8.4736551e-07  1.4542412e-07  1.5665568e-07  19.835633    
     68080   20.073819      50000          50000          50000          4.2057457e-07  9.6118402e-07  1.5902714e-07  1.4151254e-07  20.073819    
     68100   21.123491      50000          50000          50000          4.4660587e-07  1.0514118e-06  1.6431351e-07  1.2409229e-07  21.123491    
     68120   22.684905      50000          50000          50000          4.6177034e-07  1.1161142e-06  1.6281855e-07  1.063783e-07   22.684905    
     68140   24.263206      50000          50000          50000          4.6702371e-07  1.1544984e-06  1.5648985e-07  9.0082858e-08  24.263206    
     68160   25.343126      50000          50000          50000          4.6350931e-07  1.1665564e-06  1.4741653e-07  7.655496e-08   25.343126    
     68180   25.564262      50000          50000          50000          4.5236998e-07  1.1527589e-06  1.3760368e-07  6.6747383e-08  25.564262    
     68200   24.843967      50000          50000          50000          4.3460051e-07  1.1138266e-06  1.287752e-07   6.1199682e-08  24.843967    
     68220   23.413298      50000          50000          50000          4.1091591e-07  1.0505705e-06  1.2217646e-07  6.0000736e-08  23.413298    
     68240   21.755219      50000          50000          50000          3.8166575e-07  9.6394197e-07  1.1835545e-07  6.269984e-08   21.755219    
     68260   20.446384      50000          50000          50000          3.4703236e-07  8.5576429e-07  1.1705185e-07  6.8280929e-08  20.446384    
     68280   19.92655       50000          50000          50000          3.0758061e-07  7.2996177e-07  1.1738359e-07  7.5396453e-08  19.92655     
     68300   20.301804      50000          50000          50000          2.6451814e-07  5.9278362e-07  1.1810368e-07  8.2667129e-08  20.301804    
     68320   21.307384      50000          50000          50000          2.194142e-07   4.5173498e-07  1.1770336e-07  8.8804252e-08  21.307384    
     68340   22.439811      50000          50000          50000          1.7384e-07     3.1433648e-07  1.1451998e-07  9.2663534e-08  22.439811    
     68360   23.175222      50000          50000          50000          1.2914423e-07  1.8718147e-07  1.0693401e-07  9.3317206e-08  23.175222    
     68380   23.176292      50000          50000          50000          8.6323831e-08  7.5256469e-08  9.3597614e-08  9.0117409e-08  23.176292    
     68400   22.411392      50000          50000          50000          4.5977787e-08 -1.8445109e-08  7.3647028e-08  8.2731442e-08  22.411392    
     68420   21.149676      50000          50000          50000          8.3555855e-09 -9.2964968e-08  4.6877439e-08  7.1154286e-08  21.149676    
     68440   19.843657      50000          50000          50000         -2.651351e-08  -1.491068e-07   1.3860434e-08  5.5705841e-08  19.843657    
     68460   18.951299      50000          50000          50000         -5.8655434e-08 -1.8895851e-07 -2.4020222e-08  3.7012432e-08  18.951299    
     68480   18.768257      50000          50000          50000         -8.8011944e-08 -2.1536764e-07 -6.4634342e-08  1.5966151e-08  18.768257    
     68500   19.339292      50000          50000          50000         -1.1437121e-07 -2.314997e-07  -1.0527259e-07 -6.3413539e-09  19.339292    
     68520   20.460359      50000          50000          50000         -1.3740385e-07 -2.4061032e-07 -1.4289354e-07 -2.8707691e-08  20.460359    
     68540   21.78219       50000          50000          50000         -1.5674913e-07 -2.4593397e-07 -1.7440325e-07 -4.9910174e-08  21.78219     
     68560   22.936912      50000          50000          50000         -1.7213593e-07 -2.5069229e-07 -1.9693069e-07 -6.8784805e-08  22.936912    
     68580   23.661695      50000          50000          50000         -1.8346545e-07 -2.5803709e-07 -2.0807591e-07 -8.4283347e-08  23.661695    
     68600   23.865502      50000          50000          50000         -1.9085148e-07 -2.7091897e-07 -2.0612064e-07 -9.5514819e-08  23.865502    
     68620   23.633736      50000          50000          50000         -1.9460638e-07 -2.9185874e-07 -1.9018568e-07 -1.0177473e-07  23.633736    
     68640   23.175197      50000          50000          50000         -1.9520404e-07 -3.2272011e-07 -1.6032126e-07 -1.0257075e-07  23.175197    
     68660   22.754116      50000          50000          50000         -1.9329401e-07 -3.6459841e-07 -1.1758758e-07 -9.7696032e-08  22.754116    
     68680   22.610148      50000          50000          50000         -1.8989364e-07 -4.1792416e-07 -6.4301116e-08 -8.7455644e-08  22.610148    
     68700   22.882858      50000          50000          50000         -1.864355e-07  -4.8212559e-07 -4.3164455e-09 -7.2864449e-08  22.882858    
     68720   23.547906      50000          50000          50000         -1.8424655e-07 -5.5470495e-07  5.7338852e-08 -5.537354e-08   23.547906    
     68740   24.422175      50000          50000          50000         -1.8413503e-07 -6.3132309e-07  1.1537378e-07 -3.6455776e-08  24.422175    
     68760   25.258506      50000          50000          50000         -1.8654449e-07 -7.0707781e-07  1.6495145e-07 -1.7507119e-08  25.258506    
     68780   25.857713      50000          50000          50000         -1.9179632e-07 -7.7764702e-07  2.0211443e-07  1.4364115e-10  25.857713    
     68800   26.132533      50000          50000          50000         -2.0016342e-07 -8.3983711e-07  2.2406797e-07  1.5278884e-08  26.132533    
     68820   26.105162      50000          50000          50000         -2.1183096e-07 -8.9170958e-07  2.293563e-07   2.6860393e-08  26.105162    
     68840   25.858305      50000          50000          50000         -2.2682202e-07 -9.3246442e-07  2.1791845e-07  3.4079908e-08  25.858305    
     68860   25.475817      50000          50000          50000         -2.4493357e-07 -9.6220205e-07  1.910213e-07   3.6380054e-08  25.475817    
     68880   25.004907      50000          50000          50000         -2.6570644e-07 -9.8165738e-07  1.5108672e-07  3.3451331e-08  25.004907    
     68900   24.454142      50000          50000          50000         -2.8843462e-07 -9.9196214e-07  1.014406e-07   2.5217672e-08  24.454142    
     68920   23.818773      50000          50000          50000         -3.1220587e-07 -9.9445217e-07  4.6011314e-08  1.1823255e-08  23.818773    
     68940   23.115641      50000          50000          50000         -3.3595239e-07 -9.9048732e-07 -1.0999108e-08 -6.370725e-09   23.115641    
     68960   22.400383      50000          50000          50000         -3.585001e-07  -9.8127005e-07 -6.5453466e-08 -2.8776793e-08  22.400383    
     68980   21.75677       50000          50000          50000         -3.7860567e-07 -9.6764405e-07 -1.1360963e-07 -5.4563316e-08  21.75677     
     69000   21.266666      50000          50000          50000         -3.9497889e-07 -9.4987958e-07 -1.5242084e-07 -8.2636263e-08  21.266666    
     69020   20.963162      50000          50000          50000         -4.0631968e-07 -9.2754426e-07 -1.7977959e-07 -1.1163519e-07  20.963162    
     69040   20.810828      50000          50000          50000         -4.1136102e-07 -8.9945335e-07 -1.9467692e-07 -1.399528e-07   20.810828    
     69060   20.71432       50000          50000          50000         -4.0894371e-07 -8.6378762e-07 -1.9725445e-07 -1.6578906e-07  20.71432     
     69080   20.562667      50000          50000          50000         -3.9811181e-07 -8.1835557e-07 -1.8873859e-07 -1.8724126e-07  20.562667    
     69100   20.29166       50000          50000          50000         -3.7821201e-07 -7.6094983e-07 -1.7126096e-07 -2.0242524e-07  20.29166     
     69120   19.936418      50000          50000          50000         -3.4896903e-07 -6.8970832e-07 -1.4758387e-07 -2.096149e-07   19.936418    
     69140   19.646815      50000          50000          50000         -3.1051161e-07 -6.0338794e-07 -1.2076471e-07 -2.0738216e-07  19.646815    
     69160   19.65366       50000          50000          50000         -2.6334914e-07 -5.0150707e-07 -9.3815738e-08 -1.947246e-07   19.65366     
     69180   20.188531      50000          50000          50000         -2.0834863e-07 -3.8442856e-07 -6.9429791e-08 -1.7118752e-07  20.188531    
     69200   21.383833      50000          50000          50000         -1.4674201e-07 -2.5344778e-07 -4.9789955e-08 -1.3698829e-07  21.383833    
     69220   23.18129       50000          50000          50000         -8.0120415e-08 -1.1085162e-07 -3.6398565e-08 -9.3111062e-08  23.18129     
     69240   25.291675      50000          50000          50000         -1.0355257e-08  4.0146399e-08 -2.9894978e-08 -4.1317193e-08  25.291675    
     69260   27.243832      50000          50000          50000          6.0519258e-08  1.9555366e-07 -2.9938958e-08  1.5943066e-08  27.243832    
     69280   28.525707      50000          50000          50000          1.3038288e-07  3.5071357e-07 -3.5243903e-08  7.5678971e-08  28.525707    
     69300   28.769245      50000          50000          50000          1.9704989e-07  5.0038016e-07 -4.3759249e-08  1.3452876e-07  28.769245    
     69320   27.898378      50000          50000          50000          2.5828567e-07  6.388617e-07  -5.2948864e-08  1.8894418e-07  27.898378    
     69340   26.177733      50000          50000          50000          3.1189619e-07  7.6039678e-07 -6.0117372e-08  2.3540916e-07  26.177733    
     69360   24.123388      50000          50000          50000          3.5592514e-07  8.5980705e-07 -6.2751415e-08  2.7071978e-07  24.123388    
     69380   22.309071      50000          50000          50000          3.889723e-07   9.3340812e-07 -5.8836171e-08  2.9234496e-07  22.309071    
     69400   21.145241      50000          50000          50000          4.1056452e-07  9.7994856e-07 -4.7087394e-08  2.9883239e-07  21.145241    
     69420   20.738142      50000          50000          50000          4.2134202e-07  1.0010257e-06 -2.7061547e-08  2.9006189e-07  20.738142    
     69440   20.901807      50000          50000          50000          4.2276191e-07  1.0003938e-06  8.0872933e-10  2.6708317e-07  20.901807    
     69460   21.285555      50000          50000          50000          4.1651861e-07  9.8260431e-07  3.5221874e-08  2.3172963e-07  21.285555    
     69480   21.548637      50000          50000          50000          4.0424069e-07  9.5213872e-07  7.4111383e-08  1.8647196e-07  21.548637    
     69500   21.494858      50000          50000          50000          3.8743342e-07  9.1300502e-07  1.1484802e-07  1.3444722e-07  21.494858    
     69520   21.149567      50000          50000          50000          3.6743489e-07  8.6843377e-07  1.5449402e-07  7.93769e-08    21.149567    
     69540   20.747715      50000          50000          50000          3.4534891e-07  8.2063878e-07  1.9007797e-07  2.5329985e-08  20.747715    
     69560   20.633027      50000          50000          50000          3.2201565e-07  7.7077231e-07  2.1886648e-07 -2.3591845e-08  20.633027    
     69580   21.10244       50000          50000          50000          2.9803264e-07  7.1908141e-07  2.386064e-07  -6.3589878e-08  21.10244     
     69600   22.256206      50000          50000          50000          2.7379455e-07  6.6516472e-07  2.4771086e-07 -9.149192e-08   22.256206    
     69620   23.917136      50000          50000          50000          2.4950908e-07  6.0819753e-07  2.4536669e-07 -1.0503698e-07  23.917136    
     69640   25.658196      50000          50000          50000          2.2516329e-07  5.4703383e-07  2.3155521e-07 -1.0309917e-07  25.658196    
     69660   26.935278      50000          50000          50000          2.0044654e-07  4.8018217e-07  2.0699786e-07 -8.5840407e-08  26.935278    
     69680   27.279976      50000          50000          50000          1.7466905e-07  4.057441e-07   1.7305474e-07 -5.4791687e-08  27.279976    
     69700   26.482291      50000          50000          50000          1.4673687e-07  3.2145815e-07  1.3160561e-07 -1.2853144e-08  26.482291    
     69720   24.691415      50000          50000          50000          1.1524473e-07  2.2498266e-07  8.4922832e-08  3.5828689e-08  24.691415    
     69740   22.38464       50000          50000          50000          7.8714395e-08  1.1446218e-07  3.5519979e-08  8.616102e-08   22.38464     
     69760   20.202196      50000          50000          50000          3.5942853e-08 -1.072301e-08  -1.4039336e-08  1.325909e-07   20.202196    
     69780   18.708547      50000          50000          50000         -1.3629548e-08 -1.4925243e-07 -6.1351347e-08  1.6971513e-07  18.708547    
     69800   18.183545      50000          50000          50000         -6.9640164e-08 -2.9748318e-07 -1.0435214e-07  1.9291483e-07  18.183545    
     69820   18.538693      50000          50000          50000         -1.307151e-07  -4.4962078e-07 -1.4142928e-07  1.9890476e-07  18.538693    
     69840   19.3951        50000          50000          50000         -1.9463546e-07 -5.9851544e-07 -1.7146164e-07  1.8607072e-07  19.3951      
     69860   20.279309      50000          50000          50000         -2.58727e-07   -7.3685806e-07 -1.9381222e-07  1.5448928e-07  20.279309    
     69880   20.836816      50000          50000          50000         -3.2027684e-07 -8.5824348e-07 -2.0828282e-07  1.0569578e-07  20.836816    
     69900   20.968349      50000          50000          50000         -3.7673944e-07 -9.5767956e-07 -2.1500377e-07  4.2465004e-08  20.968349    
     69920   20.844698      50000          50000          50000         -4.2572909e-07 -1.0316521e-06 -2.1427436e-07 -3.1260769e-08  20.844698    
     69940   20.805436      50000          50000          50000         -4.6499815e-07 -1.0780754e-06 -2.0644371e-07 -1.1047529e-07  20.805436    
     69960   21.185456      50000          50000          50000         -4.924993e-07  -1.0962051e-06 -1.9188603e-07 -1.8940673e-07  21.185456    
     69980   22.142005      50000          50000          50000         -5.0648964e-07 -1.0864649e-06 -1.7103762e-07 -2.6196639e-07  22.142005    
     70000   23.556952      50000          50000          50000         -5.0565298e-07 -1.0502497e-06 -1.4445334e-07 -3.2225587e-07  23.556952    
     70020   25.058472      50000          50000          50000         -4.8924892e-07 -9.8981609e-07 -1.1285913e-07 -3.6507155e-07  25.058472    
     70040   26.156248      50000          50000          50000         -4.5728267e-07 -9.083031e-07  -7.718665e-08  -3.8635825e-07  26.156248    
     70060   26.43749       50000          50000          50000         -4.1066836e-07 -8.0984192e-07 -3.8584923e-08 -3.8357824e-07  26.43749     
     70080   25.746748      50000          50000          50000         -3.5134968e-07 -6.9965414e-07  1.5885621e-09 -3.5598345e-07  25.746748    
     70100   24.277145      50000          50000          50000         -2.8233394e-07 -5.8401088e-07  4.1796878e-08 -3.0478782e-07  24.277145    
     70120   22.528902      50000          50000          50000         -2.0758071e-07 -4.6991418e-07  8.0382275e-08 -2.3321024e-07  22.528902    
     70140   21.13661       50000          50000          50000         -1.3169108e-07 -3.6441579e-07  1.1566094e-07 -1.4631839e-07  21.13661     
     70160   20.622561      50000          50000          50000         -5.9416499e-08 -2.7366669e-07  1.4603336e-07 -5.0616162e-08  20.622561    
     70180   21.178298      50000          50000          50000          4.8873049e-09 -2.0200367e-07  1.7007075e-07  4.6594836e-08  21.178298    
     70200   22.576356      50000          50000          50000          5.769812e-08  -1.5142302e-07  1.8655856e-07  1.3795882e-07  22.576356    
     70220   24.258006      50000          50000          50000          9.6557984e-08 -1.2161754e-07  1.9451682e-07  2.1677468e-07  24.258006    
     70240   25.560087      50000          50000          50000          1.2010614e-07 -1.1049798e-07  1.9323762e-07  2.7757879e-07  25.560087    
     70260   25.980212      50000          50000          50000          1.2799948e-07 -1.1494315e-07  1.8236964e-07  3.1657196e-07  25.980212    
     70280   25.364681      50000          50000          50000          1.2079826e-07 -1.3151124e-07  1.6203534e-07  3.3187067e-07  25.364681    
     70300   23.942047      50000          50000          50000          9.9821278e-08 -1.5696646e-07  1.3291014e-07  3.2352015e-07  23.942047    
     70320   22.20082       50000          50000          50000          6.6958503e-08 -1.8857418e-07  9.6203464e-08  2.9324623e-07  22.20082     
     70340   20.679604      50000          50000          50000          2.4513101e-08 -2.2413109e-07  5.3580654e-08  2.4408974e-07  20.679604    
     70360   19.760135      50000          50000          50000         -2.4860736e-08 -2.6177557e-07  7.0934738e-09  1.8009989e-07  19.760135    
     70380   19.53594       50000          50000          50000         -7.8187024e-08 -2.9975912e-07 -4.0895359e-08  1.0609341e-07  19.53594     
     70400   19.798833      50000          50000          50000         -1.322699e-07  -3.3635766e-07 -8.7840904e-08  2.7388873e-08  19.798833    
     70420   20.14589       50000          50000          50000         -1.8389982e-07 -3.6997383e-07 -1.311985e-07  -5.0527132e-08  20.14589     
     70440   20.166243      50000          50000          50000         -2.3011879e-07 -3.9935795e-07 -1.686201e-07  -1.2237831e-07  20.166243    
     70460   19.628973      50000          50000          50000         -2.6848142e-07 -4.2384621e-07 -1.9812429e-07 -1.8347376e-07  19.628973    
     70480   18.612293      50000          50000          50000         -2.9724222e-07 -4.4346205e-07 -2.1822221e-07 -2.3004239e-07  18.612293    
     70500   17.500077      50000          50000          50000         -3.1546805e-07 -4.5887788e-07 -2.2800971e-07 -2.5951656e-07  17.500077    
     70520   16.851482      50000          50000          50000         -3.2301069e-07 -4.7106391e-07 -2.2721669e-07 -2.7075146e-07  16.851482    
     70540   17.15378       50000          50000          50000         -3.2030843e-07 -4.8062105e-07 -2.1617815e-07 -2.6412608e-07  17.15378     
     70560   18.582058      50000          50000          50000         -3.0807503e-07 -4.8702589e-07 -1.9574156e-07 -2.4145765e-07  18.582058    
     70580   20.889832      50000          50000          50000         -2.8709125e-07 -4.8837694e-07 -1.6717562e-07 -2.057212e-07   20.889832    
     70600   23.502152      50000          50000          50000         -2.5820811e-07 -4.8182649e-07 -1.3212369e-07 -1.6067415e-07  23.502152    
     70620   25.75174       50000          50000          50000         -2.2247791e-07 -4.6435512e-07 -9.2582581e-08 -1.1049602e-07  25.75174     
     70640   27.132676      50000          50000          50000         -1.812222e-07  -4.3341852e-07 -5.0823202e-08 -5.9424874e-08  27.132676    
     70660   27.475354      50000          50000          50000         -1.3600678e-07 -3.8736942e-07 -9.2482681e-09 -1.1402654e-08  27.475354    
     70680   26.980728      50000          50000          50000         -8.8558469e-08 -3.2566904e-07  2.9776804e-08  3.0216832e-08  26.980728    
     70700   26.112446      50000          50000          50000         -4.0604935e-08 -2.4882135e-07  6.4109115e-08  6.2897436e-08  26.112446    
     70720   25.380129      50000          50000          50000          6.3272567e-09 -1.5812395e-07  9.2012039e-08  8.5093683e-08  25.380129    
     70740   25.122399      50000          50000          50000          5.112009e-08  -5.5299186e-08  1.1230543e-07  9.6354022e-08  25.122399    
     70760   25.366986      50000          50000          50000          9.3185385e-08  5.7782144e-08  1.2444564e-07  9.7328369e-08  25.366986    
     70780   25.832764      50000          50000          50000          1.3245292e-07  1.7918492e-07  1.2851353e-07  8.9660307e-08  25.832764    
     70800   26.069765      50000          50000          50000          1.6922216e-07  3.0677915e-07  1.2511839e-07  7.5768953e-08  26.069765    
     70820   25.673927      50000          50000          50000          2.0393153e-07  4.3798718e-07  1.152541e-07   5.8553318e-08  25.673927    
     70840   24.482797      50000          50000          50000          2.3692871e-07  5.6956534e-07  1.0015511e-07  4.1065688e-08  24.482797    
     70860   22.668602      50000          50000          50000          2.6831853e-07  6.9757032e-07  8.1189248e-08  2.6196015e-08  22.668602    
     70880   20.68789       50000          50000          50000          2.979319e-07   8.1759775e-07  5.9801617e-08  1.6396336e-08  20.68789     
     70900   19.10484       50000          50000          50000          3.254152e-07   9.252821e-07   3.7498776e-08  1.3464726e-08  19.10484     
     70920   18.359426      50000          50000          50000          3.5039511e-07  1.0169358e-06  1.5844e-08     1.8405536e-08  18.359426    
     70940   18.581048      50000          50000          50000          3.7264147e-07  1.0901157e-06 -3.5725666e-09  3.1381288e-08  18.581048    
     70960   19.534695      50000          50000          50000          3.9214417e-07  1.1438868e-06 -1.9216028e-08  5.1761761e-08  19.534695    
     70980   20.728071      50000          50000          50000          4.0905013e-07  1.1786422e-06 -2.9743421e-08  7.8251641e-08  20.728071    
     71000   21.621367      50000          50000          50000          4.2347028e-07  1.1955167e-06 -3.4160755e-08  1.0905492e-07  21.621367    
     71020   21.853185      50000          50000          50000          4.3527463e-07  1.1957231e-06 -3.1942127e-08  1.4204286e-07  21.853185    
     71040   21.369662      50000          50000          50000          4.4396751e-07  1.1800599e-06 -2.3073846e-08  1.7491644e-07  21.369662    
     71060   20.429294      50000          50000          50000          4.4870294e-07  1.1487723e-06 -8.0300162e-09  2.0536652e-07  20.429294    
     71080   19.486263      50000          50000          50000          4.4840648e-07  1.1016914e-06  1.2299227e-08  2.312288e-07   19.486263    
     71100   19.003148      50000          50000          50000          4.4194767e-07  1.0385092e-06  3.6710575e-08  2.5062326e-07  19.003148    
     71120   19.26647       50000          50000          50000          4.2829068e-07  9.5902233e-07  6.379549e-08   2.6205422e-07  19.26647     
     71140   20.274581      50000          50000          50000          4.0655281e-07  8.6322231e-07  9.2001722e-08  2.6443438e-07  20.274581    
     71160   21.734072      50000          50000          50000          3.7597048e-07  7.512707e-07   1.1960777e-07  2.5703299e-07  21.734072    
     71180   23.160242      50000          50000          50000          3.3592105e-07  6.2358268e-07  1.4469775e-07  2.3948271e-07  23.160242    
     71200   24.05568       50000          50000          50000          2.8611742e-07  4.8103734e-07  1.6532057e-07  2.1199434e-07  24.05568     
     71220   24.116042      50000          50000          50000          2.2674903e-07  3.2490627e-07  1.7976885e-07  1.7557198e-07  24.116042    
     71240   23.37129       50000          50000          50000          1.583719e-07   1.5645897e-07  1.8673471e-07  1.3192201e-07  23.37129     
     71260   22.182628      50000          50000          50000          8.1759661e-08 -2.3221127e-08  1.8534194e-07  8.3158165e-08  22.182628    
     71280   21.092143      50000          50000          50000         -2.0804104e-09 -2.1295471e-07  1.7518242e-07  3.1531056e-08  21.092143    
     71300   20.596232      50000          50000          50000         -9.1776596e-08 -4.1095149e-07  1.5638391e-07 -2.076221e-08   20.596232    
     71320   20.946421      50000          50000          50000         -1.854976e-07  -6.144272e-07   1.2965683e-07 -7.1722446e-08  20.946421    
     71340   22.064484      50000          50000          50000         -2.8100115e-07 -8.1959968e-07  9.6264279e-08 -1.1966804e-07  22.064484    
     71360   23.600838      50000          50000          50000         -3.7583146e-07 -1.0220756e-06  5.7900475e-08 -1.6331927e-07  23.600838    
     71380   25.095976      50000          50000          50000         -4.6757147e-07 -1.2174088e-06  1.6514442e-08 -2.0182005e-07  25.095976    
     71400   26.164325      50000          50000          50000         -5.5403655e-07 -1.4015567e-06 -2.5866868e-08 -2.3468606e-07  26.164325    
     71420   26.624467      50000          50000          50000         -6.3336557e-07 -1.5711008e-06 -6.7289159e-08 -2.6170679e-07  26.624467    
     71440   26.533119      50000          50000          50000         -7.0402961e-07 -1.7232463e-06 -1.05996e-07   -2.8284656e-07  26.533119    
     71460   26.121084      50000          50000          50000         -7.6479078e-07 -1.8556688e-06 -1.4053036e-07 -2.981732e-07   26.121084    
     71480   25.665431      50000          50000          50000         -8.1463867e-07 -1.9662907e-06 -1.6980614e-07 -3.0781917e-07  25.665431    
     71500   25.354887      50000          50000          50000         -8.5273392e-07 -2.0530911e-06 -1.9314359e-07 -3.1196709e-07  25.354887    
     71520   25.206601      50000          50000          50000         -8.7838956e-07 -2.1140515e-06 -2.1026991e-07 -3.1084728e-07  25.206601    
     71540   25.070259      50000          50000          50000         -8.9110813e-07 -2.1472955e-06 -2.2129378e-07 -3.0473511e-07  25.070259    
     71560   24.717537      50000          50000          50000         -8.9066956e-07 -2.1514039e-06 -2.2666511e-07 -2.9393971e-07  24.717537    
     71580   23.976756      50000          50000          50000         -8.7723864e-07 -2.125807e-06  -2.2712709e-07 -2.7878184e-07  23.976756    
     71600   22.850757      50000          50000          50000         -8.5144582e-07 -2.0711125e-06 -2.236594e-07  -2.5956554e-07  22.850757    
     71620   21.560288      50000          50000          50000         -8.1439708e-07 -1.989229e-06  -2.1740587e-07 -2.3655637e-07  21.560288    
     71640   20.485025      50000          50000          50000         -7.6759737e-07 -1.8832181e-06 -2.095837e-07  -2.099903e-07   20.485025    
     71660   20.018383      50000          50000          50000         -7.1282667e-07 -1.7569464e-06 -2.0138561e-07 -1.8014799e-07  20.018383    
     71680   20.39042       50000          50000          50000         -6.5203306e-07 -1.6147194e-06 -1.9387652e-07 -1.4750323e-07  20.39042     
     71700   21.531252      50000          50000          50000         -5.8714538e-07 -1.4608383e-06 -1.8779228e-07 -1.1280554e-07  21.531252    
     71720   23.053324      50000          50000          50000         -5.1960326e-07 -1.298701e-06  -1.8320056e-07 -7.6908246e-08  23.053324    
     71740   24.397382      50000          50000          50000         -4.499646e-07  -1.1299181e-06 -1.7939678e-07 -4.0578932e-08  24.397382    
     71760   25.06652       50000          50000          50000         -3.7815426e-07 -9.5456661e-07 -1.7525866e-07 -4.6375003e-09  25.06652     
     71780   24.806921      50000          50000          50000         -3.0398201e-07 -7.7223589e-07 -1.6956673e-07  2.9856606e-08  24.806921    
     71800   23.66884       50000          50000          50000         -2.2736959e-07 -5.8274271e-07 -1.6104556e-07  6.1679485e-08  23.66884     
     71820   21.972435      50000          50000          50000         -1.4834223e-07 -3.8627806e-07 -1.4838726e-07  8.9638644e-08  21.972435    
     71840   20.182039      50000          50000          50000         -6.6977466e-08 -1.8332424e-07 -1.3035931e-07  1.1275115e-07  20.182039    
     71860   18.746578      50000          50000          50000          1.665121e-08   2.5519353e-08 -1.0594466e-07  1.3037894e-07  18.746578    
     71880   17.955647      50000          50000          50000          1.0249784e-07  2.3965572e-07 -7.4476983e-08  1.4231477e-07  17.955647    
     71900   17.862666      50000          50000          50000          1.9050776e-07  4.5846725e-07 -3.5757777e-08  1.4881379e-07  17.862666    
     71920   18.301239      50000          50000          50000          2.8051247e-07  6.8111332e-07  9.8507692e-09  1.5057332e-07  18.301239    
     71940   18.984792      50000          50000          50000          3.7207259e-07  9.0618304e-07  6.1364957e-08  1.4866977e-07  18.984792    
     71960   19.653004      50000          50000          50000          4.6431915e-07  1.1313305e-06  1.1716263e-07  1.4446428e-07  19.653004    
     71980   20.18781       50000          50000          50000          5.5583199e-07  1.3529856e-06  1.7502312e-07  1.3948721e-07  20.18781     
     72000   20.664364      50000          50000          50000          6.4462703e-07  1.5663337e-06  2.3223751e-07  1.353099e-07   20.664364    
     72020   21.298378      50000          50000          50000          7.28257e-07    1.7655675e-06  2.8579424e-07  1.3340923e-07  21.298378    
     72040   22.318598      50000          50000          50000          8.0401395e-07  1.9443813e-06  3.3263261e-07  1.3502792e-07  22.318598    
     72060   23.82288       50000          50000          50000          8.6917693e-07  2.09656e-06    3.6993696e-07  1.4103387e-07  23.82288     
     72080   25.687624      50000          50000          50000          9.2123533e-07  2.2164923e-06  3.9542601e-07  1.5178765e-07  25.687624    
     72100   27.569314      50000          50000          50000          9.5802815e-07  2.299463e-06   4.0758557e-07  1.6703583e-07  27.569314    
     72120   29.014269      50000          50000          50000          9.7780648e-07  2.3417593e-06  4.0580641e-07  1.858537e-07   29.014269    
     72140   29.61271       50000          50000          50000          9.7923182e-07  2.3406221e-06  3.9041331e-07  2.0666008e-07  29.61271     
     72160   29.154829      50000          50000          50000          9.6139181e-07  2.2942609e-06  3.6259434e-07  2.2732015e-07  29.154829    
     72180   27.707849      50000          50000          50000          9.2384714e-07  2.2019605e-06  3.2424464e-07  2.453363e-07   27.707849    
     72200   25.603932      50000          50000          50000          8.667298e-07   2.0643438e-06  2.7774182e-07  2.5810382e-07  25.603932    
     72220   23.330686      50000          50000          50000          7.9085079e-07  1.8836678e-06  2.2568983e-07  2.6319469e-07  23.330686    
     72240   21.373336      50000          50000          50000          6.9779486e-07  1.6640706e-06  1.7068033e-07  2.5863362e-07  21.373336    
     72260   20.067286      50000          50000          50000          5.8995534e-07  1.4116312e-06  1.1510363e-07  2.4313125e-07  20.067286    
     72280   19.513746      50000          50000          50000          4.7046292e-07  1.1341305e-06  6.1018786e-08  2.1623952e-07  19.513746    
     72300   19.583494      50000          50000          50000          3.4299955e-07  8.4050868e-07  1.0080901e-08  1.7840906e-07  19.583494    
     72320   19.997896      50000          50000          50000          2.1153771e-07  5.4014006e-07 -3.6481097e-08  1.3095417e-07  19.997896    
     72340   20.448458      50000          50000          50000          8.0067809e-08  2.4210061e-07 -7.7847383e-08  7.5950201e-08  20.448458    
     72360   20.70771       50000          50000          50000         -4.7635778e-08 -4.5432535e-08 -1.1356442e-07  1.6089624e-08  20.70771     
     72380   20.69461       50000          50000          50000         -1.6818554e-07 -3.1558027e-07 -1.4348887e-07 -4.5487492e-08  20.69461     
     72400   20.478955      50000          50000          50000         -2.786847e-07  -5.6294578e-07 -1.6772631e-07 -1.0538203e-07  20.478955    
     72420   20.231732      50000          50000          50000         -3.7677111e-07 -7.836062e-07  -1.8656812e-07 -1.6013901e-07  20.231732    
     72440   20.144388      50000          50000          50000         -4.6061734e-07 -9.7496598e-07 -2.0042597e-07 -2.0646008e-07  20.144388    
     72460   20.346118      50000          50000          50000         -5.2891525e-07 -1.1355649e-06 -2.09759e-07   -2.4142184e-07  20.346118    
     72480   20.847444      50000          50000          50000         -5.8088485e-07 -1.2649576e-06 -2.1499209e-07 -2.6270489e-07  20.847444    
     72500   21.533519      50000          50000          50000         -6.1634057e-07 -1.363741e-06  -2.1644075e-07 -2.6883995e-07  21.533519    
     72520   22.215066      50000          50000          50000         -6.3579948e-07 -1.4336861e-06 -2.1426848e-07 -2.5944384e-07  22.215066    
     72540   22.716379      50000          50000          50000         -6.405594e-07  -1.4778182e-06 -2.0848542e-07 -2.3537458e-07  22.716379    
     72560   22.957584      50000          50000          50000         -6.3267782e-07 -1.5003067e-06 -1.9898124e-07 -1.9874558e-07  22.957584    
     72580   22.991008      50000          50000          50000         -6.1483226e-07 -1.5061212e-06 -1.8558672e-07 -1.5278888e-07  22.991008    
     72600   22.975638      50000          50000          50000         -5.9008247e-07 -1.5004988e-06 -1.6815954e-07 -1.0158905e-07  22.975638    
     72620   23.103562      50000          50000          50000         -5.6157421e-07 -1.4883202e-06 -1.4668484e-07 -4.9717587e-08  23.103562    
     72640   23.513616      50000          50000          50000         -5.3223518e-07 -1.473526e-06  -1.2137546e-07 -1.8040429e-09  23.513616    
     72660   24.231318      50000          50000          50000         -5.0451863e-07 -1.4587069e-06 -9.2755337e-08  3.7906313e-08  24.231318    
     72680   25.159455      50000          50000          50000         -4.8024391e-07 -1.44496e-06   -6.1713565e-08  6.5941801e-08  25.159455    
     72700   26.118097      50000          50000          50000         -4.6055467e-07 -1.4320191e-06 -2.9523795e-08  7.9878862e-08  26.118097    
     72720   26.910437      50000          50000          50000         -4.4596841e-07 -1.4185631e-06  2.1754918e-09  7.8482327e-08  26.910437    
     72740   27.383982      50000          50000          50000         -4.3645807e-07 -1.4025666e-06  3.1449567e-08  6.1742776e-08  27.383982    
     72760   27.465534      50000          50000          50000         -4.3151624e-07 -1.3815978e-06  5.6198574e-08  3.0850483e-08  27.465534    
     72780   27.164388      50000          50000          50000         -4.3017818e-07 -1.3530144e-06  7.4364938e-08 -1.1885123e-08  27.164388    
     72800   26.553257      50000          50000          50000         -4.3098595e-07 -1.3139875e-06  8.422505e-08  -6.3195398e-08  26.553257    
     72820   25.748065      50000          50000          50000         -4.3199336e-07 -1.2614162e-06  8.4632958e-08 -1.1919681e-07  25.748065    
     72840   24.906088      50000          50000          50000         -4.3138209e-07 -1.1927988e-06  7.4681785e-08 -1.7602926e-07  24.906088    
     72860   24.210927      50000          50000          50000         -4.2822735e-07 -1.1082123e-06  5.3402503e-08 -2.2987223e-07  24.210927    
     72880   23.78365       50000          50000          50000         -4.2136408e-07 -1.0094532e-06  2.131698e-08  -2.7595603e-07  23.78365     
     72900   23.616795      50000          50000          50000         -4.088408e-07  -8.983893e-07  -1.888757e-08  -3.0924553e-07  23.616795    
     72920   23.628045      50000          50000          50000         -3.8883143e-07 -7.7733708e-07 -6.3293426e-08 -3.2586377e-07  23.628045    
     72940   23.736075      50000          50000          50000         -3.6012707e-07 -6.4938369e-07 -1.0740911e-07 -3.2358842e-07  23.736075    
     72960   23.899958      50000          50000          50000         -3.2222347e-07 -5.1814979e-07 -1.4661372e-07 -3.019069e-07   23.899958    
     72980   24.111914      50000          50000          50000         -2.7526508e-07 -3.872595e-07  -1.76632e-07   -2.6190374e-07  24.111914    
     73000   24.35335       50000          50000          50000         -2.1994468e-07 -2.5983342e-07 -1.9399524e-07 -2.0600539e-07  24.35335     
     73020   24.563161      50000          50000          50000         -1.5742574e-07 -1.3824485e-07 -1.9637369e-07 -1.3765868e-07  24.563161    
     73040   24.634001      50000          50000          50000         -8.9311055e-08 -2.4184658e-08 -1.8271932e-07 -6.102919e-08   24.634001    
     73060   24.441105      50000          50000          50000         -1.7607496e-08  8.1180337e-08 -1.5327501e-07  1.9272186e-08  24.441105    
     73080   23.895149      50000          50000          50000          5.5336726e-08  1.7707871e-07 -1.0953221e-07  9.8463681e-08  23.895149    
     73100   22.992945      50000          50000          50000          1.2691293e-07  2.6300806e-07 -5.4147455e-08  1.7187819e-07  22.992945    
     73120   21.855569      50000          50000          50000          1.9437473e-07  3.3866228e-07  9.212652e-09   2.3524925e-07  21.855569    
     73140   20.711269      50000          50000          50000          2.5498964e-07  4.0387242e-07  7.6115949e-08  2.8498056e-07  20.711269    
     73160   19.840613      50000          50000          50000          3.0624332e-07  4.5864898e-07  1.4169873e-07  3.1838225e-07  19.840613    
     73180   19.479291      50000          50000          50000          3.4605232e-07  5.0323546e-07  2.0106717e-07  3.3385432e-07  19.479291    
     73200   19.735359      50000          50000          50000          3.7297123e-07  5.3819078e-07  2.4972803e-07  3.3099489e-07  19.735359    
     73220   20.536375      50000          50000          50000          3.8632396e-07  5.6437965e-07  2.8398362e-07  3.1060862e-07  20.536375    
     73240   21.650645      50000          50000          50000          3.8624814e-07  5.8287815e-07  3.0125106e-07  2.7461522e-07  21.650645    
     73260   22.764709      50000          50000          50000          3.7363075e-07  5.9478426e-07  3.0024769e-07  2.2586032e-07  22.764709    
     73280   23.588923      50000          50000          50000          3.4996093e-07  6.0099158e-07  2.8103231e-07  1.678589e-07   23.588923    
     73300   23.963409      50000          50000          50000          3.1716156e-07  6.0202078e-07  2.449425e-07   1.0452141e-07  23.963409    
     73320   23.910866      50000          50000          50000          2.7743598e-07  5.9795118e-07  1.9445972e-07  3.9897048e-08  23.910866    
     73340   23.620619      50000          50000          50000          2.3318132e-07  5.8851466e-07  1.3306318e-07 -2.2033876e-08  23.620619    
     73360   23.365376      50000          50000          50000          1.8697265e-07  5.7337345e-07  6.5077333e-08 -7.7532842e-08  23.365376    
     73380   23.380472      50000          50000          50000          1.4154883e-07  5.5249993e-07 -4.5560672e-09 -1.2329738e-07  23.380472    
     73400   23.758116      50000          50000          50000          9.9701527e-08  5.2646113e-07 -7.0650086e-08 -1.5670646e-07  23.758116    
     73420   24.409412      50000          50000          50000          6.4042779e-08  4.964562e-07  -1.2825897e-07 -1.7606889e-07  24.409412    
     73440   25.106864      50000          50000          50000          3.6704371e-08  4.6409651e-07 -1.7318032e-07 -1.8080307e-07  25.106864    
     73460   25.59697       50000          50000          50000          1.9077372e-08  4.3112303e-07 -2.0238654e-07 -1.7150437e-07  25.59697     
     73480   25.708006      50000          50000          50000          1.1678773e-08  3.9920641e-07 -2.1431595e-07 -1.4985414e-07  25.708006    
     73500   25.417229      50000          50000          50000          1.4240674e-08  3.6996876e-07 -2.0894679e-07 -1.1829994e-07  25.417229    
     73520   24.849683      50000          50000          50000          2.5845958e-08  3.4481609e-07 -1.8765369e-07 -7.9624524e-08  24.849683    
     73540   24.223484      50000          50000          50000          4.4893758e-08  3.24365e-07   -1.5296034e-07 -3.6723394e-08  24.223484    
     73560   23.766823      50000          50000          50000          6.9169563e-08  3.0830012e-07 -1.0824467e-07  7.4532415e-09  23.766823    
     73580   23.629286      50000          50000          50000          9.614401e-08   2.9582143e-07 -5.7430683e-08  5.0041285e-08  23.629286    
     73600   23.814676      50000          50000          50000          1.2325199e-07  2.8596322e-07 -4.6849654e-09  8.8477704e-08  23.814676    
     73620   24.184407      50000          50000          50000          1.4807431e-07  2.7760765e-07  4.5913226e-08  1.2070207e-07  24.184407    
     73640   24.514381      50000          50000          50000          1.6842659e-07  2.6933221e-07  9.0671715e-08  1.4527586e-07  24.514381    
     73660   24.59159       50000          50000          50000          1.8240827e-07  2.5927579e-07  1.2653391e-07  1.6141511e-07  24.59159     
     73680   24.300301      50000          50000          50000          1.8843954e-07  2.4511837e-07  1.5125395e-07  1.689463e-07   24.300301    
     73700   23.661761      50000          50000          50000          1.8532031e-07  2.2423799e-07  1.6350801e-07  1.6821494e-07  23.661761    
     73720   22.811476      50000          50000          50000          1.7232641e-07  1.9404992e-07  1.6295311e-07  1.5997621e-07  22.811476    
     73740   21.933465      50000          50000          50000          1.4933137e-07  1.5246702e-07  1.5023782e-07  1.4528928e-07  21.933465    
     73760   21.172082      50000          50000          50000          1.168846e-07   9.8316856e-08  1.2692621e-07  1.2541074e-07  21.172082    
     73780   20.584401      50000          50000          50000          7.6214714e-08  3.1596291e-08  9.5345258e-08  1.0170259e-07  20.584401    
     73800   20.143113      50000          50000          50000          2.9121282e-08 -4.6535859e-08  5.8348625e-08  7.5551079e-08  20.143113    
     73820   19.789929      50000          50000          50000         -2.2214039e-08 -1.3398391e-07  1.9038827e-08  4.8302964e-08  19.789929    
     73840   19.503633      50000          50000          50000         -7.5447194e-08 -2.2804341e-07 -1.9512361e-08  2.121419e-08   19.503633    
     73860   19.339474      50000          50000          50000         -1.2826919e-07 -3.2570107e-07 -5.4510538e-08 -4.5959644e-09  19.339474    
     73880   19.413133      50000          50000          50000         -1.7854835e-07 -4.2382703e-07 -8.3629655e-08 -2.8188348e-08  19.413133    
     73900   19.834088      50000          50000          50000         -2.2441719e-07 -5.1927093e-07 -1.0513781e-07 -4.8842811e-08  19.834088    
     73920   20.630945      50000          50000          50000         -2.6432299e-07 -6.0892303e-07 -1.1795973e-07 -6.6086202e-08  20.630945    
     73940   21.699144      50000          50000          50000         -2.9708671e-07 -6.898683e-07  -1.2168532e-07 -7.9706522e-08  21.699144    
     73960   22.819904      50000          50000          50000         -3.2194758e-07 -7.5957472e-07 -1.1653236e-07 -8.9735665e-08  22.819904    
     73980   23.730592      50000          50000          50000         -3.3858834e-07 -8.1609809e-07 -1.0327282e-07 -9.6394118e-08  23.730592    
     74000   24.223463      50000          50000          50000         -3.4712438e-07 -8.5822959e-07 -8.313646e-08  -1.0000709e-07  24.223463    
     74020   24.233388      50000          50000          50000         -3.4805412e-07 -8.855526e-07  -5.7695112e-08 -1.0091464e-07  24.233388    
     74040   23.881076      50000          50000          50000         -3.4213202e-07 -8.9832601e-07 -2.8695341e-08 -9.9374709e-08  23.881076    
     74060   23.457905      50000          50000          50000         -3.3015359e-07 -8.9715993e-07  2.170362e-09  -9.5471204e-08  23.457905    
     74080   23.36703       50000          50000          50000         -3.1321583e-07 -8.8332237e-07  3.3086799e-08 -8.9411911e-08  23.36703     
     74100   23.992682      50000          50000          50000         -2.9384667e-07 -8.6025207e-07  6.1100307e-08 -8.2388231e-08  23.992682    
     74120   25.44483       50000          50000          50000         -2.7473718e-07 -8.3136458e-07  8.2873221e-08 -7.5720185e-08  25.44483     
     74140   27.387541      50000          50000          50000         -2.5702037e-07 -7.9748161e-07  9.6246638e-08 -6.9826141e-08  27.387541    
     74160   29.180995      50000          50000          50000         -2.41098e-07   -7.5839978e-07  9.9981286e-08 -6.4875515e-08  29.180995    
     74180   30.16954       50000          50000          50000         -2.2719811e-07 -7.1402949e-07  9.3489281e-08 -6.105411e-08   30.16954     
     74200   29.953858      50000          50000          50000         -2.1549783e-07 -6.6484028e-07  7.6843208e-08 -5.8496418e-08  29.953858    
     74220   28.548578      50000          50000          50000         -2.0618303e-07 -6.1210174e-07  5.0792516e-08 -5.7239856e-08  28.548578    
     74240   26.369391      50000          50000          50000         -1.9942038e-07 -5.5781052e-07  1.6765085e-08 -5.7215688e-08  26.369391    
     74260   24.059238      50000          50000          50000         -1.9522494e-07 -5.0427454e-07 -2.3145801e-08 -5.8254478e-08  24.059238    
     74280   22.230361      50000          50000          50000         -1.9328183e-07 -4.5351201e-07 -6.6239199e-08 -6.009429e-08   22.230361    
     74300   21.236701      50000          50000          50000         -1.9283125e-07 -4.0675437e-07 -1.0934991e-07 -6.2389463e-08  21.236701    
     74320   21.074543      50000          50000          50000         -1.9271e-07    -3.6432105e-07 -1.4908519e-07 -6.4723758e-08  21.074543    
     74340   21.442799      50000          50000          50000         -1.9154317e-07 -3.2590376e-07 -1.8210196e-07 -6.662379e-08   21.442799    
     74360   21.912523      50000          50000          50000         -1.8799254e-07 -2.9106141e-07 -2.0535741e-07 -6.755879e-08   21.912523    
     74380   22.124963      50000          50000          50000         -1.80968e-07   -2.5965592e-07 -2.1631997e-07 -6.6928108e-08  22.124963    
     74400   21.934907      50000          50000          50000         -1.6977135e-07 -2.3208829e-07 -2.1316429e-07 -6.4061468e-08  21.934907    
     74420   21.450913      50000          50000          50000         -1.5415863e-07 -2.0926608e-07 -1.949534e-07  -5.8256434e-08  21.450913    
     74440   20.96112       50000          50000          50000         -1.3432004e-07 -1.9231473e-07 -1.6178471e-07 -4.8860692e-08  20.96112     
     74460   20.788953      50000          50000          50000         -1.1078316e-07 -1.821009e-07  -1.1486253e-07 -3.5386047e-08  20.788953    
     74480   21.124035      50000          50000          50000         -8.4301817e-08 -1.7876606e-07 -5.6495329e-08 -1.7644067e-08  21.124035    
     74500   21.922164      50000          50000          50000         -5.575596e-08  -1.8141106e-07  1.0010033e-08  4.1331472e-09  21.922164    
     74520   22.909998      50000          50000          50000         -2.6114889e-08 -1.8806562e-07  8.0521631e-08  2.9199323e-08  22.909998    
     74540   23.687186      50000          50000          50000          3.5169827e-09 -1.9599551e-07  1.5030215e-07  5.6244305e-08  23.687186    
     74560   23.902451      50000          50000          50000          3.1830129e-08 -2.0218517e-07  2.1426803e-07  8.3407528e-08  23.902451    
     74580   23.417049      50000          50000          50000          5.7279331e-08 -2.0387359e-07  2.6732438e-07  1.083872e-07   23.417049    
     74600   22.388011      50000          50000          50000          7.818285e-08  -1.9894974e-07  3.0482228e-07  1.2867601e-07  22.388011    
     74620   21.224441      50000          50000          50000          9.2969344e-08 -1.8608621e-07  3.2310006e-07  1.4189418e-07  21.224441    
     74640   20.421968      50000          50000          50000          1.0050038e-07 -1.6460883e-07  3.1997736e-07  1.4613261e-07  20.421968    
     74660   20.350716      50000          50000          50000          1.0036951e-07 -1.3420177e-07  2.9508001e-07  1.4023029e-07  20.350716    
     74680   21.09546       50000          50000          50000          9.308357e-08  -9.4646438e-08  2.4994214e-07  1.2395501e-07  21.09546     
     74700   22.423075      50000          50000          50000          8.0063232e-08 -4.5759582e-08  1.878732e-07   9.8076077e-08  22.423075    
     74720   23.894831      50000          50000          50000          6.3450491e-08  1.2445723e-08  1.1359264e-07  6.4313105e-08  23.894831    
     74740   25.06254       50000          50000          50000          4.5757226e-08  7.9449468e-08  3.2672601e-08  2.5149608e-08  25.06254     
     74760   25.653492      50000          50000          50000          2.9470357e-08  1.5391078e-07 -4.9064103e-08 -1.6435611e-08  25.653492    
     74780   25.664161      50000          50000          50000          1.6768856e-08  2.3350333e-07 -1.2599378e-07 -5.720299e-08   25.664161    
     74800   25.335973      50000          50000          50000          9.4164061e-09  3.1495433e-07 -1.929169e-07  -9.3788214e-08  25.335973    
     74820   25.032473      50000          50000          50000          8.7817509e-09  3.9439033e-07 -2.4522415e-07 -1.2282093e-07  25.032473    
     74840   25.066451      50000          50000          50000          1.5910226e-08  4.6800163e-07 -2.7914995e-07 -1.41121e-07    25.066451    
     74860   25.548504      50000          50000          50000          3.1536379e-08  5.3276182e-07 -2.9213454e-07 -1.4601814e-07  25.548504    
     74880   26.325636      50000          50000          50000          5.6006379e-08  5.8684478e-07 -2.831295e-07  -1.3569615e-07  26.325636    
     74900   27.036896      50000          50000          50000          8.916083e-08   6.2967056e-07 -2.5273295e-07 -1.0945512e-07  27.036896    
     74920   27.261549      50000          50000          50000          1.302041e-07   6.6164717e-07 -2.0316196e-07 -6.7872912e-08  27.261549    
     74940   26.699101      50000          50000          50000          1.775878e-07   6.8373458e-07 -1.3809619e-07 -1.2874973e-08  26.699101    
     74960   25.30938       50000          50000          50000          2.2895641e-07  6.9699749e-07 -6.2414121e-08  5.2285856e-08  25.30938     
     74980   23.355318      50000          50000          50000          2.8121188e-07  7.0229794e-07  1.8178571e-08  1.2315913e-07  23.355318    
     75000   21.325357      50000          50000          50000          3.3074039e-07  7.0021172e-07  9.7638107e-08  1.9437133e-07  21.325357    
     75020   19.758564      50000          50000          50000          3.7379365e-07  6.9115347e-07  1.701643e-07   2.6006317e-07  19.758564    
     75040   19.039505      50000          50000          50000          4.0694941e-07  6.755988e-07   2.3079043e-07  3.1445899e-07  19.039505    
     75060   19.248251      50000          50000          50000          4.2753536e-07  6.5424578e-07  2.7586789e-07  3.5249242e-07  19.248251    
     75080   20.137405      50000          50000          50000          4.3392182e-07  6.280027e-07   3.0336562e-07  3.7039715e-07  20.137405    
     75100   21.232317      50000          50000          50000          4.2560297e-07  5.9774432e-07  3.1291972e-07  3.6614488e-07  21.232317    
     75120   22.025943      50000          50000          50000          4.0306357e-07  5.639227e-07   3.0564265e-07  3.3962537e-07  22.025943    
     75140   22.166728      50000          50000          50000          3.6746013e-07  5.261542e-07   2.8371819e-07  2.9250801e-07  22.166728    
     75160   21.569895      50000          50000          50000          3.2028881e-07  4.8300931e-07  2.4994313e-07  2.2791398e-07  21.569895    
     75180   20.422425      50000          50000          50000          2.632092e-07   4.3215178e-07  2.0737859e-07  1.5009722e-07  20.422425    
     75200   19.098078      50000          50000          50000          1.9803109e-07  3.7077747e-07  1.5913463e-07  6.4181188e-08  19.098078    
     75220   18.021973      50000          50000          50000          1.267582e-07   2.9619307e-07  1.0821297e-07 -2.4131421e-08  18.021973    
     75240   17.533664      50000          50000          50000          5.1603162e-08  2.063849e-07   5.7356395e-08 -1.0893181e-07  17.533664    
     75260   17.78736       50000          50000          50000         -2.5069069e-08  1.0044779e-07  8.8938945e-09 -1.8454889e-07  17.78736     
     75280   18.732912      50000          50000          50000         -1.0085496e-07 -2.1187233e-08 -3.5378243e-08 -2.4599941e-07  18.732912    
     75300   20.15832       50000          50000          50000         -1.7348508e-07 -1.5678163e-07 -7.4277952e-08 -2.8939565e-07  20.15832     
     75320   21.785107      50000          50000          50000         -2.4100091e-07 -3.035078e-07  -1.072432e-07  -3.1225175e-07  21.785107    
     75340   23.371716      50000          50000          50000         -3.0190217e-07 -4.5777548e-07 -1.3426473e-07 -3.1366631e-07  23.371716    
     75360   24.787495      50000          50000          50000         -3.5523701e-07 -6.1556401e-07 -1.5576005e-07 -2.9438698e-07  24.787495    
     75380   26.040195      50000          50000          50000         -4.0062049e-07 -7.7263636e-07 -1.7242175e-07 -2.5680336e-07  26.040195    
     75400   27.227957      50000          50000          50000         -4.3819891e-07 -9.2460601e-07 -1.8506121e-07 -2.0492952e-07  27.227957    
     75420   28.462344      50000          50000          50000         -4.6847837e-07 -1.0667233e-06 -1.9441165e-07 -1.4430013e-07  28.462344    
     75440   29.75984       50000          50000          50000         -4.9206102e-07 -1.1937805e-06 -2.0087923e-07 -8.1523359e-08  29.75984     
     75460   30.979639      50000          50000          50000         -5.0943302e-07 -1.3005004e-06 -2.0439021e-07 -2.3408484e-08  30.979639    
     75480   31.85018       50000          50000          50000         -5.2096247e-07 -1.3823919e-06 -2.0447086e-07  2.3975358e-08  31.85018     
     75500   32.057885      50000          50000          50000         -5.2704871e-07 -1.4365553e-06 -2.0050196e-07  5.5911088e-08  32.057885    
     75520   31.368474      50000          50000          50000         -5.2817845e-07 -1.4620092e-06 -1.9191958e-07  6.9393421e-08  31.368474    
     75540   29.720576      50000          50000          50000         -5.2489239e-07 -1.4597232e-06 -1.7834814e-07  6.3394164e-08  29.720576    
     75560   27.2694        50000          50000          50000         -5.1774978e-07 -1.432523e-06  -1.5971613e-07  3.8989803e-08  27.2694      
     75580   24.365071      50000          50000          50000         -5.0728877e-07 -1.3848095e-06 -1.3634498e-07 -7.1177666e-10  24.365071    
     75600   21.470033      50000          50000          50000         -4.9395767e-07 -1.3220246e-06 -1.0898109e-07 -5.086728e-08   21.470033    
     75620   19.032726      50000          50000          50000         -4.7802769e-07 -1.249911e-06  -7.8754161e-08 -1.0541794e-07  19.032726    
     75640   17.373283      50000          50000          50000         -4.5950731e-07 -1.1736568e-06 -4.7068409e-08 -1.5779669e-07  17.373283    
     75660   16.602878      50000          50000          50000         -4.3813976e-07 -1.0972371e-06 -1.5465397e-08 -2.0171678e-07  16.602878    
     75680   16.623587      50000          50000          50000         -4.134855e-07  -1.0230763e-06  1.4493893e-08 -2.3187409e-07  16.623587    
     75700   17.180754      50000          50000          50000         -3.8506645e-07 -9.5208887e-07  4.1320566e-08 -2.4443105e-07  17.180754    
     75720   17.962575      50000          50000          50000         -3.5248316e-07 -8.8386672e-07  6.3691556e-08 -2.372743e-07   17.962575    
     75740   18.701191      50000          50000          50000         -3.1550366e-07 -8.1695366e-07  8.0557325e-08 -2.1011465e-07  18.701191    
     75760   19.254931      50000          50000          50000         -2.7412045e-07 -7.4914475e-07  9.1247496e-08 -1.6446408e-07  19.254931    
     75780   19.640525      50000          50000          50000         -2.2857677e-07 -6.777834e-07   9.5545101e-08 -1.0349202e-07  19.640525    
     75800   20.017146      50000          50000          50000         -1.7933536e-07 -5.9998965e-07  9.3733966e-08 -3.1750397e-08  20.017146    
     75820   20.605562      50000          50000          50000         -1.2701585e-07 -5.1283531e-07  8.6586628e-08  4.5201119e-08  20.605562    
     75840   21.581771      50000          50000          50000         -7.2307432e-08 -4.1347517e-07  7.5308213e-08  1.2124466e-07  21.581771    
     75860   22.976464      50000          50000          50000         -1.5901526e-08 -2.9931706e-07  6.1431307e-08  1.9018118e-07  22.976464    
     75880   24.620715      50000          50000          50000          4.1523111e-08 -1.6831033e-07  4.6673566e-08  2.462061e-07   24.620715    
     75900   26.166381      50000          50000          50000          9.9263085e-08 -1.9379424e-08  3.2775757e-08  2.8439292e-07  26.166381    
     75920   27.188555      50000          50000          50000          1.5653978e-07  1.470756e-07   2.13357e-08    3.0120804e-07  27.188555    
     75940   27.34573       50000          50000          50000          2.1247008e-07  3.2876504e-07  1.3641897e-08  2.950033e-07   27.34573     
     75960   26.537103      50000          50000          50000          2.6605745e-07  5.2132369e-07  1.0513555e-08  2.6633511e-07  26.537103    
     75980   24.981073      50000          50000          50000          3.162034e-07   7.1843901e-07  1.2178844e-08  2.1799235e-07  24.981073    
     76000   23.166095      50000          50000          50000          3.6176784e-07  9.1232761e-07  1.8233964e-08  1.5474195e-07  23.166095    
     76020   21.683185      50000          50000          50000          4.017021e-07   1.0945364e-06  2.7704133e-08  8.2865796e-08  21.683185    
     76040   20.998405      50000          50000          50000          4.3522106e-07  1.2569238e-06  3.9194998e-08  9.5444154e-09  20.998405    
     76060   21.274163      50000          50000          50000          4.6195486e-07  1.3926311e-06  5.1104459e-08 -5.7870977e-08  21.274163    
     76080   22.306519      50000          50000          50000          4.8198062e-07  1.4967117e-06  6.1853075e-08 -1.1262288e-07  22.306519    
     76100   23.606603      50000          50000          50000          4.9569911e-07  1.5662714e-06  7.0072721e-08 -1.4924676e-07  23.606603    
     76120   24.600689      50000          50000          50000          5.0361643e-07  1.6001831e-06  7.475063e-08  -1.6408444e-07  24.600689    
     76140   24.850105      50000          50000          50000          5.0611264e-07  1.5985997e-06  7.5312869e-08 -1.5557468e-07  24.850105    
     76160   24.211048      50000          50000          50000          5.0329164e-07  1.5625416e-06  7.167092e-08  -1.2433764e-07  24.211048    
     76180   22.876238      50000          50000          50000          4.9494949e-07  1.4936997e-06  6.4238683e-08 -7.308993e-08   22.876238    
     76200   21.292808      50000          50000          50000          4.806651e-07   1.3944793e-06  5.3917614e-08 -6.4015932e-09  21.292808    
     76220   19.975209      50000          50000          50000          4.5996234e-07  1.2681406e-06  4.2035976e-08  6.9710404e-08  19.975209    
     76240   19.304814      50000          50000          50000          4.3250673e-07  1.1189427e-06  3.0234875e-08  1.4834261e-07  19.304814    
     76260   19.383671      50000          50000          50000          3.9824795e-07  9.5208265e-07  2.029175e-08   2.2236944e-07  19.383671    
     76280   20.008958      50000          50000          50000          3.5746093e-07  7.733679e-07   1.3892016e-08  2.8512289e-07  20.008958    
     76300   20.775969      50000          50000          50000          3.1067763e-07  5.8866506e-07  1.2377609e-08  3.3099022e-07  20.775969    
     76320   21.262136      50000          50000          50000          2.5855344e-07  4.0328487e-07  1.6515413e-08  3.5586005e-07  21.262136    
     76340   21.212291      50000          50000          50000          2.0173867e-07  2.2149388e-07  2.6330893e-08  3.5739125e-07  21.212291    
     76360   20.641978      50000          50000          50000          1.4079996e-07  4.6258138e-08  4.1038366e-08  3.3510339e-07  20.641978    
     76380   19.833893      50000          50000          50000          7.6216102e-08 -1.2071065e-07  5.9070958e-08  2.90288e-07    19.833893    
     76400   19.216415      50000          50000          50000          8.4293973e-09 -2.7867809e-07  7.8178245e-08  2.2578804e-07  19.216415    
     76420   19.188237      50000          50000          50000         -6.1980548e-08 -4.2733635e-07  9.5611491e-08  1.4578322e-07  19.188237    
     76440   19.949743      50000          50000          50000         -1.3405367e-07 -5.6620599e-07  1.0843751e-07  5.5607465e-08  19.949743    
     76460   21.412116      50000          50000          50000         -2.0631681e-07 -6.9433914e-07  1.1394273e-07 -3.8554024e-08  21.412116    
     76480   23.234854      50000          50000          50000         -2.7686197e-07 -8.1044056e-07  1.1002206e-07 -1.301674e-07   23.234854    
     76500   24.973418      50000          50000          50000         -3.4358948e-07 -9.1326317e-07  9.5462858e-08 -2.1296811e-07  24.973418    
     76520   26.265921      50000          50000          50000         -4.0449114e-07 -1.0020031e-06  7.009017e-08  -2.8156052e-07  26.265921    
     76540   26.966437      50000          50000          50000         -4.5786918e-07 -1.0764844e-06  3.4783085e-08 -3.3190623e-07  26.966437    
     76560   27.161463      50000          50000          50000         -5.0244381e-07 -1.1370666e-06 -8.6097611e-09 -3.6165503e-07  27.161463    
     76580   27.074295      50000          50000          50000         -5.3735e-07    -1.1843236e-06 -5.7428771e-08 -3.7029765e-07  27.074295    
     76600   26.910938      50000          50000          50000         -5.6207349e-07 -1.2186727e-06 -1.0841876e-07 -3.59129e-07    26.910938    
     76620   26.732634      50000          50000          50000         -5.7638584e-07 -1.240145e-06  -1.5799006e-07 -3.3102249e-07  26.732634    
     76640   26.422276      50000          50000          50000         -5.8032489e-07 -1.2484229e-06 -2.0251182e-07 -2.9003995e-07  26.422276    
     76660   25.761489      50000          50000          50000         -5.7422942e-07 -1.2431372e-06 -2.3861537e-07 -2.4093565e-07  25.761489    
     76680   24.576895      50000          50000          50000         -5.5879806e-07 -1.2242812e-06 -2.6347966e-07 -1.8863333e-07  24.576895    
     76700   22.878918      50000          50000          50000         -5.3512106e-07 -1.1925419e-06 -2.7507337e-07 -1.3774795e-07  22.878918    
     76720   20.920131      50000          50000          50000         -5.0463854e-07 -1.1493837e-06 -2.723358e-07  -9.2196119e-08  20.920131    
     76740   19.135824      50000          50000          50000         -4.6900465e-07 -1.0968194e-06 -2.5528074e-07 -5.4913832e-08  19.135824    
     76760   17.988191      50000          50000          50000         -4.298693e-07  -1.0369129e-06 -2.2500485e-07 -2.7690122e-08  17.988191    
     76780   17.775843      50000          50000          50000         -3.8863604e-07 -9.712007e-07  -1.8358437e-07 -1.112304e-08   17.775843    
     76800   18.498707      50000          50000          50000         -3.4626901e-07 -9.0024872e-07 -1.3386077e-07 -4.6975552e-09  18.498707    
     76820   19.84259       50000          50000          50000         -3.0321446e-07 -8.2353351e-07 -7.914297e-08  -6.9668919e-09  19.84259     
     76840   21.29472       50000          50000          50000         -2.5945126e-07 -7.3968122e-07 -2.2875158e-08 -1.5797418e-08  21.29472     
     76860   22.341704      50000          50000          50000         -2.1462795e-07 -6.4693591e-07  3.1679651e-08 -2.862761e-08   22.341704    
     76880   22.667359      50000          50000          50000         -1.6821634e-07 -5.4364527e-07  8.1699925e-08 -4.2703664e-08  22.667359    
     76900   22.27278       50000          50000          50000         -1.1964966e-07 -4.2862191e-07  1.2495898e-07 -5.528606e-08   22.27278     
     76920   21.476979      50000          50000          50000         -6.8519491e-08 -3.0148828e-07  1.5978784e-07 -6.3858037e-08  21.476979    
     76940   20.796913      50000          50000          50000         -1.4907171e-08 -1.632531e-07   1.8487435e-07 -6.6342768e-08  20.796913    
     76960   20.727048      50000          50000          50000          4.047681e-08  -1.6660455e-08  1.9929616e-07 -6.1205273e-08  20.727048    
     76980   21.486776      50000          50000          50000          9.6703099e-08  1.3456636e-07  2.029745e-07  -4.7431568e-08  21.486776    
     77000   22.879344      50000          50000          50000          1.5301976e-07  2.8678829e-07  1.9691185e-07 -2.4640859e-08  22.879344    
     77020   24.377363      50000          50000          50000          2.0879117e-07  4.3669882e-07  1.8294934e-07  6.7253448e-09  24.377363    
     77040   25.368099      50000          50000          50000          2.6320798e-07  5.808827e-07   1.6338362e-07  4.5357609e-08  25.368099    
     77060   25.444051      50000          50000          50000          3.1504801e-07  7.1531856e-07  1.4062841e-07  8.9197056e-08  25.444051    
     77080   24.58741       50000          50000          50000          3.6257825e-07  8.351397e-07   1.1693639e-07  1.3565867e-07  24.58741     
     77100   23.174838      50000          50000          50000          4.0365381e-07  9.3486575e-07  9.4184252e-08  1.8191143e-07  23.174838    
     77120   21.805177      50000          50000          50000          4.3600308e-07  1.0091076e-06  7.3728734e-08  2.2517295e-07  21.805177    
     77140   21.033329      50000          50000          50000          4.5761444e-07  1.053535e-06   5.6338594e-08  2.6296973e-07  21.033329    
     77160   21.134076      50000          50000          50000          4.6707714e-07  1.0657229e-06  4.2201599e-08  2.9330693e-07  21.134076    
     77180   22.005495      50000          50000          50000          4.6374183e-07  1.0455203e-06  3.0998537e-08  3.1470669e-07  22.005495    
     77200   23.240171      50000          50000          50000          4.4766403e-07  9.9483065e-07  2.2031601e-08  3.2612983e-07  23.240171    
     77220   24.317893      50000          50000          50000          4.1943144e-07  9.1704701e-07  1.4390493e-08  3.2685683e-07  24.317893    
     77240   24.82556       50000          50000          50000          3.7999696e-07  8.1645089e-07  7.1325173e-09  3.1640748e-07  24.82556     
     77260   24.615531      50000          50000          50000          3.3057846e-07  6.9775356e-07 -5.4985632e-10  2.9453167e-07  24.615531    
     77280   23.845645      50000          50000          50000          2.7263543e-07  5.6583497e-07 -9.1930066e-09  2.6126431e-07  23.845645    
     77300   22.890547      50000          50000          50000          2.0791166e-07  4.2567791e-07 -1.8967404e-08  2.1702447e-07  22.890547    
     77320   22.162038      50000          50000          50000          1.385089e-07   2.824252e-07  -2.9629857e-08  1.6273135e-07  22.162038    
     77340   21.919237      50000          50000          50000          6.6933347e-08  1.4143095e-07 -4.0529962e-08  9.9899049e-08  21.919237    
     77360   22.151302      50000          50000          50000         -3.9625731e-09  8.1254369e-09 -5.0679163e-08  3.0666007e-08  22.151302    
     77380   22.593988      50000          50000          50000         -7.1179924e-08 -1.1238702e-07 -5.8883495e-08 -4.2269252e-08  22.593988    
     77400   22.87372       50000          50000          50000         -1.3188707e-07 -2.1594055e-07 -6.3923428e-08 -1.1579724e-07  22.87372     
     77420   22.708876      50000          50000          50000         -1.8375574e-07 -2.9992956e-07 -6.4747538e-08 -1.8659013e-07  22.708876    
     77440   22.066642      50000          50000          50000         -2.2521273e-07 -3.6370243e-07 -6.0642877e-08 -2.5129287e-07  22.066642    
     77460   21.194553      50000          50000          50000         -2.5553656e-07 -4.0856484e-07 -5.1353889e-08 -3.0669094e-07  21.194553    
     77480   20.508382      50000          50000          50000         -2.7478599e-07 -4.3736215e-07 -3.7135569e-08 -3.4986026e-07  20.508382    
     77500   20.384205      50000          50000          50000         -2.8360949e-07 -4.5376904e-07 -1.8739888e-08 -3.7831955e-07  20.384205    
     77520   20.958588      50000          50000          50000         -2.8301257e-07 -4.6149272e-07  2.6541989e-09 -3.901992e-07   20.958588    
     77540   22.033919      50000          50000          50000         -2.7417209e-07 -4.6364448e-07  2.5548343e-08 -3.8442012e-07  22.033919    
     77560   23.141742      50000          50000          50000         -2.5834806e-07 -4.6243707e-07  4.824905e-08  -3.6085615e-07  23.141742    
     77580   23.740132      50000          50000          50000         -2.3689021e-07 -4.5921848e-07  6.8993466e-08 -3.204456e-07   23.740132    
     77600   23.45861       50000          50000          50000         -2.1128831e-07 -4.5471182e-07  8.6072519e-08 -2.6522563e-07  23.45861     
     77620   22.282701      50000          50000          50000         -1.8319652e-07 -4.4927224e-07  9.795628e-08  -1.982736e-07   22.282701    
     77640   20.594824      50000          50000          50000         -1.5437422e-07 -4.430043e-07   1.0342775e-07 -1.235461e-07   20.594824    
     77660   19.045618      50000          50000          50000         -1.2652134e-07 -4.3567647e-07  1.0172257e-07 -4.5610124e-08  19.045618    
     77680   18.300933      50000          50000          50000         -1.0103642e-07 -4.2648757e-07  9.2655583e-08  3.0722718e-08  18.300933    
     77700   18.760462      50000          50000          50000         -7.8784731e-08 -4.1387104e-07  7.6699496e-08  1.0081735e-07  18.760462    
     77720   20.384166      50000          50000          50000         -5.9959469e-08 -3.9548444e-07  5.4981809e-08  1.6062422e-07  20.384166    
     77740   22.689248      50000          50000          50000         -4.4122667e-08 -3.6856368e-07  2.9185346e-08  2.0701033e-07  22.689248    
     77760   24.937048      50000          50000          50000         -3.0403046e-08 -3.3054348e-07  1.3624126e-09  2.3797193e-07  24.937048    
     77780   26.422854      50000          50000          50000         -1.7799115e-08 -2.7978465e-07 -2.6313156e-08  2.5270046e-07  26.422854    
     77800   26.742433      50000          50000          50000         -5.493091e-09  -2.1617206e-07 -5.1803801e-08  2.5149659e-07  26.742433    
     77820   25.927428      50000          50000          50000          6.9345179e-09 -1.4139446e-07 -7.3400645e-08  2.3559866e-07  25.927428    
     77840   24.409604      50000          50000          50000          1.9445196e-08 -5.8864599e-08 -8.9819021e-08  2.0701921e-07  24.409604    
     77860   22.841332      50000          50000          50000          3.1610199e-08  2.6630821e-08 -1.0022658e-07  1.6842635e-07  22.841332    
     77880   21.841851      50000          50000          50000          4.2755565e-08  1.0945257e-07 -1.0423852e-07  1.2305265e-07  21.841851    
     77900   21.758888      50000          50000          50000          5.2151223e-08  1.8375581e-07 -1.0188846e-07  7.4586322e-08  21.758888    
     77920   22.537344      50000          50000          50000          5.9194032e-08  2.441827e-07  -9.3573463e-08  2.6972856e-08  22.537344    
     77940   23.758512      50000          50000          50000          6.3494022e-08  2.8639323e-07 -7.9987681e-08 -1.5923487e-08  23.758512    
     77960   24.841245      50000          50000          50000          6.4813498e-08  3.0725892e-07 -6.2065638e-08 -5.0752787e-08  24.841245    
     77980   25.311979      50000          50000          50000          6.2919865e-08  3.0478594e-07 -4.0939256e-08 -7.5087085e-08  25.311979    
     78000   25.012999      50000          50000          50000          5.7471638e-08  2.7800861e-07 -1.7895959e-08 -8.7697737e-08  25.012999    
     78020   24.150916      50000          50000          50000          4.8026621e-08  2.2705743e-07  5.6787995e-09 -8.865637e-08   24.150916    
     78040   23.166755      50000          50000          50000          3.4188764e-08  1.5343927e-07  2.8386848e-08 -7.9259828e-08  23.166755    
     78060   22.494987      50000          50000          50000          1.5838769e-08  6.0386525e-08  4.8933702e-08 -6.180392e-08   22.494987    
     78080   22.333739      50000          50000          50000         -6.6549454e-09 -4.6988308e-08  6.626588e-08  -3.9242408e-08  22.333739    
     78100   22.54517       50000          50000          50000         -3.23681e-08   -1.6201021e-07  7.9690159e-08 -1.4784249e-08  22.54517     
     78120   22.737319      50000          50000          50000         -5.9990255e-08 -2.7733865e-07  8.8891922e-08  8.4759628e-09  22.737319    
     78140   22.476956      50000          50000          50000         -8.8181227e-08 -3.8613128e-07  9.3801735e-08  2.7785864e-08  22.476956    
     78160   21.517447      50000          50000          50000         -1.1587822e-07 -4.8287367e-07  9.4413384e-08  4.0825631e-08  21.517447    
     78180   19.937535      50000          50000          50000         -1.4238851e-07 -5.6364343e-07  9.069773e-08   4.578018e-08   19.937535    
     78200   18.144596      50000          50000          50000         -1.6731253e-07 -6.2602438e-07  8.262027e-08   4.1466507e-08  18.144596    
     78220   16.737836      50000          50000          50000         -1.9039338e-07 -6.688822e-07   7.0204754e-08  2.7497317e-08  16.737836    
     78240   16.282651      50000          50000          50000         -2.1133452e-07 -6.9204217e-07  5.3613137e-08  4.4254684e-09  16.282651    
     78260   17.08181       50000          50000          50000         -2.2963526e-07 -6.9593871e-07  3.3227731e-08 -2.6194803e-08  17.08181     
     78280   19.03911       50000          50000          50000         -2.4450614e-07 -6.8135072e-07  9.7167759e-09 -6.1884471e-08  19.03911     
     78300   21.675814      50000          50000          50000         -2.5490631e-07 -6.4931421e-07 -1.593464e-08  -9.9470093e-08  21.675814    
     78320   24.295177      50000          50000          50000         -2.5969481e-07 -6.0121809e-07 -4.2435759e-08 -1.3543059e-07  24.295177    
     78340   26.228813      50000          50000          50000         -2.5784361e-07 -5.3900128e-07 -6.8240137e-08 -1.6628943e-07  26.228813    
     78360   27.069282      50000          50000          50000         -2.4864545e-07 -4.6532373e-07 -9.162808e-08  -1.8898454e-07  27.069282    
     78380   26.802056      50000          50000          50000         -2.3185476e-07 -3.8357214e-07 -1.108188e-07  -2.0117333e-07  26.802056    
     78400   25.788035      50000          50000          50000         -2.0771131e-07 -2.9757576e-07 -1.2411293e-07 -2.0144523e-07  25.788035    
     78420   24.596992      50000          50000          50000         -1.7683962e-07 -2.1104313e-07 -1.3006245e-07 -1.8941327e-07  24.596992    
     78440   23.762591      50000          50000          50000         -1.4007513e-07 -1.2690998e-07 -1.2764865e-07 -1.6566678e-07  23.762591    
     78460   23.562928      50000          50000          50000         -9.8311052e-08 -4.6897515e-08 -1.1643134e-07 -1.316043e-07   23.562928    
     78480   23.923641      50000          50000          50000         -5.2428201e-08  2.8556654e-08 -9.6637321e-08 -8.9203936e-08  23.923641    
     78500   24.480092      50000          50000          50000         -3.3286282e-09  9.9992482e-08 -6.91801e-08   -4.0798267e-08  24.480092    
     78520   24.763275      50000          50000          50000          4.7951042e-08  1.6837251e-07 -3.5617979e-08  1.1098596e-08  24.763275    
     78540   24.422348      50000          50000          50000          1.0010843e-07  2.3448446e-07  1.9402114e-09  6.3900626e-08  24.422348    
     78560   23.385761      50000          50000          50000          1.5150154e-07  2.985111e-07   4.0976318e-08  1.1501721e-07  23.385761    
     78580   21.893742      50000          50000          50000          2.0018858e-07  3.5990165e-07  7.8748497e-08  1.6191559e-07  21.893742    
     78600   20.391458      50000          50000          50000          2.4409654e-07  4.175609e-07   1.1251649e-07  2.0221224e-07  20.391458    
     78620   19.331808      50000          50000          50000          2.8128311e-07  4.7024979e-07  1.397922e-07   2.3380733e-07  19.331808    
     78640   18.97654       50000          50000          50000          3.1021425e-07  5.1700533e-07  1.5858835e-07  2.5504906e-07  18.97654     
     78660   19.286241      50000          50000          50000          3.2996583e-07  5.573783e-07   1.6762913e-07  2.6489006e-07  19.286241    
     78680   19.949162      50000          50000          50000          3.4028231e-07  5.9137301e-07  1.6648639e-07  2.6298752e-07  19.949162    
     78700   20.531048      50000          50000          50000          3.4147809e-07  6.1911114e-07  1.5561501e-07  2.4970811e-07  20.531048    
     78720   20.674332      50000          50000          50000          3.3423682e-07  6.4038925e-07  1.3628628e-07  2.2603492e-07  20.674332    
     78740   20.256847      50000          50000          50000          3.1940934e-07  6.5435142e-07  1.1045338e-07  1.9342322e-07  20.256847    
     78760   19.434204      50000          50000          50000          2.9788607e-07  6.593975e-07   8.0591284e-08  1.5366941e-07  19.434204    
     78780   18.571859      50000          50000          50000          2.7059031e-07  6.5342177e-07  4.9526929e-08  1.0882223e-07  18.571859    
     78800   18.086037      50000          50000          50000          2.3853738e-07  6.3424999e-07  2.024548e-08   6.111668e-08   18.086037    
     78820   18.266989      50000          50000          50000          2.0289676e-07  6.0013188e-07 -4.335391e-09   1.2893804e-08  18.266989    
     78840   19.159693      50000          50000          50000          1.6497565e-07  5.5005867e-07 -2.1610713e-08 -3.3520996e-08  19.159693    
     78860   20.552724      50000          50000          50000          1.260464e-07   4.8366722e-07 -2.9551184e-08 -7.5976841e-08  20.552724    
     78880   22.066521      50000          50000          50000          8.7036757e-08  4.0078497e-07 -2.7044435e-08 -1.1263026e-07  22.066521    
     78900   23.293005      50000          50000          50000          4.8413533e-08  3.0144495e-07 -1.4265866e-08 -1.4193849e-07  23.293005    
     78920   23.936949      50000          50000          50000          1.0533549e-08  1.8684317e-07  7.3057333e-09 -1.6254826e-07  23.936949    
     78940   23.955678      50000          50000          50000         -2.6205106e-08  5.9619156e-08  3.5187267e-08 -1.7342174e-07  23.955678    
     78960   23.605         50000          50000          50000         -6.1727157e-08 -7.7077975e-08  6.6061186e-08 -1.7416468e-07  23.605       
     78980   23.3428        50000          50000          50000         -9.6426552e-08 -2.2012572e-07  9.6004791e-08 -1.6515872e-07  23.3428      
     79000   23.619579      50000          50000          50000         -1.3094663e-07 -3.6624961e-07  1.2090098e-07 -1.4749124e-07  23.619579    
     79020   24.648492      50000          50000          50000         -1.6585407e-07 -5.116629e-07   1.3692164e-07 -1.2282094e-07  24.648492    
     79040   26.264856      50000          50000          50000         -2.013905e-07  -6.5190887e-07  1.4097641e-07 -9.3239047e-08  26.264856    
     79060   27.949559      50000          50000          50000         -2.3738788e-07 -7.8207002e-07  1.3105053e-07 -6.1144164e-08  27.949559    
     79080   29.015013      50000          50000          50000         -2.7334851e-07 -8.9730407e-07  1.0639176e-07 -2.9133218e-08  29.015013    
     79100   28.876849      50000          50000          50000         -3.0861316e-07 -9.9350162e-07  6.7558622e-08  1.0350217e-10  28.876849    
     79120   27.300036      50000          50000          50000         -3.4251354e-07 -1.0678304e-06  1.6380291e-08  2.3909484e-08  27.300036    
     79140   24.523164      50000          50000          50000         -3.7443765e-07 -1.1190225e-06 -4.4131921e-08  3.9841495e-08  24.523164    
     79160   21.210416      50000          50000          50000         -4.0378857e-07 -1.1473565e-06 -1.0992686e-07  4.5917669e-08  21.210416    
     79180   18.239221      50000          50000          50000         -4.2985757e-07 -1.1543411e-06 -1.7614926e-07  4.0917625e-08  18.239221    
     79200   16.392674      50000          50000          50000         -4.5166708e-07 -1.1421674e-06 -2.3750724e-07  2.4673405e-08  16.392674    
     79220   16.072515      50000          50000          50000         -4.6786823e-07 -1.1130877e-06 -2.887705e-07  -1.7465356e-09  16.072515    
     79240   17.153224      50000          50000          50000         -4.7677684e-07 -1.0689399e-06 -3.2533517e-07 -3.6055497e-08  17.153224    
     79260   19.042963      50000          50000          50000         -4.7657963e-07 -1.0110018e-06 -3.4373641e-07 -7.5000639e-08  19.042963    
     79280   20.922591      50000          50000          50000         -4.6565222e-07 -9.4019241e-07 -3.4198868e-07 -1.1477556e-07  20.922591    
     79300   22.056579      50000          50000          50000         -4.4286978e-07 -8.5745332e-07 -3.1970294e-07 -1.5145307e-07  22.056579    
     79320   22.054227      50000          50000          50000         -4.0781038e-07 -7.6408084e-07 -2.7801399e-07 -1.8133632e-07  22.054227    
     79340   20.996001      50000          50000          50000         -3.6080473e-07 -6.6183563e-07 -2.1936932e-07 -2.0120925e-07  20.996001    
     79360   19.394018      50000          50000          50000         -3.0282212e-07 -5.5276201e-07 -1.4720606e-07 -2.084983e-07   19.394018    
     79380   18.012143      50000          50000          50000         -2.3528829e-07 -4.3887344e-07 -6.5613529e-08 -2.0137791e-07  18.012143    
     79400   17.61155       50000          50000          50000         -1.6017084e-07 -3.222412e-07   2.069223e-08  -1.7896354e-07  17.61155     
     79420   18.672713      50000          50000          50000         -8.0385003e-08 -2.0551031e-07  1.060381e-07  -1.416828e-07   18.672713    
     79440   21.14338       50000          50000          50000          4.9387073e-10 -9.1315788e-08  1.8418099e-07 -9.1383592e-08  21.14338     
     79460   24.382186      50000          50000          50000          7.922845e-08   1.9096588e-08  2.4960004e-07 -3.1011276e-08  24.382186    
     79480   27.412925      50000          50000          50000          1.5329069e-07  1.2589501e-07  2.9832446e-07  3.5652609e-08  27.412925    
     79500   29.341304      50000          50000          50000          2.20625e-07    2.296522e-07   3.2807551e-07  1.041473e-07   29.341304    
     79520   29.707228      50000          50000          50000          2.7938635e-07  3.3041373e-07  3.3819564e-07  1.6954968e-07  29.707228    
     79540   28.629549      50000          50000          50000          3.2785585e-07  4.2722886e-07  3.2954224e-07  2.2679646e-07  28.629549    
     79560   26.705661      50000          50000          50000          3.6455241e-07  5.1818974e-07  3.0435106e-07  2.7111644e-07  26.705661    
     79580   24.72453       50000          50000          50000          3.8849056e-07  6.0088558e-07  2.6603741e-07  2.985487e-07   24.72453     
     79600   23.323135      50000          50000          50000          3.9947271e-07  6.7305279e-07  2.188954e-07   3.0646994e-07  23.323135    
     79620   22.738434      50000          50000          50000          3.9826942e-07  7.3312614e-07  1.67675e-07    2.9400713e-07  22.738434    
     79640   22.762267      50000          50000          50000          3.8657059e-07  7.8043825e-07  1.1706551e-07  2.62208e-07    22.762267    
     79660   22.907071      50000          50000          50000          3.6668736e-07  8.1498621e-07  7.1170134e-08  2.1390574e-07  22.907071    
     79680   22.686833      50000          50000          50000          3.4111056e-07  8.3691463e-07  3.3086377e-08  1.5333067e-07  22.686833    
     79700   21.870804      50000          50000          50000          3.1210541e-07  8.4601992e-07  4.6788692e-09  8.5617435e-08  21.870804    
     79720   20.597171      50000          50000          50000          2.8148065e-07  8.4155032e-07 -1.3448344e-08  1.6339981e-08  20.597171    
     79740   19.307535      50000          50000          50000          2.5055584e-07  8.2239501e-07 -2.1834802e-08 -4.8892696e-08  19.307535    
     79760   18.539065      50000          50000          50000          2.2026549e-07  7.8756535e-07 -2.1957712e-08 -1.0481117e-07  18.539065    
     79780   18.667588      50000          50000          50000          1.9131021e-07  7.3675155e-07 -1.5968529e-08 -1.4685239e-07  18.667588    
     79800   19.716011      50000          50000          50000          1.642684e-07   6.7070706e-07 -6.3954151e-09 -1.7150644e-07  19.716011    
     79820   21.315918      50000          50000          50000          1.396105e-07   5.9128438e-07  4.1584555e-09 -1.7661133e-07  21.315918    
     79840   22.843086      50000          50000          50000          1.1760842e-07  5.0110329e-07  1.3288054e-08 -1.6156609e-07  22.843086    
     79860   23.671069      50000          50000          50000          9.818492e-08   4.0299501e-07  1.9007238e-08 -1.2744749e-07  23.671069    
     79880   23.437451      50000          50000          50000          8.0775328e-08  2.9944913e-07  1.9908015e-08 -7.7031161e-08  23.437451    
     79900   22.212683      50000          50000          50000          6.4273555e-08  1.9227757e-07  1.5263588e-08 -1.4720491e-08  22.212683    
     79920   20.496966      50000          50000          50000          4.7122174e-08  8.2632568e-08  5.092119e-09   5.3641835e-08  20.496966    
     79940   19.031364      50000          50000          50000          2.7584038e-08 -2.8600131e-08 -9.8054357e-09  1.2115768e-07  19.031364    
     79960   18.485056      50000          50000          50000          4.162114e-09  -1.4018477e-07 -2.7862115e-08  1.8053323e-07  18.485056    
     79980   19.153178      50000          50000          50000         -2.3984424e-08 -2.500276e-07  -4.6888894e-08  2.2496322e-07  19.153178    
     80000   20.81916       50000          50000          50000         -5.6824691e-08 -3.5511562e-07 -6.4378893e-08  2.4902044e-07  20.81916     
     80020   22.860093      50000          50000          50000         -9.35491e-08   -4.5201646e-07 -7.7917808e-08  2.4928697e-07  22.860093    
     80040   24.539511      50000          50000          50000         -1.3292696e-07 -5.3773903e-07 -8.5610106e-08  2.2456825e-07  24.539511    
     80060   25.334999      50000          50000          50000         -1.7366941e-07 -6.1044785e-07 -8.6387341e-08  1.7582697e-07  25.334999    
     80080   25.153356      50000          50000          50000         -2.1455557e-07 -6.696763e-07  -8.0096224e-08  1.0610581e-07  25.153356    
     80100   24.351083      50000          50000          50000         -2.544326e-07  -7.161969e-07  -6.7463631e-08  2.0362736e-08  24.351083    
     80120   23.554253      50000          50000          50000         -2.9215416e-07 -7.516004e-07  -4.9986211e-08 -7.4875858e-08  23.554253    
     80140   23.354867      50000          50000          50000         -3.2645501e-07 -7.7762853e-07 -2.9724673e-08 -1.7201184e-07  23.354867    
     80160   24.024336      50000          50000          50000         -3.5584169e-07 -7.9549612e-07 -9.0266996e-09 -2.6300225e-07  24.024336    
     80180   25.366413      50000          50000          50000         -3.7861122e-07 -8.0552323e-07  9.7646107e-09 -3.4007505e-07  25.366413    
     80200   26.793604      50000          50000          50000         -3.9301827e-07 -8.0718302e-07  2.4572391e-08 -3.9644417e-07  26.793604    
     80220   27.581882      50000          50000          50000         -3.9755957e-07 -7.995371e-07   3.3781043e-08 -4.2692264e-07  27.581882    
     80240   27.193982      50000          50000          50000         -3.912755e-07  -7.8181961e-07  3.6364229e-08 -4.2837112e-07  27.193982    
     80260   25.531864      50000          50000          50000         -3.7397745e-07 -7.5392043e-07  3.1963184e-08 -3.9997512e-07  25.531864    
     80280   23.012988      50000          50000          50000         -3.4634075e-07 -7.1659017e-07  2.0935411e-08 -3.4336748e-07  23.012988    
     80300   20.433157      50000          50000          50000         -3.0983513e-07 -6.7129725e-07  4.3806341e-09 -2.6258879e-07  20.433157    
     80320   18.659754      50000          50000          50000         -2.664983e-07  -6.1978444e-07 -1.5874039e-08 -1.6383644e-07  18.659754    
     80340   18.275668      50000          50000          50000         -2.1860801e-07 -5.6350091e-07 -3.7372974e-08 -5.4950135e-08  18.275668    
     80360   19.326774      50000          50000          50000         -1.6836985e-07 -5.0320122e-07 -5.72565e-08    5.5348189e-08  19.326774    
     80380   21.299185      50000          50000          50000         -1.1773397e-07 -4.3893527e-07 -7.2609866e-08  1.5834321e-07  21.299185    
     80400   23.339556      50000          50000          50000         -6.8393858e-08 -3.7047553e-07 -8.0877894e-08  2.4617185e-07  23.339556    
     80420   24.615003      50000          50000          50000         -2.191927e-08  -2.979815e-07  -8.025224e-08   3.1247593e-07  24.615003    
     80440   24.649771      50000          50000          50000          2.009228e-08  -2.2257787e-07 -6.9945236e-08  3.5279995e-07  24.649771    
     80460   23.493776      50000          50000          50000          5.595416e-08  -1.4660885e-07 -5.0305973e-08  3.647773e-07   23.493776    
     80480   21.671004      50000          50000          50000          8.3984019e-08 -7.3464308e-08 -2.2779437e-08  3.481958e-07   21.671004    
     80500   19.942645      50000          50000          50000          1.0273858e-07 -7.0460596e-09  1.0269778e-08  3.0499201e-07  19.942645    
     80520   18.988365      50000          50000          50000          1.1131365e-07  4.8946498e-08  4.584467e-08   2.3914978e-07  18.988365    
     80540   19.136805      50000          50000          50000          1.0959479e-07  9.1665647e-08  8.067869e-08   1.5644003e-07  19.136805    
     80560   20.254488      50000          50000          50000          9.8350493e-08  1.1947404e-07  1.1161716e-07  6.396028e-08   20.254488    
     80580   21.832846      50000          50000          50000          7.9120991e-08  1.3191511e-07  1.3594756e-07 -3.0499698e-08  21.832846    
     80600   23.225302      50000          50000          50000          5.3944128e-08  1.2937818e-07  1.5162258e-07 -1.1916838e-07  23.225302    
     80620   23.925395      50000          50000          50000          2.5021935e-08  1.1266475e-07  1.5735349e-07 -1.9495244e-07  23.925395    
     80640   23.771044      50000          50000          50000         -5.5653215e-09  8.2668805e-08  1.5259309e-07 -2.5195786e-07  23.771044    
     80660   23.000769      50000          50000          50000         -3.601717e-08   4.0343888e-08  1.3748453e-07 -2.8587993e-07  23.000769    
     80680   22.141635      50000          50000          50000         -6.477978e-08  -1.2890687e-08  1.1289743e-07 -2.9434608e-07  22.141635    
     80700   21.761712      50000          50000          50000         -9.0352768e-08 -7.4383858e-08  8.0543831e-08 -2.7721828e-07  21.761712    
     80720   22.188844      50000          50000          50000         -1.1114658e-07 -1.3968891e-07  4.2947593e-08 -2.3669843e-07  22.188844    
     80740   23.34226       50000          50000          50000         -1.2555223e-07 -2.0271248e-07  3.1547292e-09 -1.7709893e-07  23.34226     
     80760   24.771212      50000          50000          50000         -1.3216944e-07 -2.565143e-07  -3.5671578e-08 -1.0432246e-07  24.771212    
     80780   25.87196       50000          50000          50000         -1.3008486e-07 -2.9442757e-07 -7.0625531e-08 -2.5201488e-08  25.87196     
     80800   26.17119       50000          50000          50000         -1.19103e-07   -3.1113488e-07 -9.9348761e-08  5.3174636e-08  26.17119     
     80820   25.534708      50000          50000          50000         -9.9851953e-08 -3.034185e-07  -1.2021813e-07  1.2408077e-07  25.534708    
     80840   24.211311      50000          50000          50000         -7.3711195e-08 -2.7041792e-07 -1.3242357e-07  1.8170791e-07  24.211311    
     80860   22.701655      50000          50000          50000         -4.2571654e-08 -2.134123e-07  -1.3594037e-07  2.2163771e-07  22.701655    
     80880   21.527031      50000          50000          50000         -8.4969747e-09 -1.352808e-07  -1.3141493e-07  2.412048e-07   21.527031    
     80900   21.006623      50000          50000          50000          2.6593405e-08 -3.9904767e-08 -1.1999732e-07  2.396823e-07   21.006623    
     80920   21.144498      50000          50000          50000          6.1119228e-08  6.8270043e-08 -1.0315841e-07  2.1824605e-07  21.144498    
     80940   21.661735      50000          50000          50000          9.3878064e-08  1.8440882e-07 -8.2520013e-08  1.7974538e-07  21.661735    
     80960   22.142861      50000          50000          50000          1.2397131e-07  3.032678e-07  -5.9711711e-08  1.2835786e-07  22.142861    
     80980   22.225244      50000          50000          50000          1.5068864e-07  4.1913972e-07 -3.6258324e-08  6.9184543e-08  22.225244    
     81000   21.753808      50000          50000          50000          1.7341254e-07  5.2593138e-07 -1.3494192e-08  7.8004301e-09  21.753808    
     81020   20.842534      50000          50000          50000          1.9158851e-07  6.1749442e-07  7.506989e-09  -5.0235891e-08  20.842534    
     81040   19.820878      50000          50000          50000          2.0477963e-07  6.8823456e-07  2.5996847e-08 -9.9892524e-08  19.820878    
     81060   19.089537      50000          50000          50000          2.1277742e-07  7.3387009e-07  4.1605229e-08 -1.3714306e-07  19.089537    
     81080   18.949952      50000          50000          50000          2.1570207e-07  7.520803e-07   5.4359696e-08 -1.5933378e-07  18.949952    
     81100   19.483931      50000          50000          50000          2.1403054e-07  7.4280541e-07  6.465463e-08  -1.6536841e-07  19.483931    
     81120   20.534049      50000          50000          50000          2.0852778e-07  7.0810756e-07  7.3167854e-08 -1.5569209e-07  20.534049    
     81140   21.78596       50000          50000          50000          2.0009572e-07  6.5166503e-07  8.0733486e-08 -1.3211137e-07  21.78596     
     81160   22.907177      50000          50000          50000          1.8958661e-07  5.7808389e-07  8.8188372e-08 -9.7512428e-08  22.907177    
     81180   23.675802      50000          50000          50000          1.7764037e-07  4.9224085e-07  9.6216455e-08 -5.5536184e-08  23.675802    
     81200   24.044195      50000          50000          50000          1.6459381e-07  3.9881371e-07  1.0521681e-07 -1.0249104e-08  24.044195    
     81220   24.117629      50000          50000          50000          1.5047932e-07  3.0204602e-07  1.1521646e-07  3.4175464e-08  24.117629    
     81240   24.068263      50000          50000          50000          1.3509805e-07  2.0568589e-07  1.2584149e-07  7.3766757e-08  24.068263    
     81260   24.032603      50000          50000          50000          1.1812941e-07  1.129769e-07   1.3635084e-07  1.0506048e-07  24.032603    
     81280   24.04452       50000          50000          50000          9.9233381e-08  2.6582567e-08  1.4572765e-07  1.2538993e-07  24.04452     
     81300   24.034928      50000          50000          50000          7.8114593e-08 -5.1608982e-08  1.5281274e-07  1.3314002e-07  24.034928    
     81320   23.893272      50000          50000          50000          5.4542787e-08 -1.2075649e-07  1.5645807e-07  1.2792678e-07  23.893272    
     81340   23.553379      50000          50000          50000          2.8348692e-08 -1.812923e-07   1.5567536e-07  1.1066301e-07  23.553379    
     81360   23.053631      50000          50000          50000         -5.7485885e-10 -2.3496604e-07  1.4975844e-07  8.3483026e-08  23.053631    
     81380   22.535257      50000          50000          50000         -3.2240533e-08 -2.8461343e-07  1.3836848e-07  4.9523354e-08  22.535257    
     81400   22.175217      50000          50000          50000         -6.6483178e-08 -3.3362966e-07  1.2159427e-07  1.2585849e-08  22.175217    
     81420   22.086683      50000          50000          50000         -1.0282803e-07 -3.8521113e-07  1.0000839e-07 -2.3281344e-08  22.086683    
     81440   22.244792      50000          50000          50000         -1.4039132e-07 -4.4158967e-07  7.468349e-08  -5.4267778e-08  22.244792    
     81460   22.490034      50000          50000          50000         -1.779609e-07  -5.0364133e-07  4.7067069e-08 -7.7308436e-08  22.490034    
     81480   22.615229      50000          50000          50000         -2.1430592e-07 -5.711072e-07   1.8681653e-08 -9.0492215e-08  22.615229    
     81500   22.483447      50000          50000          50000         -2.4851647e-07 -6.431359e-07  -9.1856484e-09 -9.3227879e-08  22.483447    
     81520   22.107999      50000          50000          50000         -2.801195e-07  -7.1860097e-07 -3.5604681e-08 -8.6152837e-08  22.107999    
     81540   21.656846      50000          50000          50000         -3.0898957e-07 -7.960875e-07  -5.9967386e-08 -7.0913824e-08  21.656846    
     81560   21.382791      50000          50000          50000         -3.3520835e-07 -8.7377218e-07 -8.1931131e-08 -4.9921746e-08  21.382791    
     81580   21.510057      50000          50000          50000         -3.5893676e-07 -9.493336e-07  -1.0138022e-07 -2.6096454e-08  21.510057    
     81600   22.125466      50000          50000          50000         -3.8030925e-07 -1.0199416e-06 -1.1838701e-07 -2.5991644e-09  22.125466    
     81620   23.122002      50000          50000          50000         -3.9936588e-07 -1.0823695e-06 -1.3316099e-07  1.7432872e-08  23.122002    
     81640   24.221367      50000          50000          50000         -4.1604022e-07 -1.1332548e-06 -1.4599173e-07  3.1125818e-08  24.221367    
     81660   25.068152      50000          50000          50000         -4.3020151e-07 -1.1694846e-06 -1.5719515e-07  3.6075183e-08  25.068152    
     81680   25.366566      50000          50000          50000         -4.4170082e-07 -1.1886093e-06 -1.6705395e-07  3.0560809e-08  25.366566    
     81700   24.993892      50000          50000          50000         -4.5037034e-07 -1.1892117e-06 -1.7572494e-07  1.3825591e-08  24.993892    
     81720   24.059954      50000          50000          50000         -4.5594188e-07 -1.171051e-06  -1.831304e-07  -1.3644272e-08  24.059954    
     81740   22.864765      50000          50000          50000         -4.5796812e-07 -1.1349628e-06 -1.889111e-07  -5.0030419e-08  22.864765    
     81760   21.77389       50000          50000          50000         -4.5577498e-07 -1.0825025e-06 -1.9246581e-07 -9.2356646e-08  21.77389     
     81780   21.069113      50000          50000          50000         -4.484379e-07  -1.0154503e-06 -1.9303016e-07 -1.3683325e-07  21.069113    
     81800   20.844321      50000          50000          50000         -4.348019e-07  -9.3537407e-07 -1.8976044e-07 -1.7927118e-07  20.844321    
     81820   20.998969      50000          50000          50000         -4.1357347e-07 -8.4338819e-07 -1.8182001e-07 -2.1551219e-07  20.998969    
     81840   21.312775      50000          50000          50000         -3.8350297e-07 -7.4020538e-07 -1.684725e-07  -2.4183103e-07  21.312775    
     81860   21.576176      50000          50000          50000         -3.4359116e-07 -6.2633057e-07 -1.491786e-07  -2.5526431e-07  21.576176    
     81880   21.694817      50000          50000          50000         -2.9327485e-07 -5.0230166e-07 -1.2368712e-07 -2.5383578e-07  21.694817    
     81900   21.723094      50000          50000          50000         -2.3253727e-07 -3.6882801e-07 -9.2108175e-08 -2.3667564e-07  21.723094    
     81920   21.813467      50000          50000          50000         -1.6193002e-07 -2.2677781e-07 -5.4958493e-08 -2.0405378e-07  21.813467    
     81940   22.110658      50000          50000          50000         -8.2524256e-08 -7.7051523e-08 -1.3173836e-08 -1.5734741e-07  22.110658    
     81960   22.645199      50000          50000          50000          4.1727683e-09  7.9555804e-08  3.1913074e-08 -9.8950572e-08  22.645199    
     81980   23.281028      50000          50000          50000          9.6296547e-08  2.4238356e-07  7.8628575e-08 -3.2122496e-08  23.281028    
     82000   23.747516      50000          50000          50000          1.916723e-07   4.1074636e-07  1.2504481e-07  3.9225738e-08  23.747516    
     82020   23.747946      50000          50000          50000          2.8782587e-07  5.8358931e-07  1.6909104e-07  1.1079725e-07  23.747946    
     82040   23.100792      50000          50000          50000          3.8198058e-07  7.5904822e-07  2.0868228e-07  1.7821124e-07  23.100792    
     82060   21.852088      50000          50000          50000          4.7108317e-07  9.3406599e-07  2.4186057e-07  2.3732297e-07  21.852088    
     82080   20.303932      50000          50000          50000          5.5190968e-07  1.1042341e-06  2.6694748e-07  2.8454744e-07  20.303932    
     82100   18.934309      50000          50000          50000          6.2128692e-07  1.2639904e-06  2.8270359e-07  3.171668e-07   18.934309    
     82120   18.228808      50000          50000          50000          6.7641525e-07  1.407192e-06   2.8847441e-07  3.3357933e-07  18.228808    
     82140   18.489109      50000          50000          50000          7.1520824e-07  1.5279142e-06  2.8428324e-07  3.3342727e-07  18.489109    
     82160   19.701421      50000          50000          50000          7.3652403e-07  1.6211844e-06  2.70831e-07    3.1755667e-07  19.701421    
     82180   21.532373      50000          50000          50000          7.4020508e-07  1.6834012e-06  2.4939229e-07  2.8782172e-07  21.532373    
     82200   23.441372      50000          50000          50000          7.2692635e-07  1.7123159e-06  2.2164411e-07  2.46819e-07    23.441372    
     82220   24.879183      50000          50000          50000          6.9804696e-07  1.7069213e-06  1.8952572e-07  1.9769387e-07  24.879183    
     82240   25.481392      50000          50000          50000          6.555159e-07   1.6674153e-06  1.5513191e-07  1.4400051e-07  25.481392    
     82260   25.184973      50000          50000          50000          6.0154198e-07  1.5948233e-06  1.204472e-07   8.9355421e-08  25.184973    
     82280   24.21742       50000          50000          50000          5.3815105e-07  1.490381e-06   8.7037851e-08  3.7034306e-08  24.21742     
     82300   22.976452      50000          50000          50000          4.6702863e-07  1.355334e-06   5.5946108e-08 -1.0194188e-08  22.976452    
     82320   21.863371      50000          50000          50000          3.896149e-07   1.1911897e-06  2.7738862e-08 -5.0083829e-08  21.863371    
     82340   21.138102      50000          50000          50000          3.0724178e-07  1.0000742e-06  2.5914312e-09 -8.0940246e-08  21.138102    
     82360   20.848317      50000          50000          50000          2.2120402e-07  7.8494049e-07 -1.9630703e-08 -1.0169774e-07  20.848317    
     82380   20.853437      50000          50000          50000          1.3275434e-07  5.4955024e-07 -3.9286221e-08 -1.1200099e-07  20.853437    
     82400   20.92505       50000          50000          50000          4.3057119e-08  2.9828127e-07 -5.686293e-08  -1.1224698e-07  20.92505     
     82420   20.874945      50000          50000          50000         -4.6848034e-08  3.5897509e-08 -7.2875615e-08 -1.03566e-07    20.874945    
     82440   20.653373      50000          50000          50000         -1.360244e-07  -2.3257451e-07 -8.7758752e-08 -8.7739949e-08  20.653373    
     82460   20.37474       50000          50000          50000         -2.2353794e-07 -5.0180693e-07 -1.017523e-07  -6.7054607e-08  20.37474     
     82480   20.259046      50000          50000          50000         -3.0830857e-07 -7.6605923e-07 -1.1479177e-07 -4.40747e-08    20.259046    
     82500   20.515939      50000          50000          50000         -3.8898532e-07 -1.0191504e-06 -1.26446e-07   -2.135959e-08   20.515939    
     82520   21.22908       50000          50000          50000         -4.6391068e-07 -1.2545921e-06 -1.3595077e-07 -1.1891578e-09  21.22908     
     82540   22.300894      50000          50000          50000         -5.3119366e-07 -1.4658615e-06 -1.4234342e-07  1.4623943e-08  22.300894    
     82560   23.485663      50000          50000          50000         -5.888735e-07  -1.6467691e-06 -1.4465876e-07  2.4807372e-08  23.485663    
     82580   24.491615      50000          50000          50000         -6.3513523e-07 -1.7918826e-06 -1.4213367e-07  2.8610572e-08  24.491615    
     82600   25.098561      50000          50000          50000         -6.6852723e-07 -1.8969491e-06 -1.3437469e-07  2.5742103e-08  25.098561    
     82620   25.233966      50000          50000          50000         -6.881323e-07  -1.9592463e-06 -1.2145816e-07  1.630761e-08   25.233966    
     82640   24.975787      50000          50000          50000         -6.9366351e-07 -1.9778129e-06 -1.0395035e-07  7.726593e-10   24.975787    
     82660   24.489282      50000          50000          50000         -6.8548138e-07 -1.9535423e-06 -8.2850677e-08 -2.0051168e-08  24.489282    
     82680   23.936953      50000          50000          50000         -6.6454658e-07 -1.889148e-06  -5.9473021e-08 -4.5018758e-08  23.936953    
     82700   23.410825      50000          50000          50000         -6.3232748e-07 -1.7890008e-06 -3.5289029e-08 -7.2692669e-08  23.410825    
     82720   22.920232      50000          50000          50000         -5.9068189e-07 -1.6588398e-06 -1.1769798e-08 -1.0143605e-07  22.920232    
     82740   22.434711      50000          50000          50000         -5.4173677e-07 -1.505389e-06   9.7314736e-09 -1.2955273e-07  22.434711    
     82760   21.94947       50000          50000          50000         -4.87783e-07   -1.3359548e-06  2.8037602e-08 -1.5543177e-07  21.94947     
     82780   21.529779      50000          50000          50000         -4.3117303e-07 -1.1580461e-06  4.2172751e-08 -1.776457e-07   21.529779    
     82800   21.305485      50000          50000          50000         -3.741894e-07  -9.7897235e-07  5.1393552e-08 -1.9498939e-07  21.305485    
     82820   21.415754      50000          50000          50000         -3.1886604e-07 -8.053553e-07   5.5238576e-08 -2.064814e-07   21.415754    
     82840   21.931732      50000          50000          50000         -2.6677199e-07 -6.4255473e-07  5.358576e-08  -2.1134701e-07  21.931732    
     82860   22.799354      50000          50000          50000         -2.1880104e-07 -4.9410733e-07  4.6692244e-08 -2.0898804e-07  22.799354    
     82880   23.836917      50000          50000          50000         -1.7512575e-07 -3.6153197e-07  3.5140842e-08 -1.9898613e-07  23.836917    
     82900   24.785771      50000          50000          50000         -1.3566998e-07 -2.4525721e-07  1.9582594e-08 -1.8133533e-07  24.785771    
     82920   25.375107      50000          50000          50000         -1.0073629e-07 -1.4601128e-07  6.5092489e-10 -1.5684852e-07  25.375107    
     82940   25.393001      50000          50000          50000         -7.0351443e-08 -6.3707649e-08 -2.0401055e-08 -1.2694562e-07  25.393001    
     82960   24.778687      50000          50000          50000         -4.3552203e-08  4.1206235e-09 -4.1578099e-08 -9.3199134e-08  24.778687    
     82980   23.679985      50000          50000          50000         -1.8862079e-08  6.1573983e-08 -6.0813748e-08 -5.7346472e-08  23.679985    
     83000   22.414946      50000          50000          50000          5.2316079e-09  1.133454e-07  -7.636451e-08  -2.1286065e-08  22.414946    
     83020   21.343792      50000          50000          50000          3.0126416e-08  1.6420655e-07 -8.6925888e-08  1.3098582e-08  21.343792    
     83040   20.711802      50000          50000          50000          5.7052805e-08  2.1867912e-07 -9.1690207e-08  4.4169507e-08  20.711802    
     83060   20.543003      50000          50000          50000          8.7017383e-08  2.8068198e-07 -9.0369775e-08  7.0739942e-08  20.543003    
     83080   20.64149       50000          50000          50000          1.2070707e-07  3.5309908e-07 -8.3170256e-08  9.2192396e-08  20.64149     
     83100   20.701162      50000          50000          50000          1.583543e-07   4.3731171e-07 -7.0717977e-08  1.0846918e-07  20.701162    
     83120   20.467107      50000          50000          50000          1.9960394e-07  5.3281705e-07 -5.3959376e-08  1.1995414e-07  20.467107    
     83140   19.869007      50000          50000          50000          2.4345029e-07  6.3707786e-07 -3.4047861e-08  1.2732088e-07  19.869007    
     83160   19.06718       50000          50000          50000          2.8829441e-07  7.4569444e-07 -1.2225126e-08  1.3141391e-07  19.06718     
     83180   18.394193      50000          50000          50000          3.3212425e-07  8.5290007e-07  1.0297792e-08  1.3317488e-07  18.394193    
     83200   18.217829      50000          50000          50000          3.7278163e-07  9.5229896e-07  3.2452172e-08  1.3359375e-07  18.217829    
     83220   18.782738      50000          50000          50000          4.082556e-07   1.0377001e-06  5.3404549e-08  1.3366216e-07  18.782738    
     83240   20.096663      50000          50000          50000          4.3693093e-07  1.1038632e-06  7.2616021e-08  1.3431357e-07  20.096663    
     83260   21.915858      50000          50000          50000          4.5774072e-07  1.147024e-06   8.9854526e-08  1.3634366e-07  21.915858    
     83280   23.822211      50000          50000          50000          4.7018196e-07  1.1650768e-06  1.0515407e-07  1.4031498e-07  23.822211    
     83300   25.377499      50000          50000          50000          4.7422899e-07  1.1575091e-06  1.1872146e-07  1.4645642e-07  25.377499    
     83320   26.277288      50000          50000          50000          4.7016145e-07  1.1251343e-06  1.3078959e-07  1.5456048e-07  26.277288    
     83340   26.449272      50000          50000          50000          4.5837859e-07  1.0698306e-06  1.4142769e-07  1.6387752e-07  26.449272    
     83360   26.055895      50000          50000          50000          4.3935226e-07  9.9458789e-07  1.5039672e-07  1.7307216e-07  26.055895    
     83380   25.394635      50000          50000          50000          4.1383446e-07  9.0392452e-07  1.5718625e-07  1.803926e-07   25.394635    
     83400   24.736499      50000          50000          50000          3.8306569e-07  8.03999e-07    1.6116873e-07  1.8402934e-07  24.736499    
     83420   24.191838      50000          50000          50000          3.4865959e-07  7.0187795e-07  1.616829e-07   1.8241794e-07  24.191838    
     83440   23.681408      50000          50000          50000          3.1227331e-07  6.0436864e-07  1.5806118e-07  1.743901e-07   23.681408    
     83460   23.021048      50000          50000          50000          2.7530171e-07  5.1695417e-07  1.4970416e-07  1.5924681e-07  23.021048    
     83480   22.065982      50000          50000          50000          2.3866671e-07  4.4299469e-07  1.362088e-07   1.3679666e-07  22.065982    
     83500   20.835563      50000          50000          50000          2.027076e-07   3.8325931e-07  1.1750244e-07  1.0736104e-07  20.835563    
     83520   19.551319      50000          50000          50000          1.6719252e-07  3.3588066e-07  9.3943565e-08  7.1753335e-08  19.551319    
     83540   18.564491      50000          50000          50000          1.3145441e-07  2.9675628e-07  6.6365129e-08  3.1241819e-08  18.564491    
     83560   18.20502       50000          50000          50000          9.4609148e-08  2.6028564e-07  3.6046867e-08 -1.250506e-08   18.20502     
     83580   18.624344      50000          50000          50000          5.5781764e-08  2.2022733e-07  4.6185928e-09 -5.7500633e-08  18.624344    
     83600   19.707337      50000          50000          50000          1.4275813e-08  1.704612e-07  -2.6081709e-08 -1.0155205e-07  19.707337    
     83620   21.094747      50000          50000          50000         -3.0339899e-08  1.055389e-07  -5.4162371e-08 -1.4239623e-07  21.094747    
     83640   22.308235      50000          50000          50000         -7.8218587e-08  2.1023973e-08 -7.7825122e-08 -1.7785461e-07  22.308235    
     83660   22.929264      50000          50000          50000         -1.2927076e-07 -8.630561e-08  -9.5502094e-08 -2.0600458e-07  22.929264    
     83680   22.763256      50000          50000          50000         -1.8321161e-07 -2.1829392e-07 -1.0598436e-07 -2.2535655e-07  22.763256    
     83700   21.925157      50000          50000          50000         -2.3958246e-07 -3.7519566e-07 -1.0853882e-07 -2.350129e-07   21.925157    
     83720   20.809683      50000          50000          50000         -2.9772132e-07 -5.5537942e-07 -1.0300561e-07 -2.3477894e-07  20.809683    
     83740   19.95062       50000          50000          50000         -3.5668499e-07 -7.5499035e-07 -8.9865029e-08 -2.2519959e-07  19.95062     
     83760   19.816556      50000          50000          50000         -4.1515815e-07 -9.6771231e-07 -7.025846e-08  -2.0750368e-07  19.816556    
     83780   20.62082       50000          50000          50000         -4.7141173e-07 -1.1848318e-06 -4.5947838e-08 -1.8345558e-07  20.62082     
     83800   22.225935      50000          50000          50000         -5.2337239e-07 -1.3957697e-06 -1.9206347e-08 -1.5514113e-07  22.225935    
     83820   24.188269      50000          50000          50000         -5.6882459e-07 -1.5890848e-06  7.3509874e-09 -1.2473995e-07  24.188269    
     83840   25.927676      50000          50000          50000         -6.057035e-07  -1.753749e-06   3.0976211e-08 -9.43377e-08    25.927676    
     83860   26.950852      50000          50000          50000         -6.3239172e-07 -1.8803852e-06  4.9015056e-08 -6.5805012e-08  26.950852    
     83880   27.035607      50000          50000          50000         -6.4792963e-07 -1.96219e-06    5.9135357e-08 -4.0734207e-08  27.035607    
     83900   26.303902      50000          50000          50000         -6.5208357e-07 -1.995386e-06   5.954081e-08  -2.0405538e-08  26.303902    
     83920   25.160987      50000          50000          50000         -6.4528269e-07 -1.9792118e-06  4.9132735e-08 -5.7690183e-09  25.160987    
     83940   24.132031      50000          50000          50000         -6.2852131e-07 -1.915683e-06   2.7574887e-08  2.544226e-09   24.132031    
     83960   23.658187      50000          50000          50000         -6.0327414e-07 -1.8094028e-06 -4.6520029e-09  4.2323834e-09  23.658187    
     83980   23.918213      50000          50000          50000         -5.7127417e-07 -1.6672872e-06 -4.6027971e-08 -5.0734862e-10  23.918213    
     84000   24.750782      50000          50000          50000         -5.3418087e-07 -1.4980017e-06 -9.3794923e-08 -1.0745962e-08  24.750782    
     84020   25.732857      50000          50000          50000         -4.9339623e-07 -1.3113044e-06 -1.4409955e-07 -2.4784803e-08  25.732857    
     84040   26.382025      50000          50000          50000         -4.4996101e-07 -1.1171689e-06 -1.92393e-07   -4.0321149e-08  26.382025    
     84060   26.376019      50000          50000          50000         -4.0428679e-07 -9.2414885e-07 -2.3397935e-07 -5.4732179e-08  26.376019    
     84080   25.678829      50000          50000          50000         -3.5608056e-07 -7.3781408e-07 -2.6484725e-07 -6.5580341e-08  25.678829    
     84100   24.522391      50000          50000          50000         -3.0489849e-07 -5.6118335e-07 -2.8234793e-07 -7.1164198e-08  24.522391    
     84120   23.27507       50000          50000          50000         -2.5049666e-07 -3.9583076e-07 -2.8507438e-07 -7.0584839e-08  23.27507     
     84140   22.264341      50000          50000          50000         -1.926705e-07  -2.4190121e-07 -2.7256394e-07 -6.3546352e-08  22.264341    
     84160   21.633133      50000          50000          50000         -1.3112041e-07 -9.7849367e-08 -2.4526792e-07 -5.0243935e-08  21.633133    
     84180   21.297952      50000          50000          50000         -6.549521e-08   3.9367695e-08 -2.0456021e-07 -3.1293114e-08  21.297952    
     84200   21.025281      50000          50000          50000          4.4507884e-09  1.7364372e-07 -1.5264605e-07 -7.6453012e-09  21.025281    
     84220   20.576441      50000          50000          50000          7.864626e-08   3.0882443e-07 -9.2380718e-08  1.9495068e-08  20.576441    
     84240   19.858843      50000          50000          50000          1.5652111e-07  4.4786266e-07 -2.7036591e-08  4.8737249e-08  19.858843    
     84260   18.996941      50000          50000          50000          2.3690126e-07  5.9219866e-07  3.9949095e-08  7.8556034e-08  18.996941    
     84280   18.287109      50000          50000          50000          3.1801787e-07  7.414844e-07   1.0522341e-07  1.0734579e-07  18.287109    
     84300   18.066846      50000          50000          50000          3.9764632e-07  8.936962e-07   1.6574525e-07  1.3349751e-07  18.066846    
     84320   18.545138      50000          50000          50000          4.7331839e-07  1.0454809e-06  2.189703e-07   1.5550394e-07  18.545138    
     84340   19.680658      50000          50000          50000          5.4254471e-07  1.1925814e-06  2.629703e-07   1.7208239e-07  19.680658    
     84360   21.168967      50000          50000          50000          6.0297712e-07  1.3301727e-06  2.9647074e-07  1.8228794e-07  21.168967    
     84380   22.551481      50000          50000          50000          6.5247412e-07  1.4530259e-06  3.1880844e-07  1.8558796e-07  22.551481    
     84400   23.402551      50000          50000          50000          6.8908194e-07  1.5555331e-06  3.2983084e-07  1.8188192e-07  23.402551    
     84420   23.515141      50000          50000          50000          7.1098636e-07  1.6317145e-06  3.297726e-07   1.7147199e-07  23.515141    
     84440   23.004586      50000          50000          50000          7.1651679e-07  1.6753878e-06  3.1915187e-07  1.5501066e-07  23.004586    
     84460   22.279239      50000          50000          50000          7.0428902e-07  1.6806831e-06  2.9872612e-07  1.334578e-07   22.279239    
     84480   21.875418      50000          50000          50000          6.7351911e-07  1.6429838e-06  2.6951791e-07  1.0805565e-07  21.875418    
     84500   22.213739      50000          50000          50000          6.2440869e-07  1.5600749e-06  2.3286027e-07  8.0290867e-08  22.213739    
     84520   23.384641      50000          50000          50000          5.5840344e-07  1.4330174e-06  1.9038436e-07  5.1808577e-08  23.384641    
     84540   25.072741      50000          50000          50000          4.7818352e-07  1.2663492e-06  1.4392091e-07  2.4280452e-08  25.072741    
     84560   26.666609      50000          50000          50000          3.873892e-07   1.0675631e-06  9.5351921e-08 -7.4740884e-10  26.666609    
     84580   27.508581      50000          50000          50000          2.901913e-07   8.4610642e-07  4.6471563e-08 -2.2004095e-08  27.508581    
     84600   27.17215       50000          50000          50000          1.90848e-07    6.1225953e-07 -1.094025e-09  -3.8621494e-08  27.17215     
     84620   25.642788      50000          50000          50000          9.3347337e-08  3.761434e-07  -4.5887662e-08 -5.0213726e-08  25.642788    
     84640   23.321991      50000          50000          50000          1.1382039e-09  1.4687808e-07 -8.6578678e-08 -5.6884794e-08  23.321991    
     84660   20.859821      50000          50000          50000         -8.3104725e-08 -6.8164973e-08 -1.2196961e-07 -5.917959e-08   20.859821    
     84680   18.909792      50000          50000          50000         -1.5762032e-07 -2.6377404e-07 -1.5106832e-07 -5.8018598e-08  18.909792    
     84700   17.918808      50000          50000          50000         -2.214404e-07  -4.3663122e-07 -1.7309039e-07 -5.4599585e-08  17.918808    
     84720   18.010398      50000          50000          50000         -2.7409177e-07 -5.8467276e-07 -1.8736412e-07 -5.0238433e-08  18.010398    
     84740   18.977622      50000          50000          50000         -3.1539054e-07 -7.0669734e-07 -1.9328251e-07 -4.6191775e-08  18.977622    
     84760   20.383061      50000          50000          50000         -3.4542151e-07 -8.0237522e-07 -1.9037304e-07 -4.3516258e-08  20.383061    
     84780   21.730789      50000          50000          50000         -3.6462034e-07 -8.724322e-07  -1.7844299e-07 -4.2985817e-08  21.730789    
     84800   22.644344      50000          50000          50000         -3.7385754e-07 -9.1876969e-07 -1.5774007e-07 -4.5062855e-08  22.644344    
     84820   22.982324      50000          50000          50000         -3.7446307e-07 -9.4439541e-07 -1.2908973e-07 -4.9904072e-08  22.982324    
     84840   22.850473      50000          50000          50000         -3.6816376e-07 -9.5313437e-07 -9.3983395e-08 -5.737353e-08   22.850473    
     84860   22.511023      50000          50000          50000         -3.5692495e-07 -9.4914942e-07 -5.4586661e-08 -6.7038762e-08  22.511023    
     84880   22.232083      50000          50000          50000         -3.4271457e-07 -9.3636438e-07 -1.3632627e-08 -7.81467e-08    22.232083    
     84900   22.148419      50000          50000          50000         -3.2725483e-07 -9.1796422e-07  2.5805587e-08 -8.9605854e-08  22.148419    
     84920   22.203086      50000          50000          50000         -3.1184954e-07 -8.9615612e-07  6.0619148e-08 -1.0001164e-07  22.203086    
     84940   22.199397      50000          50000          50000         -2.9733535e-07 -8.722486e-07   8.797916e-08  -1.0773662e-07  22.199397    
     84960   21.934599      50000          50000          50000         -2.8413859e-07 -8.4694374e-07  1.0561667e-07 -1.110887e-07   21.934599    
     84980   21.343925      50000          50000          50000         -2.7237857e-07 -8.2065634e-07  1.1204691e-07 -1.0852627e-07  21.343925    
     85000   20.579428      50000          50000          50000         -2.6195219e-07 -7.936852e-07   1.0673193e-07 -9.8903301e-08  20.579428    
     85020   19.974534      50000          50000          50000         -2.5256406e-07 -7.661678e-07   9.0175336e-08 -8.1699703e-08  19.974534    
     85040   19.906995      50000          50000          50000         -2.4369856e-07 -7.3784734e-07  6.393485e-08  -5.7183191e-08  19.906995    
     85060   20.617228      50000          50000          50000         -2.3458004e-07 -7.0781627e-07  3.0531701e-08 -2.6455544e-08  20.617228    
     85080   22.069331      50000          50000          50000         -2.2418064e-07 -6.7442142e-07 -6.7559787e-09  8.6354755e-09  22.069331    
     85100   23.923843      50000          50000          50000         -2.1132046e-07 -6.3545376e-07 -4.4203616e-08  4.5696e-08     23.923843    
     85120   25.639842      50000          50000          50000         -1.9485752e-07 -5.8860368e-07 -7.8010896e-08  8.2042e-08     25.639842    
     85140   26.665258      50000          50000          50000         -1.7391774e-07 -5.3203152e-07 -1.0467409e-07  1.149524e-07   26.665258    
     85160   26.639081      50000          50000          50000         -1.4809482e-07 -4.648568e-07  -1.2131396e-07  1.4188631e-07  26.639081    
     85180   25.528773      50000          50000          50000         -1.1755906e-07 -3.8740332e-07 -1.259345e-07   1.6066063e-07  25.528773    
     85200   23.653575      50000          50000          50000         -8.3040207e-08 -3.0111745e-07 -1.1759408e-07  1.695909e-07   23.653575    
     85220   21.588014      50000          50000          50000         -4.5718732e-08 -2.0824492e-07 -9.6482207e-08  1.6757093e-07  21.588014    
     85240   19.984124      50000          50000          50000         -7.165725e-09  -1.1160127e-07 -6.3957406e-08  1.540615e-07   19.984124    
     85260   19.366827      50000          50000          50000          3.0623989e-08 -1.4612447e-08 -2.2615075e-08  1.2909949e-07  19.366827    
     85280   19.946997      50000          50000          50000          6.5385879e-08  7.88783e-08    2.3754553e-08  9.3524785e-08  19.946997    
     85300   21.520136      50000          50000          50000          9.5039493e-08  1.652906e-07   7.0546047e-08  4.9281827e-08  21.520136    
     85320   23.533373      50000          50000          50000          1.1804264e-07  2.4175521e-07  1.1294926e-07 -5.7655272e-10  23.533373    
     85340   25.3135        50000          50000          50000          1.3342195e-07  3.0595775e-07  1.4652568e-07 -5.2217569e-08  25.3135      
     85360   26.340816      50000          50000          50000          1.40652e-07    3.5579616e-07  1.6765395e-07 -1.014941e-07   26.340816    
     85380   26.435536      50000          50000          50000          1.3957215e-07  3.8928874e-07  1.738556e-07  -1.4442791e-07  26.435536    
     85400   25.78026       50000          50000          50000          1.3041387e-07  4.0488024e-07  1.6401875e-07 -1.7765737e-07  25.78026     
     85420   24.785066      50000          50000          50000          1.1391346e-07  4.0202708e-07  1.3851059e-07 -1.9879729e-07  24.785066    
     85440   23.873927      50000          50000          50000          9.140234e-08   3.8172872e-07  9.9128685e-08 -2.0665038e-07  23.873927    
     85460   23.30093       50000          50000          50000          6.4754908e-08  3.4664301e-07  4.885336e-08  -2.0123164e-07  23.30093     
     85480   23.074052      50000          50000          50000          3.619792e-08   3.0073724e-07 -8.5147857e-09 -1.836287e-07   23.074052    
     85500   22.996782      50000          50000          50000          8.1074344e-09  2.4876728e-07 -6.8669382e-08 -1.557756e-07   22.996782    
     85520   22.787402      50000          50000          50000         -1.714737e-08   1.9579351e-07 -1.270258e-07  -1.2020981e-07  22.787402    
     85540   22.220649      50000          50000          50000         -3.7355265e-08  1.4672496e-07 -1.7895414e-07 -7.9836611e-08  22.220649    
     85560   21.238659      50000          50000          50000         -5.0628214e-08  1.0589569e-07 -2.2008107e-07 -3.7699255e-08  21.238659    
     85580   19.990834      50000          50000          50000         -5.5548427e-08  7.6752206e-08 -2.4664497e-07  3.2474849e-09  19.990834    
     85600   18.788266      50000          50000          50000         -5.1261911e-08  6.1708421e-08 -2.5585392e-07  4.035977e-08   18.788266    
     85620   17.991268      50000          50000          50000         -3.7508441e-08  6.2149011e-08 -2.4619151e-07  7.1517171e-08  17.991268    
     85640   17.875591      50000          50000          50000         -1.4602135e-08  7.8502297e-08 -2.1761583e-07  9.5307127e-08  17.875591    
     85660   18.531703      50000          50000          50000          1.6610844e-08  1.1029e-07    -1.7160668e-07  1.1114922e-07  18.531703    
     85680   19.836624      50000          50000          50000          5.4793678e-08  1.5609901e-07 -1.1104199e-07  1.1932401e-07  19.836624    
     85700   21.504023      50000          50000          50000          9.8150203e-08  2.134877e-07  -3.992325e-08   1.2088615e-07  21.504023    
     85720   23.190392      50000          50000          50000          1.4446322e-07  2.7892158e-07  3.6998527e-08  1.1746954e-07  23.190392    
     85740   24.602135      50000          50000          50000          1.9115277e-07  3.478087e-07   1.1463368e-07  1.1101592e-07  24.602135    
     85760   25.567227      50000          50000          50000          2.3538203e-07  4.147172e-07   1.8795137e-07  1.0347752e-07  25.567227    
     85780   26.056656      50000          50000          50000          2.742258e-07   4.7379965e-07  2.523357e-07   9.6542038e-08  26.056656    
     85800   26.15273       50000          50000          50000          3.0487937e-07  5.1933111e-07  3.0388476e-07  9.1422246e-08  26.15273     
     85820   25.99539       50000          50000          50000          3.2486255e-07  5.4623104e-07  3.3962683e-07  8.8729767e-08  25.99539     
     85840   25.735717      50000          50000          50000          3.3209968e-07  5.5031595e-07  3.5758285e-07  8.8400234e-08  25.735717    
     85860   25.511395      50000          50000          50000          3.2481492e-07  5.2818111e-07  3.5665129e-07  8.9612358e-08  25.511395    
     85880   25.43122       50000          50000          50000          3.0165278e-07  4.774546e-07   3.3665024e-07  9.0853522e-08  25.43122     
     85900   25.553145      50000          50000          50000          2.623926e-07   3.9801702e-07  2.98805e-07    9.0355775e-08  25.553145    
     85920   25.871164      50000          50000          50000          2.0846901e-07  2.9278964e-07  2.4604759e-07  8.6569807e-08  25.871164    
     85940   26.323001      50000          50000          50000          1.4279777e-07  1.673266e-07   1.8268924e-07  7.8377455e-08  26.323001    
     85960   26.802056      50000          50000          50000          6.9370503e-08  2.9077977e-08  1.1382767e-07  6.520586e-08   26.802056    
     85980   27.165638      50000          50000          50000         -7.1581673e-09 -1.1333108e-07  4.4723223e-08  4.7133359e-08  27.165638    
     86000   27.255182      50000          50000          50000         -8.2091063e-08 -2.5120066e-07 -1.9920105e-08  2.4847574e-08  27.255182    
     86020   26.936578      50000          50000          50000         -1.5147212e-07 -3.7715241e-07 -7.6632691e-08 -6.3124906e-10  26.936578    
     86040   26.140785      50000          50000          50000         -2.1232183e-07 -4.8558235e-07 -1.2328226e-07 -2.8100869e-08  26.140785    
     86060   24.887518      50000          50000          50000         -2.6227588e-07 -5.7212171e-07 -1.586901e-07  -5.6015834e-08  24.887518    
     86080   23.294299      50000          50000          50000         -2.994617e-07  -6.3352988e-07 -1.8242175e-07 -8.2433462e-08  23.294299    
     86100   21.571181      50000          50000          50000         -3.2269004e-07 -6.6808389e-07 -1.9477395e-07 -1.0521229e-07  21.571181    
     86120   19.992077      50000          50000          50000         -3.3161338e-07 -6.7582386e-07 -1.9671375e-07 -1.2230253e-07  19.992077    
     86140   18.837784      50000          50000          50000         -3.267503e-07  -6.5848034e-07 -1.8973398e-07 -1.3203657e-07  18.837784    
     86160   18.321179      50000          50000          50000         -3.0939581e-07 -6.1915038e-07 -1.75665e-07   -1.3337206e-07  18.321179    
     86180   18.51943       50000          50000          50000         -2.8145484e-07 -5.6184303e-07 -1.5647745e-07 -1.2604403e-07  18.51943     
     86200   19.34122       50000          50000          50000         -2.4524401e-07 -4.9102915e-07 -1.3410262e-07 -1.1060026e-07  19.34122     
     86220   20.545547      50000          50000          50000         -2.033039e-07  -4.1129743e-07 -1.1028907e-07 -8.8325198e-08  20.545547    
     86240   21.808693      50000          50000          50000         -1.5824516e-07 -3.2714866e-07 -8.6503116e-08 -6.1083696e-08  21.808693    
     86260   22.818348      50000          50000          50000         -1.1262967e-07 -2.4289262e-07 -6.3871154e-08 -3.1125232e-08  22.818348    
     86280   23.366338      50000          50000          50000         -6.887352e-08  -1.6258081e-07 -4.3157631e-08 -8.8211491e-10  23.366338    
     86300   23.405584      50000          50000          50000         -2.916612e-08  -8.9940531e-08 -2.4774312e-08  2.7216483e-08  23.405584    
     86320   23.068077      50000          50000          50000          4.6143925e-09 -2.8246056e-08 -8.819695e-09   5.0908928e-08  23.068077    
     86340   22.618485      50000          50000          50000          3.0959852e-08  1.9791256e-08  4.8492404e-09  6.8239059e-08  22.618485    
     86360   22.368456      50000          50000          50000          4.8787689e-08  5.2154349e-08  1.6519691e-08  7.7689028e-08  22.368456    
     86380   22.566142      50000          50000          50000          5.7532576e-08  6.7716675e-08  2.652769e-08   7.8353363e-08  22.566142    
     86400   23.294367      50000          50000          50000          5.7304022e-08  6.6533163e-08  3.5196674e-08  7.018223e-08   23.294367    
     86420   24.419574      50000          50000          50000          4.9003533e-08  5.0011231e-08  4.2798237e-08  5.4201131e-08  24.419574    
     86440   25.630201      50000          50000          50000          3.4251221e-08  2.07133e-08    4.9498139e-08  3.2542223e-08  25.630201    
     86460   26.541045      50000          50000          50000          1.5099606e-08 -1.82071e-08    5.5291126e-08  8.2147902e-09  26.541045    
     86480   26.837131      50000          50000          50000         -6.3166605e-09 -6.3588848e-08  5.9962185e-08 -1.5323318e-08  26.837131    
     86500   26.384116      50000          50000          50000         -2.8094222e-08 -1.1268439e-07  6.3099318e-08 -3.4697596e-08  26.384116    
     86520   25.271243      50000          50000          50000         -4.8770166e-08 -1.6332145e-07  6.4161221e-08 -4.7150274e-08  25.271243    
     86540   23.77521       50000          50000          50000         -6.7411692e-08 -2.1384491e-07  6.2587861e-08 -5.0978024e-08  23.77521     
     86560   22.263486      50000          50000          50000         -8.3598013e-08 -2.6293753e-07  5.7930497e-08 -4.5787007e-08  22.263486    
     86580   21.075303      50000          50000          50000         -9.7325361e-08 -3.094343e-07   4.9967654e-08 -3.2509436e-08  21.075303    
     86600   20.423665      50000          50000          50000         -1.0887824e-07 -3.5222043e-07  3.8770273e-08 -1.3184555e-08  20.423665    
     86620   20.348343      50000          50000          50000         -1.187125e-07  -3.9024921e-07  2.4692411e-08  9.4193125e-09  20.348343    
     86640   20.730759      50000          50000          50000         -1.273693e-07  -4.2262651e-07  8.2985155e-09  3.2220109e-08  20.730759    
     86660   21.349942      50000          50000          50000         -1.354107e-07  -4.4868513e-07 -9.7262459e-09  5.2179286e-08  21.349942    
     86680   21.95775       50000          50000          50000         -1.4333915e-07 -4.6796232e-07 -2.8637309e-08  6.6582185e-08  21.95775     
     86700   22.344311      50000          50000          50000         -1.5150111e-07 -4.801055e-07  -4.7658121e-08  7.326029e-08   22.344311    
     86720   22.396538      50000          50000          50000         -1.5998722e-07 -4.8472319e-07 -6.5996464e-08  7.075799e-08   22.396538    
     86740   22.12058       50000          50000          50000         -1.6857919e-07 -4.8130515e-07 -8.2860697e-08  5.8428286e-08  22.12058     
     86760   21.638547      50000          50000          50000         -1.7672518e-07 -4.6918587e-07 -9.7467049e-08  3.6477361e-08  21.638547    
     86780   21.152404      50000          50000          50000         -1.8354274e-07 -4.4757315e-07 -1.0903616e-07  5.9810797e-09  21.152404    
     86800   20.889422      50000          50000          50000         -1.8784158e-07 -4.1561178e-07 -1.1679133e-07 -3.1121632e-08  20.889422    
     86820   21.02772       50000          50000          50000         -1.8819062e-07 -3.7251076e-07 -1.1997577e-07 -7.2085317e-08  21.02772     
     86840   21.641653      50000          50000          50000         -1.8301379e-07 -3.1764708e-07 -1.1789926e-07 -1.1349503e-07  21.641653    
     86860   22.670401      50000          50000          50000         -1.7073346e-07 -2.5067326e-07 -1.1001282e-07 -1.515143e-07   22.670401    
     86880   23.928052      50000          50000          50000         -1.4994626e-07 -1.7160196e-07 -9.5996959e-08 -1.8223986e-07  23.928052    
     86900   25.153628      50000          50000          50000         -1.1961345e-07 -8.0874234e-08 -7.58423e-08   -2.0212381e-07  25.153628    
     86920   26.086663      50000          50000          50000         -7.9238674e-08  2.0582136e-08 -4.9903174e-08 -2.0839498e-07  26.086663    
     86940   26.544174      50000          50000          50000         -2.9005848e-08  1.3130209e-07 -1.8914099e-08 -1.9940554e-07  26.544174    
     86960   26.473314      50000          50000          50000          3.014247e-08   2.4924451e-07  1.6028309e-08 -1.7484541e-07  26.473314    
     86980   25.961225      50000          50000          50000          9.6489503e-08  3.7176678e-07  5.3503824e-08 -1.3580209e-07  25.961225    
     87000   25.197389      50000          50000          50000          1.6758121e-07  4.9561349e-07  9.1810169e-08 -8.468003e-08   25.197389    
     87020   24.399499      50000          50000          50000          2.4031711e-07  6.1695181e-07  1.2900699e-07 -2.5007481e-08  24.399499    
     87040   23.727839      50000          50000          50000          3.1112996e-07  7.315339e-07   1.6299086e-07  3.8865125e-08  23.727839    
     87060   23.2227        50000          50000          50000          3.7627688e-07  8.3502084e-07  1.9163005e-07  1.0217976e-07  23.2227      
     87080   22.797296      50000          50000          50000          4.3218532e-07  9.2335716e-07  2.1294823e-07  1.6025057e-07  22.797296    
     87100   22.296333      50000          50000          50000          4.7577312e-07  9.9306153e-07  2.2533183e-07  2.0892598e-07  22.296333    
     87120   21.594825      50000          50000          50000          5.0476281e-07  1.0414959e-06  2.277733e-07   2.4501926e-07  21.594825    
     87140   20.686851      50000          50000          50000          5.1808853e-07  1.0673332e-06  2.2016519e-07  2.6676718e-07  20.686851    
     87160   19.720286      50000          50000          50000          5.1615316e-07  1.0708988e-06  2.034322e-07   2.7412846e-07  19.720286    
     87180   18.968833      50000          50000          50000          5.002901e-07   1.0533353e-06  1.791397e-07   2.6839526e-07  18.968833    
     87200   18.752505      50000          50000          50000          4.7196417e-07  1.0154089e-06  1.4900747e-07  2.5147616e-07  18.752505    
     87220   19.311472      50000          50000          50000          4.3276931e-07  9.5768634e-07  1.1491259e-07  2.2570901e-07  19.311472    
     87240   20.672237      50000          50000          50000          3.8471268e-07  8.8125911e-07  7.8982092e-08  1.9389683e-07  20.672237    
     87260   22.579869      50000          50000          50000          3.3019969e-07  7.8799522e-07  4.3474034e-08  1.5912982e-07  22.579869    
     87280   24.541749      50000          50000          50000          2.7178515e-07  6.8035017e-07  1.0560493e-08  1.244448e-07   24.541749    
     87300   25.973489      50000          50000          50000          2.1184732e-07  5.6095526e-07 -1.7872614e-08  9.2459314e-08  25.973489    
     87320   26.39568       50000          50000          50000          1.5227932e-07  4.3214954e-07 -4.0373851e-08  6.5062283e-08  26.39568     
     87340   25.61298       50000          50000          50000          9.4263037e-08  2.9561389e-07 -5.6027354e-08  4.3202571e-08  25.61298     
     87360   23.81256       50000          50000          50000          3.8178444e-08  1.5225499e-07 -6.451701e-08   2.679735e-08   23.81256     
     87380   21.536964      50000          50000          50000         -1.6311416e-08  2.4192615e-09 -6.6143324e-08  1.4789814e-08  21.536964    
     87400   19.517384      50000          50000          50000         -7.0011803e-08 -1.5363147e-07 -6.1786126e-08  5.382181e-09   19.517384    
     87420   18.412143      50000          50000          50000         -1.2387176e-07 -3.1517539e-07 -5.2846934e-08 -3.5929642e-09  18.412143    
     87440   18.557371      50000          50000          50000         -1.7867853e-07 -4.8058664e-07 -4.1192126e-08 -1.4256826e-08  18.557371    
     87460   19.84293       50000          50000          50000         -2.3483081e-07 -6.4710734e-07 -2.9068543e-08 -2.831655e-08   19.84293     
     87480   21.76752       50000          50000          50000         -2.9223615e-07 -8.1093313e-07 -1.8960505e-08 -4.6814813e-08  21.76752     
     87500   23.644002      50000          50000          50000         -3.5034217e-07 -9.6761319e-07 -1.3383907e-08 -7.0029411e-08  23.644002    
     87520   24.862499      50000          50000          50000         -4.0825016e-07 -1.1126098e-06 -1.4635782e-08 -9.750494e-08   24.862499    
     87540   25.102814      50000          50000          50000         -4.6482511e-07 -1.2417844e-06 -2.4528747e-08 -1.2816219e-07  25.102814    
     87560   24.420618      50000          50000          50000         -5.1873857e-07 -1.3516451e-06 -4.4139386e-08 -1.6043121e-07  24.420618    
     87580   23.188931      50000          50000          50000         -5.6843841e-07 -1.4393337e-06 -7.3597966e-08 -1.9238357e-07  23.188931    
     87600   21.929496      50000          50000          50000         -6.1208904e-07 -1.5024471e-06 -1.1195183e-07 -2.2186813e-07  21.929496    
     87620   21.10304       50000          50000          50000         -6.4754371e-07 -1.5388298e-06 -1.5713798e-07 -2.4666341e-07  21.10304     
     87640   20.937606      50000          50000          50000         -6.7240216e-07 -1.5464654e-06 -2.0608865e-07 -2.6465237e-07  20.937606    
     87660   21.356997      50000          50000          50000         -6.841787e-07  -1.5235575e-06 -2.5496635e-07 -2.7401225e-07  21.356997    
     87680   22.03116       50000          50000          50000         -6.8056576e-07 -1.4688044e-06 -2.9949442e-07 -2.7339851e-07  22.03116     
     87700   22.521868      50000          50000          50000         -6.5973593e-07 -1.3817844e-06 -3.3533283e-07 -2.620906e-07   22.521868    
     87720   22.469452      50000          50000          50000         -6.2059749e-07 -1.2632721e-06 -3.5845033e-07 -2.4007002e-07  22.469452    
     87740   21.734556      50000          50000          50000         -5.6297435e-07 -1.1154385e-06 -3.6544902e-07 -2.0803549e-07  21.734556    
     87760   20.463753      50000          50000          50000         -4.8769174e-07 -9.4189014e-07 -3.5380905e-07 -1.6737602e-07  20.463753    
     87780   19.048147      50000          50000          50000         -3.966059e-07  -7.4763775e-07 -3.2207387e-07 -1.2010609e-07  19.048147    
     87800   17.998085      50000          50000          50000         -2.9257711e-07 -5.389456e-07  -2.7003046e-07 -6.8755254e-08  17.998085    
     87820   17.770975      50000          50000          50000         -1.7934686e-07 -3.2297115e-07 -1.9887891e-07 -1.6190504e-08  17.770975    
     87840   18.606993      50000          50000          50000         -6.1270095e-08 -1.0714473e-07 -1.1131256e-07  3.4647008e-08  18.606993    
     87860   20.433844      50000          50000          50000          5.7065192e-08  1.0157013e-07 -1.1432242e-08  8.1057688e-08  20.433844    
     87880   22.880766      50000          50000          50000          1.7121831e-07  2.9726347e-07  9.5515322e-08  1.2087613e-07  22.880766    
     87900   25.395725      50000          50000          50000          2.771793e-07   4.7533747e-07  2.0352435e-07  1.5267608e-07  25.395725    
     87920   27.416629      50000          50000          50000          3.7153134e-07  6.3245831e-07  3.0627393e-07  1.7586179e-07  27.416629    
     87940   28.531881      50000          50000          50000          4.5152328e-07  7.6634478e-07  3.9757417e-07  1.9065088e-07  28.531881    
     87960   28.579564      50000          50000          50000          5.1510146e-07  8.7554988e-07  4.7178559e-07  1.9796891e-07  28.579564    
     87980   27.66372       50000          50000          50000          5.609405e-07   9.5933756e-07  5.2420524e-07  1.992787e-07   27.66372     
     88000   26.095051      50000          50000          50000          5.8848969e-07  1.0176819e-06  5.5142253e-07  1.9636462e-07  26.095051    
     88020   24.282141      50000          50000          50000          5.9802445e-07  1.0513437e-06  5.5163775e-07  1.9109185e-07  24.282141    
     88040   22.615409      50000          50000          50000          5.9067963e-07  1.0619578e-06  5.2491548e-07  1.8516562e-07  22.615409    
     88060   21.362928      50000          50000          50000          5.6841376e-07  1.0519943e-06  4.7332285e-07  1.7992411e-07  21.362928    
     88080   20.623972      50000          50000          50000          5.339022e-07   1.0246108e-06  4.0088853e-07  1.7620724e-07  20.623972    
     88100   20.335426      50000          50000          50000          4.9030958e-07  9.833149e-07   3.1328767e-07  1.7432616e-07  20.335426    
     88120   20.330908      50000          50000          50000          4.4089091e-07  9.3140165e-07  2.1717368e-07  1.740974e-07   20.330908    
     88140   20.425058      50000          50000          50000          3.884668e-07   8.7124409e-07  1.1929754e-07  1.7485877e-07  20.425058    
     88160   20.483433      50000          50000          50000          3.3505846e-07  8.0386162e-07  2.5833242e-08  1.7548053e-07  20.483433    
     88180   20.451827      50000          50000          50000          2.8187148e-07  7.290576e-07  -5.7903869e-08  1.744607e-07   20.451827    
     88200   20.346948      50000          50000          50000          2.2946385e-07  6.4589033e-07 -1.2759255e-07  1.7009377e-07  20.346948    
     88220   20.225464      50000          50000          50000          1.7790959e-07  5.5317122e-07 -1.8009089e-07  1.6064844e-07  20.225464    
     88240   20.148749      50000          50000          50000          1.2692972e-07  4.4989413e-07 -2.1363918e-07  1.445342e-07   20.148749    
     88260   20.156098      50000          50000          50000          7.6018936e-08  3.3558649e-07 -2.279948e-07   1.2046512e-07  20.156098    
     88280   20.253294      50000          50000          50000          2.4582451e-08  2.1057469e-07 -2.2445572e-07  8.7628383e-08  20.253294    
     88300   20.417352      50000          50000          50000         -2.7916803e-08  7.615796e-08  -2.0576479e-07  4.5856425e-08  20.417352    
     88320   20.613133      50000          50000          50000         -8.1805774e-08 -6.5309626e-08 -1.7589615e-07 -4.2115452e-09  20.613133    
     88340   20.814198      50000          50000          50000         -1.370569e-07  -2.1043483e-07 -1.3972146e-07 -6.1014404e-08  20.814198    
     88360   21.019241      50000          50000          50000         -1.9317483e-07 -3.5490937e-07 -1.0256023e-07 -1.2205488e-07  21.019241    
     88380   21.256734      50000          50000          50000         -2.4913834e-07 -4.9373744e-07 -6.9645728e-08 -1.8403185e-07  21.256734    
     88400   21.574477      50000          50000          50000         -3.0340812e-07 -6.2153316e-07 -4.5571117e-08 -2.4312009e-07  21.574477    
     88420   22.01686       50000          50000          50000         -3.539952e-07  -7.3284649e-07 -3.3791895e-08 -2.9534722e-07  22.01686     
     88440   22.598575      50000          50000          50000         -3.9857894e-07 -8.2249607e-07 -3.624783e-08  -3.3699292e-07  22.598575    
     88460   23.287401      50000          50000          50000         -4.3466402e-07 -8.8590603e-07 -5.3144165e-08 -3.6494186e-07  23.287401    
     88480   23.999276      50000          50000          50000         -4.5977535e-07 -9.1946414e-07 -8.2915237e-08 -3.7694667e-07  23.999276    
     88500   24.623949      50000          50000          50000         -4.7166255e-07 -9.2084149e-07 -1.2236632e-07 -3.7177984e-07  24.623949    
     88520   25.054441      50000          50000          50000         -4.6851957e-07 -8.8928465e-07 -1.6699127e-07 -3.4928279e-07  25.054441    
     88540   25.222917      50000          50000          50000         -4.4918056e-07 -8.2578307e-07 -2.1142886e-07 -3.1032974e-07  25.222917    
     88560   25.121981      50000          50000          50000         -4.1327662e-07 -7.33079e-07   -2.5001672e-07 -2.5673414e-07  25.121981    
     88580   24.802336      50000          50000          50000         -3.6133409e-07 -6.1549451e-07 -2.7738656e-07 -1.9112119e-07  24.802336    
     88600   24.346551      50000          50000          50000         -2.948035e-07  -4.785913e-07  -2.8903837e-07 -1.1678084e-07  24.346551    
     88620   23.829794      50000          50000          50000         -2.1601819e-07 -3.2872042e-07 -2.8182975e-07 -3.7504393e-08  23.829794    
     88640   23.285808      50000          50000          50000         -1.2809078e-07 -1.7254855e-07 -2.5432342e-07  4.2599628e-08  23.285808    
     88660   22.695916      50000          50000          50000         -3.4763354e-08 -1.6651973e-08 -2.0695452e-07  1.1931643e-07  22.695916    
     88680   22.009349      50000          50000          50000          5.9771557e-08  1.3275803e-07 -1.4200672e-07  1.8856336e-07  22.009349    
     88700   21.18804       50000          50000          50000          1.5106431e-07  2.6996459e-07 -6.3417866e-08  2.4664621e-07  21.18804     
     88720   20.254739      50000          50000          50000          2.3460542e-07  3.8976622e-07  2.3536945e-08  2.9051309e-07  20.254739    
     88740   19.315742      50000          50000          50000          3.0603375e-07  4.8747832e-07  1.1263249e-07  3.1799044e-07  19.315742    
     88760   18.542433      50000          50000          50000          3.6146725e-07  5.5918029e-07  1.9718474e-07  3.2803673e-07  18.542433    
     88780   18.096468      50000          50000          50000          3.9813101e-07  6.0249482e-07  2.708495e-07   3.2104872e-07  18.096468    
     88800   18.059931      50000          50000          50000          4.1497785e-07  6.1738498e-07  3.2864199e-07  2.9890656e-07  18.059931    
     88820   18.408428      50000          50000          50000          4.1244543e-07  6.0557465e-07  3.6737172e-07  2.6438992e-07  18.408428    
     88840   19.037479      50000          50000          50000          3.9173878e-07  5.6936351e-07  3.8532696e-07  2.2052587e-07  19.037479    
     88860   19.78796       50000          50000          50000          3.5456485e-07  5.1127198e-07  3.8201291e-07  1.7040964e-07  19.78796     
     88880   20.485924      50000          50000          50000          3.0316846e-07  4.3416283e-07  3.5815436e-07  1.1718818e-07  20.485924    
     88900   20.98814       50000          50000          50000          2.4027059e-07  3.4116607e-07  3.1568951e-07  6.3956172e-08  20.98814     
     88920   21.229099      50000          50000          50000          1.6890572e-07  2.3546227e-07  2.5764717e-07  1.3607724e-08  21.229099    
     88940   21.246954      50000          50000          50000          9.2270871e-08  1.2013478e-07  1.8796741e-07 -3.1289579e-08  21.246954    
     88960   21.169113      50000          50000          50000          1.3688081e-08 -1.7099688e-09  1.1135634e-07 -6.8582129e-08  21.169113    
     88980   21.152424      50000          50000          50000         -6.3354886e-08 -1.2655471e-07  3.3102864e-08 -9.6612809e-08  21.152424    
     89000   21.300588      50000          50000          50000         -1.3533078e-07 -2.5024771e-07 -4.1386968e-08 -1.1435766e-07  21.300588    
     89020   21.612779      50000          50000          50000         -1.9904899e-07 -3.6825682e-07 -1.0729798e-07 -1.2159216e-07  21.612779    
     89040   21.982203      50000          50000          50000         -2.5204793e-07 -4.761842e-07  -1.609878e-07  -1.1897178e-07  21.982203    
     89060   22.262196      50000          50000          50000         -2.9280846e-07 -5.7019552e-07 -2.002504e-07  -1.0797946e-07  22.262196    
     89080   22.352704      50000          50000          50000         -3.208339e-07  -6.4740288e-07 -2.2432167e-07 -9.0777132e-08  22.352704    
     89100   22.268658      50000          50000          50000         -3.366307e-07  -7.0617713e-07 -2.3371864e-07 -6.9996348e-08  22.268658    
     89120   22.156893      50000          50000          50000         -3.415835e-07  -7.4628424e-07 -2.2997926e-07 -4.8487016e-08  22.156893    
     89140   22.230749      50000          50000          50000         -3.377392e-07  -7.6881713e-07 -2.1535828e-07 -2.9042174e-08  22.230749    
     89160   22.662581      50000          50000          50000         -3.2750177e-07 -7.7585467e-07 -1.9252591e-07 -1.4124717e-08  22.662581    
     89180   23.468592      50000          50000          50000         -3.1330898e-07 -7.6999603e-07 -1.6430201e-07 -5.6288942e-09  23.468592    
     89200   24.451675      50000          50000          50000         -2.9735237e-07 -7.5390673e-07 -1.3344109e-07 -4.7092773e-09  24.451675    
     89220   25.240378      50000          50000          50000         -2.8139619e-07 -7.3002261e-07 -1.0246706e-07 -1.16989e-08    25.240378    
     89240   25.420514      50000          50000          50000         -2.6671185e-07 -7.0046836e-07 -7.3548282e-08 -2.6118898e-08  25.420514    
     89260   24.711543      50000          50000          50000         -2.5410058e-07 -6.6713718e-07 -4.8401134e-08 -4.6763415e-08  24.711543    
     89280   23.114712      50000          50000          50000         -2.4395055e-07 -6.3180165e-07 -2.8214496e-08 -7.1835511e-08  23.114712    
     89300   20.964409      50000          50000          50000         -2.3627394e-07 -5.9611393e-07 -1.3594104e-08 -9.9113791e-08  20.964409    
     89320   18.846488      50000          50000          50000         -2.3069188e-07 -5.6140276e-07 -4.5350914e-09 -1.2613781e-07  18.846488    
     89340   17.398542      50000          50000          50000         -2.2637206e-07 -5.2827002e-07 -4.4124895e-10 -1.5040493e-07  17.398542    
     89360   17.062205      50000          50000          50000         -2.2196774e-07 -4.9611502e-07 -2.1801755e-10 -1.6957019e-07  17.062205    
     89380   17.892876      50000          50000          50000         -2.1564229e-07 -4.6282798e-07 -2.4630284e-09 -1.8163588e-07  17.892876    
     89400   19.519602      50000          50000          50000         -2.0525179e-07 -4.2490059e-07 -5.744234e-09  -1.8511054e-07  19.519602    
     89420   21.279648      50000          50000          50000         -1.8867286e-07 -3.7801513e-07 -8.8929634e-09 -1.7911047e-07  21.279648    
     89440   22.468541      50000          50000          50000         -1.6416588e-07 -3.1790735e-07 -1.1207044e-08 -1.6338323e-07  22.468541    
     89460   22.603934      50000          50000          50000         -1.3065968e-07 -2.4120765e-07 -1.2508369e-08 -1.3826304e-07  22.603934    
     89480   21.610646      50000          50000          50000         -8.7912805e-08 -1.4607006e-07 -1.3074206e-08 -1.0459415e-07  21.610646    
     89500   19.868255      50000          50000          50000         -3.6565483e-08 -3.2538801e-08 -1.3493993e-08 -6.3663656e-08  19.868255    
     89520   18.104603      50000          50000          50000          2.1854226e-08  9.7256093e-08 -1.4503804e-08 -1.7189611e-08  18.104603    
     89540   17.156311      50000          50000          50000          8.493111e-08   2.3898619e-07 -1.6816894e-08  3.2624036e-08  17.156311    
     89560   17.646826      50000          50000          50000          1.495422e-07   3.8642399e-07 -2.090011e-08   8.3102731e-08  17.646826    
     89580   19.688503      50000          50000          50000          2.1239357e-07  5.3252415e-07 -2.6710107e-08  1.3136667e-07  19.688503    
     89600   22.771542      50000          50000          50000          2.7060039e-07  6.7063483e-07 -3.3576598e-08  1.7474293e-07  22.771542    
     89620   25.938184      50000          50000          50000          3.2191413e-07  7.9498159e-07 -4.0323515e-08  2.110843e-07   25.938184    
     89640   28.151359      50000          50000          50000          3.6460623e-07  9.0041772e-07 -4.551857e-08   2.3891953e-07  28.151359    
     89660   28.702585      50000          50000          50000          3.9725549e-07  9.8202047e-07 -4.7730981e-08  2.5747698e-07  28.702585    
     89680   27.482345      50000          50000          50000          4.1860777e-07  1.0349441e-06 -4.5744174e-08  2.666234e-07   27.482345    
     89700   25.004639      50000          50000          50000          4.2759333e-07  1.0547359e-06 -3.8707878e-08  2.6675202e-07  25.004639    
     89720   22.19736       50000          50000          50000          4.2353696e-07  1.0381923e-06 -2.6226917e-08  2.5864548e-07  22.19736     
     89740   20.026554      50000          50000          50000          4.0647032e-07  9.8447094e-07 -8.3941794e-09  2.4333419e-07  20.026554    
     89760   19.114649      50000          50000          50000          3.7740776e-07  8.9602978e-07  1.4221237e-08  2.2197227e-07  19.114649    
     89780   19.510325      50000          50000          50000          3.3841293e-07  7.788711e-07   4.0617611e-08  1.9575009e-07  19.510325    
     89800   20.723376      50000          50000          50000          2.9237391e-07  6.41852e-07    6.9425993e-08  1.6584374e-07  20.723376    
     89820   21.978431      50000          50000          50000          2.4250423e-07  4.9515251e-07  9.8982373e-08  1.3337781e-07  21.978431    
     89840   22.568711      50000          50000          50000          1.9178374e-07  3.485609e-07   1.2739906e-07  9.9391255e-08  22.568711    
     89860   22.144089      50000          50000          50000          1.4256917e-07  2.1022024e-07  1.5265048e-07  6.4836791e-08  22.144089    
     89880   20.832481      50000          50000          50000          9.646665e-08   8.6070753e-08  1.727032e-07   3.0625994e-08  20.832481    
     89900   19.169259      50000          50000          50000          5.4402094e-08 -2.0170987e-08  1.857028e-07  -2.3255315e-09  19.169259    
     89920   17.877907      50000          50000          50000          1.6807582e-08 -1.0667912e-07  1.9020381e-07 -3.3101948e-08  17.877907    
     89940   17.571277      50000          50000          50000         -1.6162198e-08 -1.7303995e-07  1.8540113e-07 -6.0847766e-08  17.571277    
     89960   18.507717      50000          50000          50000         -4.443487e-08  -2.1974671e-07  1.7129842e-07 -8.4856313e-08  18.507717    
     89980   20.486807      50000          50000          50000         -6.7931922e-08 -2.479078e-07   1.4874953e-07 -1.046375e-07   20.486807    
     90000   22.928987      50000          50000          50000         -8.659812e-08  -2.5922939e-07  1.1935795e-07 -1.1992291e-07  22.928987    
     90020   25.095871      50000          50000          50000         -1.0051097e-07 -2.561982e-07   8.5269383e-08 -1.3060409e-07  25.095871    
     90040   26.355374      50000          50000          50000         -1.1000608e-07 -2.4228985e-07  4.8911619e-08 -1.3664e-07     26.355374    
     90060   26.389611      50000          50000          50000         -1.1575797e-07 -2.2201978e-07  1.2730901e-08 -1.3798505e-07  26.389611    
     90080   25.277147      50000          50000          50000         -1.18777e-07   -2.0071179e-07 -2.1040422e-08 -1.345788e-07   25.277147    
     90100   23.432849      50000          50000          50000         -1.2030896e-07 -1.839443e-07  -5.0567995e-08 -1.2641459e-07  23.432849    
     90120   21.43841       50000          50000          50000         -1.2165115e-07 -1.7673409e-07 -7.4545977e-08 -1.1367338e-07  21.43841     
     90140   19.833076      50000          50000          50000         -1.2393198e-07 -1.8264568e-07 -9.2271737e-08 -9.6878521e-08  19.833076    
     90160   18.946934      50000          50000          50000         -1.2792918e-07 -2.031214e-07  -1.036608e-07  -7.7005333e-08  18.946934    
     90180   18.837217      50000          50000          50000         -1.33991e-07   -2.372925e-07  -1.0919916e-07 -5.548134e-08   18.837217    
     90200   19.336865      50000          50000          50000         -1.4207461e-07 -2.8233803e-07 -1.0983772e-07 -3.4048089e-08  19.336865    
     90220   20.17197       50000          50000          50000         -1.518627e-07  -3.3423416e-07 -1.0684389e-07 -1.4510063e-08  20.17197     
     90240   21.081275      50000          50000          50000         -1.6289616e-07 -3.8861342e-07 -1.0163181e-07  1.5567433e-09  21.081275    
     90260   21.885678      50000          50000          50000         -1.7467406e-07 -4.4147432e-07 -9.5594739e-08  1.3046891e-08  21.885678    
     90280   22.494032      50000          50000          50000         -1.8670576e-07 -4.8960321e-07 -8.9961593e-08  1.9447511e-08  22.494032    
     90300   22.868143      50000          50000          50000         -1.9852927e-07 -5.3071246e-07 -8.569351e-08   2.081815e-08   22.868143    
     90320   22.985099      50000          50000          50000         -2.0971752e-07 -5.6339201e-07 -8.3424555e-08  1.7664006e-08  22.985099    
     90340   22.8254        50000          50000          50000         -2.1988538e-07 -5.8698989e-07 -8.3439679e-08  1.0773441e-08  22.8254      
     90360   22.391597      50000          50000          50000         -2.2869826e-07 -6.0150052e-07 -8.567947e-08   1.0852281e-09  22.391597    
     90380   21.740035      50000          50000          50000         -2.3587335e-07 -6.0747627e-07 -8.9763247e-08 -1.0380546e-08  21.740035    
     90400   20.999056      50000          50000          50000         -2.4115703e-07 -6.059198e-07  -9.502409e-08  -2.2527203e-08  20.999056    
     90420   20.355024      50000          50000          50000         -2.4427477e-07 -5.9811327e-07 -1.0055704e-07 -3.4154015e-08  20.355024    
     90440   20.007819      50000          50000          50000         -2.4491152e-07 -5.8545768e-07 -1.0530771e-07 -4.3969184e-08  20.007819    
     90460   20.112282      50000          50000          50000         -2.4280303e-07 -5.6947507e-07 -1.0822976e-07 -5.0704254e-08  20.112282    
     90480   20.716729      50000          50000          50000         -2.3786256e-07 -5.5185326e-07 -1.0845259e-07 -5.3281833e-08  20.716729    
     90500   21.710206      50000          50000          50000         -2.3010813e-07 -5.340773e-07  -1.0532607e-07 -5.0921015e-08  21.710206    
     90520   22.823286      50000          50000          50000         -2.1942143e-07 -5.1670227e-07 -9.8358677e-08 -4.3203344e-08  22.823286    
     90540   23.723965      50000          50000          50000         -2.0553379e-07 -4.9910629e-07 -8.7253374e-08 -3.0241715e-08  23.723965    
     90560   24.169825      50000          50000          50000         -1.8825432e-07 -4.7987964e-07 -7.2033385e-08 -1.2849922e-08  24.169825    
     90580   24.12373       50000          50000          50000         -1.6766229e-07 -4.5734806e-07 -5.3112051e-08  7.4732507e-09  24.12373     
     90600   23.763805      50000          50000          50000         -1.4415354e-07 -4.2995436e-07 -3.1268349e-08  2.8762084e-08  23.763805    
     90620   23.37956       50000          50000          50000         -1.1835736e-07 -3.9644407e-07 -7.5509237e-09  4.8922916e-08  23.37956     
     90640   23.207809      50000          50000          50000         -9.0977183e-08 -3.5588002e-07  1.6861314e-08  6.6087163e-08  23.207809    
     90660   23.297082      50000          50000          50000         -6.2631055e-08 -3.0757229e-07  4.0809432e-08  7.8869694e-08  23.297082    
     90680   23.476967      50000          50000          50000         -3.3774586e-08 -2.5104998e-07  6.3273257e-08  8.6452961e-08  23.476967    
     90700   23.451034      50000          50000          50000         -4.7534595e-09 -1.861725e-07   8.3418904e-08  8.8493217e-08  23.451034    
     90720   22.963047      50000          50000          50000          2.4052753e-08 -1.1335933e-07  1.0057262e-07  8.4944972e-08  22.963047    
     90740   21.950948      50000          50000          50000          5.2099085e-08 -3.3804023e-08  1.1416727e-07  7.5934006e-08  21.950948    
     90760   20.614763      50000          50000          50000          7.8636764e-08  5.0455389e-08  1.2371249e-07  6.1742416e-08  20.614763    
     90780   19.363812      50000          50000          50000          1.0278556e-07  1.3666068e-07  1.2880634e-07  4.2889674e-08  19.363812    
     90800   18.657112      50000          50000          50000          1.2369015e-07  2.2163259e-07  1.2918039e-07  2.0257466e-08  18.657112    
     90820   18.805442      50000          50000          50000          1.4071284e-07  3.0218429e-07  1.2475889e-07 -4.8046561e-09  18.805442    
     90840   19.80802       50000          50000          50000          1.5357294e-07  3.7547742e-07  1.1570617e-07 -3.0464776e-08  19.80802     
     90860   21.320966      50000          50000          50000          1.6239215e-07  4.3925224e-07  1.0244248e-07 -5.4518265e-08  21.320966    
     90880   22.768555      50000          50000          50000          1.6760864e-07  4.9182809e-07  8.5619256e-08 -7.4621431e-08  22.768555    
     90900   23.565296      50000          50000          50000          1.6979955e-07  5.3192959e-07  6.6063257e-08 -8.8594213e-08  23.565296    
     90920   23.36124       50000          50000          50000          1.6947641e-07  5.5844191e-07  4.4707536e-08 -9.4720218e-08  23.36124     
     90940   22.212358      50000          50000          50000          1.6691445e-07  5.7020712e-07  2.2525142e-08 -9.1988907e-08  22.212358    
     90960   20.602916      50000          50000          50000          1.6206087e-07  5.6596435e-07  4.8057828e-10 -8.0262306e-08  20.602916    
     90980   19.291906      50000          50000          50000          1.5459971e-07  5.4461254e-07 -2.0472567e-08 -6.0340839e-08  19.291906    
     91000   19.011018      50000          50000          50000          1.4426208e-07  5.0594906e-07 -3.9335018e-08 -3.382779e-08   19.011018    
     91020   20.122833      50000          50000          50000          1.3124228e-07  4.5151549e-07 -5.5026267e-08 -2.7623871e-09  20.122833    
     91040   22.413683      50000          50000          50000          1.1638192e-07  3.8483317e-07 -6.6463865e-08  3.0776462e-08  22.413683    
     91060   25.151614      50000          50000          50000          1.0100533e-07  3.1086635e-07 -7.2730949e-08  6.4880589e-08  25.151614    
     91080   27.377941      50000          50000          50000          8.6525853e-08  2.3504309e-07 -7.3264669e-08  9.779914e-08   27.377941    
     91100   28.293976      50000          50000          50000          7.4018226e-08  1.623025e-07  -6.8026196e-08  1.2777837e-07  28.293976    
     91120   27.573651      50000          50000          50000          6.4018578e-08  9.6603671e-08 -5.7552972e-08  1.5300504e-07  27.573651    
     91140   25.459931      50000          50000          50000          5.6842295e-08  4.1182812e-08 -4.2642087e-08  1.7198616e-07  25.459931    
     91160   22.612409      50000          50000          50000          5.2729423e-08 -1.6329333e-09 -2.4035953e-08  1.8385715e-07  22.612409    
     91180   19.845988      50000          50000          50000          5.1082586e-08 -3.1648114e-08 -2.8776833e-09  1.8777356e-07  19.845988    
     91200   17.899016      50000          50000          50000          5.0573909e-08 -5.0158282e-08  1.9113289e-08  1.8276672e-07  17.899016    
     91220   17.20831       50000          50000          50000          4.9944733e-08 -5.8517275e-08  4.0029868e-08  1.6832161e-07  17.20831     
     91240   17.767016      50000          50000          50000          4.8320221e-08 -5.7824187e-08  5.8066999e-08  1.4471785e-07  17.767016    
     91260   19.165827      50000          50000          50000          4.5157691e-08 -4.9220551e-08  7.1657114e-08  1.1303651e-07  19.165827    
     91280   20.79345       50000          50000          50000          4.0094335e-08 -3.4267411e-08  7.9548887e-08  7.500153e-08   20.79345     
     91300   22.097309      50000          50000          50000          3.2784936e-08 -1.5233238e-08  8.0849491e-08  3.2738554e-08  22.097309    
     91320   22.786387      50000          50000          50000          2.2788847e-08  4.7994446e-09  7.5046059e-08 -1.1478963e-08  22.786387    
     91340   22.90212       50000          50000          50000          9.5677149e-09  2.2102212e-08  6.2034054e-08 -5.5433121e-08  22.90212     
     91360   22.737953      50000          50000          50000         -7.381171e-09   3.2767255e-08  4.2170998e-08 -9.7081766e-08  22.737953    
     91380   22.650532      50000          50000          50000         -2.8291206e-08  3.3390518e-08  1.6337913e-08 -1.3460205e-07  22.650532    
     91400   22.861002      50000          50000          50000         -5.2893838e-08  2.1754521e-08 -1.4043115e-08 -1.6639292e-07  22.861002    
     91420   23.334689      50000          50000          50000         -8.032678e-08  -2.8237815e-09 -4.7077415e-08 -1.9107914e-07  23.334689    
     91440   23.819277      50000          50000          50000         -1.0921061e-07 -3.9537789e-08 -8.054741e-08  -2.0754664e-07  23.819277    
     91460   24.003688      50000          50000          50000         -1.3786976e-07 -8.6471886e-08 -1.1211372e-07 -2.1502368e-07  24.003688    
     91480   23.712783      50000          50000          50000         -1.6459867e-07 -1.4106572e-07 -1.3953226e-07 -2.1319802e-07  23.712783    
     91500   23.028309      50000          50000          50000         -1.8787907e-07 -2.0044659e-07 -1.6085713e-07 -2.0233348e-07  23.028309    
     91520   22.267577      50000          50000          50000         -2.0648906e-07 -2.6152906e-07 -1.7460523e-07 -1.833329e-07   22.267577    
     91540   21.826544      50000          50000          50000         -2.1950089e-07 -3.2094017e-07 -1.7986432e-07 -1.5769817e-07  21.826544    
     91560   21.967471      50000          50000          50000         -2.2621736e-07 -3.7495666e-07 -1.7633223e-07 -1.2736318e-07  21.967471    
     91580   22.665226      50000          50000          50000         -2.2612607e-07 -4.1966999e-07 -1.6428427e-07 -9.4423958e-08  22.665226    
     91600   23.597695      50000          50000          50000         -2.1893827e-07 -4.5148062e-07 -1.4448477e-07 -6.0849416e-08  23.597695    
     91620   24.285886      50000          50000          50000         -2.0471521e-07 -4.6778824e-07 -1.1807831e-07 -2.8279082e-08  24.285886    
     91640   24.310433      50000          50000          50000         -1.8400901e-07 -4.6758256e-07 -8.6491677e-08  2.0472024e-09  24.310433    
     91660   23.50408       50000          50000          50000         -1.57937e-07   -4.517262e-07  -5.1352335e-08  2.9267552e-08  23.50408     
     91680   22.042077      50000          50000          50000         -1.2815397e-07 -4.2289182e-07 -1.4410978e-08  5.2840906e-08  22.042077    
     91700   20.39478       50000          50000          50000         -9.6712794e-08 -3.8517028e-07  2.2545946e-08  7.248595e-08   20.39478     
     91720   19.156751      50000          50000          50000         -6.5816985e-08 -3.4338783e-07  5.7802837e-08  8.8134035e-08  19.156751    
     91740   18.816593      50000          50000          50000         -3.7499735e-08 -3.022477e-07   8.9840205e-08  9.9908293e-08  18.816593    
     91760   19.563319      50000          50000          50000         -1.330702e-08  -2.6550725e-07  1.1746118e-07  1.0812501e-07  19.563319    
     91780   21.216094      50000          50000          50000          5.8633967e-09 -2.3551943e-07  1.3985069e-07  1.1325893e-07  21.216094    
     91800   23.301093      50000          50000          50000          1.9495006e-08 -2.1362194e-07  1.5639695e-07  1.1571001e-07  23.301093    
     91820   25.213395      50000          50000          50000          2.690471e-08  -2.010894e-07   1.6634492e-07  1.1545861e-07  25.213395    
     91840   26.408261      50000          50000          50000          2.7568251e-08 -1.9866441e-07  1.6902647e-07  1.1234269e-07  26.408261    
     91860   26.611069      50000          50000          50000          2.1878415e-08 -2.0537114e-07  1.6442605e-07  1.0658033e-07  26.611069    
     91880   25.943324      50000          50000          50000          1.0908184e-08 -2.1894859e-07  1.5310299e-07  9.8570143e-08  25.943324    
     91900   24.862607      50000          50000          50000         -4.0694651e-09 -2.3663868e-07  1.3587565e-07  8.8554632e-08  24.862607    
     91920   23.945245      50000          50000          50000         -2.1687432e-08 -2.5534925e-07  1.1369675e-07  7.6590213e-08  23.945245    
     91940   23.623909      50000          50000          50000         -4.042471e-08  -2.7160802e-07  8.764391e-08   6.2689985e-08  23.623909    
     91960   24.005517      50000          50000          50000         -5.861614e-08  -2.8174415e-07  5.8911988e-08  4.698374e-08   24.005517    
     91980   24.847491      50000          50000          50000         -7.4607719e-08 -2.8240748e-07  2.8769662e-08  2.9814661e-08  24.847491    
     92000   25.685752      50000          50000          50000         -8.6994428e-08 -2.7124499e-07 -1.497404e-09   1.1759107e-08  25.685752    
     92020   26.040554      50000          50000          50000         -9.4827712e-08 -2.4745735e-07 -3.0621412e-08 -6.4043707e-09  26.040554    
     92040   25.61016       50000          50000          50000         -9.7736476e-08 -2.1207734e-07 -5.7368413e-08 -2.3763677e-08  25.61016     
     92060   24.383555      50000          50000          50000         -9.595693e-08  -1.6792892e-07 -8.0564361e-08 -3.937751e-08   24.383555    
     92080   22.63955       50000          50000          50000         -9.0269575e-08 -1.1926754e-07 -9.9147074e-08 -5.2394112e-08  22.63955     
     92100   20.840682      50000          50000          50000         -8.1846394e-08 -7.1148584e-08 -1.1224219e-07 -6.2148404e-08  20.840682    
     92120   19.466609      50000          50000          50000         -7.2034243e-08 -2.8639537e-08 -1.19254e-07   -6.8209189e-08  19.466609    
     92140   18.851419      50000          50000          50000         -6.2123447e-08  3.9577215e-09 -1.1995731e-07 -7.0370755e-08  18.851419    
     92160   19.084408      50000          50000          50000         -5.3157832e-08  2.3706254e-08 -1.1457084e-07 -6.8608912e-08  19.084408    
     92180   20.005202      50000          50000          50000         -4.5826816e-08  2.934721e-08  -1.0378992e-07 -6.3037738e-08  20.005202    
     92200   21.284259      50000          50000          50000         -4.0447148e-08  2.1319336e-08 -8.8761094e-08 -5.3899686e-08  21.284259    
     92220   22.546638      50000          50000          50000         -3.7009848e-08  1.5625173e-09 -7.0992791e-08 -4.1599269e-08  22.546638    
     92240   23.494299      50000          50000          50000         -3.5244745e-08 -2.6762172e-08 -5.2209573e-08 -2.6762489e-08  23.494299    
     92260   23.973424      50000          50000          50000         -3.4688089e-08 -5.9607349e-08 -3.4169416e-08 -1.0287504e-08  23.973424    
     92280   23.994583      50000          50000          50000         -3.4726726e-08 -9.2344308e-08 -1.8477771e-08  6.6418997e-09  23.994583    
     92300   23.700213      50000          50000          50000         -3.4665117e-08 -1.2012603e-07 -6.4483352e-09  2.2579011e-08  23.700213    
     92320   23.305965      50000          50000          50000         -3.3834962e-08 -1.3832115e-07  9.5754415e-10  3.5858725e-08  23.305965    
     92340   23.03038       50000          50000          50000         -3.1681607e-08 -1.4296062e-07  3.1845388e-09  4.4731263e-08  23.03038     
     92360   23.022947      50000          50000          50000         -2.7706025e-08 -1.3109049e-07  2.5150831e-10  4.7720904e-08  23.022947    
     92380   23.311869      50000          50000          50000         -2.1357324e-08 -1.0111174e-07 -7.0669501e-09  4.410672e-08   23.311869    
     92400   23.79804       50000          50000          50000         -1.2084243e-08 -5.3187239e-08 -1.7268319e-08  3.4202829e-08  23.79804     
     92420   24.296283      50000          50000          50000          4.9012045e-10  1.0492915e-08 -2.8346643e-08  1.9324089e-08  24.296283    
     92440   24.599983      50000          50000          50000          1.6416655e-08  8.579415e-08  -3.8074581e-08  1.5303961e-09  24.599983    
     92460   24.544468      50000          50000          50000          3.5355449e-08  1.6708353e-07 -4.4272262e-08 -1.6744927e-08  24.544468    
     92480   24.054688      50000          50000          50000          5.6601466e-08  2.4794517e-07 -4.5048121e-08 -3.3092652e-08  24.054688    
     92500   23.170498      50000          50000          50000          7.9167714e-08  3.2198411e-07 -3.901102e-08  -4.5469948e-08  23.170498    
     92520   22.046407      50000          50000          50000          1.0185979e-07  3.8346198e-07 -2.5451675e-08 -5.2430941e-08  22.046407    
     92540   20.924654      50000          50000          50000          1.2331119e-07  4.2763345e-07 -4.4765939e-09 -5.3223292e-08  20.924654    
     92560   20.0819        50000          50000          50000          1.4203796e-07  4.5095068e-07  2.2929157e-08 -4.7765946e-08  20.0819      
     92580   19.754358      50000          50000          50000          1.5657415e-07  4.5135437e-07  5.4921649e-08 -3.6553562e-08  19.754358    
     92600   20.058908      50000          50000          50000          1.6566241e-07  4.2861375e-07  8.8909851e-08 -2.0536366e-08  20.058908    
     92620   20.940619      50000          50000          50000          1.6841929e-07  3.8449984e-07  1.2176712e-07 -1.0090969e-09  20.940619    
     92640   22.174494      50000          50000          50000          1.644183e-07   3.2264732e-07  1.5012898e-07  2.0478584e-08  22.174494    
     92660   23.428855      50000          50000          50000          1.5368453e-07  2.4811559e-07  1.7074025e-07  4.2197757e-08  23.428855    
     92680   24.371711      50000          50000          50000          1.3662559e-07  1.667542e-07   1.8080353e-07  6.2319052e-08  24.371711    
     92700   24.782665      50000          50000          50000          1.1393666e-07  8.451046e-08   1.7828729e-07  7.9012237e-08  24.782665    
     92720   24.628588      50000          50000          50000          8.651766e-08   6.807793e-09   1.6216656e-07  9.0578626e-08  24.628588    
     92740   24.072596      50000          50000          50000          5.5429625e-08 -6.1914549e-08  1.3258436e-07  9.5619065e-08  24.072596    
     92760   23.408916      50000          50000          50000          2.1897469e-08 -1.1846179e-07  9.0926375e-08  9.3227819e-08  23.408916    
     92780   22.944609      50000          50000          50000         -1.2659793e-08 -1.6095804e-07  3.9794221e-08  8.3184438e-08  22.944609    
     92800   22.8739        50000          50000          50000         -4.6614629e-08 -1.8879422e-07 -1.7143757e-08  6.6094091e-08  22.8739      
     92820   23.199924      50000          50000          50000         -7.8181174e-08 -2.0253181e-07 -7.543109e-08   4.3419382e-08  23.199924    
     92840   23.741926      50000          50000          50000         -1.0555361e-07 -2.0382411e-07 -1.3020667e-07  1.7369949e-08  23.741926    
     92860   24.226539      50000          50000          50000         -1.2711332e-07 -1.953544e-07  -1.7664551e-07 -9.340063e-09   24.226539    
     92880   24.41968       50000          50000          50000         -1.4165237e-07 -1.8072574e-07 -2.1041049e-07 -3.3820874e-08  24.41968     
     92900   24.234123      50000          50000          50000         -1.4855444e-07 -1.6421215e-07 -2.2808592e-07 -5.336525e-08   24.234123    
     92920   23.758162      50000          50000          50000         -1.4788918e-07 -1.5030298e-07 -2.2757832e-07 -6.5786231e-08  23.758162    
     92940   23.187774      50000          50000          50000         -1.4037443e-07 -1.4298285e-07 -2.0845632e-07 -6.9684109e-08  23.187774    
     92960   22.694844      50000          50000          50000         -1.2712724e-07 -1.4470769e-07 -1.721107e-07  -6.4563344e-08  22.694844    
     92980   22.311074      50000          50000          50000         -1.0927253e-07 -1.555198e-07  -1.2153032e-07 -5.0767467e-08  22.311074    
     93000   21.910619      50000          50000          50000         -8.7848994e-08 -1.7337049e-07 -6.0777428e-08 -2.939907e-08   21.910619    
     93020   21.29498       50000          50000          50000         -6.4073174e-08 -1.9531994e-07  5.3985177e-09 -2.2980963e-09  21.29498     
     93040   20.312133      50000          50000          50000         -3.9437139e-08 -2.1815293e-07  7.1754386e-08  2.8087129e-08  20.312133    
     93060   18.958123      50000          50000          50000         -1.5608616e-08 -2.3856889e-07  1.3282503e-07  5.891801e-08   18.958123    
     93080   17.431959      50000          50000          50000          5.6696074e-09 -2.5351449e-07  1.8333321e-07  8.7190105e-08  17.431959    
     93100   16.117264      50000          50000          50000          2.268356e-08  -2.6056233e-07  2.1865038e-07  1.0996263e-07  16.117264    
     93120   15.480757      50000          50000          50000          3.3899871e-08 -2.5813401e-07  2.3523431e-07  1.2459931e-07  15.480757    
     93140   15.910197      50000          50000          50000          3.8164886e-08 -2.4551553e-07  2.3099746e-07  1.2901273e-07  15.910197    
     93160   17.547313      50000          50000          50000          3.4905982e-08 -2.2273455e-07  2.0556091e-07  1.2189159e-07  17.547313    
     93180   20.186446      50000          50000          50000          2.4262211e-08 -1.9043621e-07  1.6034536e-07  1.0287748e-07  20.186446    
     93200   23.29335       50000          50000          50000          7.0813419e-09 -1.4988774e-07  9.8474641e-08  7.265712e-08   23.29335     
     93220   26.15216       50000          50000          50000         -1.5227493e-08 -1.0315271e-07  2.4515114e-08  3.2955121e-08  26.15216     
     93240   28.093779      50000          50000          50000         -4.0934844e-08 -5.3350179e-08 -5.5891138e-08 -1.3563216e-08  28.093779    
     93260   28.722637      50000          50000          50000         -6.8244175e-08 -4.8162135e-09 -1.3645261e-07 -6.3463704e-08  28.722637    
     93280   28.054253      50000          50000          50000         -9.5486372e-08  3.7041268e-08 -2.1070811e-07 -1.1279228e-07  28.054253    
     93300   26.503927      50000          50000          50000         -1.2122031e-07  6.6327005e-08 -2.7257e-07    -1.5741794e-07  26.503927    
     93320   24.722849      50000          50000          50000         -1.4424241e-07  7.7631871e-08 -3.1690003e-07 -1.9345908e-07  24.722849    
     93340   23.344433      50000          50000          50000         -1.6353579e-07  6.7153708e-08 -3.4003313e-07 -2.1772794e-07  23.344433    
     93360   22.746413      50000          50000          50000         -1.7820915e-07  3.3636509e-08 -3.4015909e-07 -2.2810486e-07  22.746413    
     93380   22.928012      50000          50000          50000         -1.8748253e-07 -2.117332e-08  -3.1750083e-07 -2.2377345e-07  22.928012    
     93400   23.549339      50000          50000          50000         -1.9075289e-07 -9.2719356e-08 -2.7425947e-07 -2.0527985e-07  23.549339    
     93420   24.1073        50000          50000          50000         -1.8772166e-07 -1.7441571e-07 -2.1433454e-07 -1.7441474e-07  24.1073      
     93440   24.16413       50000          50000          50000         -1.7852347e-07 -2.5874409e-07 -1.4287204e-07 -1.3395427e-07  24.16413     
     93460   23.528813      50000          50000          50000         -1.6378761e-07 -3.3832505e-07 -6.5719011e-08 -8.7318769e-08  23.528813    
     93480   22.320889      50000          50000          50000         -1.4459139e-07 -4.0671015e-07  1.1142205e-08 -3.8206209e-08  22.320889    
     93500   20.900976      50000          50000          50000         -1.2230524e-07 -4.5880303e-07  8.2128025e-08  9.7592829e-09  20.900976    
     93520   19.707511      50000          50000          50000         -9.836789e-08  -4.9095819e-07  1.4251739e-07  5.3337127e-08  19.707511    
     93540   19.074631      50000          50000          50000         -7.4055224e-08 -5.0089111e-07  1.8880769e-07  8.9917749e-08  19.074631    
     93560   19.109331      50000          50000          50000         -5.0312221e-08 -4.8755575e-07  2.1892781e-07  1.1769128e-07  19.109331    
     93580   19.675151      50000          50000          50000         -2.7694716e-08 -4.5110455e-07  2.3229065e-07  1.3572976e-07  19.675151    
     93600   20.47868       50000          50000          50000         -6.4235656e-09 -3.9295652e-07  2.2969749e-07  1.4398833e-07  20.47868     
     93620   21.209526      50000          50000          50000          1.3490899e-08 -3.1590228e-07  2.1313365e-07  1.4324132e-07  21.209526    
     93640   21.666208      50000          50000          50000          3.2118627e-08 -2.2411664e-07  1.8550182e-07  1.349707e-07   21.666208    
     93660   21.815326      50000          50000          50000          4.9529656e-08 -1.2294947e-07  1.5032499e-07  1.2121346e-07  21.815326    
     93680   21.768408      50000          50000          50000          6.5776209e-08 -1.8451093e-08  1.1142409e-07  1.0435564e-07  21.768408    
     93700   21.700798      50000          50000          50000          8.0882813e-08  8.3219407e-08  7.256931e-08   8.6859721e-08  21.700798    
     93720   21.7592        50000          50000          50000          9.4784177e-08  1.7623633e-07  3.7148923e-08  7.0967276e-08  21.7592      
     93740   21.998686      50000          50000          50000          1.0721999e-07  2.5529747e-07  7.9136942e-09  5.8448808e-08  21.998686    
     93760   22.368218      50000          50000          50000          1.1764792e-07  3.1573407e-07 -1.3207158e-08  5.0416855e-08  22.368218    
     93780   22.744681      50000          50000          50000          1.2526994e-07  3.5385988e-07 -2.5242918e-08  4.7192857e-08  22.744681    
     93800   23.009898      50000          50000          50000          1.2917667e-07  3.6756989e-07 -2.8277578e-08  4.8237709e-08  23.009898    
     93820   23.122905      50000          50000          50000          1.2845558e-07  3.5667064e-07 -2.3480124e-08  5.2176214e-08  23.122905    
     93840   23.16009       50000          50000          50000          1.2226052e-07  3.2281525e-07 -1.2995812e-08  5.6962136e-08  23.16009     
     93860   23.277124      50000          50000          50000          1.0991497e-07  2.6922642e-07  3.3847303e-10  6.0180003e-08  23.277124    
     93880   23.613168      50000          50000          50000          9.1078392e-08  2.0040042e-07  1.3408523e-08  5.9426235e-08  23.613168    
     93900   24.189539      50000          50000          50000          6.5915098e-08  1.2177339e-07  2.3279066e-08  5.2692842e-08  24.189539    
     93920   24.863984      50000          50000          50000          3.5186654e-08  3.9274986e-08  2.7600089e-08  3.8684886e-08  24.863984    
     93940   25.373303      50000          50000          50000          2.1741419e-10 -4.1253051e-08  2.4885313e-08  1.7019981e-08  25.373303    
     93960   25.447737      50000          50000          50000         -3.7263085e-08 -1.1469282e-07  1.4619141e-08 -1.1715578e-08  25.447737    
     93980   24.939659      50000          50000          50000         -7.5336196e-08 -1.7717428e-07 -2.7954636e-09 -4.6038843e-08  24.939659    
     94000   23.901524      50000          50000          50000         -1.1207645e-07 -2.2632679e-07 -2.618493e-08  -8.3717621e-08  23.901524    
     94020   22.57508       50000          50000          50000         -1.4564515e-07 -2.6120785e-07 -5.3782296e-08 -1.2194531e-07  22.57508     
     94040   21.296103      50000          50000          50000         -1.7430933e-07 -2.8198469e-07 -8.3404838e-08 -1.5753845e-07  21.296103    
     94060   20.356505      50000          50000          50000         -1.9643938e-07 -2.8950553e-07 -1.1263346e-07 -1.8717917e-07  20.356505    
     94080   19.885888      50000          50000          50000         -2.105371e-07  -2.8490165e-07 -1.3899854e-07 -2.077111e-07   19.885888    
     94100   19.808842      50000          50000          50000         -2.153227e-07  -2.6933375e-07 -1.6016884e-07 -2.164655e-07   19.808842    
     94120   19.901781      50000          50000          50000         -2.098793e-07  -2.4393387e-07 -1.7413311e-07 -2.1157093e-07  19.901781    
     94140   19.926747      50000          50000          50000         -1.9382003e-07 -2.0990707e-07 -1.7935984e-07 -1.9219316e-07  19.926747    
     94160   19.781176      50000          50000          50000         -1.67418e-07   -1.6867833e-07 -1.7491686e-07 -1.5865881e-07  19.781176    
     94180   19.591086      50000          50000          50000         -1.3163293e-07 -1.2194077e-07 -1.605286e-07  -1.1242942e-07  19.591086    
     94200   19.697809      50000          50000          50000         -8.8005332e-08 -7.1528545e-08 -1.3655928e-07 -5.5928172e-08  19.697809    
     94220   20.534743      50000          50000          50000         -3.8523309e-08 -1.9261826e-08 -1.0397277e-07  7.6646713e-09  20.534743    
     94240   22.428246      50000          50000          50000          1.4320801e-08  3.2940064e-08 -6.4393332e-08  7.4415673e-08  22.428246    
     94260   25.367852      50000          50000          50000          6.746821e-08   8.3025607e-08 -2.0186925e-08  1.3956595e-07  25.367852    
     94280   28.843037      50000          50000          50000          1.1777739e-07  1.2956217e-07  2.5785265e-08  1.9798473e-07  28.843037    
     94300   31.907413      50000          50000          50000          1.6266299e-07  1.7234841e-07  7.063715e-08   2.4500341e-07  31.907413    
     94320   33.508788      50000          50000          50000          2.0019603e-07  2.1188186e-07  1.1175604e-07  2.7695019e-07  33.508788    
     94340   32.927965      50000          50000          50000          2.2885464e-07  2.4831701e-07  1.4690262e-07  2.9134429e-07  32.927965    
     94360   30.116015      50000          50000          50000          2.4731311e-07  2.8070602e-07  1.7423802e-07  2.8699529e-07  30.116015    
     94380   25.776865      50000          50000          50000          2.544438e-07   3.0685266e-07  1.9235677e-07  2.6412197e-07  25.776865    
     94400   21.143332      50000          50000          50000          2.4957372e-07  3.2386328e-07  2.0037501e-07  2.2448288e-07  21.143332    
     94420   17.521542      50000          50000          50000          2.3290952e-07  3.292328e-07   1.9808334e-07  1.7141242e-07  17.521542    
     94440   15.80093       50000          50000          50000          2.0584482e-07  3.2189988e-07  1.8606686e-07  1.0956771e-07  15.80093     
     94460   16.164688      50000          50000          50000          1.7078268e-07  3.0246827e-07  1.6559835e-07  4.4281428e-08  16.164688    
     94480   18.107369      50000          50000          50000          1.3059254e-07  2.7258846e-07  1.3833815e-07 -1.9149006e-08  18.107369    
     94500   20.684119      50000          50000          50000          8.8242849e-08  2.3439673e-07  1.0616572e-07 -7.5833901e-08  20.684119    
     94520   22.872973      50000          50000          50000          4.6591017e-08  1.9015306e-07  7.1146679e-08 -1.2152669e-07  22.872973    
     94540   23.942028      50000          50000          50000          8.0698754e-09  1.4176035e-07  3.541179e-08  -1.5296251e-07  23.942028    
     94560   23.697032      50000          50000          50000         -2.5618091e-08  9.0373779e-08  9.5188816e-10 -1.6817994e-07  23.697032    
     94580   22.516764      50000          50000          50000         -5.3627135e-08  3.6390659e-08 -3.0571521e-08 -1.6670054e-07  22.516764    
     94600   21.164476      50000          50000          50000         -7.58826e-08   -2.0145306e-08 -5.795169e-08  -1.495508e-07   21.164476    
     94620   20.448419      50000          50000          50000         -9.2839573e-08 -7.8890431e-08 -8.0485569e-08 -1.1914272e-07  20.448419    
     94640   20.864996      50000          50000          50000         -1.0518444e-07 -1.3858172e-07 -9.7945109e-08 -7.9026502e-08  20.864996    
     94660   22.372636      50000          50000          50000         -1.1359288e-07 -1.9676129e-07 -1.1047987e-07 -3.3537462e-08  22.372636    
     94680   24.39687       50000          50000          50000         -1.1863124e-07 -2.5003557e-07 -1.1847552e-07  1.2617382e-08  24.39687     
     94700   26.068895      50000          50000          50000         -1.2081781e-07 -2.9482119e-07 -1.2240554e-07  5.4773295e-08  26.068895    
     94720   26.598396      50000          50000          50000         -1.2078204e-07 -3.2830997e-07 -1.2271287e-07  8.8676723e-08  26.598396    
     94740   25.627091      50000          50000          50000         -1.1941716e-07 -3.4931149e-07 -1.1974308e-07  1.1080309e-07  25.627091    
     94760   23.418438      50000          50000          50000         -1.1792015e-07 -3.5868908e-07 -1.1373067e-07  1.1865931e-07  23.418438    
     94780   20.795144      50000          50000          50000         -1.1764005e-07 -3.5920197e-07 -1.0482633e-07  1.1110815e-07  20.795144    
     94800   18.824731      50000          50000          50000         -1.1973013e-07 -3.5471265e-07 -9.3153471e-08  8.8675743e-08  18.824731    
     94820   18.364401      50000          50000          50000         -1.24719e-07   -3.4897934e-07 -7.8883658e-08  5.3705979e-08  18.364401    
     94840   19.664072      50000          50000          50000         -1.321943e-07  -3.445003e-07  -6.231066e-08   1.022807e-08   19.664072    
     94860   22.223295      50000          50000          50000         -1.4074526e-07 -3.4186086e-07 -4.3882723e-08 -3.6492204e-08  22.223295    
     94880   24.988753      50000          50000          50000         -1.4819995e-07 -3.397856e-07  -2.4146171e-08 -8.0668089e-08  24.988753    
     94900   26.809009      50000          50000          50000         -1.5216056e-07 -3.3593682e-07 -3.6345732e-09 -1.1691029e-07  26.809009    
     94920   26.911446      50000          50000          50000         -1.5072524e-07 -3.2820961e-07  1.7129973e-08 -1.4109608e-07  26.911446    
     94940   25.178083      50000          50000          50000         -1.4295842e-07 -3.1563966e-07  3.7512822e-08 -1.5074843e-07  25.178083    
     94960   22.163385      50000          50000          50000         -1.289048e-07  -2.9844386e-07  5.6712408e-08 -1.4498294e-07  22.163385    
     94980   18.89108       50000          50000          50000         -1.0939331e-07 -2.7757958e-07  7.3815769e-08 -1.2441612e-07  18.89108     
     95000   16.490917      50000          50000          50000         -8.5771354e-08 -2.5412534e-07  8.7902913e-08 -9.1091635e-08  16.490917    
     95020   15.788806      50000          50000          50000         -5.9587988e-08 -2.2863194e-07  9.8167329e-08 -4.8299355e-08  15.788806    
     95040   17.004093      50000          50000          50000         -3.2304621e-08 -2.0069737e-07  1.0402375e-07 -2.4024502e-10  17.004093    
     95060   19.678692      50000          50000          50000         -5.1438178e-09 -1.6901714e-07  1.051705e-07   4.8415193e-08  19.678692    
     95080   22.864898      50000          50000          50000          2.0875814e-08 -1.3195288e-07  1.0159283e-07  9.298749e-08   22.864898    
     95100   25.486787      50000          50000          50000          4.4769705e-08 -8.8408695e-08  9.352147e-08   1.2919634e-07  25.486787    
     95120   26.727327      50000          50000          50000          6.539167e-08  -3.8690214e-08  8.1375259e-08  1.5348996e-07  26.727327    
     95140   26.300477      50000          50000          50000          8.1321495e-08  1.4937136e-08  6.5715311e-08  1.6331204e-07  26.300477    
     95160   24.521024      50000          50000          50000          9.0918345e-08  6.8184881e-08  4.7228914e-08  1.5734124e-07  24.521024    
     95180   22.153918      50000          50000          50000          9.2580488e-08  1.152842e-07   2.6745212e-08  1.3571205e-07  22.153918    
     95200   20.098855      50000          50000          50000          8.5159912e-08  1.5007208e-07  5.2559971e-09  1.0015166e-07  20.098855    
     95220   19.036232      50000          50000          50000          6.8366332e-08  1.6727755e-07 -1.6101055e-08  5.3922498e-08  19.036232    
     95240   19.18686       50000          50000          50000          4.2978348e-08  1.6353056e-07 -3.6115784e-08  1.5202684e-09  19.18686     
     95260   20.283748      50000          50000          50000          1.0781357e-08  1.3778404e-07 -5.3620616e-08 -5.1819357e-08  20.283748    
     95280   21.749116      50000          50000          50000         -2.5725745e-08  9.1144549e-08 -6.7619979e-08 -1.0070181e-07  21.749116    
     95300   22.970553      50000          50000          50000         -6.374297e-08   2.6320541e-08 -7.7407066e-08 -1.4014239e-07  22.970553    
     95320   23.559931      50000          50000          50000         -1.0054685e-07 -5.2945265e-08 -8.2643686e-08 -1.660516e-07   23.559931    
     95340   23.473701      50000          50000          50000         -1.3376095e-07 -1.4228538e-07 -8.3390806e-08 -1.7560666e-07  23.473701    
     95360   22.976455      50000          50000          50000         -1.6147622e-07 -2.3683178e-07 -8.0088224e-08 -1.6750864e-07  22.976455    
     95380   22.476541      50000          50000          50000         -1.8225857e-07 -3.3115534e-07 -7.3490965e-08 -1.4212942e-07  22.476541    
     95400   22.316566      50000          50000          50000         -1.951013e-07  -4.1919165e-07 -6.4574145e-08 -1.015381e-07   22.316566    
     95420   22.612258      50000          50000          50000         -1.9938242e-07 -4.9434097e-07 -5.4422034e-08 -4.9384256e-08  22.612258    
     95440   23.206484      50000          50000          50000         -1.948665e-07  -5.4985993e-07 -4.4118912e-08  9.3793598e-09  23.206484    
     95460   23.751427      50000          50000          50000         -1.8175387e-07 -5.7953643e-07 -3.4655737e-08  6.8930557e-08  23.751427    
     95480   23.875641      50000          50000          50000         -1.6074409e-07 -5.7851259e-07 -2.6857488e-08  1.231378e-07   23.875641    
     95500   23.359599      50000          50000          50000         -1.3305929e-07 -5.4404791e-07 -2.1326447e-08  1.6619648e-07  23.359599    
     95520   22.245632      50000          50000          50000         -1.0038016e-07 -4.760161e-07  -1.839531e-08   1.9327093e-07  22.245632    
     95540   20.840988      50000          50000          50000         -6.4703408e-08 -3.7703888e-07 -1.8102111e-08  2.0103077e-07  20.840988    
     95560   19.618754      50000          50000          50000         -2.82207e-08   -2.524049e-07  -2.02186e-08    1.879614e-07   19.618754    
     95580   19.053743      50000          50000          50000          6.760639e-09  -1.0994142e-07 -2.4297493e-08  1.5452083e-07  19.053743    
     95600   19.441222      50000          50000          50000          3.8054465e-08  4.0474379e-08 -2.964125e-08   1.0333027e-07  19.441222    
     95620   20.765378      50000          50000          50000          6.399861e-08   1.8805142e-07 -3.525095e-08   3.919536e-08   20.765378    
     95640   22.690649      50000          50000          50000          8.3726032e-08  3.2245699e-07 -3.9902574e-08 -3.1376319e-08  22.690649    
     95660   24.690298      50000          50000          50000          9.7162089e-08  4.3490401e-07 -4.2349307e-08 -1.0106844e-07  24.690298    
     95680   26.247295      50000          50000          50000          1.048491e-07   5.1883824e-07 -4.1549988e-08 -1.6274096e-07  26.247295    
     95700   27.030833      50000          50000          50000          1.0773093e-07  5.7032106e-07 -3.6846073e-08 -2.1028221e-07  27.030833    
     95720   26.976062      50000          50000          50000          1.069644e-07   5.8816199e-07 -2.8051778e-08 -2.39217e-07    26.976062    
     95740   26.250175      50000          50000          50000          1.0376662e-07  5.7378136e-07 -1.5457181e-08 -2.4702432e-07  26.250175    
     95760   25.142562      50000          50000          50000          9.9300219e-08  5.3085096e-07  2.3273565e-10 -2.3318304e-07  25.142562    
     95780   23.941247      50000          50000          50000          9.4611786e-08  4.648731e-07   1.7997413e-08 -1.9903516e-07  23.941247    
     95800   22.846487      50000          50000          50000          9.0613475e-08  3.8278654e-07  3.6618958e-08 -1.4756507e-07  22.846487    
     95820   21.944253      50000          50000          50000          8.8066235e-08  2.9252556e-07  5.4803282e-08 -8.3130138e-08  21.944253    
     95840   21.234591      50000          50000          50000          8.7538197e-08  2.024434e-07   7.1292143e-08 -1.1120952e-08  21.234591    
     95860   20.688987      50000          50000          50000          8.9348074e-08  1.2061161e-07  8.4960097e-08  6.2472514e-08  20.688987    
     95880   20.302079      50000          50000          50000          9.35225e-08    5.4089548e-08  9.4895337e-08  1.3158262e-07  20.302079    
     95900   20.110256      50000          50000          50000          9.9792168e-08  8.2779784e-09  1.0046507e-07  1.9063345e-07  20.110256    
     95920   20.169636      50000          50000          50000          1.0763471e-07 -1.3551268e-08  1.013639e-07   2.350915e-07   20.169636    
     95940   20.507863      50000          50000          50000          1.1635173e-07 -1.0498829e-08  9.7638672e-08  2.6191534e-07  20.507863    
     95960   21.08614       50000          50000          50000          1.2516162e-07  1.5967672e-08  8.9685127e-08  2.6983207e-07  21.08614     
     95980   21.784901      50000          50000          50000          1.3326154e-07  6.2213908e-08  7.8198051e-08  2.5937267e-07  21.784901    
     96000   22.445906      50000          50000          50000          1.3985257e-07  1.227939e-07   6.4085943e-08  2.3267787e-07  22.445906    
     96020   22.942082      50000          50000          50000          1.4408738e-07  1.9080086e-07  4.8346821e-08  1.9311445e-07  22.942082    
     96040   23.247054      50000          50000          50000          1.4497214e-07  2.5814347e-07  3.1940656e-08  1.448323e-07   23.247054    
     96060   23.462331      50000          50000          50000          1.4137325e-07  3.1600922e-07  1.5719367e-08  9.2391172e-08  23.462331    
     96080   23.776047      50000          50000          50000          1.3226662e-07  3.5593554e-07  4.3206688e-10  4.0432263e-08  23.776047    
     96100   24.355793      50000          50000          50000          1.1705168e-07  3.7117882e-07 -1.3276314e-08 -6.7474681e-09  24.355793    
     96120   25.240004      50000          50000          50000          9.5704317e-08  3.5770476e-07 -2.4910771e-08 -4.5681039e-08  25.240004    
     96140   26.268734      50000          50000          50000          6.8753461e-08  3.1452832e-07 -3.4167088e-08 -7.4100852e-08  26.268734    
     96160   27.109556      50000          50000          50000          3.7192266e-08  2.4362755e-07 -4.0935353e-08 -9.1115401e-08  27.109556    
     96180   27.372611      50000          50000          50000          2.3614624e-09  1.4955614e-07 -4.5272357e-08 -9.7199399e-08  27.372611    
     96200   26.772939      50000          50000          50000         -3.4217926e-08  3.8719522e-08 -4.7361811e-08 -9.4011488e-08  26.772939    
     96220   25.26833       50000          50000          50000         -7.1161368e-08 -8.1842239e-08 -4.7523743e-08 -8.4118123e-08  25.26833     
     96240   23.112269      50000          50000          50000         -1.0757647e-07 -2.057105e-07  -4.6290349e-08 -7.0728566e-08  23.112269    
     96260   20.806372      50000          50000          50000         -1.4306114e-07 -3.2737798e-07 -4.4415578e-08 -5.738987e-08   20.806372    
     96280   18.960735      50000          50000          50000         -1.7731711e-07 -4.416866e-07  -4.2733042e-08 -4.7531685e-08  18.960735    
     96300   18.092585      50000          50000          50000         -2.097854e-07  -5.4347918e-07 -4.1953154e-08 -4.3923861e-08  18.092585    
     96320   18.439782      50000          50000          50000         -2.3952425e-07 -6.2783224e-07 -4.2511222e-08 -4.8229295e-08  18.439782    
     96340   19.871273      50000          50000          50000         -2.652408e-07  -6.9050304e-07 -4.4477583e-08 -6.074176e-08   19.871273    
     96360   21.931074      50000          50000          50000         -2.854132e-07  -7.2836464e-07 -4.7532604e-08 -8.0342352e-08  21.931074    
     96380   23.99571       50000          50000          50000         -2.984835e-07  -7.3975675e-07 -5.1019095e-08 -1.0467465e-07  23.99571     
     96400   25.482166      50000          50000          50000         -3.0307487e-07 -7.2468133e-07 -5.4060466e-08 -1.3048282e-07  25.482166    
     96420   26.030243      50000          50000          50000         -2.9818108e-07 -6.848006e-07  -5.5713575e-08 -1.5402906e-07  26.030243    
     96440   25.600438      50000          50000          50000         -2.8329994e-07 -6.2325479e-07 -5.5124841e-08 -1.715202e-07   25.600438    
     96460   24.462428      50000          50000          50000         -2.5850923e-07 -5.4435268e-07 -5.1667442e-08 -1.7950758e-07  24.462428    
     96480   23.084371      50000          50000          50000         -2.2448979e-07 -4.5317456e-07 -4.5043302e-08 -1.7525149e-07  23.084371    
     96500   21.963578      50000          50000          50000         -1.8248796e-07 -3.5508663e-07 -3.5332463e-08 -1.5704478e-07  21.963578    
     96520   21.454705      50000          50000          50000         -1.3422117e-07 -2.552138e-07  -2.2979785e-08 -1.2446994e-07  21.454705    
     96540   21.664488      50000          50000          50000         -8.1756983e-08 -1.579961e-07  -8.7263184e-09 -7.854853e-08   21.664488    
     96560   22.449655      50000          50000          50000         -2.7417953e-08 -6.6992971e-08  6.4869644e-09 -2.1747851e-08  22.449655    
     96580   23.510276      50000          50000          50000          2.6276287e-08  1.5039799e-08  2.1617899e-08  4.2171164e-08  23.510276    
     96600   24.524918      50000          50000          50000          7.6661378e-08  8.5908002e-08  3.5612107e-08  1.0846403e-07  24.524918    
     96620   25.261647      50000          50000          50000          1.2102313e-07  1.4373017e-07  4.7484037e-08  1.7185517e-07  25.261647    
     96640   25.621166      50000          50000          50000          1.5676884e-07  1.8680872e-07  5.639881e-08   2.27099e-07    25.621166    
     96660   25.609052      50000          50000          50000          1.8166936e-07  2.1366618e-07  6.1757328e-08  2.6958457e-07  25.609052    
     96680   25.27039       50000          50000          50000          1.9410486e-07  2.2318139e-07  6.3265742e-08  2.9586744e-07  25.27039     
     96700   24.634024      50000          50000          50000          1.9320366e-07  2.1467797e-07  6.0954184e-08  3.0397884e-07  24.634024    
     96720   23.699136      50000          50000          50000          1.7882057e-07  1.8788256e-07  5.5136352e-08  2.934428e-07   23.699136    
     96740   22.466111      50000          50000          50000          1.5143288e-07  1.4285121e-07  4.6349172e-08  2.6509826e-07  22.466111    
     96760   20.98823       50000          50000          50000          1.1206217e-07  8.0004486e-08  3.5306459e-08  2.2087558e-07  20.98823     
     96780   19.412221      50000          50000          50000          6.2243377e-08  2.8437059e-10  2.2859252e-08  1.6358651e-07  19.412221    
     96800   17.981552      50000          50000          50000          4.0088559e-09 -9.4639184e-08  9.9456046e-09  9.6720147e-08  17.981552    
     96820   16.992366      50000          50000          50000         -6.0139803e-08 -2.0218324e-07 -2.470941e-09   2.4234778e-08  16.992366    
     96840   16.714139      50000          50000          50000         -1.2729185e-07 -3.1875291e-07 -1.3462745e-08 -4.9659905e-08  16.714139    
     96860   17.307729      50000          50000          50000         -1.9424931e-07 -4.3981138e-07 -2.2192366e-08 -1.207442e-07   17.307729    
     96880   18.778702      50000          50000          50000         -2.5776112e-07 -5.6022451e-07 -2.7999164e-08 -1.850597e-07   18.778702    
     96900   20.973269      50000          50000          50000         -3.1482566e-07 -6.7474348e-07 -3.0608876e-08 -2.3912462e-07  20.973269    
     96920   23.580082      50000          50000          50000         -3.6264687e-07 -7.7774655e-07 -3.0283955e-08 -2.799101e-07   23.580082    
     96940   26.15247       50000          50000          50000         -3.9824676e-07 -8.6234971e-07 -2.7537978e-08 -3.0485259e-07  26.15247     
     96960   28.224238      50000          50000          50000         -4.1880974e-07 -9.2110851e-07 -2.2881157e-08 -3.1243954e-07  28.224238    
     96980   29.474133      50000          50000          50000         -4.2250595e-07 -9.4778485e-07 -1.6917113e-08 -3.028159e-07   29.474133    
     97000   29.826784      50000          50000          50000         -4.0885641e-07 -9.3833329e-07 -1.0407192e-08 -2.7782873e-07  29.826784    
     97020   29.443206      50000          50000          50000         -3.7867452e-07 -8.9116683e-07 -4.1960167e-09 -2.406607e-07   29.443206    
     97040   28.619029      50000          50000          50000         -3.3383533e-07 -8.071529e-07   9.1484167e-10 -1.9526794e-07  28.619029    
     97060   27.644454      50000          50000          50000         -2.7697157e-07 -6.8945637e-07  4.2909789e-09 -1.4574932e-07  27.644454    
     97080   26.690669      50000          50000          50000         -2.1114565e-07 -5.4322181e-07  5.5593501e-09 -9.5774474e-08  26.690669    
     97100   25.770711      50000          50000          50000         -1.3954749e-07 -3.7509931e-07  4.6542224e-09 -4.8197392e-08  25.770711    
     97120   24.784735      50000          50000          50000         -6.5263428e-08 -1.9266843e-07  1.8092456e-09 -4.9311027e-09  24.784735    
     97140   23.619206      50000          50000          50000          8.8632068e-09 -3.8543304e-09 -2.4923388e-09  3.293629e-08   23.619206    
     97160   22.247362      50000          50000          50000          8.0298129e-08  1.8358916e-07 -7.5849492e-09  6.4890173e-08  22.247362    
     97180   20.783391      50000          50000          50000          1.4685542e-07  3.6251782e-07 -1.2684692e-08  9.0733124e-08  20.783391    
     97200   19.467379      50000          50000          50000          2.0675033e-07  5.2677944e-07 -1.6945502e-08  1.1041705e-07  19.467379    
     97220   18.588457      50000          50000          50000          2.5867337e-07  6.715378e-07  -1.9516478e-08  1.2399877e-07  18.588457    
     97240   18.37851       50000          50000          50000          3.0186031e-07  7.9349299e-07 -1.9613035e-08  1.3170097e-07  18.37851     
     97260   18.920143      50000          50000          50000          3.3611809e-07  8.9094256e-07 -1.6609287e-08  1.3402099e-07  18.920143    
     97280   20.105985      50000          50000          50000          3.6177472e-07  9.6365998e-07 -1.0148451e-08  1.3181264e-07  20.105985    
     97300   21.664636      50000          50000          50000          3.7954753e-07  1.0126177e-06 -2.5585937e-10  1.2628074e-07  21.664636    
     97320   23.241659      50000          50000          50000          3.903527e-07   1.0396214e-06  1.256947e-08   1.1886717e-07  23.241659    
     97340   24.504322      50000          50000          50000          3.9509715e-07  1.0469298e-06  2.7310007e-08  1.1105169e-07  24.504322    
     97360   25.233259      50000          50000          50000          3.9449466e-07  1.0369127e-06  4.2450739e-08  1.0412053e-07  25.233259    
     97380   25.372681      50000          50000          50000          3.8893864e-07  1.0117759e-06  5.6076433e-08  9.8963565e-08  25.372681    
     97400   25.027087      50000          50000          50000          3.7845435e-07  9.733619e-07   6.6050277e-08  9.5950869e-08  25.027087    
     97420   24.409871      50000          50000          50000          3.6274666e-07  9.2304104e-07  7.0275657e-08  9.4923277e-08  24.409871    
     97440   23.763434      50000          50000          50000          3.4134098e-07  8.6169492e-07  6.7020872e-08  9.5307131e-08  23.763434    
     97460   23.27972       50000          50000          50000          3.137732e-07   7.897689e-07   5.5234956e-08  9.6315747e-08  23.27972     
     97480   23.050319      50000          50000          50000          2.7975016e-07  7.0735881e-07  3.4748923e-08  9.7142728e-08  23.050319    
     97500   23.061226      50000          50000          50000          2.3922689e-07  6.1433041e-07  6.303269e-09   9.7046991e-08  23.061226    
     97520   23.224432      50000          50000          50000          1.9242457e-07  5.1052267e-07 -2.8557885e-08  9.5308919e-08  23.224432    
     97540   23.423395      50000          50000          50000          1.3985352e-07  3.9607254e-07 -6.7639705e-08  9.1127723e-08  23.423395    
     97560   23.551617      50000          50000          50000          8.2358691e-08  2.7178271e-07 -1.0825221e-07  8.3545576e-08  23.551617    
     97580   23.535353      50000          50000          50000          2.1158274e-08  1.3938534e-07 -1.4736752e-07  7.1456996e-08  23.535353    
     97600   23.341824      50000          50000          50000         -4.2148167e-08  1.6067352e-09 -1.8178601e-07  5.3734771e-08  23.341824    
     97620   22.978893      50000          50000          50000         -1.0561001e-07 -1.3797472e-07 -2.0832062e-07  2.9465307e-08  22.978893    
     97640   22.491246      50000          50000          50000         -1.669956e-07  -2.7521937e-07 -2.2400972e-07 -1.7577244e-09  22.491246    
     97660   21.954252      50000          50000          50000         -2.2389878e-07 -4.0577377e-07 -2.2636146e-07 -3.9561117e-08  21.954252    
     97680   21.463471      50000          50000          50000         -2.7387443e-07 -5.2538578e-07 -2.1361576e-07 -8.2621755e-08  21.463471    
     97700   21.117793      50000          50000          50000         -3.1459242e-07 -6.3013439e-07 -1.8499075e-07 -1.2865214e-07  21.117793    
     97720   20.99761       50000          50000          50000         -3.4399807e-07 -7.1657415e-07 -1.408677e-07  -1.7455235e-07  20.99761     
     97740   21.143887      50000          50000          50000         -3.6046728e-07 -7.8183779e-07 -8.2869233e-08 -2.1669481e-07  21.143887    
     97760   21.546124      50000          50000          50000         -3.6294465e-07 -8.2375359e-07 -1.38013e-08   -2.5127907e-07  21.546124    
     97780   22.145046      50000          50000          50000         -3.5105168e-07 -8.4100953e-07  6.2544092e-08 -2.746896e-07   22.145046    
     97800   22.849962      50000          50000          50000         -3.2515033e-07 -8.3334504e-07  1.4170097e-07 -2.8380693e-07  22.849962    
     97820   23.564194      50000          50000          50000         -2.8634696e-07 -8.017013e-07   2.1891003e-07 -2.7624959e-07  23.564194    
     97840   24.208276      50000          50000          50000         -2.3642946e-07 -7.4824443e-07  2.8950399e-07 -2.5054794e-07  24.208276    
     97860   24.733466      50000          50000          50000         -1.777563e-07  -6.7621706e-07  3.4921883e-07 -2.0627067e-07  24.733466    
     97880   25.118279      50000          50000          50000         -1.1316605e-07 -5.8970237e-07  3.9435991e-07 -1.441557e-07   25.118279    
     97900   25.354262      50000          50000          50000         -4.5983923e-08 -4.9345285e-07  4.2183124e-07 -6.6330158e-08  25.354262    
     97920   25.423669      50000          50000          50000          1.9912027e-08 -3.9282443e-07  4.2919668e-07  2.336383e-08   25.423669    
     97940   25.283102      50000          50000          50000          8.0228404e-08 -2.934857e-07   4.1498833e-07  1.1918259e-07  25.283102    
     97960   24.872878      50000          50000          50000          1.3073009e-07 -2.0074226e-07  3.7914719e-07  2.1378535e-07  24.872878    
     97980   24.162054      50000          50000          50000          1.6776146e-07 -1.1896399e-07  3.2323033e-07  2.9901804e-07  24.162054    
     98000   23.207673      50000          50000          50000          1.8857683e-07 -5.1470347e-08  2.5030653e-07  3.668943e-07   23.207673    
     98020   22.185053      50000          50000          50000          1.9153745e-07 -6.6579825e-10  1.6469504e-07  4.105831e-07   22.185053    
     98040   21.356107      50000          50000          50000          1.7627018e-07  3.1892695e-08  7.1623381e-08  4.2529446e-07  21.356107    
     98060   20.977522      50000          50000          50000          1.4378217e-07  4.5635712e-08 -2.3213466e-08  4.0892427e-07  20.977522    
     98080   21.190266      50000          50000          50000          9.6426841e-08  4.1215059e-08 -1.1420935e-07  3.6227481e-07  21.190266    
     98100   21.950385      50000          50000          50000          3.7592558e-08  2.0494267e-08 -1.9644396e-07  2.8872737e-07  21.950385    
     98120   23.037384      50000          50000          50000         -2.8813188e-08 -1.3874505e-08 -2.6610825e-07  1.9354319e-07  23.037384    
     98140   24.128656      50000          50000          50000         -9.877137e-08  -5.8949678e-08 -3.2060375e-07  8.3239314e-08  24.128656    
     98160   24.904737      50000          50000          50000         -1.6832627e-07 -1.1177098e-07 -3.5844244e-07 -3.476539e-08   24.904737    
     98180   25.152929      50000          50000          50000         -2.3370255e-07 -1.6953869e-07 -3.7914701e-07 -1.5242194e-07  25.152929    
     98200   24.837712      50000          50000          50000         -2.9147737e-07 -2.298354e-07  -3.8318335e-07 -2.6141337e-07  24.837712    
     98220   24.109875      50000          50000          50000         -3.3876505e-07 -2.9079759e-07 -3.718712e-07  -3.5362636e-07  24.109875    
     98240   23.245241      50000          50000          50000         -3.7335371e-07 -3.5110488e-07 -3.4724524e-07 -4.2171102e-07  23.245241    
     98260   22.532847      50000          50000          50000         -3.9377916e-07 -4.0975377e-07 -3.1187003e-07 -4.597137e-07   22.532847    
     98280   22.157374      50000          50000          50000         -3.9935284e-07 -4.6569311e-07 -2.686224e-07  -4.6374302e-07  22.157374    
     98300   22.128642      50000          50000          50000         -3.9016924e-07 -5.1747201e-07 -2.2045954e-07 -4.3257616e-07  22.128642    
     98320   22.294302      50000          50000          50000         -3.6710842e-07 -5.6305906e-07 -1.7019711e-07 -3.680691e-07   22.294302    
     98340   22.434294      50000          50000          50000         -3.3182942e-07 -5.9992678e-07 -1.2032322e-07 -2.7523825e-07  22.434294    
     98360   22.393725      50000          50000          50000         -2.8672822e-07 -6.2538091e-07 -7.2866791e-08 -1.6193696e-07  22.393725    
     98380   22.186662      50000          50000          50000         -2.3482305e-07 -6.370093e-07  -2.9326239e-08 -3.8133604e-08  22.186662    
     98400   22.01157       50000          50000          50000         -1.7953901e-07 -6.3308212e-07  9.3451203e-09  8.511996e-08   22.01157     
     98420   22.158773      50000          50000          50000         -1.2439782e-07 -6.1277271e-07  4.2703157e-08  1.968761e-07   22.158773    
     98440   22.844444      50000          50000          50000         -7.266316e-08  -5.7616807e-07  7.0731313e-08  2.8744728e-07  22.844444    
     98460   24.048576      50000          50000          50000         -2.7013668e-08 -5.2413494e-07  9.372508e-08   3.4936886e-07  24.048576    
     98480   25.44463       50000          50000          50000          1.0725095e-08 -4.5810901e-07  1.1218054e-07  3.7810375e-07  25.44463     
     98500   26.478836      50000          50000          50000          3.9773142e-08 -3.7984109e-07  1.2672058e-07  3.7243994e-07  26.478836    
     98520   26.586045      50000          50000          50000          6.0363895e-08 -2.9128075e-07  1.3799523e-07  3.343772e-07   26.586045    
     98540   25.44259       50000          50000          50000          7.3396214e-08 -1.947727e-07   1.4649533e-07  2.6846601e-07  25.44259     
     98560   23.13394       50000          50000          50000          8.0028855e-08 -9.3344302e-08  1.5238642e-07  1.8104445e-07  23.13394     
     98580   20.169579      50000          50000          50000          8.1484237e-08  9.2502663e-09  1.5547332e-07  7.9729119e-08  20.169579    
     98600   17.338458      50000          50000          50000          7.9055837e-08  1.0882981e-07  1.5527764e-07 -2.6939939e-08  17.338458    
     98620   15.44794       50000          50000          50000          7.4208765e-08  2.0136933e-07  1.5117951e-07 -1.2992255e-07  15.44794     
     98640   15.036228      50000          50000          50000          6.8679517e-08  2.8371452e-07  1.4259572e-07 -2.2027169e-07  15.036228    
     98660   16.171347      50000          50000          50000          6.4493903e-08  3.5419352e-07  1.2916471e-07 -2.8987652e-07  16.171347    
     98680   18.426371      50000          50000          50000          6.3850663e-08  4.1289618e-07  1.1089915e-07 -3.3224334e-07  18.426371    
     98700   21.044669      50000          50000          50000          6.8869776e-08  4.6149407e-07  8.8270746e-08 -3.4315548e-07  21.044669    
     98720   23.233943      50000          50000          50000          8.1264067e-08  5.0267016e-07  6.2215095e-08 -3.2109306e-07  23.233943    
     98740   24.468855      50000          50000          50000          1.01987e-07    5.3931593e-07  3.4076526e-08 -2.6743145e-07  24.468855    
     98760   24.68862       50000          50000          50000          1.3091565e-07  5.7374717e-07  5.5494221e-09 -1.8654964e-07  24.68862     
     98780   24.309135      50000          50000          50000          1.6673261e-07  6.0730989e-07 -2.1349574e-08 -8.5762493e-08  24.309135    
     98800   24.018846      50000          50000          50000          2.0718966e-07  6.405903e-07  -4.4384822e-08  2.5363512e-08  24.018846    
     98820   24.423873      50000          50000          50000          2.4961483e-07  6.738699e-07  -6.139327e-08   1.3636786e-07  24.423873    
     98840   25.716895      50000          50000          50000          2.9136083e-07  7.0737107e-07 -7.0634307e-08  2.3734571e-07  25.716895    
     98860   27.544912      50000          50000          50000          3.3006385e-07  7.4118509e-07 -7.1020432e-08  3.2002691e-07  27.544912    
     98880   29.142261      50000          50000          50000          3.6369756e-07  7.7490629e-07 -6.22069e-08    3.7839329e-07  29.142261    
     98900   29.665943      50000          50000          50000          3.9046116e-07  8.0707183e-07 -4.4593472e-08  4.0890513e-07  29.665943    
     98920   28.582893      50000          50000          50000          4.0860654e-07  8.3463696e-07 -1.9283718e-08  4.1046637e-07  28.582893    
     98940   25.941488      50000          50000          50000          4.16339e-07    8.5277246e-07  1.197649e-08   3.8426806e-07  25.941488    
     98960   22.408114      50000          50000          50000          4.1189665e-07  8.5520825e-07  4.6884883e-08  3.3359683e-07  22.408114    
     98980   19.040955      50000          50000          50000          3.9383827e-07  8.3519392e-07  8.2716404e-08  2.6360447e-07  19.040955    
     99000   16.881916      50000          50000          50000          3.614631e-07   7.869054e-07   1.1652938e-07  1.8095453e-07  16.881916    
     99020   16.538961      50000          50000          50000          3.1517256e-07  7.0683774e-07  1.4544086e-07  9.3239086e-08  16.538961    
     99040   17.9526        50000          50000          50000          2.5653382e-07  5.945559e-07   1.6690752e-07  8.138028e-09   17.9526      
     99060   20.452292      50000          50000          50000          1.8794421e-07  4.5244486e-07  1.7890484e-07 -6.751708e-08   20.452292    
     99080   23.052269      50000          50000          50000          1.1211101e-07  2.8483073e-07  1.7996762e-07 -1.2846532e-07  23.052269    
     99100   24.833318      50000          50000          50000          3.1672412e-08  9.7195085e-08  1.6918664e-07 -1.7136449e-07  24.833318    
     99120   25.271326      50000          50000          50000         -5.095444e-08  -1.0423618e-07  1.4625206e-07 -1.948792e-07   25.271326    
     99140   24.398814      50000          50000          50000         -1.3360707e-07 -3.1271147e-07  1.1153357e-07 -1.9964329e-07  24.398814    
     99160   22.767274      50000          50000          50000         -2.1431297e-07 -5.2100066e-07  6.6156952e-08 -1.8809519e-07  22.767274    
     99180   21.203416      50000          50000          50000         -2.9115172e-07 -7.2135396e-07  1.2035058e-08 -1.6413626e-07  21.203416    
     99200   20.452512      50000          50000          50000         -3.6208701e-07 -9.0547014e-07 -4.8182848e-08 -1.3260803e-07  20.452512    
     99220   20.855179      50000          50000          50000         -4.2486e-07    -1.0646561e-06 -1.1126206e-07 -9.8661804e-08  20.855179    
     99240   22.202339      50000          50000          50000         -4.7702409e-07 -1.1903148e-06 -1.7361474e-07 -6.7142776e-08  22.202339    
     99260   23.835109      50000          50000          50000         -5.1614295e-07 -1.2747639e-06 -2.3156878e-07 -4.20962e-08    23.835109    
     99280   24.941933      50000          50000          50000         -5.4010244e-07 -1.312237e-06  -2.8162871e-07 -2.6441657e-08  24.941933    
     99300   24.925413      50000          50000          50000         -5.4743328e-07 -1.2998022e-06 -3.2070117e-07 -2.179651e-08   24.925413    
     99320   23.667316      50000          50000          50000         -5.3756501e-07 -1.2380153e-06 -3.4628265e-07 -2.8397026e-08  23.667316    
     99340   21.598686      50000          50000          50000         -5.109223e-07  -1.1310704e-06 -3.5661937e-07 -4.5077125e-08  21.598686    
     99360   19.52843       50000          50000          50000         -4.6885186e-07 -9.8640083e-07 -3.5084322e-07 -6.9311545e-08  19.52843     
     99380   18.302486      50000          50000          50000         -4.1339241e-07 -8.1373311e-07 -3.2906312e-07 -9.7380987e-08  18.302486    
     99400   18.437757      50000          50000          50000         -3.4696967e-07 -6.2380217e-07 -2.9237731e-07 -1.2472952e-07  18.437757    
     99420   19.897084      50000          50000          50000         -2.7213693e-07 -4.27093e-07   -2.4278432e-07 -1.4653345e-07  19.897084    
     99440   22.109974      50000          50000          50000         -1.9145344e-07 -2.3295106e-07 -1.8300062e-07 -1.5840865e-07  22.109974    
     99460   24.225279      50000          50000          50000         -1.0750534e-07 -4.9192788e-08 -1.1621764e-07 -1.5710558e-07  24.225279    
     99480   25.471939      50000          50000          50000         -2.2989194e-08  1.1789551e-07 -4.5841542e-08 -1.4102154e-07  25.471939    
     99500   25.461465      50000          50000          50000          5.9239643e-08  2.6339107e-07  2.4737785e-08 -1.1040993e-07  25.461465    
     99520   24.307944      50000          50000          50000          1.3620927e-07  3.8358655e-07  9.2308091e-08 -6.7266835e-08  24.307944    
     99540   22.536333      50000          50000          50000          2.0497264e-07  4.7596665e-07  1.5392282e-07 -1.4971541e-08  22.536333    
     99560   20.840482      50000          50000          50000          2.6283244e-07  5.3933202e-07  2.0695512e-07  4.2210181e-08  20.840482    
     99580   19.80072       50000          50000          50000          3.0760605e-07  5.7398708e-07  2.4916121e-07  9.9669865e-08  19.80072     
     99600   19.67367       50000          50000          50000          3.3785398e-07  5.8182491e-07  2.7876431e-07  1.5297272e-07  19.67367     
     99620   20.331472      50000          50000          50000          3.5298687e-07  5.6615069e-07  2.9453724e-07  1.9827267e-07  20.331472    
     99640   21.364548      50000          50000          50000          3.531911e-07   5.3117882e-07  2.9583927e-07  2.3255522e-07  21.364548    
     99660   22.285351      50000          50000          50000          3.3914166e-07  4.812281e-07   2.8255429e-07  2.536426e-07   22.285351    
     99680   22.751079      50000          50000          50000          3.1159284e-07  4.1986246e-07  2.5496122e-07  2.5995485e-07  22.751079    
     99700   22.695741      50000          50000          50000          2.7124593e-07  3.495444e-07   2.1384077e-07  2.5035261e-07  22.695741    
     99720   22.336257      50000          50000          50000          2.1937208e-07  2.7244615e-07  1.6105696e-07  2.2461314e-07  22.336257    
     99740   22.040633      50000          50000          50000          1.5833837e-07  1.9111573e-07  9.9857332e-08  1.8404206e-07  22.040633    
     99760   22.126613      50000          50000          50000          9.1314235e-08  1.0806529e-07  3.4444049e-08  1.3143336e-07  22.126613    
     99780   22.697762      50000          50000          50000          2.1848873e-08  2.5376068e-08 -3.0560734e-08  7.0731286e-08  22.697762    
     99800   23.591885      50000          50000          50000         -4.638854e-08  -5.533769e-08  -9.0506496e-08  6.6785665e-09  23.591885    
     99820   24.460303      50000          50000          50000         -1.0987356e-07 -1.3292273e-07 -1.410678e-07  -5.5630146e-08  24.460303    
     99840   24.936443      50000          50000          50000         -1.6553963e-07 -2.0672236e-07 -1.7858891e-07 -1.1130762e-07  24.936443    
     99860   24.810663      50000          50000          50000         -2.1106481e-07 -2.7655923e-07 -2.0038429e-07 -1.562509e-07   24.810663    
     99880   24.126882      50000          50000          50000         -2.4504936e-07 -3.4257892e-07 -2.0495942e-07 -1.8760973e-07  24.126882    
     99900   23.163812      50000          50000          50000         -2.6703688e-07 -4.0493035e-07 -1.9213094e-07 -2.0404934e-07  23.163812    
     99920   22.300047      50000          50000          50000         -2.7740915e-07 -4.6342231e-07 -1.6304011e-07 -2.0576504e-07  22.300047    
     99940   21.846838      50000          50000          50000         -2.771855e-07  -5.1723361e-07 -1.2005694e-07 -1.9426597e-07  21.846838    
     99960   21.913662      50000          50000          50000         -2.6781181e-07 -5.6484538e-07 -6.6591041e-08 -1.7199901e-07  21.913662    
     99980   22.364624      50000          50000          50000         -2.5099529e-07 -6.042313e-07  -6.8374753e-09 -1.419171e-07   22.364624    
    100000   22.89162       50000          50000          50000         -2.2859085e-07 -6.3319276e-07  5.451185e-08  -1.0709165e-07  22.89162     
    100020   23.148346      50000          50000          50000         -2.0254701e-07 -6.4977826e-07  1.1256571e-07 -7.0428478e-08  23.148346    
    100040   22.899987      50000          50000          50000         -1.7485821e-07 -6.5261465e-07  1.6253615e-07 -3.4496135e-08  22.899987    
    100060   22.123085      50000          50000          50000         -1.4749272e-07 -6.4108414e-07  2.0004634e-07 -1.4403657e-09  22.123085    
    100080   21.020704      50000          50000          50000         -1.2227358e-07 -6.1531236e-07  2.2143794e-07  2.7053665e-08  21.020704    
    100100   19.95187       50000          50000          50000         -1.0072565e-07 -5.7600653e-07  2.2405255e-07  4.9777014e-08  19.95187     
Loop time of 4.15383 on 1 procs for 100000 steps with 100 atoms

Performance: 2080.008 ns/day, 0.012 hours/ns, 24074.169 timesteps/s, 2.407 Matom-step/s
58.2% CPU use with 1 MPI tasks x no OpenMP threads

MPI task timing breakdown:
Section |  min time  |  avg time  |  max time  |%varavg| %total
---------------------------------------------------------------
Pair    | 0.66338    | 0.66338    | 0.66338    |   0.0 | 15.97
Bond    | 0.34095    | 0.34095    | 0.34095    |   0.0 |  8.21
Neigh   | 1.1047     | 1.1047     | 1.1047     |   0.0 | 26.59
Comm    | 0.094092   | 0.094092   | 0.094092   |   0.0 |  2.27
Output  | 0.66112    | 0.66112    | 0.66112    |   0.0 | 15.92
Modify  | 1.1068     | 1.1068     | 1.1068     |   0.0 | 26.64
Other   |            | 0.1828     |            |       |  4.40

Nlocal:            100 ave         100 max         100 min
Histogram: 1 0 0 0 0 0 0 0 0 0
Nghost:              0 ave           0 max           0 min
Histogram: 1 0 0 0 0 0 0 0 0 0
Neighs:            196 ave         196 max         196 min
Histogram: 1 0 0 0 0 0 0 0 0 0
FullNghs:            0 ave           0 max           0 min
Histogram: 1 0 0 0 0 0 0 0 0 0

Total # of neighbors = 196
Ave neighs/atom = 1.96
Ave special neighs/atom = 5.88
Neighbor list builds = 5546
Dangerous builds = 0

thermo_style custom step temp f_3[*]
#####################################################
print "All done"
All done
Total wall time: 0:00:05
