read_data	InitialFile.txt
Reading data file ...
  orthogonal box = (0 0 0) to (158.5 158.5 158.5)
  1 by 1 by 1 MPI processor grid
WARNING: Atom style in data file atomic differs from currently defined atom style molecular (src/src/read_data.cpp:621)
  reading atoms ...
  100 atoms
  scanning bonds ...
  1 = max bonds/atom
  scanning angles ...
  1 = max angles/atom
  scanning dihedrals ...
  1 = max dihedrals/atom
  reading bonds ...
  99 bonds
  reading angles ...
  98 angles
  reading dihedrals ...
  97 dihedrals
Finding 1-2 1-3 1-4 neighbors ...
  special bond factors lj:    0        0        0       
  special bond factors coul:  0        0        0       
     2 = max # of 1-2 neighbors
     2 = max # of 1-3 neighbors
     4 = max # of 1-4 neighbors
     6 = max # of special neighbors
  special bonds CPU = 0.000 seconds
  read_data CPU = 0.005 seconds

# Dreiding potential information
neighbor	0.4 bin
neigh_modify	every 10 one 10000

bond_style      harmonic
bond_coeff	1 350 1.53
bond_coeff	2 700 1.53

angle_style     harmonic
angle_coeff	1 60 109.5
angle_coeff	2 120 109.5

dihedral_style	multi/harmonic
dihedral_coeff	1 1.73 -4.49 0.776 6.99 0.0
dihedral_coeff	2 1.73 -4.49 0.776 6.99 0.0

pair_style	lj/cut 10.5
pair_coeff	* * 1.0 1.0 10.5
pair_coeff	3 3 2.0 0.5 10.5

compute csym all centro/atom fcc
compute peratom all pe/atom


#####################################################
# Equilibration (Brownian dynamics at 300 K)

velocity 	all create 300.0 1231
fix		1 all nve/limit 0.05
fix 2 all brownian 30.0 12908410 gamma_t 3.0 rng gaussian # Compute a correct 300K simulation, check the value for gamma_t
thermo_style	custom step temp
thermo          10000
timestep	1
run		100000
Generated 0 of 3 mixed pair_coeff terms from geometric mixing rule
WARNING: One or more atoms are time integrated more than once (src/src/modify.cpp:289)
Neighbor list info ...
  update: every = 10 steps, delay = 0 steps, check = yes
  max neighbors/atom: 10000, page size: 100000
  master list distance cutoff = 10.9
  ghost atom cutoff = 10.9
  binsize = 5.45, bins = 30 30 30
  2 neighbor lists, perpetual/occasional/extra = 1 1 0
  (1) pair lj/cut, perpetual
      attributes: half, newton on
      pair build: half/bin/newton
      stencil: half/bin/3d
      bin: standard
  (2) compute centro/atom, occasional
      attributes: full, newton on
      pair build: full/bin
      stencil: full/bin/3d
      bin: standard
Per MPI rank memory allocation (min/avg/max) = 8.15 | 8.15 | 8.15 Mbytes
   Step          Temp     
         0   300          
     10000   301.14599    
     20000   258.43265    
     30000   315.00716    
     40000   288.15873    
     50000   282.34048    
     60000   293.92088    
     70000   308.43796    
     80000   274.17263    
     90000   333.82677    
    100000   337.04712    
Loop time of 3.9162 on 1 procs for 100000 steps with 100 atoms

Performance: 2206.223 ns/day, 0.011 hours/ns, 25534.986 timesteps/s, 2.553 Matom-step/s
93.8% CPU use with 1 MPI tasks x no OpenMP threads

MPI task timing breakdown:
Section |  min time  |  avg time  |  max time  |%varavg| %total
---------------------------------------------------------------
Pair    | 0.79209    | 0.79209    | 0.79209    |   0.0 | 20.23
Bond    | 1.7505     | 1.7505     | 1.7505     |   0.0 | 44.70
Neigh   | 0.086315   | 0.086315   | 0.086315   |   0.0 |  2.20
Comm    | 0.021566   | 0.021566   | 0.021566   |   0.0 |  0.55
Output  | 0.00025801 | 0.00025801 | 0.00025801 |   0.0 |  0.01
Modify  | 1.2105     | 1.2105     | 1.2105     |   0.0 | 30.91
Other   |            | 0.0549     |            |       |  1.40

Nlocal:            100 ave         100 max         100 min
Histogram: 1 0 0 0 0 0 0 0 0 0
Nghost:              0 ave           0 max           0 min
Histogram: 1 0 0 0 0 0 0 0 0 0
Neighs:            470 ave         470 max         470 min
Histogram: 1 0 0 0 0 0 0 0 0 0
FullNghs:            0 ave           0 max           0 min
Histogram: 1 0 0 0 0 0 0 0 0 0

Total # of neighbors = 470
Ave neighs/atom = 4.7
Ave special neighs/atom = 5.88
Neighbor list builds = 1219
Dangerous builds = 30
unfix 1
unfix 2
write_restart 	restart.${simname}.dreiding1
write_restart 	restart.InitialFile.dreiding1
System init for write_restart ...
Generated 0 of 3 mixed pair_coeff terms from geometric mixing rule

#####################################################
# Define Settings
compute eng all pe/atom
compute eatoms all reduce sum c_eng

#####################################################
# Minimization

dump mydmp all atom 100 dump.lammpstrj

reset_timestep 0
fix 1 all nvt temp 300.0 300.0 100.0
thermo 20
thermo_style custom step pe lx ly lz press pxx pyy pzz c_eatoms
min_style cg
minimize 1e-25 1e-25 500000 1000000
Switching to 'neigh_modify every 1 delay 0 check yes' setting during minimization
Generated 0 of 3 mixed pair_coeff terms from geometric mixing rule
Per MPI rank memory allocation (min/avg/max) = 9.275 | 9.275 | 9.275 Mbytes
   Step         PotEng           Lx             Ly             Lz           Press           Pxx            Pyy            Pzz          c_eatoms   
         0   16.772214      158.5          158.5          158.5          1.4629839      1.9998021      0.76524724     1.6239025      16.772214    
        20   2.7834278      158.5          158.5          158.5          2.2458359      2.4258599      2.2378029      2.0738448      2.7834278    
        40   2.0634689      158.5          158.5          158.5          2.0105893      2.1067081      2.0245764      1.9004835      2.0634689    
        60   1.6549229      158.5          158.5          158.5          2.0271142      2.2429329      2.0082349      1.8301749      1.6549229    
        80   1.5324646      158.5          158.5          158.5          2.109101       2.3264189      2.093288       1.9075961      1.5324646    
       100   1.4708134      158.5          158.5          158.5          2.0814659      2.2851651      2.0644638      1.8947687      1.4708134    
       120   1.4690161      158.5          158.5          158.5          2.0706899      2.2789466      2.0566074      1.8765159      1.4690161    
       140   1.4690161      158.5          158.5          158.5          2.0706898      2.2789465      2.0566073      1.8765157      1.4690161    
       144   1.4690161      158.5          158.5          158.5          2.0706898      2.2789465      2.0566073      1.8765157      1.4690161    
Loop time of 0.0193247 on 1 procs for 144 steps with 100 atoms

92.7% CPU use with 1 MPI tasks x no OpenMP threads

Minimization stats:
  Stopping criterion = energy tolerance
  Energy initial, next-to-last, final = 
      16.7722143561777   1.46901609616566   1.46901609616566
  Force two-norm initial, final = 143.00241 1.9584092
  Force max component initial, final = 32.695767 0.60960853
  Final line search alpha, max atom move = 0.082019849 0.05
  Iterations, force evaluations = 144 439

MPI task timing breakdown:
Section |  min time  |  avg time  |  max time  |%varavg| %total
---------------------------------------------------------------
Pair    | 0.0077882  | 0.0077882  | 0.0077882  |   0.0 | 40.30
Bond    | 0.0092245  | 0.0092245  | 0.0092245  |   0.0 | 47.73
Neigh   | 0.0005933  | 0.0005933  | 0.0005933  |   0.0 |  3.07
Comm    | 9.8849e-05 | 9.8849e-05 | 9.8849e-05 |   0.0 |  0.51
Output  | 0.0003591  | 0.0003591  | 0.0003591  |   0.0 |  1.86
Modify  | 0          | 0          | 0          |   0.0 |  0.00
Other   |            | 0.001261   |            |       |  6.52

Nlocal:            100 ave         100 max         100 min
Histogram: 1 0 0 0 0 0 0 0 0 0
Nghost:              0 ave           0 max           0 min
Histogram: 1 0 0 0 0 0 0 0 0 0
Neighs:            470 ave         470 max         470 min
Histogram: 1 0 0 0 0 0 0 0 0 0
FullNghs:            0 ave           0 max           0 min
Histogram: 1 0 0 0 0 0 0 0 0 0

Total # of neighbors = 470
Ave neighs/atom = 4.7
Ave special neighs/atom = 5.88
Neighbor list builds = 9
Dangerous builds = 0

group type1_atoms type 1
35 atoms in group type1_atoms
group type2_atoms type 2
28 atoms in group type2_atoms
group type3_atoms type 3
37 atoms in group type3_atoms

molecule mol1closeTo3PRE mol1closeTo3PRE.txt
Read molecule template mol1closeTo3PRE:
  1 molecules
  0 fragments
  3 atoms with max type 3
  0 bonds with max type 0
  0 angles with max type 0
  0 dihedrals with max type 0
  0 impropers with max type 0
molecule mol1closeTo3POST mol1closeTo3POST.txt
Read molecule template mol1closeTo3POST:
  1 molecules
  0 fragments
  3 atoms with max type 3
  0 bonds with max type 0
  0 angles with max type 0
  0 dihedrals with max type 0
  0 impropers with max type 0
molecule mol3closeTo1POST mol3closeTo1POST.txt
Read molecule template mol3closeTo1POST:
  1 molecules
  0 fragments
  3 atoms with max type 2
  0 bonds with max type 0
  0 angles with max type 0
  0 dihedrals with max type 0
  0 impropers with max type 0
molecule mol2closeTo3PRE mol2closeTo3PRE.txt
Read molecule template mol2closeTo3PRE:
  1 molecules
  0 fragments
  3 atoms with max type 3
  0 bonds with max type 0
  0 angles with max type 0
  0 dihedrals with max type 0
  0 impropers with max type 0
molecule mol2closeTo3POST mol2closeTo3POST.txt
Read molecule template mol2closeTo3POST:
  1 molecules
  0 fragments
  3 atoms with max type 3
  0 bonds with max type 0
  0 angles with max type 0
  0 dihedrals with max type 0
  0 impropers with max type 0
molecule mol3closeTo2POST mol3closeTo2POST.txt
Read molecule template mol3closeTo2POST:
  1 molecules
  0 fragments
  3 atoms with max type 2
  0 bonds with max type 0
  0 angles with max type 0
  0 dihedrals with max type 0
  0 impropers with max type 0
molecule mol2closeTo1PRE mol2closeTo1PRE.txt
Read molecule template mol2closeTo1PRE:
  1 molecules
  0 fragments
  3 atoms with max type 3
  0 bonds with max type 0
  0 angles with max type 0
  0 dihedrals with max type 0
  0 impropers with max type 0
molecule mol2closeTo1POST mol2closeTo1POST.txt
Read molecule template mol2closeTo1POST:
  1 molecules
  0 fragments
  3 atoms with max type 3
  0 bonds with max type 0
  0 angles with max type 0
  0 dihedrals with max type 0
  0 impropers with max type 0

fix 3 all bond/react   react reac1to2 type1_atoms 1 0.1 2 mol1closeTo3PRE mol1closeTo3POST map_1to2.txt   react reac2to3 type2_atoms 1 0.1 2 mol2closeTo3PRE mol2closeTo3POST map_2to3.txt   react reac3to2 type3_atoms 1 0.1 2 mol2closeTo3PRE mol3closeTo2POSTmap_3to2.txt   react reac2to1 type2_atoms 1 0.1 2 mol2closeTo1PRE mol2closeTo1POST map_2to1.txt
ERROR: Reacted molecule template ID for fix bond/react does not exist (src/src/REACTION/fix_bond_react.cpp:330)
Last command: fix 3 all bond/react   react reac1to2 type1_atoms 1 0.1 2 mol1closeTo3PRE mol1closeTo3POST map_1to2.txt   react reac2to3 type2_atoms 1 0.1 2 mol2closeTo3PRE mol2closeTo3POST map_2to3.txt   react reac3to2 type3_atoms 1 0.1 2 mol2closeTo3PRE mol3closeTo2POSTmap_3to2.txt   react reac2to1 type2_atoms 1 0.1 2 mol2closeTo1PRE mol2closeTo1POST map_2to1.txt
