read_data	InitialFile.txt
Reading data file ...
  orthogonal box = (0 0 0) to (158.5 158.5 158.5)
  1 by 1 by 1 MPI processor grid
WARNING: Atom style in data file atomic differs from currently defined atom style molecular (src/src/read_data.cpp:621)
  reading atoms ...
  100 atoms
  scanning bonds ...
  1 = max bonds/atom
  scanning angles ...
  1 = max angles/atom
  scanning dihedrals ...
  1 = max dihedrals/atom
  reading bonds ...
  99 bonds
  reading angles ...
  98 angles
  reading dihedrals ...
  97 dihedrals
Finding 1-2 1-3 1-4 neighbors ...
  special bond factors lj:    0        0        0       
  special bond factors coul:  0        0        0       
     2 = max # of 1-2 neighbors
     2 = max # of 1-3 neighbors
     4 = max # of 1-4 neighbors
     6 = max # of special neighbors
  special bonds CPU = 0.011 seconds
  read_data CPU = 0.067 seconds

# Dreiding potential information
neighbor	2.0 bin
neigh_modify every 1 delay 0 check yes

bond_style      harmonic
bond_coeff	1 350 1.53
bond_coeff	2 700 1.53

angle_style     harmonic
angle_coeff	1 60 109.5
angle_coeff	2 120 109.5

dihedral_style	multi/harmonic
dihedral_coeff	1 1.73 -4.49 0.776 6.99 0.0
dihedral_coeff	2 1.73 -4.49 0.776 6.99 0.0

pair_style	lj/cut 10.5
pair_coeff	* * 1.0 1.0 10.5
pair_coeff	3 3 2.0 0.5 10.5

compute csym all centro/atom fcc
compute peratom all pe/atom


#####################################################
# Equilibration (Brownian dynamics at 300 K)

velocity 	all create 300.0 1231
fix		1 all nve/limit 0.05
fix 2 all brownian 30.0 12908410 gamma_t 3.0 rng gaussian # Compute a correct 300K simulation, check the value for gamma_t
thermo_style	custom step temp
thermo          10000
timestep	1
run		100000
Generated 0 of 3 mixed pair_coeff terms from geometric mixing rule
WARNING: One or more atoms are time integrated more than once (src/src/modify.cpp:289)
Neighbor list info ...
  update: every = 1 steps, delay = 0 steps, check = yes
  max neighbors/atom: 2000, page size: 100000
  master list distance cutoff = 12.5
  ghost atom cutoff = 12.5
  binsize = 6.25, bins = 26 26 26
  2 neighbor lists, perpetual/occasional/extra = 1 1 0
  (1) pair lj/cut, perpetual
      attributes: half, newton on
      pair build: half/bin/newton
      stencil: half/bin/3d
      bin: standard
  (2) compute centro/atom, occasional
      attributes: full, newton on
      pair build: full/bin
      stencil: full/bin/3d
      bin: standard
Per MPI rank memory allocation (min/avg/max) = 8.1 | 8.1 | 8.1 Mbytes
   Step          Temp     
         0   300          
     10000   301.14599    
     20000   258.43265    
     30000   315.00716    
     40000   287.928      
     50000   283.03081    
     60000   294.87487    
     70000   308.54187    
     80000   273.87121    
     90000   333.45859    
    100000   336.77018    
Loop time of 3.56553 on 1 procs for 100000 steps with 100 atoms

Performance: 2423.201 ns/day, 0.010 hours/ns, 28046.312 timesteps/s, 2.805 Matom-step/s
90.7% CPU use with 1 MPI tasks x no OpenMP threads

MPI task timing breakdown:
Section |  min time  |  avg time  |  max time  |%varavg| %total
---------------------------------------------------------------
Pair    | 0.85338    | 0.85338    | 0.85338    |   0.0 | 23.93
Bond    | 1.5423     | 1.5423     | 1.5423     |   0.0 | 43.26
Neigh   | 0.0053839  | 0.0053839  | 0.0053839  |   0.0 |  0.15
Comm    | 0.022216   | 0.022216   | 0.022216   |   0.0 |  0.62
Output  | 0.00023317 | 0.00023317 | 0.00023317 |   0.0 |  0.01
Modify  | 1.0547     | 1.0547     | 1.0547     |   0.0 | 29.58
Other   |            | 0.08728    |            |       |  2.45

Nlocal:            100 ave         100 max         100 min
Histogram: 1 0 0 0 0 0 0 0 0 0
Nghost:              0 ave           0 max           0 min
Histogram: 1 0 0 0 0 0 0 0 0 0
Neighs:            630 ave         630 max         630 min
Histogram: 1 0 0 0 0 0 0 0 0 0
FullNghs:            0 ave           0 max           0 min
Histogram: 1 0 0 0 0 0 0 0 0 0

Total # of neighbors = 630
Ave neighs/atom = 6.3
Ave special neighs/atom = 5.88
Neighbor list builds = 81
Dangerous builds = 0
unfix 1
unfix 2
write_restart 	restart.${simname}.dreiding1
write_restart 	restart.InitialFile.dreiding1
System init for write_restart ...
Generated 0 of 3 mixed pair_coeff terms from geometric mixing rule

#####################################################
# Define Settings
compute eng all pe/atom
compute eatoms all reduce sum c_eng

#####################################################
# Minimization

dump mydmp all atom 100 dump.lammpstrj

reset_timestep 0
fix 1 all nvt temp 300.0 300.0 100.0
thermo 20
thermo_style custom step pe lx ly lz press pxx pyy pzz c_eatoms
min_style cg
minimize 1e-25 1e-25 500000 1000000
Generated 0 of 3 mixed pair_coeff terms from geometric mixing rule
Per MPI rank memory allocation (min/avg/max) = 9.225 | 9.225 | 9.225 Mbytes
   Step         PotEng           Lx             Ly             Lz           Press           Pxx            Pyy            Pzz          c_eatoms   
         0   16.887103      158.5          158.5          158.5          1.5350059      2.2073965      0.7835975      1.6140237      16.887103    
        20   2.5524196      158.5          158.5          158.5          2.2160604      2.4198831      2.1976265      2.0306715      2.5524196    
        40   2.0888763      158.5          158.5          158.5          2.2407899      2.4775276      2.1936896      2.0511525      2.0888763    
        60   1.9134504      158.5          158.5          158.5          2.2067691      2.3869425      2.2179808      2.015384       1.9134504    
        80   1.862429       158.5          158.5          158.5          2.112045       2.2950357      2.12043        1.9206694      1.862429     
       100   1.5858978      158.5          158.5          158.5          2.1010873      2.2389277      2.1317966      1.9325377      1.5858978    
       120   1.2151314      158.5          158.5          158.5          1.7365788      1.9033828      1.7027897      1.6035639      1.2151314    
       140   1.133          158.5          158.5          158.5          1.8108524      2.0311123      1.7991888      1.6022562      1.133        
       160   1.0477338      158.5          158.5          158.5          1.7263096      1.946452       1.7138124      1.5186643      1.0477338    
       180   1.0476624      158.5          158.5          158.5          1.7269606      1.947093       1.714416       1.5193727      1.0476624    
       200   1.0467251      158.5          158.5          158.5          1.7408456      1.9607427      1.7272693      1.5345247      1.0467251    
       220   1.0201008      158.5          158.5          158.5          1.6930607      1.9116931      1.6791884      1.4883006      1.0201008    
       240   0.85872422     158.5          158.5          158.5          1.3650434      1.5808861      1.3385712      1.1756728      0.85872422   
       260   0.82112555     158.5          158.5          158.5          1.2985698      1.5141612      1.287986       1.0935621      0.82112555   
       280   0.81072935     158.5          158.5          158.5          1.3067621      1.5352865      1.2859812      1.0990187      0.81072935   
       300   0.80176914     158.5          158.5          158.5          1.2938211      1.5150213      1.2805193      1.0859228      0.80176914   
       320   0.79259845     158.5          158.5          158.5          1.304419       1.5157333      1.2910083      1.1065154      0.79259845   
       340   0.78302806     158.5          158.5          158.5          1.2833227      1.4916702      1.2766892      1.0816086      0.78302806   
       360   0.77839217     158.5          158.5          158.5          1.2796794      1.4794082      1.278144       1.0814861      0.77839217   
       380   0.73349577     158.5          158.5          158.5          1.2614806      1.5432562      1.2108494      1.0303363      0.73349577   
       400   0.73332067     158.5          158.5          158.5          1.260281       1.5392369      1.2111826      1.0304234      0.73332067   
       411   0.73332067     158.5          158.5          158.5          1.260281       1.5392369      1.2111826      1.0304234      0.73332067   
Loop time of 0.0546403 on 1 procs for 411 steps with 100 atoms

94.0% CPU use with 1 MPI tasks x no OpenMP threads

Minimization stats:
  Stopping criterion = energy tolerance
  Energy initial, next-to-last, final = 
       16.887103411951   0.73332067211997   0.73332067211997
  Force two-norm initial, final = 142.96626 3.088905
  Force max component initial, final = 32.49507 1.5594032
  Final line search alpha, max atom move = 0.032063548 0.05
  Iterations, force evaluations = 411 1501

MPI task timing breakdown:
Section |  min time  |  avg time  |  max time  |%varavg| %total
---------------------------------------------------------------
Pair    | 0.024043   | 0.024043   | 0.024043   |   0.0 | 44.00
Bond    | 0.025663   | 0.025663   | 0.025663   |   0.0 | 46.97
Neigh   | 0          | 0          | 0          |   0.0 |  0.00
Comm    | 0.00023637 | 0.00023637 | 0.00023637 |   0.0 |  0.43
Output  | 0.0012209  | 0.0012209  | 0.0012209  |   0.0 |  2.23
Modify  | 0          | 0          | 0          |   0.0 |  0.00
Other   |            | 0.003477   |            |       |  6.36

Nlocal:            100 ave         100 max         100 min
Histogram: 1 0 0 0 0 0 0 0 0 0
Nghost:              0 ave           0 max           0 min
Histogram: 1 0 0 0 0 0 0 0 0 0
Neighs:            640 ave         640 max         640 min
Histogram: 1 0 0 0 0 0 0 0 0 0
FullNghs:            0 ave           0 max           0 min
Histogram: 1 0 0 0 0 0 0 0 0 0

Total # of neighbors = 640
Ave neighs/atom = 6.4
Ave special neighs/atom = 5.88
Neighbor list builds = 0
Dangerous builds = 0

group type1_atoms type 1
35 atoms in group type1_atoms
group type2_atoms type 2
28 atoms in group type2_atoms
group type3_atoms type 3
37 atoms in group type3_atoms

molecule mol1closeTo3PRE mol1closeTo3PRE.txt
Read molecule template mol1closeTo3PRE:
  1 molecules
  0 fragments
  3 atoms with max type 3
  0 bonds with max type 0
  0 angles with max type 0
  0 dihedrals with max type 0
  0 impropers with max type 0
molecule mol1closeTo3POST mol1closeTo3POST.txt
Read molecule template mol1closeTo3POST:
  1 molecules
  0 fragments
  3 atoms with max type 3
  0 bonds with max type 0
  0 angles with max type 0
  0 dihedrals with max type 0
  0 impropers with max type 0
molecule mol3closeTo1POST mol3closeTo1POST.txt
Read molecule template mol3closeTo1POST:
  1 molecules
  0 fragments
  3 atoms with max type 2
  0 bonds with max type 0
  0 angles with max type 0
  0 dihedrals with max type 0
  0 impropers with max type 0
molecule mol2closeTo3PRE mol2closeTo3PRE.txt
Read molecule template mol2closeTo3PRE:
  1 molecules
  0 fragments
  3 atoms with max type 3
  0 bonds with max type 0
  0 angles with max type 0
  0 dihedrals with max type 0
  0 impropers with max type 0
molecule mol2closeTo3POST mol2closeTo3POST.txt
Read molecule template mol2closeTo3POST:
  1 molecules
  0 fragments
  3 atoms with max type 3
  0 bonds with max type 0
  0 angles with max type 0
  0 dihedrals with max type 0
  0 impropers with max type 0
molecule mol3closeTo2POST mol3closeTo2POST.txt
Read molecule template mol3closeTo2POST:
  1 molecules
  0 fragments
  3 atoms with max type 2
  0 bonds with max type 0
  0 angles with max type 0
  0 dihedrals with max type 0
  0 impropers with max type 0
molecule mol2closeTo1PRE mol2closeTo1PRE.txt
Read molecule template mol2closeTo1PRE:
  1 molecules
  0 fragments
  3 atoms with max type 3
  0 bonds with max type 0
  0 angles with max type 0
  0 dihedrals with max type 0
  0 impropers with max type 0
molecule mol2closeTo1POST mol2closeTo1POST.txt
Read molecule template mol2closeTo1POST:
  1 molecules
  0 fragments
  3 atoms with max type 3
  0 bonds with max type 0
  0 angles with max type 0
  0 dihedrals with max type 0
  0 impropers with max type 0

fix 3 all bond/react   react reac1to2 type1_atoms 1 0 8 mol1closeTo3PRE mol1closeTo3POST map_1to2.txt   react reac2to3 type2_atoms 1 0 8 mol2closeTo3PRE mol2closeTo3POST map_2to3.txt   react reac3to2 type3_atoms 1 0 8 mol2closeTo3PRE mol3closeTo2POST map_3to2.txt   react reac2to1 type2_atoms 1 0 8 mol2closeTo1PRE mol2closeTo1POST map_2to1.txt
dynamic group bond_react_MASTER_group defined
run 50000

CITE-CITE-CITE-CITE-CITE-CITE-CITE-CITE-CITE-CITE-CITE-CITE-CITE

Your simulation uses code contributions which should be cited:

- fix bond/react: reacter.org doi:10.1016/j.polymer.2017.09.038, doi:10.1021/acs.macromol.0c02012

@Article{Gissinger17,
 author = {J. R. Gissinger and B. D. Jensen and K. E. Wise},
 title = {Modeling Chemical Reactions in Classical Molecular Dynamics Simulations},
 journal = {Polymer},
 year =    2017,
 volume =  128,
 pages =   {211--217}
}

@Article{Gissinger20,
 author = {J. R. Gissinger, B. D. Jensen, K. E. Wise},
 title = {{REACTER}: A Heuristic Method for Reactive Molecular Dynamics},
 journal = {Macromolecules},
 year =    2020,
 volume =  53,
 number =  22,
 pages =   {9953--9961}
}

CITE-CITE-CITE-CITE-CITE-CITE-CITE-CITE-CITE-CITE-CITE-CITE-CITE

Generated 0 of 3 mixed pair_coeff terms from geometric mixing rule
Neighbor list info ...
  update: every = 1 steps, delay = 0 steps, check = yes
  max neighbors/atom: 2000, page size: 100000
  master list distance cutoff = 12.5
  ghost atom cutoff = 12.5
  binsize = 6.25, bins = 26 26 26
  3 neighbor lists, perpetual/occasional/extra = 1 2 0
  (1) pair lj/cut, perpetual
      attributes: half, newton on
      pair build: half/bin/newton
      stencil: half/bin/3d
      bin: standard
  (2) compute centro/atom, occasional
      attributes: full, newton on
      pair build: full/bin
      stencil: full/bin/3d
      bin: standard
  (3) fix bond/react, occasional, copy from (1)
      attributes: half, newton on
      pair build: copy
      stencil: none
      bin: none
Per MPI rank memory allocation (min/avg/max) = 9.542 | 9.542 | 9.542 Mbytes
   Step         PotEng           Lx             Ly             Lz           Press           Pxx            Pyy            Pzz          c_eatoms   
       411   0.73332067     158.5          158.5          158.5          1.260281       1.5392369      1.2111826      1.0304234      0.73332067   
       420   42.072393      158.5          158.5          158.5          1.7503367     -0.38864911     2.6641271      2.9755321      42.072393    
       440   32.473134      158.5          158.5          158.5         -0.022605479   -2.0480144      0.069892462    1.9103055      32.473134    
       460   55.563388      158.5          158.5          158.5         -2.5478049     -3.5543259     -2.2062803     -1.8828085      55.563388    
       480   52.443141      158.5          158.5          158.5          0.49847749     0.16166278     0.38891244     0.94485725     52.443141    
       500   55.054313      158.5          158.5          158.5         -1.4265588     -4.1060684     -1.5954755      1.4218675      55.054313    
       520   49.414061      158.5          158.5          158.5         -2.6262911     -6.5206218     -2.8111206      1.452869       49.414061    
       540   63.565151      158.5          158.5          158.5         -0.67612883    -1.1086627     -1.6157439      0.69602019     63.565151    
       560   53.323745      158.5          158.5          158.5         -1.9638972     -1.9620322     -2.3455005     -1.5841588      53.323745    
       580   55.743561      158.5          158.5          158.5         -2.3874337     -5.6559828     -0.44916499    -1.0571533      55.743561    
       600   56.349913      158.5          158.5          158.5         -0.33768443    -1.6604565     -0.1268862      0.77428936     56.349913    
       620   63.556355      158.5          158.5          158.5         -1.6379359     -0.89847669    -2.8848655     -1.1304654      63.556355    
       640   57.660524      158.5          158.5          158.5         -2.0014176     -0.77951512    -1.3440851     -3.8806525      57.660524    
       660   65.782204      158.5          158.5          158.5          0.0097943781   0.82229577     2.2542826     -3.0471952      65.782204    
       680   67.205884      158.5          158.5          158.5         -1.0035052     -2.2835084      0.92552533    -1.6525326      67.205884    
       700   65.414172      158.5          158.5          158.5         -2.4367356     -2.7436192      0.85032804    -5.4169157      65.414172    
       720   75.386521      158.5          158.5          158.5         -0.42181611     2.3535551      1.5716332     -5.1906366      75.386521    
       740   84.863862      158.5          158.5          158.5         -1.7920273     -2.4052897     -1.0807684     -1.8900238      84.863862    
       760   78.677914      158.5          158.5          158.5         -3.1894229     -7.2805341      0.83513973    -3.1228745      78.677914    
       780   77.835506      158.5          158.5          158.5         -0.46160666     0.30764331     1.8141019     -3.5065652      77.835506    
       800   77.998871      158.5          158.5          158.5         -2.7012225     -1.4412525     -2.4269514     -4.2354635      77.998871    
       820   95.446775      158.5          158.5          158.5         -3.0419026     -5.2220545     -2.0334125     -1.8702407      95.446775    
       840   73.930539      158.5          158.5          158.5          2.0183208      1.5856921      2.4629965      2.0062739      73.930539    
       860   81.958635      158.5          158.5          158.5         -1.7895494     -0.26021472    -2.7771952     -2.3312382      81.958635    
       880   86.426501      158.5          158.5          158.5         -2.176315      -0.54986954    -4.9775165     -1.0015591      86.426501    
       900   97.824418      158.5          158.5          158.5          2.4301277      3.436846       0.80156206     3.0519751      97.824418    
       920   86.507179      158.5          158.5          158.5         -2.8922363     -4.0926781     -3.632597      -0.95143394     86.507179    
       940   87.88374       158.5          158.5          158.5         -2.5181827     -3.097465      -5.3083124      0.85122945     87.88374     
       960   98.281029      158.5          158.5          158.5          2.4762037      4.349546      -1.2863566      4.3654216      98.281029    
       980   89.261743      158.5          158.5          158.5         -2.7997177     -0.68066255    -5.784717      -1.9337735      89.261743    
      1000   89.760597      158.5          158.5          158.5         -2.3208493     -1.9930362     -3.5262074     -1.4433043      89.760597    
      1020   91.139658      158.5          158.5          158.5          3.2714603      4.7329995     -0.71630462     5.7976862      91.139658    
      1040   88.028281      158.5          158.5          158.5         -1.9528465      1.0220832     -6.5169751     -0.36364755     88.028281    
      1060   82.285219      158.5          158.5          158.5         -1.5992183     -0.59258873    -2.4244026     -1.7806635      82.285219    
      1080   81.381798      158.5          158.5          158.5          5.0501249      2.3835316      6.2719516      6.4948916      81.381798    
      1100   81.541558      158.5          158.5          158.5         -1.1586399     -1.1251147     -1.7825177     -0.56828715     81.541558    
      1120   78.781351      158.5          158.5          158.5         -1.4958613     -0.87980959    -0.97639914    -2.6313752      78.781351    
      1140   86.406979      158.5          158.5          158.5          5.5852327      4.7872205      7.9456219      4.0228556      86.406979    
      1160   80.067762      158.5          158.5          158.5         -0.37800481    -2.7051983      1.3682525      0.20293135     80.067762    
      1180   78.508516      158.5          158.5          158.5         -0.12936151    -0.72643552     3.23928       -2.900929       78.508516    
      1200   78.645682      158.5          158.5          158.5          7.1763008      8.6232966      9.2454046      3.6602012      78.645682    
      1220   89.27822       158.5          158.5          158.5         -0.24605716    -1.5248338      2.1685613     -1.381899       89.27822     
      1240   74.077728      158.5          158.5          158.5         -0.080035457   -2.8308259      4.3048055     -1.714086       74.077728    
      1260   80.451541      158.5          158.5          158.5          5.746086       5.8608207      6.3576652      5.0197721      80.451541    
      1280   79.285915      158.5          158.5          158.5         -0.0012689719   0.76147401     0.92691809    -1.692199       79.285915    
      1300   80.763361      158.5          158.5          158.5         -0.77117214    -1.3750087      1.7205923     -2.6591         80.763361    
      1320   83.131454      158.5          158.5          158.5          4.2690451      5.0812887      3.0204723      4.7053742      83.131454    
      1340   77.239015      158.5          158.5          158.5         -0.11170473     1.5243846     -1.2563728     -0.60312598     77.239015    
      1360   91.091252      158.5          158.5          158.5         -2.3072666     -3.0706605     -1.4585925     -2.3925467      91.091252    
      1380   83.147505      158.5          158.5          158.5          2.6180888      3.9982356     -0.89979363     4.7558245      83.147505    
      1400   84.219737      158.5          158.5          158.5         -1.3956836     -0.53643778    -3.7372241      0.086611094    84.219737    
      1420   98.517584      158.5          158.5          158.5         -4.0371531     -5.5923101     -3.2963193     -3.2228299      98.517584    
      1440   83.33136       158.5          158.5          158.5          2.1161439      2.4983969     -1.3989404      5.248975       83.33136     
      1460   91.110238      158.5          158.5          158.5         -0.51576623     0.74164007    -4.2573867      1.968448       91.110238    
      1480   96.066835      158.5          158.5          158.5         -3.0279419     -4.4669888     -1.2775651     -3.3392717      96.066835    
      1500   94.124492      158.5          158.5          158.5          2.0846151      1.033345       1.6037651      3.6167352      94.124492    
      1520   85.081754      158.5          158.5          158.5          0.35627424     0.43107423    -1.2988576      1.9366061      85.081754    
      1540   100.8104       158.5          158.5          158.5         -3.4285914     -4.8142078     -1.5646241     -3.9069423      100.8104     
      1560   94.71433       158.5          158.5          158.5          1.7880713      0.79756008     3.1469095      1.4197445      94.71433     
      1580   92.99191       158.5          158.5          158.5          2.082038       2.7212598      2.1650847      1.3597695      92.99191     
      1600   87.50448       158.5          158.5          158.5         -2.4841212     -0.94698595    -1.5651208     -4.940257       87.50448     
      1620   99.048501      158.5          158.5          158.5          1.9774051      1.7884381      3.8996974      0.24407979     99.048501    
      1640   78.182548      158.5          158.5          158.5          4.2935873      2.7190849      7.5316248      2.6300521      78.182548    
      1660   89.180405      158.5          158.5          158.5         -2.8361534     -3.0590256     -0.95062712    -4.4988076      89.180405    
      1680   98.063654      158.5          158.5          158.5          2.605288       2.8561864      3.4887279      1.4709497      98.063654    
      1700   91.50627       158.5          158.5          158.5          4.8154048      4.2143066      8.0524936      2.1794143      91.50627     
      1720   92.239071      158.5          158.5          158.5         -2.8707355     -4.3238726      0.59323021    -4.8815641      92.239071    
      1740   83.553389      158.5          158.5          158.5          3.5638493      2.6637494      3.9596026      4.068196       83.553389    
      1760   97.722735      158.5          158.5          158.5          4.8747011      6.0067415      5.57013        3.0472317      97.722735    
      1780   89.085688      158.5          158.5          158.5         -3.4341045     -3.1492717     -0.29859009    -6.8544517      89.085688    
      1800   83.667334      158.5          158.5          158.5          3.2335715      0.76381966     3.8020782      5.1348165      83.667334    
      1820   97.481919      158.5          158.5          158.5          6.2075331      5.5294904      6.0175195      7.0755893      97.481919    
      1840   92.100984      158.5          158.5          158.5         -2.1326472     -0.52881151    -1.3646342     -4.5044959      92.100984    
      1860   82.631215      158.5          158.5          158.5          3.2083585      3.3048365      4.4844725      1.8357666      82.631215    
      1880   92.404541      158.5          158.5          158.5          7.6226294      7.3167424      4.9602513      10.590894      92.404541    
      1900   96.278721      158.5          158.5          158.5         -2.3919918      0.041904374   -5.8854527     -1.3324272      96.278721    
      1920   92.43379       158.5          158.5          158.5          0.71919744     3.7323051      0.96147514    -2.536188       92.43379     
      1940   96.545033      158.5          158.5          158.5          6.9346303      7.3355988      4.4010021      9.0672902      96.545033    
      1960   89.140171      158.5          158.5          158.5         -2.5339608     -0.95288672    -7.3573978      0.70840226     89.140171    
      1980   85.400309      158.5          158.5          158.5          1.3996345      4.2081661     -0.0066694522  -0.0025933167   85.400309    
      2000   87.585188      158.5          158.5          158.5          7.1725306      7.7199699      6.2810916      7.5165303      87.585188    
      2020   98.121912      158.5          158.5          158.5         -3.2617216     -1.0748197     -5.9441516     -2.7661934      98.121912    
      2040   89.462625      158.5          158.5          158.5          0.59199011     2.4028731     -1.1973238      0.57042101     89.462625    
      2060   88.84669       158.5          158.5          158.5          3.2345436      3.9833892      2.5091832      3.2110585      88.84669     
      2080   91.635803      158.5          158.5          158.5         -4.8471055     -2.7474137     -4.3603343     -7.4335684      91.635803    
      2100   94.018085      158.5          158.5          158.5          0.39375955    -0.42581319     2.8407836     -1.2336918      94.018085    
      2120   90.945063      158.5          158.5          158.5          0.73512673     1.1106729      1.8828831     -0.78817584     90.945063    
      2140   92.90725       158.5          158.5          158.5         -4.5824305     -3.5725565     -4.7314676     -5.4432673      92.90725     
      2160   92.209884      158.5          158.5          158.5         -0.51691505    -3.3625405      5.5674273     -3.755632       92.209884    
      2180   96.783092      158.5          158.5          158.5         -0.37537683    -2.7374761      5.1332995     -3.5219539      96.783092    
      2200   84.40943       158.5          158.5          158.5         -4.0511122     -4.0741348     -3.7380388     -4.3411631      84.40943     
      2220   100.91959      158.5          158.5          158.5         -1.2532646     -3.5283966      2.6780966     -2.9094939      100.91959    
      2240   88.298708      158.5          158.5          158.5          0.31027944    -1.7006293      4.8585546     -2.227087       88.298708    
      2260   88.890375      158.5          158.5          158.5         -2.4014663     -2.4132557     -1.8240761     -2.967067       88.890375    
      2280   94.367808      158.5          158.5          158.5         -0.3360077     -1.4581161     -0.46081377     0.91090676     94.367808    
      2300   90.817523      158.5          158.5          158.5          1.728503       1.5033669      1.2367902      2.4453519      90.817523    
      2320   86.488349      158.5          158.5          158.5         -2.5588408     -2.6061333     -2.6837091     -2.3866802      86.488349    
      2340   95.042634      158.5          158.5          158.5         -0.54285396    -1.690735       0.54196349    -0.47979039     95.042634    
      2360   84.888497      158.5          158.5          158.5          2.4551473      2.7987277      0.68896031     3.8777538      84.888497    
      2380   94.177235      158.5          158.5          158.5         -3.7289749     -0.35545351    -8.2811893     -2.550282       94.177235    
      2400   85.305503      158.5          158.5          158.5         -1.0265278     -1.7356606     -2.2107774      0.86685452     85.305503    
      2420   92.306293      158.5          158.5          158.5          2.273422       0.67667593     2.676809       3.4667812      92.306293    
      2440   96.543288      158.5          158.5          158.5         -2.6625967      2.1552676     -7.2272663     -2.9157914      96.543288    
      2460   79.470887      158.5          158.5          158.5         -0.021508635    2.1327702     -5.4602341      3.2629379      79.470887    
      2480   88.112415      158.5          158.5          158.5          2.5875843      0.42195501     3.7459081      3.5948896      88.112415    
      2500   89.136215      158.5          158.5          158.5         -2.0672385      0.25991645    -1.9591196     -4.5025124      89.136215    
      2520   80.837662      158.5          158.5          158.5         -1.5144573      0.91490548    -4.2681729     -1.1901046      80.837662    
      2540   81.426806      158.5          158.5          158.5          1.5304225      1.4849744      1.313493       1.7928003      81.426806    
      2560   84.15062       158.5          158.5          158.5         -3.7993361     -2.77696       -2.56125       -6.0597982      84.15062     
      2580   74.524887      158.5          158.5          158.5         -3.5779483     -2.1097159     -3.4711005     -5.1530286      74.524887    
      2600   82.966093      158.5          158.5          158.5          1.180949       0.8773194      1.7545434      0.9109842      82.966093    
      2620   84.271477      158.5          158.5          158.5         -3.7531305     -3.2032296     -3.6160966     -4.4400654      84.271477    
      2640   71.926833      158.5          158.5          158.5         -4.0262646     -4.8048474     -3.5638807     -3.7100658      71.926833    
      2660   82.87343       158.5          158.5          158.5          2.7090259      1.8501111      5.463003       0.81396348     82.87343     
      2680   84.953586      158.5          158.5          158.5         -2.4785227     -2.2886394     -2.4754618     -2.6714669      84.953586    
      2700   90.920356      158.5          158.5          158.5         -5.6498753     -7.1290665     -5.878137      -3.9424224      90.920356    
      2720   74.646979      158.5          158.5          158.5          2.5983049     -0.1057363      5.3747186      2.5259325      74.646979    
      2740   85.199817      158.5          158.5          158.5         -2.6524763     -5.3867586      0.84893165    -3.4196021      85.199817    
      2760   89.240076      158.5          158.5          158.5         -5.9678138     -7.9786927     -5.09179       -4.8329586      89.240076    
      2780   96.595942      158.5          158.5          158.5          3.3612357     -0.075460778    6.5692892      3.5898786      96.595942    
      2800   86.599185      158.5          158.5          158.5         -2.1134189     -7.4351506      2.023293      -0.92839917     86.599185    
      2820   94.916565      158.5          158.5          158.5         -2.5988308     -4.8773579     -0.67752553    -2.241609       94.916565    
      2840   108.11912      158.5          158.5          158.5          6.7035008      5.7978983      9.9884768      4.3241272      108.11912    
      2860   90.044793      158.5          158.5          158.5          0.23171177    -0.94091305     1.6017625      0.03428581     90.044793    
      2880   92.279789      158.5          158.5          158.5          0.40676644    -0.16441949     0.18555607     1.1991627      92.279789    
      2900   99.005571      158.5          158.5          158.5          6.4869571      6.1351869      6.7363711      6.5893134      99.005571    
      2920   89.092873      158.5          158.5          158.5         -1.6284043     -1.1857143     -2.8956024     -0.80389631     89.092873    
      2940   84.038725      158.5          158.5          158.5         -0.66439093     0.82459686    -1.8479061     -0.9698635      84.038725    
      2960   92.97363       158.5          158.5          158.5          4.807018       5.4000768      4.336481       4.6844962      92.97363     
      2980   94.016783      158.5          158.5          158.5         -2.3870753     -0.19036686    -4.4691556     -2.5017035      94.016783    
      3000   94.602024      158.5          158.5          158.5         -0.52306389     3.8744295     -3.6129318     -1.8306894      94.602024    
      3020   95.585755      158.5          158.5          158.5          4.9212414      6.9050429      3.4257711      4.4329103      95.585755    
      3040   90.663518      158.5          158.5          158.5         -2.9775428     -0.47757008    -3.9014294     -4.5536289      90.663518    
      3060   92.751012      158.5          158.5          158.5         -0.93303059     3.739981      -2.0520579     -4.4870148      92.751012    
      3080   86.561072      158.5          158.5          158.5          3.7786291      3.3564487      4.8337263      3.1457124      86.561072    
      3100   81.037152      158.5          158.5          158.5         -5.149426      -4.2108241     -5.1101403     -6.1273137      81.037152    
      3120   98.197187      158.5          158.5          158.5         -1.5413833      1.6195285     -2.1196787     -4.1239997      98.197187    
      3140   80.426718      158.5          158.5          158.5          3.129811       2.5011204      4.5475839      2.3407288      80.426718    
      3160   77.219121      158.5          158.5          158.5         -5.6635715     -7.3589125     -3.8146152     -5.8171869      77.219121    
      3180   84.68829       158.5          158.5          158.5          0.68677305    -0.55463265     1.3933305      1.2216213      84.68829     
      3200   82.046292      158.5          158.5          158.5          4.0444957      1.7852157      5.3848224      4.9634492      82.046292    
      3220   81.062566      158.5          158.5          158.5         -2.7043773     -3.2137382     -0.82872195    -4.0706717      81.062566    
      3240   93.255138      158.5          158.5          158.5          2.5593083      1.505827       2.1141382      4.0579597      93.255138    
      3260   87.361316      158.5          158.5          158.5          4.2385122      1.6123921      2.5900076      8.513137       87.361316    
      3280   86.346713      158.5          158.5          158.5         -0.96094069    -1.1469566      0.19846936    -1.9343348      86.346713    
      3300   89.237217      158.5          158.5          158.5          1.0495964      1.2735432      1.6456483      0.22959767     89.237217    
      3320   95.961741      158.5          158.5          158.5          3.4857016      1.8296147      1.1382355      7.4892546      95.961741    
      3340   76.163195      158.5          158.5          158.5         -0.21876427    -3.38765        0.57993773     2.1514195      76.163195    
      3360   88.097805      158.5          158.5          158.5         -1.7034593      0.35974143    -1.3402297     -4.1298897      88.097805    
      3380   92.247699      158.5          158.5          158.5          2.7528656      5.59202        0.50060587     2.165971       92.247699    
      3400   86.267937      158.5          158.5          158.5         -0.80523169    -2.2003714      0.23817891    -0.45350262     86.267937    
      3420   93.999523      158.5          158.5          158.5         -3.2241862     -4.6816767     -1.7445056     -3.2463764      93.999523    
      3440   90.290323      158.5          158.5          158.5          3.4652037      5.1037942      1.8808799      3.4109369      90.290323    
      3460   89.852025      158.5          158.5          158.5          0.87967577     1.0583894      1.7759395     -0.1953016      89.852025    
      3480   92.319584      158.5          158.5          158.5         -1.237001      -2.269632      -0.41744472    -1.0239263      92.319584    
      3500   90.981514      158.5          158.5          158.5          3.7588166      4.6071544      2.7634287      3.9058666      90.981514    
      3520   106.09195      158.5          158.5          158.5         -0.12129936     1.4186465      1.4221544     -3.204699       106.09195    
      3540   102.3533       158.5          158.5          158.5         -3.2686619     -3.9228834     -1.4480127     -4.4350897      102.3533     
      3560   108.664        158.5          158.5          158.5          0.73464449     2.1116398     -0.92203965     1.0143333      108.664      
      3580   101.55134      158.5          158.5          158.5          0.16450853     0.54788688    -0.53202461     0.4776633      101.55134    
      3600   101.07279      158.5          158.5          158.5         -2.8771176     -4.5823547     -1.5520192     -2.4969789      101.07279    
      3620   85.8809        158.5          158.5          158.5          2.0237469      3.5779426      0.97384223     1.5194559      85.8809      
      3640   92.351434      158.5          158.5          158.5          0.3476628      0.73165851     0.33331965    -0.021989776    92.351434    
      3660   94.403762      158.5          158.5          158.5         -5.296446      -6.0688535     -4.4850506     -5.335434       94.403762    
      3680   94.464522      158.5          158.5          158.5          1.1840528      1.8812825      0.54913815     1.1217376      94.464522    
      3700   92.453787      158.5          158.5          158.5         -0.92192482    -1.3218535     -1.9403138      0.49639286     92.453787    
      3720   91.100107      158.5          158.5          158.5         -4.6352511     -6.0965387     -5.0259407     -2.7832741      91.100107    
      3740   91.346892      158.5          158.5          158.5          4.7634454      4.2375844      5.5371942      4.5155576      91.346892    
      3760   90.33592       158.5          158.5          158.5          0.84842049     1.0089859     -0.3970547      1.9333303      90.33592     
      3780   91.584005      158.5          158.5          158.5         -2.848415      -1.5494869     -5.8423601     -1.153398       91.584005    
      3800   86.412716      158.5          158.5          158.5          5.7887438      5.4398574      7.1865788      4.7397953      86.412716    
      3820   83.292206      158.5          158.5          158.5         -0.057749497   -2.189394       1.3934558      0.62268964     83.292206    
      3840   92.805558      158.5          158.5          158.5         -2.9330207     -2.6490471     -5.0572875     -1.0927275      92.805558    
      3860   87.106616      158.5          158.5          158.5          4.7279664      3.3427254      6.8350588      4.0061148      87.106616    
      3880   75.921278      158.5          158.5          158.5          0.67104136    -2.8633577      4.4807475      0.3957343      75.921278    
      3900   82.23202       158.5          158.5          158.5         -2.1245354     -0.87995158    -2.8125355     -2.681119       82.23202     
      3920   93.018505      158.5          158.5          158.5          3.9925196      6.1510195      3.1560845      2.6704549      93.018505    
      3940   83.803762      158.5          158.5          158.5          0.0098456548  -1.1604412      1.5214647     -0.3314866      83.803762    
      3960   82.163209      158.5          158.5          158.5         -3.3122109     -2.5378848     -3.3846182     -4.0141298      82.163209    
      3980   77.669487      158.5          158.5          158.5          4.4005724      6.8438158      5.1021351      1.2557663      77.669487    
      4000   87.707862      158.5          158.5          158.5         -0.72767444    -0.53474594     1.9982885     -3.6465659      87.707862    
      4020   82.249871      158.5          158.5          158.5         -4.4483523     -4.5131575     -4.782121      -4.0497785      82.249871    
      4040   87.775828      158.5          158.5          158.5          4.8434682      8.1413064      4.0323776      2.3567206      87.775828    
      4060   85.22454       158.5          158.5          158.5         -0.91072981     2.1376799     -2.617519      -2.2523504      85.22454     
      4080   82.60568       158.5          158.5          158.5         -3.376833      -3.0434295     -5.6676315     -1.4194379      82.60568     
      4100   93.132466      158.5          158.5          158.5          4.645339       5.5510131      3.8218127      4.5631913      93.132466    
      4120   88.382218      158.5          158.5          158.5         -2.243647      -1.6352278     -2.4335061     -2.6622072      88.382218    
      4140   86.331144      158.5          158.5          158.5         -3.9447009     -3.4307481     -7.8100441     -0.59331055     86.331144    
      4160   85.861924      158.5          158.5          158.5          2.0288378      1.7565527     -0.41268656     4.7426473      85.861924    
      4180   93.548882      158.5          158.5          158.5         -2.2698953     -2.8973708     -2.1074668     -1.8048483      93.548882    
      4200   99.780227      158.5          158.5          158.5         -4.2554694     -3.4851683     -6.7351312     -2.5461086      99.780227    
      4220   88.178063      158.5          158.5          158.5          1.3401785      3.3167663     -1.1553236      1.8590928      88.178063    
      4240   92.705891      158.5          158.5          158.5          2.2073058      1.9533377      3.5625235      1.1060563      92.705891    
      4260   98.762962      158.5          158.5          158.5         -2.352885      -3.8021605     -0.44529186    -2.8112025      98.762962    
      4280   87.815123      158.5          158.5          158.5          1.0188329      2.3726448     -0.96862541     1.6524794      87.815123    
      4300   91.274276      158.5          158.5          158.5          2.9004071      2.3480398      3.0408616      3.3123198      91.274276    
      4320   103.93492      158.5          158.5          158.5         -4.1249249     -7.9253739     -2.4489188     -2.000482       103.93492    
      4340   84.256091      158.5          158.5          158.5          0.19726579    -1.3210233      2.4339923     -0.52117163     84.256091    
      4360   78.454743      158.5          158.5          158.5          3.7177103      4.3190109      4.7416407      2.0924793      78.454743    
      4380   96.975739      158.5          158.5          158.5         -1.9899129     -4.5584434      0.29351816    -1.7048134      96.975739    
      4400   95.116663      158.5          158.5          158.5          1.79032       -0.86370111     5.4862498      0.74841119     95.116663    
      4420   85.070603      158.5          158.5          158.5          2.8450582      2.6346703      5.6115763      0.28892806     85.070603    
      4440   83.673916      158.5          158.5          158.5         -1.1582238     -0.80187285    -0.28756381    -2.3852348      83.673916    
      4460   85.544246      158.5          158.5          158.5          1.5760037      1.5000507      2.5478085      0.6801521      85.544246    
      4480   79.710143      158.5          158.5          158.5          3.2778693      2.4899894      5.1176673      2.2259513      79.710143    
      4500   87.172632      158.5          158.5          158.5         -1.1742402     -2.4963909     -1.6207783      0.59444867     87.172632    
      4520   83.821218      158.5          158.5          158.5         -0.24263236     0.96781383    -1.9671401      0.27142917     83.821218    
      4540   85.783326      158.5          158.5          158.5          3.6386805      5.1507159      3.0927924      2.6725333      85.783326    
      4560   96.807389      158.5          158.5          158.5         -2.6279037     -3.2219937     -2.3416139     -2.3201036      96.807389    
      4580   85.87976       158.5          158.5          158.5         -0.30165531     0.16378147    -1.0626243     -0.0061231504   85.87976     
      4600   88.730982      158.5          158.5          158.5          4.7508268      7.9331964      1.6671701      4.6521138      88.730982    
      4620   91.022703      158.5          158.5          158.5         -4.7947299     -3.8016868     -7.789838      -2.7926651      91.022703    
      4640   94.807743      158.5          158.5          158.5          0.60643926     0.6164704      1.0767612      0.1260862      94.807743    
      4660   84.748231      158.5          158.5          158.5          5.1347511      7.807434       3.6622217      3.9345978      84.748231    
      4680   91.886294      158.5          158.5          158.5         -5.5573        -2.9883206     -9.6996222     -3.9839572      91.886294    
      4700   85.569434      158.5          158.5          158.5          1.4987273      2.5853822      1.9582781     -0.047478418    85.569434    
      4720   86.379782      158.5          158.5          158.5          4.3745382      2.468514       7.4281193      3.2269812      86.379782    
      4740   84.198517      158.5          158.5          158.5         -4.423277      -6.0417018     -4.3679648     -2.8601644      84.198517    
      4760   91.23543       158.5          158.5          158.5          0.98824625     3.459855       0.16958307    -0.66469931     91.23543     
      4780   87.233391      158.5          158.5          158.5          3.4735868      4.0220189      4.4391215      1.9596201      87.233391    
      4800   90.126845      158.5          158.5          158.5         -3.8092143     -8.5191447     -1.7067738     -1.2017244      90.126845    
      4820   90.932418      158.5          158.5          158.5         -0.26921534    -1.2476074     -0.27024947     0.71021087     90.932418    
      4840   85.666093      158.5          158.5          158.5          2.690987       5.0677242      2.0571101      0.94812653     85.666093    
      4860   94.247338      158.5          158.5          158.5         -5.3893132     -7.9756868     -5.548188      -2.6440648      94.247338    
      4880   94.838846      158.5          158.5          158.5         -1.8850153     -4.5552302     -2.1408145      1.0409989      94.838846    
      4900   86.995869      158.5          158.5          158.5          1.2542182      0.12935107     1.2435091      2.3897946      86.995869    
      4920   88.41731       158.5          158.5          158.5         -8.3527175     -8.7165612     -9.6459601     -6.6956314      88.41731     
      4940   86.019517      158.5          158.5          158.5         -2.6512153     -2.72465       -2.7451223     -2.4838737      86.019517    
      4960   88.722568      158.5          158.5          158.5          0.23917233    -2.0191455      2.557394       0.17926848     88.722568    
      4980   86.201749      158.5          158.5          158.5         -7.4268858     -10.526699     -6.6493552     -5.104603       86.201749    
      5000   78.936601      158.5          158.5          158.5          0.52820149     3.9668346     -2.1183042     -0.26392586     78.936601    
      5020   80.329602      158.5          158.5          158.5          1.206541       3.1026455      1.2454184     -0.72844075     80.329602    
      5040   85.123153      158.5          158.5          158.5         -4.342327      -7.1807216     -4.0720131     -1.7742464      85.123153    
      5060   79.259476      158.5          158.5          158.5          1.6504224      4.6981078     -1.9060809      2.1592402      79.259476    
      5080   78.886814      158.5          158.5          158.5          0.60822993     6.1497369     -1.3129113     -3.0121358      78.886814    
      5100   92.44029       158.5          158.5          158.5         -3.5024245     -2.4452373     -3.0881848     -4.9738513      92.44029     
      5120   77.895234      158.5          158.5          158.5         -0.48343505    -0.47729766    -2.553491       1.5804835      77.895234    
      5140   79.446133      158.5          158.5          158.5          0.93626962     3.6534455     -2.1030425      1.2584059      79.446133    
      5160   84.285509      158.5          158.5          158.5         -1.7157151      3.0026112     -4.4690149     -3.6807417      84.285509    
      5180   80.406605      158.5          158.5          158.5         -1.1031954     -0.90785267    -1.7825718     -0.61916159     80.406605    
      5200   76.982288      158.5          158.5          158.5          2.6012227     -1.3918735      2.3570675      6.8384742      76.982288    
      5220   91.708832      158.5          158.5          158.5         -0.59546151     0.36663411    -3.047182       0.89416338     91.708832    
      5240   81.408055      158.5          158.5          158.5         -0.9035425      1.8108271     -2.2773223     -2.2441323      81.408055    
      5260   88.243368      158.5          158.5          158.5          1.8634933     -1.1913178      2.3998764      4.3819213      88.243368    
      5280   91.699751      158.5          158.5          158.5         -2.0360719     -4.5346599     -3.4496071      1.8760514      91.699751    
      5300   86.11948       158.5          158.5          158.5         -1.5739286      2.6240573     -5.1990991     -2.1467441      86.11948     
      5320   86.903101      158.5          158.5          158.5          0.88502631     2.1284832     -0.16903115     0.69562688     86.903101    
      5340   90.205183      158.5          158.5          158.5         -1.1367429     -4.5060336     -0.54691757     1.6427225      90.205183    
      5360   83.400653      158.5          158.5          158.5          0.44571693    -0.31191181    -0.088734013    1.7377966      83.400653    
      5380   94.241233      158.5          158.5          158.5          2.6530811      3.2213986      1.6080369      3.1298079      94.241233    
      5400   87.080771      158.5          158.5          158.5          0.78410404    -0.29693688     2.3351537      0.31409531     87.080771    
      5420   83.259484      158.5          158.5          158.5         -0.029792391   -1.6193594      2.1327665     -0.60278421     83.259484    
      5440   81.823787      158.5          158.5          158.5          2.8743649      1.8312743      2.7809501      4.0108703      81.823787    
      5460   93.975838      158.5          158.5          158.5         -0.50982349     0.46481945    -2.5801866      0.58589665     93.975838    
      5480   83.816621      158.5          158.5          158.5         -2.2493668     -0.094657745   -2.7930672     -3.8603754      83.816621    
      5500   79.937775      158.5          158.5          158.5          3.3393969      4.2026415      3.3712612      2.444288       79.937775    
      5520   79.995294      158.5          158.5          158.5         -0.22511948     1.647626      -3.0998711      0.77688668     79.995294    
      5540   78.2418        158.5          158.5          158.5         -2.3676789      0.42010726    -3.6662873     -3.8568566      78.2418      
      5560   75.842467      158.5          158.5          158.5          3.8864681      3.7668637      4.5841685      3.308372       75.842467    
      5580   76.124989      158.5          158.5          158.5         -0.934987      -1.9178507     -2.1445224      1.2574121      76.124989    
      5600   78.940233      158.5          158.5          158.5         -2.5656385     -2.9527972     -2.0212694     -2.7228489      78.940233    
      5620   80.717974      158.5          158.5          158.5          2.8828889      3.6664645      2.3988901      2.5833121      80.717974    
      5640   79.644347      158.5          158.5          158.5         -3.4322678     -3.7671898     -3.5695623     -2.9600514      79.644347    
      5660   70.107736      158.5          158.5          158.5         -2.3694458     -3.0210659     -1.0240743     -3.0631971      70.107736    
      5680   73.586644      158.5          158.5          158.5          1.1062608     -0.25574513     1.0324207      2.5421067      73.586644    
      5700   83.128264      158.5          158.5          158.5         -5.142398      -5.0937698     -6.352809      -3.9806154      83.128264    
      5720   82.462582      158.5          158.5          158.5         -2.0420019     -2.3176408     -0.28428801    -3.524077       82.462582    
      5740   75.713959      158.5          158.5          158.5          1.9379309     -0.72716309     4.0462937      2.4946621      75.713959    
      5760   83.710005      158.5          158.5          158.5         -2.2912873     -2.7094765     -2.1965467     -1.9678389      83.710005    
      5780   85.025673      158.5          158.5          158.5          1.3615857      3.4124012      0.63683642     0.03551956     85.025673    
      5800   90.510763      158.5          158.5          158.5          4.3884347      1.5298918      7.1271765      4.5082357      90.510763    
      5820   81.927356      158.5          158.5          158.5          0.056286397   -1.4196809      2.1999918     -0.61145174     81.927356    
      5840   85.094078      158.5          158.5          158.5          1.2149371      2.5256633     -0.51022181     1.6293698      85.094078    
      5860   94.417805      158.5          158.5          158.5          3.9654873      2.8761693      2.9934758      6.0268169      94.417805    
      5880   85.540012      158.5          158.5          158.5         -0.2067499     -1.7053927      1.5921505     -0.50700758     85.540012    
      5900   87.082988      158.5          158.5          158.5          0.3796366     -0.53896139     0.79260688     0.88526429     87.082988    
      5920   93.599082      158.5          158.5          158.5          3.9257346      2.8687033      3.760073       5.1484275      93.599082    
      5940   78.547735      158.5          158.5          158.5         -0.63121111    -0.93630813     0.66724512    -1.6245703      78.547735    
      5960   91.713591      158.5          158.5          158.5          0.22133166     1.0519208     -0.22530581    -0.16262001     91.713591    
      5980   89.291434      158.5          158.5          158.5          3.2652587      3.1008268      1.8002644      4.894685       89.291434    
      6000   90.728043      158.5          158.5          158.5         -1.6288447     -2.7836888      0.32276878    -2.425614       90.728043    
      6020   93.814151      158.5          158.5          158.5          0.48235667     1.4989735      0.67543638    -0.72733984     93.814151    
      6040   91.192398      158.5          158.5          158.5          3.1706355      2.7716077      2.944925       3.7953739      91.192398    
      6060   90.326955      158.5          158.5          158.5         -1.267959      -1.6968655     -0.94739935    -1.1596122      90.326955    
      6080   97.316215      158.5          158.5          158.5          1.3082313      3.9911738     -1.1648605      1.0983806      97.316215    
      6100   89.663714      158.5          158.5          158.5          3.4134372      4.1227392      3.0009516      3.1166209      89.663714    
      6120   88.481382      158.5          158.5          158.5          0.39829365     1.5325565      1.5863556     -1.9240312      88.481382    
      6140   91.808766      158.5          158.5          158.5          2.2935065      6.5794667     -1.5474109      1.8484637      91.808766    
      6160   100.61405      158.5          158.5          158.5          3.6370325      5.5047512      1.7221742      3.6841721      100.61405    
      6180   104.58618      158.5          158.5          158.5          0.19878853    -0.49420678     2.967892      -1.8773196      104.58618    
      6200   95.55543       158.5          158.5          158.5          0.028053699    1.2808819     -0.066528785   -1.130192       95.55543     
      6220   101.63408      158.5          158.5          158.5          2.2076323      2.2893005      1.3693627      2.9642336      101.63408    
      6240   92.606672      158.5          158.5          158.5         -1.2146868     -3.2160444      1.3355144     -1.7635305      92.606672    
      6260   98.246521      158.5          158.5          158.5         -2.6307393     -5.5209065      0.14355424    -2.5148655      98.246521    
      6280   93.819712      158.5          158.5          158.5          2.7658477      2.0206545      2.7008655      3.576023       93.819712    
      6300   103.6095       158.5          158.5          158.5         -1.7033741     -3.0398518     -0.37499098    -1.6952794      103.6095     
      6320   93.917765      158.5          158.5          158.5         -2.1023642     -2.7219969      0.28674143    -3.8718371      93.917765    
      6340   99.979835      158.5          158.5          158.5          3.6042932      1.7824805      3.4778711      5.552528       99.979835    
      6360   98.577422      158.5          158.5          158.5         -1.5059118     -2.0476701      0.65517015    -3.1252353      98.577422    
      6380   108.043        158.5          158.5          158.5         -2.5646833     -3.0303999     -0.54463141    -4.1190186      108.043      
      6400   95.048782      158.5          158.5          158.5          2.8954553      1.9341927      0.87343671     5.8787365      95.048782    
      6420   99.720816      158.5          158.5          158.5         -1.1094447     -1.290033       0.11794309    -2.1562443      99.720816    
      6440   97.886818      158.5          158.5          158.5         -2.0716152      0.38220037     0.27635949    -6.8734054      97.886818    
      6460   94.711707      158.5          158.5          158.5          1.3321632      0.84532673     1.2391352      1.9120276      94.711707    
      6480   84.840373      158.5          158.5          158.5         -0.48354949    -0.4994482      0.00017776736 -0.95137803     84.840373    
      6500   90.876405      158.5          158.5          158.5         -2.2270107     -0.70669183    -0.87499386    -5.0993465      90.876405    
      6520   86.986256      158.5          158.5          158.5          2.7094435      2.510572       2.5305118      3.0872467      86.986256    
      6540   101.13486      158.5          158.5          158.5          1.4450302      1.0097458      0.39643202     2.9289128      101.13486    
      6560   87.273896      158.5          158.5          158.5         -2.3305734     -2.5850632     -2.8473331     -1.5593237      87.273896    
      6580   93.502574      158.5          158.5          158.5          2.6963227      2.5923525      1.1163245      4.3802911      93.502574    
      6600   90.255412      158.5          158.5          158.5          1.3464171      3.7411603     -0.66011119     0.95820225     90.255412    
      6620   94.584395      158.5          158.5          158.5         -3.8961437     -2.4989959     -4.4080066     -4.7814286      94.584395    
      6640   84.968493      158.5          158.5          158.5          2.9792528      2.4600317      2.26323        4.2144966      84.968493    
      6660   81.640606      158.5          158.5          158.5          1.0053145      0.63644325     2.201584       0.17791635     81.640606    
      6680   75.079494      158.5          158.5          158.5         -2.0491298      0.19297132    -0.92238902    -5.4179718      75.079494    
      6700   86.798599      158.5          158.5          158.5          3.1081154      2.7813581      4.1409684      2.4020198      86.798599    
      6720   81.916855      158.5          158.5          158.5          0.22595523    -2.9583501      4.4958789     -0.85966311     81.916855    
      6740   78.996487      158.5          158.5          158.5         -0.87661454    -3.5193712      2.5568213     -1.6672937      78.996487    
      6760   80.397356      158.5          158.5          158.5          3.1039697      2.1323487      4.6191694      2.5603908      80.397356    
      6780   93.450798      158.5          158.5          158.5          0.071070005   -0.53997281     4.0808013     -3.3276185      93.450798    
      6800   85.381636      158.5          158.5          158.5         -0.10981185    -1.2801716      2.6483308     -1.6975948      85.381636    
      6820   89.151918      158.5          158.5          158.5          2.6992322     -0.16394216     2.9706778      5.290961       89.151918    
      6840   93.336932      158.5          158.5          158.5          0.34336222     0.79396004     2.2167061     -1.9805795      93.336932    
      6860   93.576086      158.5          158.5          158.5         -1.028483       1.9565076     -0.33477411    -4.7071825      93.576086    
      6880   88.131856      158.5          158.5          158.5          2.7462706      0.83292519     3.1930001      4.2128866      88.131856    
      6900   94.011712      158.5          158.5          158.5          1.6997953      0.9540433      2.8368971      1.3084455      94.011712    
      6920   93.704165      158.5          158.5          158.5          0.44477832     4.8844733     -0.060296975   -3.4898413      93.704165    
      6940   92.335516      158.5          158.5          158.5          4.4833803      7.0669443      2.5358665      3.8473301      92.335516    
      6960   92.955534      158.5          158.5          158.5          1.4376503      0.61034864     2.0114433      1.6911589      92.955534    
      6980   92.499539      158.5          158.5          158.5         -0.83884969     0.59120199    -1.5565202     -1.5512309      92.499539    
      7000   100.87124      158.5          158.5          158.5          2.2407632      3.1635504     -0.78827315     4.3470124      100.87124    
      7020   94.760189      158.5          158.5          158.5         -1.8405325     -1.8920662     -3.0992014     -0.53033009     94.760189    
      7040   100.63937      158.5          158.5          158.5         -3.2176983     -2.6084563     -4.6429301     -2.4017086      100.63937    
      7060   101.02431      158.5          158.5          158.5         -0.74687586    -1.8499597     -3.2110361      2.8203682      101.02431    
      7080   96.928738      158.5          158.5          158.5         -1.5852767      0.029861076   -3.3720955     -1.4135956      96.928738    
      7100   105.84596      158.5          158.5          158.5         -3.7222881     -3.0714556     -5.1823645     -2.9130442      105.84596    
      7120   110.04778      158.5          158.5          158.5         -2.8896192     -7.205481      -2.19694        0.7335633      110.04778    
      7140   105.62468      158.5          158.5          158.5         -0.59029481    -2.723802       1.7477727     -0.79485521     105.62468    
      7160   93.921795      158.5          158.5          158.5         -3.5497972     -2.898704      -3.5432814     -4.2074063      93.921795    
      7180   98.010269      158.5          158.5          158.5         -1.632922      -4.5863536     -1.604822       1.2924096      98.010269    
      7200   103.29765      158.5          158.5          158.5          2.4865577      1.6016037      3.4806187      2.3774507      103.29765    
      7220   103.81272      158.5          158.5          158.5         -3.4714825     -3.7928105     -2.6486091     -3.9730278      103.81272    
      7240   90.987318      158.5          158.5          158.5          0.56290773     0.080871584    0.11155327     1.4962983      90.987318    
      7260   101.19689      158.5          158.5          158.5          1.7619352      2.0056898      5.1815994     -1.9014836      101.19689    
      7280   105.70369      158.5          158.5          158.5         -3.8941857     -5.2038738     -0.44901534    -6.0296681      105.70369    
      7300   100.99732      158.5          158.5          158.5          2.705693       0.83061925     4.7090002      2.5774594      100.99732    
      7320   80.450907      158.5          158.5          158.5          2.9452619      4.0414308      4.8820194     -0.087664543    80.450907    
      7340   95.152421      158.5          158.5          158.5         -0.098068199    0.62071535     1.0753126     -1.9902326      95.152421    
      7360   97.296416      158.5          158.5          158.5          5.518582       6.3603246      5.2045126      4.9909086      97.296416    
      7380   86.020186      158.5          158.5          158.5          1.9161141      4.8874491     -0.46129345     1.3221865      86.020186    
      7400   90.534822      158.5          158.5          158.5         -1.4917635     -0.47204013    -4.0477713      0.044520838    90.534822    
      7420   90.040104      158.5          158.5          158.5          0.99504026     1.417588      -0.11021068     1.6777435      90.040104    
      7440   88.732074      158.5          158.5          158.5         -1.7555369     -1.4654869     -2.5001253     -1.3009986      88.732074    
      7460   84.69241       158.5          158.5          158.5         -2.6962003     -3.2593021     -5.551286       0.72198726     84.69241     
      7480   89.420802      158.5          158.5          158.5          0.096023151    1.9543548     -3.4879259      1.8216406      89.420802    
      7500   86.326626      158.5          158.5          158.5          1.3317192      4.6078617     -1.7780539      1.1653498      86.326626    
      7520   84.645892      158.5          158.5          158.5         -0.50499347    -1.7194849     -2.6783812      2.8828856      84.645892    
      7540   90.477153      158.5          158.5          158.5         -0.35780667    -1.794834      -2.030756       2.7521701      90.477153    
      7560   88.832817      158.5          158.5          158.5          0.93641696     2.4079907      0.42593098    -0.024670745    88.832817    
      7580   88.386845      158.5          158.5          158.5         -1.2341946     -3.0343101     -0.24432439    -0.42394929     88.386845    
      7600   83.189148      158.5          158.5          158.5          0.15255408    -2.9554052      1.0437683      2.3692991      83.189148    
      7620   88.531972      158.5          158.5          158.5          1.0951052      1.883835       0.10557251     1.2959081      88.531972    
      7640   86.639922      158.5          158.5          158.5         -1.3071215      0.27607684    -3.213623      -0.98381827     86.639922    
      7660   83.206095      158.5          158.5          158.5         -0.42527272    -0.46304145     0.47470998    -1.2874867      83.206095    
      7680   92.035511      158.5          158.5          158.5         -1.4942147     -4.8516254      0.93084937    -0.56186803     92.035511    
      7700   86.454951      158.5          158.5          158.5         -2.8816392     -3.0183615     -3.070413      -2.556143       86.454951    
      7720   87.519534      158.5          158.5          158.5         -0.88342764     1.4712072     -0.68166447    -3.4398257      87.519534    
      7740   87.265213      158.5          158.5          158.5         -0.60901337    -1.828443       1.3083283     -1.3069254      87.265213    
      7760   95.017051      158.5          158.5          158.5         -0.75459123    -3.3761978      0.16205631     0.95036784     95.017051    
      7780   85.357469      158.5          158.5          158.5          0.98649689     4.4045548     -1.2387483     -0.20631591     85.357469    
      7800   81.832155      158.5          158.5          158.5          0.59419989     3.7458799     -0.99132003    -0.97196019     81.832155    
      7820   89.238066      158.5          158.5          158.5         -1.3985924     -3.3236464     -0.087837406   -0.78429337     89.238066    
      7840   88.3528        158.5          158.5          158.5         -0.56595485    -2.6157013      0.014394925    0.90344182     88.3528      
      7860   81.718751      158.5          158.5          158.5          0.88167694     2.5752667     -0.86327953     0.93304367     81.718751    
      7880   79.396447      158.5          158.5          158.5          0.36433593     3.5183609     -1.9782414     -0.44711166     79.396447    
      7900   80.670399      158.5          158.5          158.5          2.0105744      1.8430145      2.8395618      1.3491469      80.670399    
      7920   85.457555      158.5          158.5          158.5          3.534166       3.0825877      3.9850123      3.534898       85.457555    
      7940   74.422294      158.5          158.5          158.5          3.5867489      6.53493        1.2050159      3.0203009      74.422294    
      7960   80.632354      158.5          158.5          158.5          1.7677503      4.175421       1.3733147     -0.24548479     80.632354    
      7980   81.854687      158.5          158.5          158.5          1.0326582      1.920524       3.2144899     -2.0370391      81.854687    
      8000   79.320546      158.5          158.5          158.5          2.493165       3.7350179      1.81819        1.9262871      79.320546    
      8020   86.61822       158.5          158.5          158.5         -0.17435307     0.9973551     -1.7193665      0.19895221     86.61822     
      8040   91.983482      158.5          158.5          158.5          0.42851823     2.4115884      0.65704814    -1.7830819      91.983482    
      8060   90.464346      158.5          158.5          158.5          2.9644632      3.0344311      3.7216188      2.1373398      90.464346    
      8080   84.360233      158.5          158.5          158.5         -1.2782337     -4.1765675     -1.7996202      2.1414867      84.360233    
      8100   91.419294      158.5          158.5          158.5         -0.41834736    -2.0216982     -1.5726884      2.3393445      91.419294    
      8120   89.104053      158.5          158.5          158.5          1.2969574      1.0862281      1.5898693      1.2147749      89.104053    
      8140   90.241573      158.5          158.5          158.5         -3.2777982     -6.6733604     -2.0354124     -1.1246217      90.241573    
      8160   85.697602      158.5          158.5          158.5         -0.24134702    -4.5234433      0.71012354     3.0892787      85.697602    
      8180   93.233216      158.5          158.5          158.5          0.11857223     1.165049      -1.1922233      0.38289094     93.233216    
      8200   92.15945       158.5          158.5          158.5         -3.5260743     -1.5090266     -5.9353359     -3.1338606      92.15945     
      8220   89.816257      158.5          158.5          158.5          2.9133217      0.69041107     4.6865735      3.3629804      89.816257    
      8240   100.68851      158.5          158.5          158.5         -0.97954881    -2.6079197      0.041763073   -0.37248978     100.68851    
      8260   84.733374      158.5          158.5          158.5         -3.3677325     -2.1413206     -6.6551378     -1.306739       84.733374    
      8280   96.933416      158.5          158.5          158.5          3.7448805      5.6616969      1.9290733      3.6438713      96.933416    
      8300   92.314846      158.5          158.5          158.5         -2.1282199     -1.0374092     -1.9355505     -3.4117001      92.314846    
      8320   97.546058      158.5          158.5          158.5         -2.7286584     -3.6377745     -3.1370921     -1.4111087      97.546058    
      8340   92.668537      158.5          158.5          158.5          3.1038697      4.8256684      1.6864866      2.7994542      92.668537    
      8360   80.49201       158.5          158.5          158.5         -1.4788624      1.5314454     -3.4470526     -2.5209802      80.49201     
      8380   95.098377      158.5          158.5          158.5         -2.3195271     -1.4734718     -5.2505066     -0.2346028      95.098377    
      8400   87.323279      158.5          158.5          158.5          0.34814581     0.45200448     0.066985009    0.52544793     87.323279    
      8420   83.111         158.5          158.5          158.5         -1.000143       2.0357533     -3.610023      -1.4261591      83.111       
      8440   83.984761      158.5          158.5          158.5         -1.8696536     -0.32144796    -6.3907417      1.1032289      83.984761    
      8460   92.852448      158.5          158.5          158.5         -2.7285424     -3.2499061     -3.7225434     -1.2131777      92.852448    
      8480   92.041084      158.5          158.5          158.5         -1.6263422     -1.3933794     -1.7505397     -1.7351075      92.041084    
      8500   75.807633      158.5          158.5          158.5         -2.2669416     -1.9537033     -3.2305507     -1.6165706      75.807633    
      8520   85.519185      158.5          158.5          158.5         -1.7332918     -1.6044304     -1.97863       -1.6168149      85.519185    
      8540   76.565335      158.5          158.5          158.5          0.84557621    -0.48344847     0.67915443     2.3410227      76.565335    
      8560   90.013712      158.5          158.5          158.5         -1.7221252     -2.9186015     -1.338292      -0.90948213     90.013712    
      8580   76.705095      158.5          158.5          158.5          0.57395931     1.6554522      1.3759034     -1.3094776      76.705095    
      8600   91.712792      158.5          158.5          158.5          1.098599       1.9708963      1.1709303      0.15397034     91.712792    
      8620   84.812146      158.5          158.5          158.5         -0.84588379    -0.76958231    -0.84439935    -0.92366971     84.812146    
      8640   85.947332      158.5          158.5          158.5          1.5952867      0.85383651     4.9266208     -0.99459728     85.947332    
      8660   94.121027      158.5          158.5          158.5          0.54495401     1.0373873      2.8593723     -2.2618975      94.121027    
      8680   101.18093      158.5          158.5          158.5          0.32421471     1.6512352     -0.33651569    -0.34207539     101.18093    
      8700   94.074127      158.5          158.5          158.5          2.9305386      1.6396261      4.0150915      3.1368982      94.074127    
      8720   93.132399      158.5          158.5          158.5          1.3277939      0.67068919     3.6785467     -0.36585421     93.132399    
      8740   91.438636      158.5          158.5          158.5          1.257982       2.2764931      3.1183106     -1.6208578      91.438636    
      8760   105.38446      158.5          158.5          158.5          2.2497836      1.7321973      1.5057488      3.5114048      105.38446    
      8780   89.335918      158.5          158.5          158.5          3.2609219      2.0436695      3.0569071      4.6821892      89.335918    
      8800   100.55273      158.5          158.5          158.5          0.76451129     0.8552518      1.0382586      0.40002349     100.55273    
      8820   96.501167      158.5          158.5          158.5          0.42243608     1.3361266      0.35202187    -0.42084019     96.501167    
      8840   111.60872      158.5          158.5          158.5          2.5513723      4.4614558     -0.45705148     3.6497127      111.60872    
      8860   85.419408      158.5          158.5          158.5         -0.72224723    -1.9023471     -0.39126596     0.12687142     85.419408    
      8880   99.529936      158.5          158.5          158.5         -1.6014925     -1.7524031     -0.15727745    -2.8947969      99.529936    
      8900   96.173388      158.5          158.5          158.5          0.68825868     2.7290098     -1.3166271      0.65239342     96.173388    
      8920   102.13715      158.5          158.5          158.5         -1.9120913     -2.7582719     -3.3508869      0.37288475     102.13715    
      8940   96.314011      158.5          158.5          158.5         -1.2276009     -2.1193758     -0.86827049    -0.69515641     96.314011    
      8960   100.3195       158.5          158.5          158.5         -0.64946319    -0.80395411     0.22266697    -1.3671024      100.3195     
      8980   90.058487      158.5          158.5          158.5         -1.3347113     -0.54422514    -1.678472      -1.7814367      90.058487    
      9000   93.25606       158.5          158.5          158.5         -0.0075557911   1.359096      -0.88460124    -0.49716214     93.25606     
      9020   90.459291      158.5          158.5          158.5         -0.76219125    -1.5655706      0.3811221     -1.1021253      90.459291    
      9040   100.41467      158.5          158.5          158.5         -1.7546044     -1.0145727     -0.34882759    -3.9004128      100.41467    
      9060   87.524346      158.5          158.5          158.5         -0.09941629     1.9349508     -0.18421275    -2.0489869      87.524346    
      9080   93.621019      158.5          158.5          158.5          0.4820143      2.4121428     -0.38140476    -0.58469515     93.621019    
      9100   100.01612      158.5          158.5          158.5         -0.43946352    -2.0720297      1.1737939     -0.42015483     100.01612    
      9120   95.323942      158.5          158.5          158.5          1.6182834      0.84794166     3.6699608      0.33694762     95.323942    
      9140   84.581499      158.5          158.5          158.5          1.9298677      2.3466798      4.2732913     -0.83036807     84.581499    
      9160   92.118759      158.5          158.5          158.5         -0.88737387    -1.9048587      0.68550772    -1.4427707      92.118759    
      9180   89.277626      158.5          158.5          158.5          2.8758039      0.82672968     4.5786562      3.2220258      89.277626    
      9200   87.205917      158.5          158.5          158.5          2.4554663      2.970253       4.6111005     -0.21495473     87.205917    
      9220   96.29025       158.5          158.5          158.5         -0.15130564    -0.63048359     0.45514428    -0.2785776      96.29025     
      9240   95.077335      158.5          158.5          158.5          4.0504453      2.819033       3.2553461      6.076957       95.077335    
      9260   88.209459      158.5          158.5          158.5          1.6856015      2.1486167      0.98225345     1.9259344      88.209459    
      9280   102.55438      158.5          158.5          158.5         -0.047095662   -1.7923336      1.8341003     -0.18305367     102.55438    
      9300   103.88208      158.5          158.5          158.5          3.714562       4.6575384      3.10851        3.3776376      103.88208    
      9320   102.88312      158.5          158.5          158.5          0.29188885     2.9214223     -3.7946371      1.7488813      102.88312    
      9340   96.131788      158.5          158.5          158.5          0.87263223    -0.20241849     0.86887015     1.951445       96.131788    
      9360   92.402918      158.5          158.5          158.5          1.3501362     -0.14067357     3.3954303      0.79565184     92.402918    
      9380   96.562516      158.5          158.5          158.5         -0.76213684     1.0236654     -3.2485532     -0.061522784    96.562516    
      9400   98.371224      158.5          158.5          158.5         -0.26649263    -1.1235116     -2.0240716      2.3481052      98.371224    
      9420   100.21922      158.5          158.5          158.5         -1.6455501     -4.4906334      0.10305836    -0.54907514     100.21922    
      9440   92.039412      158.5          158.5          158.5         -0.73884987    -1.3554202      0.87478481    -1.7359142      92.039412    
      9460   96.921984      158.5          158.5          158.5         -1.940737      -0.23184656    -1.7136        -3.8767644      96.921984    
      9480   103.8393       158.5          158.5          158.5         -3.1845215     -2.3495619     -4.1262323     -3.0777702      103.8393     
      9500   101.10078      158.5          158.5          158.5         -1.0938666     -1.7531183     -0.44577761    -1.0827038      101.10078    
      9520   93.280764      158.5          158.5          158.5         -5.3161643     -6.1809992     -4.0182241     -5.7492695      93.280764    
      9540   87.393029      158.5          158.5          158.5         -2.3246643      0.97260463    -4.1752411     -3.7713564      87.393029    
      9560   99.011641      158.5          158.5          158.5         -1.5449377      0.072434218   -3.144936      -1.5623115      99.011641    
      9580   98.291261      158.5          158.5          158.5         -6.0845264     -7.424979      -7.0627663     -3.765834       98.291261    
      9600   99.112002      158.5          158.5          158.5          0.035697678    0.29731743    -0.31440968     0.12418528     99.112002    
      9620   86.258012      158.5          158.5          158.5         -1.2694752      0.23675543    -1.7669454     -2.2782354      86.258012    
      9640   99.077854      158.5          158.5          158.5         -4.9360184     -6.5578554     -6.0623794     -2.1878204      99.077854    
      9660   96.354883      158.5          158.5          158.5          1.4268065      2.0912793     -1.3413486      3.5304887      96.354883    
      9680   99.887918      158.5          158.5          158.5         -1.675248      -1.617112      -3.1079392     -0.3006928      99.887918    
      9700   92.635831      158.5          158.5          158.5         -2.4347579     -5.168247      -0.59603844    -1.5399883      92.635831    
      9720   92.800296      158.5          158.5          158.5          2.2258551      2.0367956     -0.04752699     4.6882967      92.800296    
      9740   91.7758        158.5          158.5          158.5          0.090537224    0.14558631    -2.5309697      2.6569951      91.7758      
      9760   96.083364      158.5          158.5          158.5         -0.54304       -3.1073894      2.4877403     -1.0094709      96.083364    
      9780   94.652755      158.5          158.5          158.5          2.9137483      2.9536141      5.4665979      0.32103298     94.652755    
      9800   98.501371      158.5          158.5          158.5         -0.54700918     1.1938102     -2.1606842     -0.67415356     98.501371    
      9820   90.364739      158.5          158.5          158.5         -1.8557489     -1.2494212     -3.9596923     -0.35813318     90.364739    
      9840   93.225628      158.5          158.5          158.5          2.7222169      3.0966904      2.8224843      2.2474759      93.225628    
      9860   95.253568      158.5          158.5          158.5         -1.1279325     -0.40700929     0.41425426    -3.3910425      95.253568    
      9880   108.31234      158.5          158.5          158.5         -2.8879619     -0.4233872     -5.2177826     -3.0227158      108.31234    
      9900   92.593087      158.5          158.5          158.5          3.7394403      4.6022414      0.58269799     6.0333814      92.593087    
      9920   92.549186      158.5          158.5          158.5         -1.0664786     -1.1893401     -0.87608969    -1.134006       92.549186    
      9940   95.284591      158.5          158.5          158.5         -1.7481793     -2.2705833      1.4219283     -4.3958831      95.284591    
      9960   101.64556      158.5          158.5          158.5          4.0310926      5.3864635      1.9949122      4.711902       101.64556    
      9980   105.73824      158.5          158.5          158.5         -1.5130552      0.45798251    -5.807429       0.8102808      105.73824    
     10000   92.914131      158.5          158.5          158.5         -1.0139066     -2.6203231     -0.19044149    -0.2309551      92.914131    
     10020   105.86027      158.5          158.5          158.5          4.0785669      3.0198095      6.4791339      2.7367571      105.86027    
     10040   98.174796      158.5          158.5          158.5         -1.9148422      0.87153199    -3.5988266     -3.017232       98.174796    
     10060   100.99395      158.5          158.5          158.5         -3.2344491     -3.8561596     -5.7859187     -0.061269035    100.99395    
     10080   105.3984       158.5          158.5          158.5          2.4803364      0.57956311     2.6596458      4.2018003      105.3984     
     10100   104.88586      158.5          158.5          158.5         -1.2196475     -1.7216866      3.7958357     -5.7330917      104.88586    
     10120   105.34911      158.5          158.5          158.5         -1.1682541     -0.38463476    -2.1970372     -0.92309024     105.34911    
     10140   96.874875      158.5          158.5          158.5          5.9473439      5.0427056      2.9431163      9.8562098      96.874875    
     10160   105.65438      158.5          158.5          158.5          1.7904298     -1.2796329      5.7344638      0.91645857     105.65438    
     10180   110.00256      158.5          158.5          158.5          0.50941583     1.1069374      5.5627016     -5.1413916      110.00256    
     10200   100.04158      158.5          158.5          158.5          6.0493864      6.3768692      7.3962055      4.3750846      100.04158    
     10220   98.172597      158.5          158.5          158.5         -0.18504338    -2.0905087     -2.0107231      3.5461017      98.172597    
     10240   90.273822      158.5          158.5          158.5          0.89841177     0.61384038     1.9345445      0.14685045     90.273822    
     10260   99.782738      158.5          158.5          158.5          4.2610958      5.2040066      6.8550671      0.72421374     99.782738    
     10280   88.629453      158.5          158.5          158.5         -2.555262      -1.9063678     -3.8026628     -1.9567553      88.629453    
     10300   91.904156      158.5          158.5          158.5          1.0195244      1.6218928     -1.3211462      2.7578267      91.904156    
     10320   82.076112      158.5          158.5          158.5          0.46678135     0.59987166     0.11786044     0.68261195     82.076112    
     10340   89.73761       158.5          158.5          158.5         -5.6744772     -5.0538977     -4.5714861     -7.3980477      89.73761     
     10360   95.198661      158.5          158.5          158.5         -1.2095864     -0.35443224    -1.8455678     -1.4287591      95.198661    
     10380   93.829339      158.5          158.5          158.5         -2.1994111     -1.6502446     -5.6663203      0.71833156     93.829339    
     10400   85.840632      158.5          158.5          158.5         -3.5854174     -4.5253385     -3.8084328     -2.4224808      85.840632    
     10420   81.845823      158.5          158.5          158.5          0.24308508    -0.37729374     2.5238522     -1.4173032      81.845823    
     10440   91.384291      158.5          158.5          158.5          1.5730709      1.3222538      2.4636181      0.93334094     91.384291    
     10460   91.80103       158.5          158.5          158.5         -0.80747125    -2.915522      -2.3987276      2.8918359      91.80103     
     10480   87.090152      158.5          158.5          158.5         -1.2061774     -2.8061434     -1.6484782      0.83608941     87.090152    
     10500   92.592995      158.5          158.5          158.5          2.9028815      5.6357929      3.2601612     -0.18730965     92.592995    
     10520   90.868841      158.5          158.5          158.5          0.043954965    0.68766139     0.24312117    -0.79891766     90.868841    
     10540   103.31326      158.5          158.5          158.5         -1.2356267     -4.1175014     -2.6717867      3.082408       103.31326    
     10560   89.742137      158.5          158.5          158.5          4.6791141      3.7739185      4.4036983      5.8597253      89.742137    
     10580   106.73537      158.5          158.5          158.5          0.72819633     3.4797891      0.68148999    -1.9766901      106.73537    
     10600   98.510607      158.5          158.5          158.5          0.51124136     1.2806825     -0.38192934     0.63497088     98.510607    
     10620   105.03641      158.5          158.5          158.5          3.0119442      2.571968       1.3579091      5.1059556      105.03641    
     10640   99.9885        158.5          158.5          158.5         -0.81269166     0.16031702    -2.5475762     -0.050815774    99.9885      
     10660   110.16181      158.5          158.5          158.5         -1.4714471     -1.3509679     -0.10833506    -2.9550384      110.16181    
     10680   98.393377      158.5          158.5          158.5          1.7486317      2.5019482      1.6958249      1.0481219      98.393377    
     10700   96.903708      158.5          158.5          158.5         -0.44309172    -0.48532757    -3.2379817      2.3940341      96.903708    
     10720   96.274203      158.5          158.5          158.5         -0.87565895    -3.3294803      0.023994231    0.67850924     96.274203    
     10740   96.784173      158.5          158.5          158.5          0.075371057    0.035802159    2.3641813     -2.1738703      96.784173    
     10760   93.424281      158.5          158.5          158.5         -1.767003      -0.40198028    -1.456713      -3.4423157      93.424281    
     10780   98.648319      158.5          158.5          158.5         -0.18807696    -1.2902681     -3.4273057      4.1533429      98.648319    
     10800   102.43378      158.5          158.5          158.5          0.97890419    -1.3958912      0.16179782     4.170806       102.43378    
     10820   100.30567      158.5          158.5          158.5         -2.8122035     -1.435068      -0.23194348    -6.7695992      100.30567    
     10840   103.37993      158.5          158.5          158.5          0.26390338     0.75320821    -0.39381655     0.43231848     103.37993    
     10860   103.86867      158.5          158.5          158.5          3.0992326      2.2795134      1.6064436      5.4117407      103.86867    
     10880   95.472131      158.5          158.5          158.5         -2.3958184     -2.5997801     -1.979664      -2.608011       95.472131    
     10900   95.468172      158.5          158.5          158.5          0.11100944     0.64931488     1.1179977     -1.4342842      95.468172    
     10920   94.884339      158.5          158.5          158.5          1.6145858      2.5233227      2.0751937      0.24524094     94.884339    
     10940   101.90568      158.5          158.5          158.5         -3.4347137     -3.390488      -3.5017289     -3.4119242      101.90568    
     10960   82.468561      158.5          158.5          158.5          0.10584612    -0.51202288    -2.1587703      2.9883316      82.468561    
     10980   93.537629      158.5          158.5          158.5          1.5464758      3.4784919      1.0756593      0.085276412    93.537629    
     11000   92.355214      158.5          158.5          158.5         -0.80884301     0.28261326     0.55185513    -3.2609974      92.355214    
     11020   99.654293      158.5          158.5          158.5          0.9966657     -0.37813577    -0.4155984      3.7837313      99.654293    
     11040   99.589711      158.5          158.5          158.5          2.0964161      0.38780536     2.5209994      3.3804436      99.589711    
     11060   102.36701      158.5          158.5          158.5          1.0734354      1.3721477      5.3788618     -3.5307034      102.36701    
     11080   98.635009      158.5          158.5          158.5          1.1579348      0.91601163     5.2563833     -2.6985905      98.635009    
     11100   99.71209       158.5          158.5          158.5          3.4394723      1.944779       3.7796736      4.5939642      99.71209     
     11120   106.094        158.5          158.5          158.5          1.5888737      3.0414222      1.0964005      0.6287984      106.094      
     11140   96.979974      158.5          158.5          158.5         -1.1346951      2.1810906      1.4446736     -7.0298495      96.979974    
     11160   95.716224      158.5          158.5          158.5          4.2837973      3.0474703      8.0723112      1.7316103      95.716224    
     11180   100.32364      158.5          158.5          158.5          0.58399187    -1.2585038     -0.23298446     3.2434639      100.32364    
     11200   109.552        158.5          158.5          158.5         -2.2459506     -0.94349208    -3.4299772     -2.3643826      109.552      
     11220   110.55579      158.5          158.5          158.5          3.4283431      2.9495287      6.604332       0.73116862     110.55579    
     11240   105.38         158.5          158.5          158.5         -0.87897074    -3.4531234      3.2188178     -2.4026066      105.38       
     11260   105.48547      158.5          158.5          158.5         -0.059250411   -1.8717751      0.47761416     1.2164098      105.48547    
     11280   107.04995      158.5          158.5          158.5          2.8452894      1.7194321      2.9982491      3.8181872      107.04995    
     11300   110.76139      158.5          158.5          158.5         -2.8606357     -4.0709548      1.4614287     -5.972381       110.76139    
     11320   106.22351      158.5          158.5          158.5          1.1285231      0.46634791     4.6445172     -1.7252958      106.22351    
     11340   102.67662      158.5          158.5          158.5          0.31727273     1.534785      -3.6083778      3.025411       102.67662    
     11360   102.4699       158.5          158.5          158.5         -2.0274966     -4.4319897     -1.9534084      0.30290832     102.4699     
     11380   105.0396       158.5          158.5          158.5          3.2075296      1.70222        6.0715412      1.8488278      105.0396     
     11400   99.194542      158.5          158.5          158.5         -1.6720239     -0.15366537    -2.2794809     -2.5829256      99.194542    
     11420   98.098551      158.5          158.5          158.5          0.55772063     2.431297      -3.6514186      2.8932835      98.098551    
     11440   92.359421      158.5          158.5          158.5          3.1391364      2.0285542      2.6113345      4.7775205      92.359421    
     11460   97.856099      158.5          158.5          158.5         -1.1844367     -0.21369576     1.1503992     -4.4900135      97.856099    
     11480   97.239045      158.5          158.5          158.5          0.30562174     3.3672673     -0.4775331     -1.972869       97.239045    
     11500   95.24951       158.5          158.5          158.5         -1.1225104     -3.8253568     -2.4552611      2.9130868      95.24951     
     11520   90.361299      158.5          158.5          158.5         -1.8384516     -6.6693204     -0.27031947     1.4242851      90.361299    
     11540   92.088061      158.5          158.5          158.5         -2.6246326     -0.74333159    -3.0831413     -4.0474249      92.088061    
     11560   94.967873      158.5          158.5          158.5         -1.6085694     -0.26979702    -3.1050436     -1.4508675      94.967873    
     11580   91.347571      158.5          158.5          158.5          0.12037046    -2.5848102      1.0978548      1.8480668      91.347571    
     11600   95.628528      158.5          158.5          158.5         -3.272239      -4.4411571     -2.035639      -3.339921       95.628528    
     11620   93.035391      158.5          158.5          158.5          0.72877347     1.0706029      2.4766458     -1.3609283      93.035391    
     11640   84.403956      158.5          158.5          158.5          0.5612649     -0.45297879     1.9937422      0.14303126     84.403956    
     11660   102.08419      158.5          158.5          158.5         -4.012379      -4.2807624     -4.9402972     -2.8160774      102.08419    
     11680   89.549593      158.5          158.5          158.5          1.5757927      0.15933376     2.4299483      2.1380959      89.549593    
     11700   96.979032      158.5          158.5          158.5          1.8761714      3.8620167      1.2733048      0.49319275     96.979032    
     11720   93.809503      158.5          158.5          158.5         -0.17602454     2.3936421     -0.20194121    -2.7197745      93.809503    
     11740   100.1905       158.5          158.5          158.5          1.7218255      1.1608857      2.186689       1.8179017      100.1905     
     11760   95.218559      158.5          158.5          158.5          0.28679478     3.1549771     -3.0777309      0.78313814     95.218559    
     11780   93.471852      158.5          158.5          158.5          1.4879894      5.2254915      0.25031789    -1.0118413      93.471852    
     11800   94.972472      158.5          158.5          158.5         -0.47349015    -1.0760112     -0.061247975   -0.28321133     94.972472    
     11820   91.981874      158.5          158.5          158.5         -1.0327319     -0.63924796    -3.0629855      0.60403772     91.981874    
     11840   94.18566       158.5          158.5          158.5          1.7691035      5.2390769      0.2194259     -0.15119241     94.18566     
     11860   92.605686      158.5          158.5          158.5         -0.48323392    -1.9395739      1.9972299     -1.5073577      92.605686    
     11880   100.89681      158.5          158.5          158.5         -1.4491005     -5.8026629      0.78139219     0.67396936     100.89681    
     11900   107.36728      158.5          158.5          158.5         -1.8802223     -2.8769178     -2.2141255     -0.54962355     107.36728    
     11920   99.511592      158.5          158.5          158.5         -2.1503251     -4.0891986     -0.56157723    -1.8001993      99.511592    
     11940   105.3129       158.5          158.5          158.5         -1.6093664     -2.72403       -1.2895065     -0.81456269     105.3129     
     11960   94.96218       158.5          158.5          158.5         -0.84011035    -2.3940916      0.044518709   -0.17075815     94.96218     
     11980   99.260551      158.5          158.5          158.5          2.2671025      0.65196791     2.7424212      3.4069184      99.260551    
     12000   94.558119      158.5          158.5          158.5          1.488294       0.87040475     3.2424007      0.35207651     94.558119    
     12020   96.271045      158.5          158.5          158.5         -0.060364722    1.0503786     -0.32480172    -0.90667103     96.271045    
     12040   90.589586      158.5          158.5          158.5          1.5573306      3.2041789     -1.4074443      2.875257       90.589586    
     12060   92.025904      158.5          158.5          158.5         -1.220847      -0.081264895   -1.0370553     -2.5442207      92.025904    
     12080   99.814815      158.5          158.5          158.5         -0.34880698    -0.7529461      2.1885297     -2.4820046      99.814815    
     12100   85.959539      158.5          158.5          158.5          0.74796029    -0.20085808     2.6012238     -0.15648488     85.959539    
     12120   91.369555      158.5          158.5          158.5         -0.64373302     0.094509092   -1.2553615     -0.77034661     91.369555    
     12140   89.814116      158.5          158.5          158.5         -0.57936637    -0.78763441    -0.46810756    -0.48235715     89.814116    
     12160   104.06403      158.5          158.5          158.5         -2.1524116     -3.7201015     -2.3573938     -0.37973959     104.06403    
     12180   83.690691      158.5          158.5          158.5         -0.79211631     0.87526327    -3.5139252      0.26231301     83.690691    
     12200   93.094207      158.5          158.5          158.5         -1.1181389      1.5029003     -3.3199736     -1.5373435      93.094207    
     12220   85.482945      158.5          158.5          158.5         -1.8233923     -3.9202897     -0.89011343    -0.65977384     85.482945    
     12240   90.683893      158.5          158.5          158.5          0.86552396    -1.0961112      2.0447793      1.6479038      90.683893    
     12260   96.488093      158.5          158.5          158.5         -0.29019889     0.95834004    -0.88907468    -0.93986204     96.488093    
     12280   90.925203      158.5          158.5          158.5         -0.56942301    -1.0004249     -1.0527337      0.34488954     90.925203    
     12300   86.714225      158.5          158.5          158.5          0.25982541     0.24959668    -0.38371305     0.91359259     86.714225    
     12320   91.256146      158.5          158.5          158.5         -0.31639228     1.0948245     -0.68449514    -1.3595062      91.256146    
     12340   98.423297      158.5          158.5          158.5         -0.87094787     0.44028503    -1.3989627     -1.654166       98.423297    
     12360   98.305603      158.5          158.5          158.5         -0.82016953     1.6243404     -4.1208049      0.035955973    98.305603    
     12380   84.754809      158.5          158.5          158.5          0.8166448      0.97814786    -0.61541732     2.0872038      84.754809    
     12400   105.84545      158.5          158.5          158.5         -0.2393779     -0.17243559     0.79675515    -1.3424533      105.84545    
     12420   103.18309      158.5          158.5          158.5          1.2360054      2.8094888     -0.1363335      1.0348608      103.18309    
     12440   102.56561      158.5          158.5          158.5          1.4386957      0.085741136   -0.29960917     4.5299551      102.56561    
     12460   102.91102      158.5          158.5          158.5          0.9601584     -1.3363284      4.5210843     -0.30428074     102.91102    
     12480   95.867961      158.5          158.5          158.5          3.6849289      6.2555369      4.3889053      0.41034438     95.867961    
     12500   109.50096      158.5          158.5          158.5          0.3156024      1.588886       0.039480903   -0.68155975     109.50096    
     12520   106.15245      158.5          158.5          158.5          0.032037436   -1.2603524      0.54922136     0.80724333     106.15245    
     12540   110.27055      158.5          158.5          158.5          3.8368246      4.8245677      3.9087328      2.7771732      110.27055    
     12560   101.24942      158.5          158.5          158.5         -0.97127908    -1.0463888      0.82284969    -2.6902981      101.24942    
     12580   105.02707      158.5          158.5          158.5         -0.18121328    -2.9410079      1.4832727      0.91409535     105.02707    
     12600   104.53294      158.5          158.5          158.5          1.7376495      0.58927559     0.13006708     4.4936059      104.53294    
     12620   104.11338      158.5          158.5          158.5         -3.3002908     -2.5416703     -5.4299039     -1.9292983      104.11338    
     12640   105.83155      158.5          158.5          158.5          1.0949485      0.36892397     1.4221629      1.4937585      105.83155    
     12660   95.614226      158.5          158.5          158.5          1.1030488      0.48965549     1.4498876      1.3696033      95.614226    
     12680   98.087761      158.5          158.5          158.5         -2.6899729     -1.7607792     -7.0524235      0.743284       98.087761    
     12700   90.843518      158.5          158.5          158.5          1.9965886      5.1836449      0.27346962     0.53265146     90.843518    
     12720   99.713046      158.5          158.5          158.5          0.077846715    1.5967837      2.8678901     -4.2311336      99.713046    
     12740   92.635658      158.5          158.5          158.5         -0.9517666     -0.041438297   -2.4673263     -0.34653521     92.635658    
     12760   95.08193       158.5          158.5          158.5          1.9357178      6.111172      -3.6185863      3.3145676      95.08193     
     12780   87.54105       158.5          158.5          158.5         -0.84767308    -0.20640088    -3.3137203      0.97710191     87.54105     
     12800   84.561483      158.5          158.5          158.5         -0.34243677    -3.2640033      2.803225      -0.56653202     84.561483    
     12820   94.848332      158.5          158.5          158.5          2.8044141      3.3455292      2.1975055      2.8702075      94.848332    
     12840   89.984662      158.5          158.5          158.5         -1.1719108      0.20488878    -6.4236939      2.7030727      89.984662    
     12860   83.615667      158.5          158.5          158.5         -1.7414472     -0.39041825    -1.092672      -3.7412514      83.615667    
     12880   93.622164      158.5          158.5          158.5          1.6668356      4.2413471      2.903463      -2.1443034      93.622164    
     12900   88.772936      158.5          158.5          158.5         -3.4270426     -1.4764308     -5.714595      -3.0901021      88.772936    
     12920   93.941218      158.5          158.5          158.5         -2.1154037     -1.4488967     -3.0359604     -1.8613541      93.941218    
     12940   85.003535      158.5          158.5          158.5          3.1041321      1.6105937      3.6094095      4.0923931      85.003535    
     12960   94.075373      158.5          158.5          158.5         -3.3766195     -4.5053334     -2.5763308     -3.0481942      94.075373    
     12980   92.001773      158.5          158.5          158.5         -0.5707323     -1.6365161      1.6397287     -1.7154096      92.001773    
     13000   88.296209      158.5          158.5          158.5          2.0947931      0.627251       1.4031083      4.2540201      88.296209    
     13020   87.753958      158.5          158.5          158.5         -1.691677      -0.561218      -4.5726702      0.058857011    87.753958    
     13040   96.318635      158.5          158.5          158.5          2.6715722      2.6161831      5.1078769      0.29065665     96.318635    
     13060   93.45204       158.5          158.5          158.5          1.8777812     -0.99872016     5.9073222      0.72474155     93.45204     
     13080   101.51506      158.5          158.5          158.5         -1.2129719     -1.3279803     -2.4112131      0.10027766     101.51506    
     13100   92.738268      158.5          158.5          158.5          2.8961945      3.2370836      2.3273474      3.1241524      92.738268    
     13120   106.51005      158.5          158.5          158.5         -0.75977508    -2.7612088      1.9360683     -1.4541847      106.51005    
     13140   102.14287      158.5          158.5          158.5         -0.87183314    -5.3542482      1.7552788      0.98346995     102.14287    
     13160   101.48688      158.5          158.5          158.5          1.5806015      0.51519385    -2.0485371      6.2751477      101.48688    
     13180   102.53651      158.5          158.5          158.5         -1.2239597      1.232798      -3.9410191     -0.96365805     102.53651    
     13200   101.32507      158.5          158.5          158.5         -1.1295149     -3.2726225      2.2108868     -2.3268089      101.32507    
     13220   95.037634      158.5          158.5          158.5          0.45404873    -2.2921516      1.7925645      1.8617333      95.037634    
     13240   108.47857      158.5          158.5          158.5         -0.45333161     4.3677171     -5.8860823      0.15837037     108.47857    
     13260   97.958536      158.5          158.5          158.5         -1.2652373      0.73316369    -5.5680428      1.0391671      97.958536    
     13280   97.854883      158.5          158.5          158.5          0.12054816    -1.923222       1.0682098      1.2166567      97.854883    
     13300   96.858961      158.5          158.5          158.5         -0.0030191251   1.119619       0.98820402    -2.1168804      96.858961    
     13320   98.452696      158.5          158.5          158.5         -1.3360823      1.6053781     -6.1598403      0.54621537     98.452696    
     13340   90.314443      158.5          158.5          158.5         -0.54760714     0.24257664    -2.8596997      0.97430167     90.314443    
     13360   84.744943      158.5          158.5          158.5          0.17315979    -1.9700447      3.9904975     -1.5009734      84.744943    
     13380   88.963005      158.5          158.5          158.5         -0.70515909     1.1390255      0.23746132    -3.4919641      88.963005    
     13400   92.666309      158.5          158.5          158.5         -0.98162684     2.9930776     -5.1303064     -0.80765168     92.666309    
     13420   88.76493       158.5          158.5          158.5          1.0207081      1.1247937     -1.045327       2.9826576      88.76493     
     13440   95.042153      158.5          158.5          158.5         -0.52699757    -2.3941498      2.6930027     -1.8798457      95.042153    
     13460   90.845151      158.5          158.5          158.5         -1.0019703     -2.9771976      3.3024981     -3.3312115      90.845151    
     13480   92.180709      158.5          158.5          158.5          1.0769325      0.98401868     0.73113567     1.515643       92.180709    
     13500   89.638254      158.5          158.5          158.5         -1.6418067     -3.0778591     -1.955229       0.10766785     89.638254    
     13520   86.253377      158.5          158.5          158.5          0.13300886    -3.4063205      4.145627      -0.34027996     86.253377    
     13540   92.580734      158.5          158.5          158.5          3.1618385      1.3082725      6.9030645      1.2741784      92.580734    
     13560   92.380393      158.5          158.5          158.5         -1.2715015     -0.87128974    -2.5682368     -0.37497797     92.380393    
     13580   100.50749      158.5          158.5          158.5          0.36609704    -1.137689      -2.2695091      4.5054893      100.50749    
     13600   88.962758      158.5          158.5          158.5          1.6814912     -0.1813353      4.5220988      0.70371003     88.962758    
     13620   101.51364      158.5          158.5          158.5         -1.5981987     -3.5093716      2.9650295     -4.2502539      101.51364    
     13640   94.21979       158.5          158.5          158.5          0.15876294    -1.5918648     -2.1066866      4.1748402      94.21979     
     13660   96.080984      158.5          158.5          158.5          0.51594449     1.4147412     -5.6414819      5.7745741      96.080984    
     13680   97.913302      158.5          158.5          158.5          0.13542024    -0.68572867     0.73911636     0.35287302     97.913302    
     13700   96.903367      158.5          158.5          158.5         -0.48714559     0.2663834      1.3152313     -3.0430514      96.903367    
     13720   105.01452      158.5          158.5          158.5          0.15361741     4.8382945     -5.3327757      0.95533335     105.01452    
     13740   102.15823      158.5          158.5          158.5         -1.3296348      0.32988914    -4.9663498      0.64755635     102.15823    
     13760   109.93775      158.5          158.5          158.5         -1.8444039     -0.018827309   -2.3332723     -3.181112       109.93775    
     13780   106.07612      158.5          158.5          158.5          1.3261695      2.1177021      2.402062      -0.54125562     106.07612    
     13800   110.16444      158.5          158.5          158.5         -1.2469327     -1.7249357     -1.9771825     -0.038679919    110.16444    
     13820   99.561764      158.5          158.5          158.5          0.28521906    -0.10901211    -1.7312809      2.6959502      99.561764    
     13840   100.54482      158.5          158.5          158.5          0.48497569     1.1696548      0.45988431    -0.17461205     100.54482    
     13860   98.127607      158.5          158.5          158.5         -3.3225392     -2.4991179     -2.3892559     -5.0792437      98.127607    
     13880   95.575042      158.5          158.5          158.5          0.7080692      1.3166299      0.85028672    -0.042709027    95.575042    
     13900   97.22016       158.5          158.5          158.5          0.56417546     2.2027043     -0.61031947     0.10014154     97.22016     
     13920   90.734381      158.5          158.5          158.5         -2.7113137     -1.590108      -2.885089      -3.6587442      90.734381    
     13940   91.185075      158.5          158.5          158.5          2.7245288      1.7728769      4.928092       1.4726176      91.185075    
     13960   94.403671      158.5          158.5          158.5          1.3477411      0.98102366     2.9248795      0.13732023     94.403671    
     13980   100.15721      158.5          158.5          158.5         -4.0128848     -3.1957142     -6.5540372     -2.2889029      100.15721    
     14000   83.318739      158.5          158.5          158.5          1.1804427     -0.68885886     3.2884196      0.94176726     83.318739    
     14020   86.149867      158.5          158.5          158.5          2.9475726     -1.1095118      9.1991151      0.75311446     86.149867    
     14040   95.216646      158.5          158.5          158.5         -1.9975318     -0.75568455    -1.6580383     -3.5788727      95.216646    
     14060   84.569424      158.5          158.5          158.5          4.1423972      4.1303733      4.3080332      3.9887851      84.569424    
     14080   79.111775      158.5          158.5          158.5          3.9849536      0.97806824     5.6351123      5.3416802      79.111775    
     14100   85.80222       158.5          158.5          158.5         -2.7038162     -1.2020382     -1.9617727     -4.9476377      85.80222     
     14120   91.798947      158.5          158.5          158.5          3.5262352      7.9058131      2.3945909      0.27830143     91.798947    
     14140   86.494774      158.5          158.5          158.5         -0.23022532     0.33696659    -4.6738041      3.6461615      86.494774    
     14160   87.494156      158.5          158.5          158.5         -1.1307939     -3.0856472     -1.5272435      1.2205091      87.494156    
     14180   91.156824      158.5          158.5          158.5          4.7536603      3.7017562      8.7846284      1.7745963      91.156824    
     14200   95.008286      158.5          158.5          158.5         -2.5665041     -1.091821      -3.0188225     -3.5888686      95.008286    
     14220   86.509166      158.5          158.5          158.5         -0.047177459   -0.86137627    -1.2391483      1.9589922      86.509166    
     14240   93.430609      158.5          158.5          158.5          1.0147022     -2.1868645      3.3218907      1.9090803      93.430609    
     14260   91.877464      158.5          158.5          158.5         -3.714933      -4.2822997     -2.1897067     -4.6727926      91.877464    
     14280   93.765369      158.5          158.5          158.5          2.1161757      3.2768126      1.3636867      1.7080278      93.765369    
     14300   94.160348      158.5          158.5          158.5         -0.31033881     1.1462758     -2.8887182      0.81142596     94.160348    
     14320   98.401212      158.5          158.5          158.5         -0.48272278    -2.1857317      0.10757607     0.62998723     98.401212    
     14340   91.293008      158.5          158.5          158.5          3.1156766      1.7284628      7.4145337      0.20403326     91.293008    
     14360   96.289723      158.5          158.5          158.5          0.069856337    3.1750308      0.23543945    -3.2009012      96.289723    
     14380   96.156141      158.5          158.5          158.5          2.9379309      2.7570222      2.0608661      3.9959045      96.156141    
     14400   104.2233       158.5          158.5          158.5          0.73133753    -3.6054685      4.8138577      0.98562342     104.2233     
     14420   97.340615      158.5          158.5          158.5          1.3112101     -0.70478909     7.2225829     -2.5841635      97.340615    
     14440   105.71728      158.5          158.5          158.5          2.779125       3.2131169      4.5909674      0.53329089     105.71728    
     14460   96.241974      158.5          158.5          158.5         -0.85441344    -1.0182092     -2.1179364      0.57290529     96.241974    
     14480   93.286623      158.5          158.5          158.5          1.9986594      0.94714345     2.9950401      2.0537947      93.286623    
     14500   91.610153      158.5          158.5          158.5          0.30203486     0.50855339     1.1730478     -0.77549662     91.610153    
     14520   99.911435      158.5          158.5          158.5         -3.1758519     -0.25289509    -7.2199512     -2.0547095      99.911435    
     14540   80.840213      158.5          158.5          158.5          0.086907607    1.2069554     -3.1370066      2.190774       80.840213    
     14560   82.140289      158.5          158.5          158.5         -2.3149016     -5.4260203     -1.0848651     -0.43381956     82.140289    
     14580   85.326307      158.5          158.5          158.5         -2.9663407     -5.0058492     -1.7138356     -2.1793373      85.326307    
     14600   90.642056      158.5          158.5          158.5         -1.3888721      0.4738438     -2.4934548     -2.1470054      90.642056    
     14620   74.410497      158.5          158.5          158.5         -0.67244814     0.3714251     -4.0797402      1.6909707      74.410497    
     14640   81.086976      158.5          158.5          158.5         -0.28407163    -1.4131535     -1.0182173      1.5791559      81.086976    
     14660   87.027663      158.5          158.5          158.5          0.85558717     1.1372994      1.3803256      0.049136486    87.027663    
     14680   92.256246      158.5          158.5          158.5          0.5196039      2.7263681     -0.91690217    -0.25065418     92.256246    
     14700   93.958534      158.5          158.5          158.5          0.12792934     1.4443027     -0.47007613    -0.59043858     93.958534    
     14720   88.561466      158.5          158.5          158.5          0.32337564     0.13125735    -0.37957022     1.2184398      88.561466    
     14740   93.613568      158.5          158.5          158.5          0.80713468    -0.25690596     0.13873707     2.5395729      93.613568    
     14760   99.451682      158.5          158.5          158.5         -0.22518486     0.67815798    -0.67895007    -0.67476248     99.451682    
     14780   84.36006       158.5          158.5          158.5         -1.4049948     -0.55568545    -2.5431631     -1.1161359      84.36006     
     14800   99.963126      158.5          158.5          158.5         -1.5912124     -4.6186732     -0.87999991     0.72503594     99.963126    
     14820   91.762065      158.5          158.5          158.5         -1.8734344     -2.9540525     -1.3071702     -1.3590806      91.762065    
     14840   95.72488       158.5          158.5          158.5         -1.9208715     -1.2146167     -3.0959084     -1.4520893      95.72488     
     14860   98.55175       158.5          158.5          158.5         -0.61829284    -1.7813883     -1.9543806      1.8808904      98.55175     
     14880   98.233132      158.5          158.5          158.5         -0.2764159     -1.7916392     -0.40471642     1.367108       98.233132    
     14900   99.907189      158.5          158.5          158.5          0.10603892     0.10520507    -0.26168725     0.47459894     99.907189    
     14920   91.902439      158.5          158.5          158.5         -0.1840909      1.278124      -1.4908347     -0.33956206     91.902439    
     14940   96.595805      158.5          158.5          158.5          0.62085769     3.622513       0.1413757     -1.9013157      96.595805    
     14960   103.68549      158.5          158.5          158.5          1.8559294      2.5555996      2.4080607      0.60412783     103.68549    
     14980   95.340392      158.5          158.5          158.5          1.2639296      0.99964919     1.4769388      1.3152009      95.340392    
     15000   95.012939      158.5          158.5          158.5         -0.64031301     1.3843282     -3.4831127      0.17784547     95.012939    
     15020   95.579575      158.5          158.5          158.5         -0.94630692    -0.51614903    -2.097173      -0.22559876     95.579575    
     15040   98.510283      158.5          158.5          158.5          0.022431796   -0.26673093     0.21205989     0.12196643     98.510283    
     15060   95.821391      158.5          158.5          158.5         -2.3734986     -3.1003642     -1.6206645     -2.3994669      95.821391    
     15080   94.258437      158.5          158.5          158.5         -1.0543553     -0.77959354    -1.2593324     -1.1241398      94.258437    
     15100   93.688255      158.5          158.5          158.5          1.4674821      1.8477084      1.0494213      1.5053165      93.688255    
     15120   83.094655      158.5          158.5          158.5          0.24928219     1.3814016     -0.00058217414 -0.63297281     83.094655    
     15140   96.508221      158.5          158.5          158.5          1.7287905      0.89448647     1.7441138      2.5477713      96.508221    
     15160   97.480461      158.5          158.5          158.5          1.265575      -0.62704633     1.1182107      3.3055607      97.480461    
     15180   94.297991      158.5          158.5          158.5          1.0838727      3.5383865      0.073951956   -0.36072019     94.297991    
     15200   92.165421      158.5          158.5          158.5          2.5114884      1.8799678      2.8524695      2.8020277      92.165421    
     15220   90.974066      158.5          158.5          158.5          0.056354677   -3.9965684      3.2135716      0.95206089     90.974066    
     15240   87.276499      158.5          158.5          158.5          3.0118006      2.1087579      4.6082654      2.3183786      87.276499    
     15260   83.018938      158.5          158.5          158.5          0.23907734     1.4311316     -1.1217857      0.40788607     83.018938    
     15280   92.993439      158.5          158.5          158.5         -3.1864994     -4.5184672     -2.8805429     -2.1604882      92.993439    
     15300   87.44718       158.5          158.5          158.5          2.3792959     -0.45816176     4.7857365      2.8103129      87.44718     
     15320   89.989074      158.5          158.5          158.5         -1.2533967     -1.229667      -0.94008261    -1.5904406      89.989074    
     15340   86.776893      158.5          158.5          158.5         -0.445059       1.4621775     -2.534741      -0.26261349     86.776893    
     15360   101.80039      158.5          158.5          158.5          2.2483247      1.6308074      1.3538145      3.7603523      101.80039    
     15380   99.454226      158.5          158.5          158.5         -1.3127914     -2.4457497     -1.0151315     -0.47749311     99.454226    
     15400   88.029939      158.5          158.5          158.5          2.0809959      3.9686223      2.1731083      0.10125717     88.029939    
     15420   106.01995      158.5          158.5          158.5         -0.42448106     4.6184451     -3.0829717     -2.8089166      106.01995    
     15440   98.403772      158.5          158.5          158.5         -2.9655973     -3.084613      -6.3447917      0.53261274     98.403772    
     15460   106.80013      158.5          158.5          158.5          0.28808263    -1.7470475      1.0201084      1.591187       106.80013    
     15480   92.715536      158.5          158.5          158.5         -0.51127718     2.5773627      0.67861722    -4.7898115      92.715536    
     15500   108.24784      158.5          158.5          158.5         -0.38053742     2.0618175     -2.2089516     -0.99447822     108.24784    
     15520   98.452624      158.5          158.5          158.5          1.0416949     -1.1387214      1.2284072      3.0353988      98.452624    
     15540   101.08967      158.5          158.5          158.5          1.864272      -1.3260155      5.3187825      1.600049       101.08967    
     15560   104.12102      158.5          158.5          158.5         -0.15784498     1.6242128      1.5139041     -3.6116519      104.12102    
     15580   94.077759      158.5          158.5          158.5         -1.0358519      0.91901435    -3.4847854     -0.54178452     94.077759    
     15600   102.01062      158.5          158.5          158.5          2.2422975     -0.88136575     2.6674288      4.9408295      102.01062    
     15620   97.771694      158.5          158.5          158.5         -2.2101654     -2.5458629     -0.11572323    -3.9689101      97.771694    
     15640   104.58958      158.5          158.5          158.5         -3.8019139      0.033157005   -5.6198064     -5.8190923      104.58958    
     15660   103.62454      158.5          158.5          158.5          2.4859398      1.8632196      0.31419141     5.2804084      103.62454    
     15680   107.09325      158.5          158.5          158.5         -2.2890167     -2.844795      -2.8803311     -1.141924       107.09325    
     15700   96.997365      158.5          158.5          158.5         -1.4124556      1.1974297     -1.5386879     -3.8961085      96.997365    
     15720   92.435564      158.5          158.5          158.5          4.7402485      3.8104016      6.0887459      4.3215981      92.435564    
     15740   97.999807      158.5          158.5          158.5         -0.56909364    -1.0659268     -1.2849819      0.64362782     97.999807    
     15760   98.617887      158.5          158.5          158.5         -0.82566085    -0.57243311    -1.0386297     -0.86591975     98.617887    
     15780   98.94677       158.5          158.5          158.5          2.2430536      0.95355528     6.1939065     -0.418301       98.94677     
     15800   84.73397       158.5          158.5          158.5         -2.1191199     -0.55165725    -1.8598339     -3.9458686      84.73397     
     15820   96.37022       158.5          158.5          158.5         -0.63476605    -0.80224235    -3.5155521      2.4134963      96.37022     
     15840   95.144307      158.5          158.5          158.5         -0.4257327      0.018335556   -1.7736855      0.47815182     95.144307    
     15860   93.523188      158.5          158.5          158.5         -2.5801651      0.09168629    -2.5375633     -5.2946182      93.523188    
     15880   88.36142       158.5          158.5          158.5          2.3006132      2.7270846      0.75004294     3.4247122      88.36142     
     15900   93.574455      158.5          158.5          158.5          1.4606718      1.3029029     -0.94991798     4.0290306      93.574455    
     15920   99.464532      158.5          158.5          158.5         -1.6692207      0.32802566    -2.0364825     -3.2992052      99.464532    
     15940   90.344745      158.5          158.5          158.5          2.291875       0.36377444     5.9267926      0.58505782     90.344745    
     15960   99.328119      158.5          158.5          158.5          0.0030333622  -0.93525471     2.5840506     -1.6396958      99.328119    
     15980   92.960861      158.5          158.5          158.5         -1.1651448     -0.68673237    -1.5290587     -1.2796432      92.960861    
     16000   109.02281      158.5          158.5          158.5          0.827447      -1.5100729      1.0359467      2.9564672      109.02281    
     16020   97.96337       158.5          158.5          158.5         -0.42240389    -1.5609105      2.4262477     -2.1325489      97.96337     
     16040   99.454039      158.5          158.5          158.5          1.9065607      1.1255289      4.3660193      0.22813379     99.454039    
     16060   92.434008      158.5          158.5          158.5          2.7223456      2.6401776      1.8539967      3.6728626      92.434008    
     16080   107.26785      158.5          158.5          158.5         -0.90506556    -0.33883428    -1.4766093     -0.89975312     107.26785    
     16100   106.65337      158.5          158.5          158.5          2.3686774      2.5450112      5.6024474     -1.0414266      106.65337    
     16120   101.22991      158.5          158.5          158.5          3.3043161      3.7379646      2.7656543      3.4093295      101.22991    
     16140   106.87238      158.5          158.5          158.5         -0.71583577     0.57620624    -4.3140274      1.5903138      106.87238    
     16160   106.20065      158.5          158.5          158.5          1.6693112      1.4138612      3.2754928      0.31857956     106.20065    
     16180   97.949194      158.5          158.5          158.5          1.6698975      2.0645473      3.6081682     -0.66302298     97.949194    
     16200   94.152514      158.5          158.5          158.5         -1.2534519      0.70601987    -1.2456616     -3.220714       94.152514    
     16220   99.1812        158.5          158.5          158.5          0.11329494    -0.93058721    -1.3290007      2.5994727      99.1812      
     16240   100.50129      158.5          158.5          158.5         -0.35607208    -2.635712      -0.73931172     2.3068074      100.50129    
     16260   101.22094      158.5          158.5          158.5          0.34843616     0.54434869     1.4744666     -0.97350686     101.22094    
     16280   97.380881      158.5          158.5          158.5         -0.11081452    -0.91992527    -1.4460955      2.0335772      97.380881    
     16300   104.07002      158.5          158.5          158.5         -1.8009211     -3.2515364     -2.95753        0.80630302     104.07002    
     16320   94.152536      158.5          158.5          158.5          0.47797366     1.2740266      2.3753072     -2.2154129      94.152536    
     16340   97.111685      158.5          158.5          158.5         -1.145432      -2.0719289     -0.53040583    -0.83396134     97.111685    
     16360   100.37538      158.5          158.5          158.5         -2.6532972     -2.6891706     -2.7507007     -2.5200203      100.37538    
     16380   95.914036      158.5          158.5          158.5          0.055148407    1.1294237     -1.1249945      0.16101608     95.914036    
     16400   102.96134      158.5          158.5          158.5         -3.1399264     -2.4322605     -5.7686508     -1.2188679      102.96134    
     16420   97.815855      158.5          158.5          158.5         -0.19067308     2.3969956      0.32637738    -3.2953922      97.815855    
     16440   95.430142      158.5          158.5          158.5          3.4161902      3.4027775      5.2426842      1.6031089      95.430142    
     16460   103.25484      158.5          158.5          158.5         -0.46307104    -2.5463411     -0.18917458     1.3463026      103.25484    
     16480   104.8169       158.5          158.5          158.5          3.3256129      4.2471287      4.1507399      1.57897        104.8169     
     16500   101.5387       158.5          158.5          158.5          1.8606436      2.3094964      3.8948194     -0.62238492     101.5387     
     16520   101.04839      158.5          158.5          158.5         -1.0489085     -2.8059286     -1.3307589      0.98996194     101.04839    
     16540   108.54764      158.5          158.5          158.5          1.715997       3.5644237     -0.31220206     1.8957693      108.54764    
     16560   106.53925      158.5          158.5          158.5         -1.4590483      0.0083298899  -3.4943048     -0.89117005     106.53925    
     16580   116.13047      158.5          158.5          158.5         -2.1354574     -1.3765413     -3.6061404     -1.4236903      116.13047    
     16600   103.48983      158.5          158.5          158.5          0.41676582     2.754099      -0.71468828    -0.78911329     103.48983    
     16620   111.85869      158.5          158.5          158.5         -2.3679926      0.070969072   -5.6528612     -1.5220855      111.85869    
     16640   104.73073      158.5          158.5          158.5         -0.7946615     -0.086833257   -3.9213809      1.6242297      104.73073    
     16660   98.370672      158.5          158.5          158.5          1.2486617      2.5450714      1.5250185     -0.32410489     98.370672    
     16680   104.11202      158.5          158.5          158.5          0.99982773    -0.39432324     2.711698       0.68210846     104.11202    
     16700   100.6516       158.5          158.5          158.5          0.7105818      0.038979159   -0.34378901     2.4365553      100.6516     
     16720   102.27249      158.5          158.5          158.5          1.5698042      1.8306618      2.3932605      0.48549035     102.27249    
     16740   98.447086      158.5          158.5          158.5          1.6078577      1.7525236      4.3272463     -1.2561969      98.447086    
     16760   101.31045      158.5          158.5          158.5         -0.035961495    0.19729834     2.4633256     -2.7685084      101.31045    
     16780   107.70587      158.5          158.5          158.5          1.8359018     -0.48293694     5.393015       0.5976273      107.70587    
     16800   96.063916      158.5          158.5          158.5          1.6624704     -1.0237405      4.9423662      1.0687855      96.063916    
     16820   95.257298      158.5          158.5          158.5         -1.8657105     -2.4734998      1.1228156     -4.2464473      95.257298    
     16840   100.24213      158.5          158.5          158.5          0.77591672    -0.31623212     2.1257361      0.51824619     100.24213    
     16860   109.31388      158.5          158.5          158.5         -0.40971271    -1.1574424     -2.0808507      2.0091549      109.31388    
     16880   104.38217      158.5          158.5          158.5         -2.7454415     -2.1946532     -3.9072781     -2.1343932      104.38217    
     16900   95.098628      158.5          158.5          158.5          3.8779121      3.6095849      5.5187501      2.5054011      95.098628    
     16920   107.23674      158.5          158.5          158.5          2.0364826      1.2426876      3.5879261      1.2788341      107.23674    
     16940   108.56163      158.5          158.5          158.5         -0.6335579      0.60156212     0.17232133    -2.6745571      108.56163    
     16960   101.31257      158.5          158.5          158.5          5.0675926      6.5981016      4.0278888      4.5767874      101.31257    
     16980   105.42432      158.5          158.5          158.5          0.25859659     1.4642522     -1.2031991      0.51473661     105.42432    
     17000   107.58175      158.5          158.5          158.5         -2.2236462     -0.37794837    -4.2723563     -2.020634       107.58175    
     17020   102.43772      158.5          158.5          158.5          3.1482025      2.4826263      1.8383418      5.1236396      102.43772    
     17040   119.3682       158.5          158.5          158.5         -2.3681322     -1.8228845     -4.042263      -1.2392492      119.3682     
     17060   99.890405      158.5          158.5          158.5         -2.5916686     -0.34085959    -1.1276557     -6.3064906      99.890405    
     17080   107.52463      158.5          158.5          158.5          0.33092545    -0.23812823     0.62983594     0.60106866     107.52463    
     17100   109.67042      158.5          158.5          158.5         -5.3388398     -6.163997      -9.3636103     -0.48891218     109.67042    
     17120   98.570462      158.5          158.5          158.5         -0.29286174     2.4949532     -4.0503667      0.67682828     98.570462    
     17140   100.25597      158.5          158.5          158.5          0.78335945     4.5661718     -1.6630569     -0.55303657     100.25597    
     17160   105.45362      158.5          158.5          158.5         -4.5384431     -5.4834152     -4.4047414     -3.7271729      105.45362    
     17180   98.869756      158.5          158.5          158.5          3.1647484      1.4730228      3.3215251      4.6996974      98.869756    
     17200   104.13667      158.5          158.5          158.5          0.9111997      3.803988      -2.4342977      1.3639088      104.13667    
     17220   98.675357      158.5          158.5          158.5         -2.7514136     -2.9277075     -1.1643509     -4.1621823      98.675357    
     17240   98.245474      158.5          158.5          158.5          3.0499461      1.2611827      4.4064645      3.4821911      98.245474    
     17260   105.7269       158.5          158.5          158.5         -1.7128376     -1.2048732     -3.4801097     -0.45352987     105.7269     
     17280   89.973951      158.5          158.5          158.5         -2.112802      -2.8829587     -1.4333134     -2.022134       89.973951    
     17300   95.119044      158.5          158.5          158.5         -0.45003853    -2.980438       1.8477705     -0.21744809     95.119044    
     17320   98.319686      158.5          158.5          158.5         -1.672382      -3.5565175     -0.38095155    -1.0796771      98.319686    
     17340   97.713288      158.5          158.5          158.5          0.83306348     0.7967733      1.3280764      0.37434074     97.713288    
     17360   96.535071      158.5          158.5          158.5          0.89351033     0.7620695      1.2183379      0.70012362     96.535071    
     17380   88.418338      158.5          158.5          158.5          1.4566562      1.6828199      2.1427659      0.54438266     88.418338    
     17400   102.92533      158.5          158.5          158.5         -0.21930769     0.10230425    -0.38180927    -0.37841806     102.92533    
     17420   97.026374      158.5          158.5          158.5          0.34185841     0.29953893    -1.6816578      2.4076941      97.026374    
     17440   85.135277      158.5          158.5          158.5          3.3123132      4.303405       3.4115261      2.2220084      85.135277    
     17460   93.015215      158.5          158.5          158.5          1.1145409      0.62608312     4.2986891     -1.5811495      93.015215    
     17480   98.989925      158.5          158.5          158.5          2.3860874      2.5792102      2.8388411      1.740211       98.989925    
     17500   97.738708      158.5          158.5          158.5          1.6152788      2.9061925      1.0517766      0.88786728     97.738708    
     17520   90.570323      158.5          158.5          158.5         -0.91441034     0.29600518    -1.7879971     -1.2512391      90.570323    
     17540   87.515551      158.5          158.5          158.5         -1.2912738     -0.81728749    -2.0293463     -1.0271877      87.515551    
     17560   100.0137       158.5          158.5          158.5         -0.76104499     0.47891536    -0.37852134    -2.383529       100.0137     
     17580   88.847261      158.5          158.5          158.5          0.46804204     1.5925473      0.6578837     -0.84630491     88.847261    
     17600   88.323696      158.5          158.5          158.5         -0.044816156   -0.58713619    -0.69507103     1.1477588      88.323696    
     17620   85.101459      158.5          158.5          158.5          2.3569226      2.6406978      1.9646505      2.4654194      85.101459    
     17640   90.550671      158.5          158.5          158.5          0.87982883     1.5754935     -0.087282116    1.1512751      90.550671    
     17660   89.945469      158.5          158.5          158.5         -2.3480526     -0.62377654    -3.0969674     -3.3234137      89.945469    
     17680   96.165833      158.5          158.5          158.5         -0.35401667     0.096717168   -0.95693506    -0.20183211     96.165833    
     17700   92.773916      158.5          158.5          158.5         -3.0670968     -4.4483833     -7.399716       2.646809       92.773916    
     17720   93.215107      158.5          158.5          158.5         -0.50443105     0.89478076    -4.0571681      1.6490942      93.215107    
     17740   96.798846      158.5          158.5          158.5         -0.3780072      1.3794512     -0.79378771    -1.7196851      96.798846    
     17760   100.17488      158.5          158.5          158.5         -1.8031739     -3.1016447     -2.6235985      0.31572157     100.17488    
     17780   104.12021      158.5          158.5          158.5         -0.45294111    -0.95636712    -2.3492452      1.946789       104.12021    
     17800   111.33077      158.5          158.5          158.5         -3.9260992     -1.6179668     -5.1521962     -5.0081347      111.33077    
     17820   104.22572      158.5          158.5          158.5         -0.5265915      0.57250896     0.12690058    -2.2791841      104.22572    
     17840   92.507356      158.5          158.5          158.5          0.72400028    -1.6673622      1.253118       2.586245       92.507356    
     17860   107.05497      158.5          158.5          158.5         -2.4349283     -4.7456775     -4.3160462      1.7569387      107.05497    
     17880   100.91189      158.5          158.5          158.5          2.6128432      2.1031353      3.2652149      2.4701795      100.91189    
     17900   110.75917      158.5          158.5          158.5          0.59397055     0.074712784    4.3369433     -2.6297444      110.75917    
     17920   94.18285       158.5          158.5          158.5          1.3849072      0.2100484      4.1407843     -0.19611106     94.18285     
     17940   103.78702      158.5          158.5          158.5          2.71604        3.2075077      1.5587798      3.3818324      103.78702    
     17960   109.08154      158.5          158.5          158.5          0.58005833     0.71646362     2.4163044     -1.3925931      109.08154    
     17980   108.98167      158.5          158.5          158.5          1.5154006     -0.047478475    4.6184498     -0.024769473    108.98167    
     18000   96.123997      158.5          158.5          158.5          0.6873113      0.57689883     1.3195413      0.16549374     96.123997    
     18020   107.51161      158.5          158.5          158.5          0.14182579     0.57601549     0.11028758    -0.26082571     107.51161    
     18040   101.22283      158.5          158.5          158.5          0.92350253    -0.39442903     1.6367166      1.52822        101.22283    
     18060   92.68841       158.5          158.5          158.5         -0.23968566    -0.88218755     1.2168828     -1.0537523      92.68841     
     18080   92.407415      158.5          158.5          158.5          0.056568742    0.051859561    0.53768816    -0.4198415      92.407415    
     18100   100.56453      158.5          158.5          158.5         -0.040653709   -0.25177491    -2.7546676      2.8844814      100.56453    
     18120   101.94284      158.5          158.5          158.5         -0.036950555    0.72785386    -0.25890111    -0.57980442     101.94284    
     18140   93.817101      158.5          158.5          158.5          0.66692735     2.0705219     -0.5813657      0.51162591     93.817101    
     18160   93.269771      158.5          158.5          158.5          0.060077196    0.52540611    -2.9212537      2.5760792      93.269771    
     18180   103.89505      158.5          158.5          158.5         -1.4743851     -0.7724746     -3.3390445     -0.31163636     103.89505    
     18200   94.543798      158.5          158.5          158.5          1.1178495      2.0249776     -0.22404518     1.5526161      94.543798    
     18220   105.05439      158.5          158.5          158.5          0.78738547     0.7285931      0.32791891     1.3056444      105.05439    
     18240   100.39878      158.5          158.5          158.5         -0.54199435     1.5264395     -2.4306399     -0.7217826      100.39878    
     18260   101.32981      158.5          158.5          158.5          2.0392187      2.7310437     -0.36170652     3.748319       101.32981    
     18280   111.53015      158.5          158.5          158.5         -1.536528      -3.6224564     -0.25207946    -0.73504802     111.53015    
     18300   102.83577      158.5          158.5          158.5         -1.1139156     -1.5748826      0.16388061    -1.9307447      102.83577    
     18320   106.17517      158.5          158.5          158.5         -0.35979999    -1.4180588      0.022269681    0.31638912     106.17517    
     18340   99.921686      158.5          158.5          158.5         -2.7284399     -4.8949724     -0.92185959    -2.3684877      99.921686    
     18360   112.62171      158.5          158.5          158.5          1.7733293      0.50235898     5.2673254     -0.44969643     112.62171    
     18380   102.18541      158.5          158.5          158.5         -0.19189698    -2.0474055      4.3483071     -2.8765925      102.18541    
     18400   104.84428      158.5          158.5          158.5         -1.5415523     -1.9649153     -0.71938564    -1.9403561      104.84428    
     18420   99.20753       158.5          158.5          158.5          3.404407       3.8048062      2.0123286      4.3960864      99.20753     
     18440   112.60337      158.5          158.5          158.5         -1.2507047     -2.1903626     -0.58603447    -0.97571703     112.60337    
     18460   99.978426      158.5          158.5          158.5         -0.078717017    2.1749639      0.21938726    -2.6305022      99.978426    
     18480   107.32832      158.5          158.5          158.5          1.0585654      5.9843685     -1.6340819     -1.1745905      107.32832    
     18500   97.682869      158.5          158.5          158.5         -0.9795265     -0.36970284    -2.0374608     -0.53141581     97.682869    
     18520   99.925947      158.5          158.5          158.5         -1.132105      -2.1837488      0.011196844   -1.223763       99.925947    
     18540   98.524337      158.5          158.5          158.5         -0.94156133     0.22161176    -0.63266968    -2.4136261      98.524337    
     18560   104.10987      158.5          158.5          158.5          0.66936815     1.5262135     -1.3581444      1.8400353      104.10987    
     18580   96.402283      158.5          158.5          158.5         -1.5630244     -2.2090704     -3.3370611      0.85705816     96.402283    
     18600   96.869766      158.5          158.5          158.5          0.45554806    -0.8650249      2.6351438     -0.40347471     96.869766    
     18620   95.35455       158.5          158.5          158.5          2.2956896      1.9321088      3.459018       1.4959422      95.35455     
     18640   99.239863      158.5          158.5          158.5         -0.89909236     0.80964808    -3.4596186     -0.047306524    99.239863    
     18660   93.649523      158.5          158.5          158.5          2.2299562      2.6679913      1.5051538      2.5167235      93.649523    
     18680   96.630679      158.5          158.5          158.5          1.9764754     -2.2998078      4.9471405      3.2820936      96.630679    
     18700   95.234281      158.5          158.5          158.5          0.82231948    -1.2105279      1.4598469      2.2176394      95.234281    
     18720   95.37845       158.5          158.5          158.5          2.0619374      4.7750521     -0.69084496     2.101605       95.37845     
     18740   93.21811       158.5          158.5          158.5          0.003451392    0.75951319    -0.71253425    -0.036624769    93.21811     
     18760   97.592368      158.5          158.5          158.5         -1.7279691     -4.5116491      0.40663397    -1.0788923      97.592368    
     18780   84.606562      158.5          158.5          158.5         -0.72445641    -0.73155472    -2.9701544      1.5283399      84.606562    
     18800   95.919531      158.5          158.5          158.5         -2.6096757     -0.83896626    -5.2691798     -1.720881       95.919531    
     18820   98.542533      158.5          158.5          158.5         -2.8697864     -1.8707832     -3.8112986     -2.9272774      98.542533    
     18840   97.422267      158.5          158.5          158.5          1.2362777      0.81942077     1.5290796      1.3603327      97.422267    
     18860   97.50056       158.5          158.5          158.5         -3.8691289     -3.4862796     -2.8299438     -5.2911633      97.50056     
     18880   106.71189      158.5          158.5          158.5         -2.8159921     -0.077669786   -5.6268718     -2.7434346      106.71189    
     18900   105.37571      158.5          158.5          158.5          1.945923       4.4333981      0.14259781     1.261773       105.37571    
     18920   103.21656      158.5          158.5          158.5         -4.2090903     -4.6894879      0.19562331    -8.1334063      103.21656    
     18940   107.09615      158.5          158.5          158.5          1.6376923      0.33009382     4.965255      -0.38227195     107.09615    
     18960   114.2339       158.5          158.5          158.5          3.0537861      4.3429989      3.9668911      0.85146833     114.2339     
     18980   99.473455      158.5          158.5          158.5          0.59055093     1.9218979      0.59149533    -0.74174044     99.473455    
     19000   108.42213      158.5          158.5          158.5          5.1089568      2.9341182      9.5944047      2.7983474      108.42213    
     19020   110.08145      158.5          158.5          158.5          1.103868       1.6804766      1.9944344     -0.36330716     110.08145    
     19040   109.61331      158.5          158.5          158.5          1.9957753      4.1691955     -0.88966364     2.7077939      109.61331    
     19060   96.572743      158.5          158.5          158.5          1.3158379     -0.27811478     3.7121983      0.51343006     96.572743    
     19080   96.617529      158.5          158.5          158.5         -2.0304955     -5.7600178      0.960756      -1.2922246      96.617529    
     19100   107.40345      158.5          158.5          158.5         -0.52256351    -2.4101453     -1.6382947      2.4807496      107.40345    
     19120   98.648632      158.5          158.5          158.5         -1.6570479     -1.2986048     -4.6961687      1.0236298      98.648632    
     19140   95.436221      158.5          158.5          158.5          0.54016097     0.25411588     1.0120632      0.35430386     95.436221    
     19160   110.03465      158.5          158.5          158.5         -1.1430144     -0.061060481   -0.10796818    -3.2600144      110.03465    
     19180   93.794927      158.5          158.5          158.5          0.033081081    1.181182      -2.2964812      1.2145425      93.794927    
     19200   94.643348      158.5          158.5          158.5          0.23281743     0.63680942    -2.5242162      2.585859       94.643348    
     19220   96.901905      158.5          158.5          158.5         -2.5526823     -1.0580226     -5.051306      -1.5487185      96.901905    
     19240   95.00023       158.5          158.5          158.5          1.4485636      3.1707616      1.236508      -0.061578661    95.00023     
     19260   78.098093      158.5          158.5          158.5         -0.071972585    1.8136236     -1.6498916     -0.37964977     78.098093    
     19280   101.20728      158.5          158.5          158.5         -0.059573607    1.3659886     -3.5395773      1.9948679      101.20728    
     19300   94.250345      158.5          158.5          158.5          2.6769145      2.455128       5.7223813     -0.14676581     94.250345    
     19320   90.107393      158.5          158.5          158.5         -2.9239187     -3.1248997      0.54069652    -6.1875529      90.107393    
     19340   96.946727      158.5          158.5          158.5         -1.101633      -1.8362505     -1.9865439      0.51789543     96.946727    
     19360   99.03477       158.5          158.5          158.5          1.7250664     -0.90812254     2.7520526      3.3312691      99.03477     
     19380   89.910285      158.5          158.5          158.5         -1.366598      -2.5481337      1.7763228     -3.3279833      89.910285    
     19400   97.368418      158.5          158.5          158.5          2.4127108      2.5318806      4.8348919     -0.1286402      97.368418    
     19420   103.9644       158.5          158.5          158.5          2.8018421      3.8053572      3.2960798      1.3040894      103.9644     
     19440   89.054885      158.5          158.5          158.5         -0.47056892     1.6039014     -2.6959756     -0.31963255     89.054885    
     19460   97.199922      158.5          158.5          158.5          1.4084732      1.5276441      2.8493147     -0.15153925     97.199922    
     19480   99.954301      158.5          158.5          158.5          1.5143836      1.7363395      4.2518084     -1.4449971      99.954301    
     19500   103.20945      158.5          158.5          158.5         -2.1879666     -2.0650979     -2.6334772     -1.8653247      103.20945    
     19520   101.29793      158.5          158.5          158.5         -0.51465005    -1.6679397     -0.72700963     0.85099916     101.29793    
     19540   109.04181      158.5          158.5          158.5         -1.321874      -4.0839447      1.0997974     -0.98147453     109.04181    
     19560   99.296229      158.5          158.5          158.5         -3.1798799     -5.7315319     -2.0433685     -1.7647392      99.296229    
     19580   102.47237      158.5          158.5          158.5         -0.8491371      0.60192988    -2.544284      -0.60505717     102.47237    
     19600   96.88659       158.5          158.5          158.5          0.31515161    -0.46619062     2.6306431     -1.2189976      96.88659     
     19620   103.64914      158.5          158.5          158.5          0.53306483    -2.4611476      2.7978544      1.2624877      103.64914    
     19640   86.60321       158.5          158.5          158.5          0.48308725     1.3253303     -1.1345742      1.2585056      86.60321     
     19660   91.526687      158.5          158.5          158.5          2.5102392      3.1014412      2.4366545      1.992622       91.526687    
     19680   89.820089      158.5          158.5          158.5          0.58294256     0.93442949    -0.79014689     1.6045451      89.820089    
     19700   82.997246      158.5          158.5          158.5         -0.86824199     2.2778341     -4.8218346     -0.060725456    82.997246    
     19720   87.221141      158.5          158.5          158.5          3.5941756      3.2798331      3.7634182      3.7392753      87.221141    
     19740   86.836439      158.5          158.5          158.5         -1.7483121     -3.5379659     -0.9947393     -0.712231       86.836439    
     19760   87.607721      158.5          158.5          158.5         -1.0665892      0.76142147    -3.8584504     -0.10273858     87.607721    
     19780   83.151725      158.5          158.5          158.5          2.2488579      0.29516903     2.8514573      3.5999473      83.151725    
     19800   95.444821      158.5          158.5          158.5         -4.7565803     -7.0526531     -3.8083822     -3.4087056      95.444821    
     19820   89.760742      158.5          158.5          158.5         -0.4565318      1.8760849     -2.8600732     -0.38560709     89.760742    
     19840   81.647063      158.5          158.5          158.5          1.4555716      1.3124239      1.4182383      1.6360527      81.647063    
     19860   92.527005      158.5          158.5          158.5         -3.8116444     -6.6811374     -1.813654      -2.9401417      92.527005    
     19880   93.188765      158.5          158.5          158.5          3.4825027      3.9342102      3.4615161      3.0517818      93.188765    
     19900   89.012003      158.5          158.5          158.5          2.1752024      4.2048287      1.4997422      0.82103642     89.012003    
     19920   102.84434      158.5          158.5          158.5         -0.12266737    -1.8013148      2.3057836     -0.87247089     102.84434    
     19940   83.904456      158.5          158.5          158.5          3.6742439      5.1859241      3.1507424      2.6860653      83.904456    
     19960   94.320284      158.5          158.5          158.5         -1.212177       3.0254207     -4.1202326     -2.5417192      94.320284    
     19980   99.481347      158.5          158.5          158.5         -1.4575715     -0.3714937     -3.0366281     -0.96459271     99.481347    
     20000   98.56637       158.5          158.5          158.5         -0.38387046     1.6698999     -5.5403186      2.7188073      98.56637     
     20020   84.595534      158.5          158.5          158.5         -0.5623721      3.3115613     -4.1248408     -0.87383681     84.595534    
     20040   92.197712      158.5          158.5          158.5         -0.65136263    -1.2388605      2.2573288     -2.9725561      92.197712    
     20060   89.586811      158.5          158.5          158.5          0.015843738   -1.7211704      1.1922816      0.57642002     89.586811    
     20080   102.6821       158.5          158.5          158.5         -0.77422134    -2.1326848     -5.5596502      5.369671       102.6821     
     20100   98.626117      158.5          158.5          158.5         -3.0861867     -3.3065412     -3.798612      -2.1534069      98.626117    
     20120   89.980329      158.5          158.5          158.5          0.0075871065   1.1943277     -0.10118249    -1.0703839      89.980329    
     20140   95.08161       158.5          158.5          158.5          0.91368276     1.6261044     -2.7464653      3.8614092      95.08161     
     20160   90.010879      158.5          158.5          158.5         -0.78318561    -0.79712769    -1.545426      -0.0070031501   90.010879    
     20180   78.838458      158.5          158.5          158.5          3.410295       5.518573       3.6767957      1.0355163      78.838458    
     20200   98.284953      158.5          158.5          158.5          0.48106975     1.9461847      0.4390322     -0.94200763     98.284953    
     20220   89.706958      158.5          158.5          158.5         -1.8467746     -3.7864898     -0.27957577    -1.4742583      89.706958    
     20240   88.674572      158.5          158.5          158.5          2.9180902     -1.311772       4.8410306      5.225012       88.674572    
     20260   85.053716      158.5          158.5          158.5          0.45364874    -1.4102123      2.4373406      0.33381792     85.053716    
     20280   93.507487      158.5          158.5          158.5         -2.727562      -4.6708387     -0.23034955    -3.2814978      93.507487    
     20300   83.280035      158.5          158.5          158.5          2.1089634     -1.8542392      5.330932       2.8501975      83.280035    
     20320   86.35551       158.5          158.5          158.5         -0.58330526    -1.1626156     -0.14517243    -0.44212771     86.35551     
     20340   91.7732        158.5          158.5          158.5         -0.59073532     0.19413833     0.5575145     -2.5238588      91.7732      
     20360   79.346284      158.5          158.5          158.5          2.9637595      1.2959589      4.9823409      2.6129786      79.346284    
     20380   83.064116      158.5          158.5          158.5         -0.81663734    -2.5169068      1.6048328     -1.537838       83.064116    
     20400   82.957572      158.5          158.5          158.5          1.1047771      0.30031808     2.5738494      0.44016396     82.957572    
     20420   73.673702      158.5          158.5          158.5          1.556762       0.055180131    2.1191932      2.4959127      73.673702    
     20440   83.977671      158.5          158.5          158.5         -2.1369978     -3.0447169     -3.1487552     -0.21752152     83.977671    
     20460   81.201035      158.5          158.5          158.5          1.36305       -0.40151902     3.1567601      1.3339091      81.201035    
     20480   80.528308      158.5          158.5          158.5         -1.1400524     -0.763585      -1.4940628     -1.1625094      80.528308    
     20500   73.743564      158.5          158.5          158.5         -1.4511212      1.6778424     -6.3008004      0.26959442     73.743564    
     20520   79.282045      158.5          158.5          158.5          0.14724512     1.3955357     -3.2179162      2.2641158      79.282045    
     20540   77.974847      158.5          158.5          158.5         -3.3249866     -4.0419324     -4.3968315     -1.536196       77.974847    
     20560   77.665461      158.5          158.5          158.5          0.45490713     1.1038305     -0.34371608     0.60460695     77.665461    
     20580   73.460009      158.5          158.5          158.5         -0.50183667     1.1421836     -2.2041397     -0.44355389     73.460009    
     20600   73.2166        158.5          158.5          158.5         -1.2625655     -2.4834222     -2.8874066      1.5831323      73.2166      
     20620   70.603116      158.5          158.5          158.5          2.7957758      1.7986276      3.287993       3.3007069      70.603116    
     20640   67.671416      158.5          158.5          158.5          0.44866005     3.062649      -0.075084306   -1.6415846      67.671416    
     20660   76.953107      158.5          158.5          158.5         -2.2377131      0.94709925    -4.7889283     -2.8713103      76.953107    
     20680   72.503362      158.5          158.5          158.5         -0.65528047    -0.76906163    -2.3575283      1.1607485      72.503362    
     20700   71.372566      158.5          158.5          158.5          0.89868506     0.62576621     1.6747339      0.39555502     71.372566    
     20720   76.775864      158.5          158.5          158.5         -1.5973977      1.066977       0.97978906    -6.8389591      76.775864    
     20740   72.49535       158.5          158.5          158.5         -1.2967908      1.1034049     -2.4449101     -2.5488674      72.49535     
     20760   82.563009      158.5          158.5          158.5          2.6524957     -1.318506       5.9484931      3.3275         82.563009    
     20780   78.360377      158.5          158.5          158.5         -1.7998874     -5.5197386      4.1734895     -4.0534131      78.360377    
     20800   82.390745      158.5          158.5          158.5          0.91030899     1.7809511      1.3141048     -0.36412885     82.390745    
     20820   79.599933      158.5          158.5          158.5          5.4484902      6.9139528      4.6867851      4.7447327      79.599933    
     20840   84.298752      158.5          158.5          158.5          0.40594554    -0.40158278     1.4425269      0.17689249     84.298752    
     20860   88.0798        158.5          158.5          158.5          2.7628784      3.8238441      3.2138181      1.2509731      88.0798      
     20880   79.49883       158.5          158.5          158.5          2.6102199      4.8283485      2.8789474      0.12336381     79.49883     
     20900   90.503602      158.5          158.5          158.5         -2.1159635     -2.0530382     -2.4820086     -1.8128438      90.503602    
     20920   87.37967       158.5          158.5          158.5         -1.2069471     -2.7909311     -1.6086589      0.77874855     87.37967     
     20940   83.870135      158.5          158.5          158.5         -3.3281025     -5.4214674     -2.9004974     -1.6623426      83.870135    
     20960   101.71768      158.5          158.5          158.5         -5.3793311     -7.3124476     -4.5821737     -4.2433721      101.71768    
     20980   87.532995      158.5          158.5          158.5         -1.0376496     -0.52631415    -2.7163172      0.12968248     87.532995    
     21000   82.556979      158.5          158.5          158.5         -1.8697216     -2.759639      -2.6175941     -0.23193158     82.556979    
     21020   85.344912      158.5          158.5          158.5         -3.3338031     -4.9513873     -2.5312378     -2.5187844      85.344912    
     21040   81.166449      158.5          158.5          158.5          2.0316891      2.9438833      1.9108095      1.2403744      81.166449    
     21060   80.617283      158.5          158.5          158.5         -0.0017832543   1.8594526     -1.6301185     -0.23468384     80.617283    
     21080   86.941808      158.5          158.5          158.5         -0.2648164      0.59600274    -0.80129635    -0.5891556      86.941808    
     21100   76.135285      158.5          158.5          158.5          3.9901725      4.5203077      4.5350259      2.915184       76.135285    
     21120   72.361947      158.5          158.5          158.5          1.3695353      2.894737       1.6262506     -0.41238149     72.361947    
     21140   84.342139      158.5          158.5          158.5          3.2091337      3.0542448      3.6256639      2.9474923      84.342139    
     21160   75.679465      158.5          158.5          158.5          3.8544472      1.2279535      4.0670735      6.2683146      75.679465    
     21180   77.849849      158.5          158.5          158.5          1.8802047      1.6485236      1.828828       2.1632624      77.849849    
     21200   80.193489      158.5          158.5          158.5          1.7227464      2.0186276      0.99196236     2.1576492      80.193489    
     21220   77.160567      158.5          158.5          158.5         -0.67560112    -1.7789556     -1.7966474      1.5487997      77.160567    
     21240   72.159658      158.5          158.5          158.5         -0.20384726     0.52712369     1.7837975     -2.9224629      72.159658    
     21260   72.920413      158.5          158.5          158.5         -0.49859049    -1.5743792      0.89716695    -0.81855918     72.920413    
     21280   75.96009       158.5          158.5          158.5          1.0390532      0.32060235     1.9177964      0.8787608      75.96009     
     21300   74.24759       158.5          158.5          158.5         -0.85847503     0.067662812    1.38047       -4.0235579      74.24759     
     21320   66.596361      158.5          158.5          158.5         -0.74817389    -2.0932905      0.7563272     -0.90755836     66.596361    
     21340   79.972996      158.5          158.5          158.5          0.25294297    -0.37522389    -3.693261       4.8273138      79.972996    
     21360   68.081606      158.5          158.5          158.5         -3.1117229     -0.84305496    -7.9828641     -0.50924972     68.081606    
     21380   78.423992      158.5          158.5          158.5          0.0039201766   0.71702003    -2.4219071      1.7166476      78.423992    
     21400   78.652603      158.5          158.5          158.5         -0.67049873    -0.098838118   -1.8432844     -0.069373697    78.652603    
     21420   87.752184      158.5          158.5          158.5         -5.5809699     -4.6210344     -8.8639489     -3.2579264      87.752184    
     21440   78.703634      158.5          158.5          158.5         -0.49792224     0.78652579    -4.5971595      2.316867       78.703634    
     21460   75.424933      158.5          158.5          158.5         -1.8611381      0.61152829    -3.4545558     -2.7403869      75.424933    
     21480   74.58111       158.5          158.5          158.5         -2.6746949     -1.6536552     -2.3597729     -4.0106564      74.58111     
     21500   77.407372      158.5          158.5          158.5          2.0807424      3.3158248      0.094143501    2.8322588      77.407372    
     21520   70.366428      158.5          158.5          158.5         -0.20610479     0.54634813    -3.9070979      2.7424354      70.366428    
     21540   83.546791      158.5          158.5          158.5         -0.21427944    -0.046858009   -0.7499642      0.15398387     83.546791    
     21560   75.117995      158.5          158.5          158.5          2.3823008      1.5454868      4.0149257      1.5864899      75.117995    
     21580   83.556615      158.5          158.5          158.5          1.6331449      2.8176368      2.4857675     -0.40396951     83.556615    
     21600   82.758808      158.5          158.5          158.5          0.1289412      3.5849901     -1.4134371     -1.7847295      82.758808    
     21620   81.088908      158.5          158.5          158.5          3.0326921      2.8049936      4.1509746      2.1421082      81.088908    
     21640   76.838207      158.5          158.5          158.5          2.4508226      3.5978131      6.2245046     -2.4698498      76.838207    
     21660   90.521923      158.5          158.5          158.5          0.0039503774   2.4598595      0.030299469   -2.4783078      90.521923    
     21680   74.702413      158.5          158.5          158.5          2.7932074      0.41160827     4.0020627      3.9659514      74.702413    
     21700   89.117781      158.5          158.5          158.5         -0.52488624    -2.5197997      2.5699152     -1.6247743      89.117781    
     21720   83.739877      158.5          158.5          158.5         -1.7113524     -1.4636098     -0.8558566     -2.8145909      83.739877    
     21740   92.289989      158.5          158.5          158.5          1.3108217     -0.022840419    0.87129947     3.0840059      92.289989    
     21760   81.414748      158.5          158.5          158.5         -0.85186433    -3.2110605      0.52341485     0.13205269     81.414748    
     21780   85.539775      158.5          158.5          158.5          0.60066011    -1.415675       0.34110607     2.8765492      85.539775    
     21800   83.543204      158.5          158.5          158.5          0.76534263     2.2591684     -2.1463241      2.1831836      83.543204    
     21820   94.253916      158.5          158.5          158.5         -2.1522708      2.1818847     -3.8516754     -4.7870219      94.253916    
     21840   89.583123      158.5          158.5          158.5         -1.6498375      0.27889674    -3.6390059     -1.5894034      89.583123    
     21860   91.091042      158.5          158.5          158.5         -1.1752478     -2.8436892      0.2931583     -0.97521251     91.091042    
     21880   96.550385      158.5          158.5          158.5         -2.5154707     -2.5423824      0.98107276    -5.9851023      96.550385    
     21900   94.472282      158.5          158.5          158.5         -0.97306917    -0.93359448    -0.58586136    -1.3997517      94.472282    
     21920   85.816502      158.5          158.5          158.5          0.91699395    -3.9816395      3.0099875      3.7226339      85.816502    
     21940   84.217035      158.5          158.5          158.5         -1.46991       -2.2854407      1.0876729     -3.2119622      84.217035    
     21960   90.645947      158.5          158.5          158.5          0.76168503     3.4469627      0.98883932    -2.1507469      90.645947    
     21980   85.947596      158.5          158.5          158.5          2.3944472      2.3231672      2.7254805      2.134694       85.947596    
     22000   80.741285      158.5          158.5          158.5          1.1583569     -0.17635828     2.3620147      1.2894142      80.741285    
     22020   84.494997      158.5          158.5          158.5          2.258308       2.3546735      3.320154       1.1000963      84.494997    
     22040   80.472962      158.5          158.5          158.5          1.5986855      0.58677729     2.5129587      1.6963205      80.472962    
     22060   74.392507      158.5          158.5          158.5         -1.4484187      0.52347245    -2.6673897     -2.2013389      74.392507    
     22080   81.920093      158.5          158.5          158.5         -0.88839979     0.7459014     -2.5534374     -0.85766335     81.920093    
     22100   86.242362      158.5          158.5          158.5         -0.14792509    -1.9711605      2.4911933     -0.96380805     86.242362    
     22120   84.350902      158.5          158.5          158.5         -1.2349812      0.5446154     -0.81861387    -3.4309453      84.350902    
     22140   78.313917      158.5          158.5          158.5         -0.80335376     1.7210308     -2.2117247     -1.9193674      78.313917    
     22160   74.928879      158.5          158.5          158.5          1.2873779      1.3770261      1.1601888      1.3249187      74.928879    
     22180   88.172464      158.5          158.5          158.5          0.43569626     3.2209702     -0.79051328    -1.1233681      88.172464    
     22200   77.375557      158.5          158.5          158.5         -0.97088108     1.2493265     -2.7532723     -1.4086975      77.375557    
     22220   84.100674      158.5          158.5          158.5          0.41412333    -0.86326311     0.30978112     1.795852       84.100674    
     22240   87.655957      158.5          158.5          158.5         -0.2527501     -0.0070279642  -0.61669997    -0.13452237     87.655957    
     22260   91.028793      158.5          158.5          158.5         -1.9536148     -2.3857104     -0.62333268    -2.8518014      91.028793    
     22280   87.832982      158.5          158.5          158.5         -1.0342023     -2.7757635      2.2458026     -2.572646       87.832982    
     22300   91.882355      158.5          158.5          158.5          0.11358807    -0.68728245     2.7766074     -1.7485608      91.882355    
     22320   100.21646      158.5          158.5          158.5         -0.47161504    -1.4658993      1.9299296     -1.8788754      100.21646    
     22340   96.202349      158.5          158.5          158.5          0.48686149    -0.14300338     2.9754655     -1.3718777      96.202349    
     22360   93.356364      158.5          158.5          158.5         -0.39620527    -2.3576153      1.5453437     -0.37634417     93.356364    
     22380   87.068615      158.5          158.5          158.5         -2.0738153     -3.8161705      0.08136028    -2.4866357      87.068615    
     22400   92.301916      158.5          158.5          158.5          0.95791197     1.7300476      1.1344597      0.0092286601   92.301916    
     22420   101.38783      158.5          158.5          158.5         -2.3482184      1.2445732     -5.0096327     -3.2795958      101.38783    
     22440   102.29951      158.5          158.5          158.5         -0.24699567    -1.0123248     -0.37057256     0.64191038     102.29951    
     22460   96.706201      158.5          158.5          158.5          3.2640614      2.1869568      3.3691626      4.2360648      96.706201    
     22480   94.020357      158.5          158.5          158.5         -1.0069833      1.6815045     -2.626082      -2.0763723      94.020357    
     22500   96.613529      158.5          158.5          158.5          2.203892       2.26801        2.4375961      1.9060699      96.613529    
     22520   94.995742      158.5          158.5          158.5          0.068514418    1.006989      -1.9438312      1.1423855      94.995742    
     22540   86.743084      158.5          158.5          158.5         -3.932033      -3.3066936     -4.2567098     -4.2326957      86.743084    
     22560   102.0709       158.5          158.5          158.5          0.83298481     0.91711805     1.4491461      0.13269031     102.0709     
     22580   88.653605      158.5          158.5          158.5         -0.61859081     3.0254208     -5.1454556      0.26426234     88.653605    
     22600   87.872635      158.5          158.5          158.5         -1.2246982     -1.6114284     -2.2583165      0.19565037     87.872635    
     22620   92.906958      158.5          158.5          158.5          3.5170915      0.12535009     5.4363363      4.9895881      92.906958    
     22640   92.995083      158.5          158.5          158.5          0.80610817     4.1305025     -3.3373892      1.6252112      92.995083    
     22660   88.995145      158.5          158.5          158.5          0.93627458     2.595524      -1.9233732      2.136673       88.995145    
     22680   88.045833      158.5          158.5          158.5          0.77748844    -2.5868187      3.3247521      1.5945319      88.045833    
     22700   89.932028      158.5          158.5          158.5         -0.084293807    1.2031275      0.71442332    -2.1704322      89.932028    
     22720   92.256028      158.5          158.5          158.5         -2.1093431      0.29732362    -4.4006756     -2.2246773      92.256028    
     22740   87.221197      158.5          158.5          158.5         -0.67078014    -2.9046573      0.23869742     0.65361943     87.221197    
     22760   80.893228      158.5          158.5          158.5         -0.87757968    -3.5970297      0.42385028     0.54044038     80.893228    
     22780   84.353916      158.5          158.5          158.5         -3.0200157     -4.6449198     -2.224058      -2.1910694      84.353916    
     22800   91.580713      158.5          158.5          158.5          1.651091       0.66350694     2.6528755      1.6368904      91.580713    
     22820   86.512997      158.5          158.5          158.5          1.3464459      1.7864739      1.8962022      0.3566617      86.512997    
     22840   86.590974      158.5          158.5          158.5         -0.96594142    -4.0479907      1.8397883     -0.68962187     86.590974    
     22860   87.824178      158.5          158.5          158.5          3.1775242      1.5626578      4.4291477      3.5407672      87.824178    
     22880   89.293972      158.5          158.5          158.5         -1.3847545      1.6771805     -1.9098763     -3.9215678      89.293972    
     22900   79.720025      158.5          158.5          158.5         -2.2387208     -5.0015194      0.16582898    -1.8804719      79.720025    
     22920   76.441604      158.5          158.5          158.5          2.2646538     -0.57619639     5.2801228      2.0900351      76.441604    
     22940   89.58283       158.5          158.5          158.5         -2.2586412     -0.88172543    -2.4181218     -3.4760763      89.58283     
     22960   85.822699      158.5          158.5          158.5         -1.1966738     -0.83525688    -1.9372035     -0.81756083     85.822699    
     22980   86.751888      158.5          158.5          158.5          2.5726205      3.4950472      0.86179825     3.361016       86.751888    
     23000   83.567461      158.5          158.5          158.5         -0.43718459     2.4926708     -1.9305433     -1.8736812      83.567461    
     23020   85.723274      158.5          158.5          158.5          0.23226023     1.5280384     -0.6231984     -0.20805931     85.723274    
     23040   81.546056      158.5          158.5          158.5          3.0087179      3.0230476      2.4299911      3.5731151      81.546056    
     23060   87.49482       158.5          158.5          158.5         -1.2306015     -0.45862057    -2.4889392     -0.74424471     87.49482     
     23080   89.134875      158.5          158.5          158.5          0.90026414     0.6136166     -0.67990658     2.7670824      89.134875    
     23100   72.648786      158.5          158.5          158.5          3.2220001      2.6733113      3.5781482      3.4145408      72.648786    
     23120   87.920525      158.5          158.5          158.5         -2.5881314      0.078229154   -2.3484712     -5.4941521      87.920525    
     23140   79.671525      158.5          158.5          158.5         -0.48603658    -1.365919      -2.5058688      2.4136781      79.671525    
     23160   78.32813       158.5          158.5          158.5          1.9864974     -0.51617625     1.9059536      4.5697147      78.32813     
     23180   84.701725      158.5          158.5          158.5         -3.2540124     -1.5264312     -3.2456704     -4.9899357      84.701725    
     23200   73.93348       158.5          158.5          158.5         -1.3701748     -2.7584848     -2.9662031      1.6141634      73.93348     
     23220   82.325217      158.5          158.5          158.5          1.3825925      0.047442151   -0.16248385     4.2628191      82.325217    
     23240   82.334588      158.5          158.5          158.5         -3.2232642     -0.11743471    -4.1193398     -5.4330182      82.334588    
     23260   72.223999      158.5          158.5          158.5          1.376465      -0.50452662     3.1996596      1.4342622      72.223999    
     23280   70.805548      158.5          158.5          158.5          1.8079718      1.3050439      2.6539556      1.4649158      70.805548    
     23300   78.015739      158.5          158.5          158.5         -4.1562549     -2.0256787     -4.3529077     -6.0901784      78.015739    
     23320   73.411202      158.5          158.5          158.5          0.6521234     -0.50423901     2.949152      -0.48854273     73.411202    
     23340   69.346442      158.5          158.5          158.5          0.7939353      1.7928236      4.0965451     -3.5075628      69.346442    
     23360   66.633685      158.5          158.5          158.5         -4.3385793     -2.5562863     -3.5510141     -6.9084374      66.633685    
     23380   70.019019      158.5          158.5          158.5          2.3575697      1.0812447      0.87986982     5.1115945      70.019019    
     23400   69.448968      158.5          158.5          158.5          2.303427       1.5946117      2.4058479      2.9098216      69.448968    
     23420   79.758062      158.5          158.5          158.5         -1.8136739     -0.68429349    -2.3208698     -2.4358585      79.758062    
     23440   68.597446      158.5          158.5          158.5          4.6336978      3.8302211      2.9410015      7.129871       68.597446    
     23460   67.681495      158.5          158.5          158.5          1.1397479      2.049065      -0.33542089     1.7055996      67.681495    
     23480   82.523905      158.5          158.5          158.5         -1.8017025     -0.79053909    -3.6221912     -0.99237705     82.523905    
     23500   72.931472      158.5          158.5          158.5          3.4632144      4.5645024      1.4594289      4.365712       72.931472    
     23520   82.011483      158.5          158.5          158.5         -3.1885409     -0.72445827    -6.9526439     -1.8885206      82.011483    
     23540   82.263058      158.5          158.5          158.5         -2.7421445     -3.0713329     -5.0888913     -0.066209284    82.263058    
     23560   85.553644      158.5          158.5          158.5          2.8002284      0.80127932     1.9514186      5.6479873      85.553644    
     23580   81.654118      158.5          158.5          158.5         -2.0484705     -1.300294      -5.3305506      0.48543326     81.654118    
     23600   80.38707       158.5          158.5          158.5         -1.6484813     -2.7264169     -5.049116       2.830089       80.38707     
     23620   87.615982      158.5          158.5          158.5          1.9609075      0.78807293     1.9970562      3.0975934      87.615982    
     23640   83.594852      158.5          158.5          158.5         -1.8361276     -1.5593807     -0.14439592    -3.8046063      83.594852    
     23660   83.348854      158.5          158.5          158.5         -1.2101281     -3.8507516      0.3076495     -0.08728216     83.348854    
     23680   85.080045      158.5          158.5          158.5          5.7892911      3.3890486      6.4903559      7.4884688      85.080045    
     23700   80.008647      158.5          158.5          158.5         -0.66549741     0.17896        1.0567398     -3.232192       80.008647    
     23720   86.280235      158.5          158.5          158.5         -1.082777      -2.7050462      0.92345411    -1.466739       86.280235    
     23740   84.344309      158.5          158.5          158.5          2.7064343      1.390333       3.5532243      3.1757456      84.344309    
     23760   87.451523      158.5          158.5          158.5         -2.5370098     -2.4315799     -1.0501341     -4.1293154      87.451523    
     23780   90.85719       158.5          158.5          158.5         -1.9088994     -3.3271165      3.0459408     -5.4455226      90.85719     
     23800   91.170511      158.5          158.5          158.5          3.4889201      1.1647135      8.7248298      0.57721702     91.170511    
     23820   94.551944      158.5          158.5          158.5          0.076033989   -0.069094831    1.2984603     -1.0012635      94.551944    
     23840   87.707599      158.5          158.5          158.5          2.2835501      3.5072841      0.63779159     2.7055747      87.707599    
     23860   86.532134      158.5          158.5          158.5          3.7611805      6.2116782      2.7297766      2.3420867      86.532134    
     23880   88.996726      158.5          158.5          158.5         -2.0861711     -3.0257059      0.83964151    -4.0724489      88.996726    
     23900   94.530601      158.5          158.5          158.5         -1.4414197     -2.6753858     -0.81829612    -0.83057708     94.530601    
     23920   96.810353      158.5          158.5          158.5         -1.7575743      0.96803796    -4.9961925     -1.2445683      96.810353    
     23940   94.837765      158.5          158.5          158.5         -3.153226      -2.5321355     -7.3762684      0.44872589     94.837765    
     23960   92.363677      158.5          158.5          158.5         -0.18164473    -1.6496954     -1.5114442      2.6162053      92.363677    
     23980   104.41182      158.5          158.5          158.5         -0.53546768     2.7588852     -1.4241768     -2.9411115      104.41182    
     24000   93.427838      158.5          158.5          158.5          0.24692352     1.8803353     -1.1177695     -0.021795225    93.427838    
     24020   97.660326      158.5          158.5          158.5          0.83196776    -0.33507081     1.1927967      1.6381774      97.660326    
     24040   102.85447      158.5          158.5          158.5          0.24469682    -0.18752319     4.759671      -3.8380574      102.85447    
     24060   92.686866      158.5          158.5          158.5         -0.15562397    -0.77614932     2.9284444     -2.619167       92.686866    
     24080   95.729188      158.5          158.5          158.5          0.7216093      0.86321474     1.4406734     -0.13906018     95.729188    
     24100   101.75012      158.5          158.5          158.5         -1.6965087     -1.9901389      1.1471019     -4.2464892      101.75012    
     24120   82.245997      158.5          158.5          158.5         -0.3985519     -1.1259755      1.4511703     -1.5208505      82.245997    
     24140   90.707464      158.5          158.5          158.5          0.33734595     1.6765685     -1.462633       0.79810234     90.707464    
     24160   90.493636      158.5          158.5          158.5         -0.22688699     0.39014308    -3.5712806      2.5004765      90.493636    
     24180   79.874373      158.5          158.5          158.5          0.55016775    -0.4447126     -1.8904899      3.9857058      79.874373    
     24200   90.833926      158.5          158.5          158.5         -0.78575437    -2.4214728      0.73718898    -0.6729793      90.833926    
     24220   94.985235      158.5          158.5          158.5          1.0318851      0.48523045     1.6905385      0.91988628     94.985235    
     24240   79.908417      158.5          158.5          158.5          1.5085679      1.806853       0.58484315     2.1340076      79.908417    
     24260   75.363743      158.5          158.5          158.5         -1.7102773     -1.0799296     -2.5287034     -1.5221987      75.363743    
     24280   82.636785      158.5          158.5          158.5          0.22570151    -1.7750678      0.62258616     1.8295862      82.636785    
     24300   71.187128      158.5          158.5          158.5         -0.011936178   -3.9130595      1.4695728      2.4076782      71.187128    
     24320   80.699483      158.5          158.5          158.5         -0.2356607      0.58638997    -2.166484       0.87311191     80.699483    
     24340   78.656595      158.5          158.5          158.5          1.0140371      2.9762058      0.58161677    -0.51571143     78.656595    
     24360   82.217014      158.5          158.5          158.5          0.39173332    -1.5632355      2.3130399      0.42539549     82.217014    
     24380   75.908888      158.5          158.5          158.5          1.0256157     -0.10145058     0.57927682     2.5990209      75.908888    
     24400   83.048477      158.5          158.5          158.5          0.14394817     3.4226383     -0.8326481     -2.1581457      83.048477    
     24420   82.443332      158.5          158.5          158.5          0.40496175     1.2718626      1.9178989     -1.9748762      82.443332    
     24440   74.05822       158.5          158.5          158.5         -2.2109285     -4.1967456     -0.30566364    -2.1303763      74.05822     
     24460   80.234259      158.5          158.5          158.5         -0.52648624     0.3854952     -0.19417399    -1.7707799      80.234259    
     24480   83.53313       158.5          158.5          158.5          1.7297452      3.9049091      0.77076619     0.51356017     83.53313     
     24500   85.206604      158.5          158.5          158.5         -2.9796356     -2.2467354     -2.0080751     -4.6840963      85.206604    
     24520   83.87586       158.5          158.5          158.5          0.45369297    -2.2959963      1.9573055      1.6997697      83.87586     
     24540   82.673305      158.5          158.5          158.5          0.87465039    -1.4621839      1.6509105      2.4352246      82.673305    
     24560   87.364468      158.5          158.5          158.5         -2.9655917     -1.5678823     -4.0428906     -3.2860022      87.364468    
     24580   73.867182      158.5          158.5          158.5          4.8590465      5.7572214      4.6002969      4.2196212      73.867182    
     24600   80.516959      158.5          158.5          158.5          1.1383298     -0.90473729     3.8814881      0.43823856     80.516959    
     24620   88.652297      158.5          158.5          158.5         -2.8838197     -4.1299481     -2.065182      -2.4563288      88.652297    
     24640   82.200216      158.5          158.5          158.5          0.55225155     2.615919      -0.014809877   -0.94435444     82.200216    
     24660   93.231276      158.5          158.5          158.5         -2.8140006     -4.127763      -1.44328       -2.8709587      93.231276    
     24680   81.621448      158.5          158.5          158.5         -2.7708886     -3.6940407     -4.1233886     -0.49523662     81.621448    
     24700   88.233289      158.5          158.5          158.5          0.38619557     0.5378582     -0.6124971      1.2332256      88.233289    
     24720   80.210469      158.5          158.5          158.5          0.21568169     0.56173641    -0.18420542     0.26951409     80.210469    
     24740   81.962745      158.5          158.5          158.5         -0.60092181    -0.71505246    -1.2503914      0.16267848     81.962745    
     24760   74.537323      158.5          158.5          158.5         -0.37418637    -2.3474483     -0.60358102     1.8284702      74.537323    
     24780   85.512275      158.5          158.5          158.5          1.6505701      0.53802882     1.1564916      3.25719        85.512275    
     24800   88.690547      158.5          158.5          158.5          1.0273593      1.4165363      1.5481622      0.11737945     88.690547    
     24820   75.461703      158.5          158.5          158.5          4.1973427      2.9147334      6.6845822      2.9927126      75.461703    
     24840   81.964834      158.5          158.5          158.5          1.5462084     -0.51067943     3.5609718      1.5883328      81.964834    
     24860   78.34087       158.5          158.5          158.5         -2.1053182     -1.8935775     -1.3539223     -3.0684548      78.34087     
     24880   70.933424      158.5          158.5          158.5          3.2801721      3.9984516      2.731139       3.1109256      70.933424    
     24900   68.936992      158.5          158.5          158.5         -1.4406449     -1.1589588     -1.1522515     -2.0107245      68.936992    
     24920   84.88845       158.5          158.5          158.5         -1.898086      -2.550752      -2.0403172     -1.1031887      84.88845     
     24940   67.47183       158.5          158.5          158.5          2.2026982      0.58972857     0.61553664     5.4028293      67.47183     
     24960   77.771868      158.5          158.5          158.5         -2.1612393     -5.516575      -1.0239531      0.056810331    77.771868    
     24980   73.371971      158.5          158.5          158.5         -0.43407613    -3.2719262      2.2236224     -0.25392458     73.371971    
     25000   70.79318       158.5          158.5          158.5          0.054893315   -1.1281355      0.72161833     0.57119713     70.79318     
     25020   74.985258      158.5          158.5          158.5          0.75277817     0.7651776      0.98490414     0.50825278     74.985258    
     25040   68.732656      158.5          158.5          158.5          3.1575255      4.5267196      2.6097541      2.3361028      68.732656    
     25060   65.979036      158.5          158.5          158.5          0.9896094      0.3504682      1.4241367      1.1942233      65.979036    
     25080   76.461548      158.5          158.5          158.5         -2.8699892     -3.9329163     -3.2272641     -1.4497873      76.461548    
     25100   74.331708      158.5          158.5          158.5         -0.26946315    -0.45248864     0.23029776    -0.58619857     74.331708    
     25120   68.75178       158.5          158.5          158.5         -1.718222       1.5826567     -3.1347501     -3.6025725      68.75178     
     25140   72.510384      158.5          158.5          158.5         -3.7119112     -0.25899694    -3.664011      -7.2127256      72.510384    
     25160   78.563876      158.5          158.5          158.5          1.078241      -0.3324606      2.9457605      0.62142325     78.563876    
     25180   70.315618      158.5          158.5          158.5         -0.63890942     0.86671276    -1.6437662     -1.1396749      70.315618    
     25200   69.366663      158.5          158.5          158.5          0.13851636     5.2910414     -1.0661354     -3.8093569      69.366663    
     25220   74.880695      158.5          158.5          158.5          1.5597513      0.7358837      4.5552686     -0.61189843     74.880695    
     25240   73.522538      158.5          158.5          158.5         -1.1171294     -3.6235268     -0.11713351     0.3892722      73.522538    
     25260   67.997441      158.5          158.5          158.5          1.1120897      2.575056      -1.8872828      2.6484959      67.997441    
     25280   67.25353       158.5          158.5          158.5          1.4461801      4.2477338     -0.069012998    0.15981944     67.25353     
     25300   83.533129      158.5          158.5          158.5         -0.76782646     1.1646108      0.76961371    -4.2377039      83.533129    
     25320   64.910675      158.5          158.5          158.5         -1.5231549     -2.1056009     -1.654788      -0.80907585     64.910675    
     25340   78.110996      158.5          158.5          158.5         -1.9258718     -2.4586121     -5.5172877      2.1982844      78.110996    
     25360   72.861874      158.5          158.5          158.5         -0.91203777    -0.32083087    -0.429446      -1.9858364      72.861874    
     25380   75.690123      158.5          158.5          158.5          0.31652559    -1.6269251      3.2886183     -0.71211645     75.690123    
     25400   75.185734      158.5          158.5          158.5          3.1883688      3.0368226      0.39364376     6.13464        75.185734    
     25420   87.349412      158.5          158.5          158.5          2.1131107      3.4569968     -1.9428492      4.8251846      87.349412    
     25440   87.539096      158.5          158.5          158.5         -1.1914051     -0.92260686    -2.1860536     -0.4655548      87.539096    
     25460   87.745174      158.5          158.5          158.5          4.5435261      3.6765085      7.5870406      2.3670292      87.745174    
     25480   78.708436      158.5          158.5          158.5         -1.4461502     -0.69998041    -1.166939      -2.4715311      78.708436    
     25500   82.291982      158.5          158.5          158.5         -2.7442577     -3.7182205     -4.2974956     -0.21705712     82.291982    
     25520   85.626926      158.5          158.5          158.5          4.1665621      3.0990812      2.6983577      6.7022472      85.626926    
     25540   80.790415      158.5          158.5          158.5          0.52635253     0.34229531     2.0915952     -0.85483288     80.790415    
     25560   86.07373       158.5          158.5          158.5         -0.97559001    -1.1139544     -0.23472539    -1.5780903      86.07373     
     25580   83.960784      158.5          158.5          158.5          0.44298492     3.1610646     -4.2928811      2.4607713      83.960784    
     25600   73.379133      158.5          158.5          158.5         -3.4585422     -0.65906495    -5.809823      -3.9067386      73.379133    
     25620   74.280008      158.5          158.5          158.5         -1.9228323      0.017709991   -0.98939019    -4.7968168      74.280008    
     25640   78.026794      158.5          158.5          158.5         -0.14179871     0.985636      -1.7696374      0.35860526     78.026794    
     25660   76.980375      158.5          158.5          158.5         -1.4621115      0.9753482     -5.6388358      0.277153       76.980375    
     25680   68.820417      158.5          158.5          158.5          0.51129876     1.8251405     -0.24276236    -0.048481882    68.820417    
     25700   66.937777      158.5          158.5          158.5         -0.18667595    -0.35315819     3.3424616     -3.5493312      66.937777    
     25720   68.441101      158.5          158.5          158.5          1.009041       2.9400575      0.93325052    -0.84618499     68.441101    
     25740   67.754877      158.5          158.5          158.5          1.6024629      1.1259582     -1.56121        5.2426404      67.754877    
     25760   61.810568      158.5          158.5          158.5         -1.3729608     -3.4241705     -2.7371451      2.0424333      61.810568    
     25780   66.898075      158.5          158.5          158.5         -0.75930597     0.34560769    -0.23598678    -2.3875388      66.898075    
     25800   62.875862      158.5          158.5          158.5         -1.1525452     -1.856442       0.32180327    -1.9229969      62.875862    
     25820   64.269815      158.5          158.5          158.5         -0.97087627    -2.7749975     -1.5952428      1.4576115      64.269815    
     25840   69.578309      158.5          158.5          158.5          1.309781       1.6281969      1.5321838      0.76896229     69.578309    
     25860   69.623457      158.5          158.5          158.5          3.1866941      3.2753949      6.3468449     -0.062157407    69.623457    
     25880   64.776778      158.5          158.5          158.5          0.53263387     1.3269086     -0.19014916     0.46114217     64.776778    
     25900   69.492664      158.5          158.5          158.5          0.40523285    -1.1754285     -2.1654898      4.5566168      69.492664    
     25920   69.079625      158.5          158.5          158.5         -0.12893072    -2.3983081      1.4175228      0.5939931      69.079625    
     25940   67.743984      158.5          158.5          158.5         -1.4516682     -1.5358553      1.3208331     -4.1399825      67.743984    
     25960   63.032037      158.5          158.5          158.5          0.3363829      2.4814434      0.44558858    -1.9178833      63.032037    
     25980   73.842326      158.5          158.5          158.5          1.0957884      1.6803389     -0.019519066    1.6265453      73.842326    
     26000   73.27363       158.5          158.5          158.5         -0.92912244    -2.484185       1.0992713     -1.4024536      73.27363     
     26020   68.442701      158.5          158.5          158.5          3.2807422      1.3073912      7.759486       0.77534931     68.442701    
     26040   73.794705      158.5          158.5          158.5          2.8339618      1.9250832      5.3146147      1.2621876      73.794705    
     26060   66.410607      158.5          158.5          158.5         -1.5257202      0.054328676   -2.410258      -2.2212314      66.410607    
     26080   81.890217      158.5          158.5          158.5         -0.18214395     0.400191      -0.18352063    -0.76310223     81.890217    
     26100   66.414871      158.5          158.5          158.5         -0.13717521    -0.86254855     0.25289541     0.1981275      66.414871    
     26120   69.367091      158.5          158.5          158.5         -1.886064      -1.0153948     -6.1060498      1.4632524      69.367091    
     26140   72.408982      158.5          158.5          158.5          2.4058819      2.5036827     -0.778899       5.4928621      72.408982    
     26160   73.366163      158.5          158.5          158.5         -1.8457798     -3.3860337     -1.738091      -0.41321464     73.366163    
     26180   55.850479      158.5          158.5          158.5         -0.12935       -1.2456653      0.43573644     0.42187888     55.850479    
     26200   70.954791      158.5          158.5          158.5         -0.64129166    -1.6410333      0.85670478    -1.1395465      70.954791    
     26220   64.506139      158.5          158.5          158.5         -1.2900569     -1.7826981      0.60160156    -2.6890742      64.506139    
     26240   60.105953      158.5          158.5          158.5          2.7376296      1.326041       3.8731283      3.0137195      60.105953    
     26260   57.766483      158.5          158.5          158.5         -0.72348874    -1.4978991      0.58832976    -1.2608969      57.766483    
     26280   55.782357      158.5          158.5          158.5         -0.51631943     1.3916372     -1.4565193     -1.4840762      55.782357    
     26300   63.996792      158.5          158.5          158.5          2.0523324      3.1682668      2.8417333      0.14699708     63.996792    
     26320   64.862732      158.5          158.5          158.5         -1.353063      -2.6052026      0.0050128023  -1.4589993      64.862732    
     26340   55.051151      158.5          158.5          158.5         -1.1379798     -0.66522503    -0.77877883    -1.9699356      55.051151    
     26360   65.937618      158.5          158.5          158.5         -1.9380542     -1.5073866     -1.5388186     -2.7679573      65.937618    
     26380   59.807823      158.5          158.5          158.5         -1.9468113     -2.4945065     -0.77239915    -2.5735283      59.807823    
     26400   63.42198       158.5          158.5          158.5         -1.3807126     -1.4469705      0.16922315    -2.8643903      63.42198     
     26420   65.85039       158.5          158.5          158.5          0.77128502     2.4880907      0.52981105    -0.70404668     65.85039     
     26440   62.551279      158.5          158.5          158.5          3.8319649      4.3609448      5.0968982      2.0380517      62.551279    
     26460   60.042986      158.5          158.5          158.5          3.1354059      3.8444526      3.8095309      1.7522342      60.042986    
     26480   85.874469      158.5          158.5          158.5          2.0011263      0.36881844     1.4685152      4.1660451      85.874469    
     26500   74.026159      158.5          158.5          158.5          2.0192182      0.030740721    1.3223776      4.7045363      74.026159    
     26520   63.611196      158.5          158.5          158.5          0.47811684     3.6578234     -1.582605      -0.64086782     63.611196    
     26540   75.091701      158.5          158.5          158.5         -2.9797501     -0.79269653    -5.6349471     -2.5116067      75.091701    
     26560   66.450957      158.5          158.5          158.5          2.1230069      1.7054362      0.88931705     3.7742675      66.450957    
     26580   77.19126       158.5          158.5          158.5          1.3679436      2.6468894     -0.53404065     1.990982       77.19126     
     26600   78.531703      158.5          158.5          158.5         -1.7990826     -1.702959      -3.0225148     -0.6717739      78.531703    
     26620   64.619989      158.5          158.5          158.5         -0.10731417    -0.25207174     0.37041872    -0.44028948     64.619989    
     26640   62.902191      158.5          158.5          158.5         -2.3589159     -0.76533552    -2.160006      -4.1514061      62.902191    
     26660   64.114597      158.5          158.5          158.5         -3.0597454     -0.856209      -3.5516855     -4.7713418      64.114597    
     26680   61.857054      158.5          158.5          158.5          0.056498905   -0.39299086    -2.1590422      2.7215298      61.857054    
     26700   68.577417      158.5          158.5          158.5          0.029456181    0.3940782     -2.4060088      2.1002992      68.577417    
     26720   61.651273      158.5          158.5          158.5          1.8153331      3.4954435      2.6614596     -0.71090392     61.651273    
     26740   60.046124      158.5          158.5          158.5         -0.80517976    -0.9988181     -0.24522186    -1.1714993      60.046124    
     26760   64.594503      158.5          158.5          158.5         -0.48422649     0.76067706    -1.1664779     -1.0468786      64.594503    
     26780   62.73903       158.5          158.5          158.5         -0.59841579     2.0389354     -1.0368941     -2.7972887      62.73903     
     26800   58.364621      158.5          158.5          158.5         -3.1287404     -3.3049404     -1.1037651     -4.9775157      58.364621    
     26820   68.137031      158.5          158.5          158.5          0.66544901    -1.3478603      1.7514005      1.5928068      68.137031    
     26840   59.325061      158.5          158.5          158.5          0.72646653    -0.43439345    -0.74408535     3.3578784      59.325061    
     26860   54.04309       158.5          158.5          158.5         -0.63598139    -0.85882802     0.50805835    -1.5571745      54.04309     
     26880   56.693825      158.5          158.5          158.5          1.1883397      0.80298302     3.9919893     -1.2299531      56.693825    
     26900   62.031356      158.5          158.5          158.5         -0.29096333    -1.9463746      2.8849478     -1.8114633      62.031356    
     26920   58.102364      158.5          158.5          158.5          1.5152832     -0.080056216    2.2076758      2.41823        58.102364    
     26940   52.262495      158.5          158.5          158.5          3.7036635      4.5962665      1.9801802      4.5345437      52.262495    
     26960   49.045958      158.5          158.5          158.5          0.02816373     2.150986       0.36420441    -2.4306992      49.045958    
     26980   60.030677      158.5          158.5          158.5          0.46492679    -0.88125987     0.39062833     1.8854119      60.030677    
     27000   53.498502      158.5          158.5          158.5          1.9511909     -0.59160672    -0.56205334     7.0072328      53.498502    
     27020   62.468266      158.5          158.5          158.5          0.12043042     0.53082029     0.26475227    -0.43428131     62.468266    
     27040   53.950642      158.5          158.5          158.5         -0.29104132     2.5700421      1.2267039     -4.6698699      53.950642    
     27060   53.969322      158.5          158.5          158.5          1.2110432     -0.18851659     0.70707499     3.1145711      53.969322    
     27080   56.695094      158.5          158.5          158.5         -2.7177799     -2.8929499     -5.7691473      0.50875744     56.695094    
     27100   66.391684      158.5          158.5          158.5         -1.245443       2.540347      -2.9433639     -3.333312       66.391684    
     27120   53.532574      158.5          158.5          158.5          0.52104228     3.9137869     -1.376597      -0.97406301     53.532574    
     27140   62.097487      158.5          158.5          158.5         -2.8857396     -2.3757998     -5.466105      -0.8153139      62.097487    
     27160   52.152289      158.5          158.5          158.5         -1.4360164     -0.33934333    -4.5797438      0.61103793     52.152289    
     27180   64.288214      158.5          158.5          158.5          1.2959188      3.2126212     -1.4613268      2.136462       64.288214    
     27200   66.005042      158.5          158.5          158.5         -0.65255924     0.029664868    0.36830475    -2.3556473      66.005042    
     27220   55.823089      158.5          158.5          158.5          0.40805051    -1.909261       2.1640111      0.96940138     55.823089    
     27240   54.933203      158.5          158.5          158.5          1.9052506      0.46630121     3.2899002      1.9595506      54.933203    
     27260   58.307081      158.5          158.5          158.5         -0.44833329     2.178554      -0.18942356    -3.3341303      58.307081    
     27280   62.021869      158.5          158.5          158.5         -1.4818267      1.5611624     -0.88621506    -5.1204275      62.021869    
     27300   69.834204      158.5          158.5          158.5          1.8797101      1.7758085      2.5013645      1.3619572      69.834204    
     27320   58.986226      158.5          158.5          158.5         -2.0459554     -3.2473868     -3.0607255      0.17024617     58.986226    
     27340   60.986038      158.5          158.5          158.5         -2.7304977     -3.0963671     -1.9338072     -3.1613188      60.986038    
     27360   69.244351      158.5          158.5          158.5          1.9146871      0.92507427     3.8646946      0.9542925      69.244351    
     27380   59.754896      158.5          158.5          158.5          0.076108111   -4.2775221      1.2955338      3.2103125      59.754896    
     27400   58.10438       158.5          158.5          158.5          0.27878083    -2.5893454      0.57875071     2.8469371      58.10438     
     27420   70.902901      158.5          158.5          158.5          2.6012197      4.1467663      2.432886       1.2240069      70.902901    
     27440   65.673095      158.5          158.5          158.5          0.25167199     3.0220788     -0.83628194    -1.4307808      65.673095    
     27460   62.857904      158.5          158.5          158.5          0.25739667    -2.9783145     -0.20219725     3.9527018      62.857904    
     27480   70.009576      158.5          158.5          158.5          0.49999246    -3.8635648      1.4748093      3.8887329      70.009576    
     27500   66.993771      158.5          158.5          158.5          1.2331846      2.9901609      1.2487046     -0.53931179     66.993771    
     27520   63.409083      158.5          158.5          158.5          0.14257807     1.6876334     -1.0491624     -0.21073681     63.409083    
     27540   64.56983       158.5          158.5          158.5         -1.9337491     -5.7110274     -0.48458236     0.39436255     64.56983     
     27560   58.532909      158.5          158.5          158.5          2.5418564      1.9008543      1.9297689      3.7949459      58.532909    
     27580   70.013074      158.5          158.5          158.5         -1.3529206      3.7617153     -5.9887002     -1.8317768      70.013074    
     27600   57.01426       158.5          158.5          158.5         -3.7473402     -1.447787      -6.2990237     -3.49521        57.01426     
     27620   70.444953      158.5          158.5          158.5          0.53649469     0.29133055     1.3500261     -0.031872552    70.444953    
     27640   65.311718      158.5          158.5          158.5         -3.5666013     -3.0340885     -3.9439965     -3.721719       65.311718    
     27660   64.896069      158.5          158.5          158.5         -3.0034946      2.5137233     -6.4870567     -5.0371503      64.896069    
     27680   71.458945      158.5          158.5          158.5          1.8577708      6.5443138     -0.50377771    -0.46722371     71.458945    
     27700   63.988401      158.5          158.5          158.5          0.82681001    -0.03925221     1.3110876      1.2085946      63.988401    
     27720   64.114206      158.5          158.5          158.5         -1.3723857     -1.7584529     -2.1781967     -0.18050758     64.114206    
     27740   57.407385      158.5          158.5          158.5          1.6657975      3.3913916      0.18719111     1.4188098      57.407385    
     27760   53.641593      158.5          158.5          158.5          0.58177299     3.3372369      0.90318073    -2.4950986      53.641593    
     27780   55.15322       158.5          158.5          158.5         -1.5329154     -0.64660433    -1.9617342     -1.9904078      55.15322     
     27800   55.341672      158.5          158.5          158.5          0.6674704      0.42419973     0.067419062    1.5107924      55.341672    
     27820   55.201416      158.5          158.5          158.5          0.089404165    0.024781877    0.24241997     0.0010106436   55.201416    
     27840   59.382691      158.5          158.5          158.5         -1.6863005     -3.2559205      1.2539197     -3.0569008      59.382691    
     27860   57.335546      158.5          158.5          158.5          1.275992      -1.8166892      4.2130957      1.4315696      57.335546    
     27880   60.665098      158.5          158.5          158.5          2.9766923     -1.2496089      5.0048004      5.1748854      60.665098    
     27900   50.177757      158.5          158.5          158.5         -0.53157656    -2.6991448      0.85602203     0.24839309     50.177757    
     27920   62.253897      158.5          158.5          158.5          1.609399       1.3241731      4.3824255     -0.87840153     62.253897    
     27940   55.444196      158.5          158.5          158.5          1.2346208     -2.2782066      4.6355286      1.3465405      55.444196    
     27960   56.669069      158.5          158.5          158.5          0.053946835   -2.399031       1.1884886      1.372383       56.669069    
     27980   62.534407      158.5          158.5          158.5          2.2352044      4.0520277     -0.46787266     3.1214583      62.534407    
     28000   59.067184      158.5          158.5          158.5          1.4182646     -1.0213249      2.680847       2.5952719      59.067184    
     28020   66.041981      158.5          158.5          158.5         -0.11223087    -4.9298254      3.6235658      0.96956703     66.041981    
     28040   57.004472      158.5          158.5          158.5         -1.3336036     -1.7267886     -2.8695217      0.59549942     57.004472    
     28060   66.97042       158.5          158.5          158.5         -1.4156048      1.4217898     -4.0432774     -1.6253267      66.97042     
     28080   57.93373       158.5          158.5          158.5         -0.55108126    -1.5071677      0.084742967   -0.23081909     57.93373     
     28100   66.870184      158.5          158.5          158.5         -1.3266391     -3.1925846     -1.1452678      0.35793499     66.870184    
     28120   71.676338      158.5          158.5          158.5         -0.41200001     1.9581774     -1.6116582     -1.5825192      71.676338    
     28140   61.183416      158.5          158.5          158.5         -2.785222       1.4232238     -7.8862322     -1.8926577      61.183416    
     28160   74.035863      158.5          158.5          158.5         -0.39082603     3.9746972     -5.1360962     -0.011079099    74.035863    
     28180   66.937307      158.5          158.5          158.5         -1.2038545      0.22911493    -2.2536689     -1.5870097      66.937307    
     28200   72.242955      158.5          158.5          158.5         -3.1183777     -1.4089787     -5.5167938     -2.4293605      72.242955    
     28220   71.155058      158.5          158.5          158.5         -0.76770806     5.4283843     -7.6738365     -0.057672009    71.155058    
     28240   75.222242      158.5          158.5          158.5          1.9728623      5.1122865     -0.50384541     1.3101459      75.222242    
     28260   66.635041      158.5          158.5          158.5          2.5962172      2.7014811      5.1323945     -0.045223896    66.635041    
     28280   64.091298      158.5          158.5          158.5          3.4184002      4.3439082      2.0546891      3.8566034      64.091298    
     28300   63.724253      158.5          158.5          158.5          1.1960071      3.0250082     -1.0609894      1.6240025      63.724253    
     28320   71.003047      158.5          158.5          158.5         -0.82164944    -1.3742822      1.2181467     -2.3088128      71.003047    
     28340   62.844739      158.5          158.5          158.5          0.79889569    -1.2248332      2.8591017      0.76241863     62.844739    
     28360   63.822146      158.5          158.5          158.5         -0.21121886    -1.1691396      1.7352182     -1.1997352      63.822146    
     28380   71.401368      158.5          158.5          158.5         -0.43748436    -1.0719681     -0.86053177     0.62004684     71.401368    
     28400   62.957707      158.5          158.5          158.5          1.0118444     -1.5806518      2.2985532      2.3176319      62.957707    
     28420   68.791137      158.5          158.5          158.5         -3.6226321     -8.3923052      1.6220419     -4.0976331      68.791137    
     28440   58.868858      158.5          158.5          158.5         -0.67590543    -2.6318838     -1.2400664      1.8442339      58.868858    
     28460   69.829715      158.5          158.5          158.5          1.0129344      1.4542714     -0.85705627     2.441588       69.829715    
     28480   68.851463      158.5          158.5          158.5          0.43634069    -0.092911285    2.6811876     -1.2792542      68.851463    
     28500   56.026329      158.5          158.5          158.5          2.0906463      0.31479759     3.2072584      2.749883       56.026329    
     28520   59.153363      158.5          158.5          158.5         -0.92363065    -1.5533912     -0.38479914    -0.8327016      59.153363    
     28540   59.82473       158.5          158.5          158.5         -0.53320785    -0.4826889      0.51989184    -1.6368265      59.82473     
     28560   55.29399       158.5          158.5          158.5         -0.30332249    -2.8977551      1.4446748      0.54311287     55.29399     
     28580   60.310313      158.5          158.5          158.5         -2.5681723     -4.4366746     -0.64758799    -2.6202544      60.310313    
     28600   53.154985      158.5          158.5          158.5         -0.87315158     1.422978      -0.98774374    -3.054689       53.154985    
     28620   65.043451      158.5          158.5          158.5          3.0437216      4.1147331      2.1074464      2.9089853      65.043451    
     28640   53.896037      158.5          158.5          158.5          1.0156596      0.078740936    0.61549435     2.3527435      53.896037    
     28660   50.381306      158.5          158.5          158.5          0.48656986    -0.69894563     3.3607708     -1.2021156      50.381306    
     28680   56.796222      158.5          158.5          158.5          4.5050249      7.6341403      1.6850299      4.1959045      56.796222    
     28700   48.006749      158.5          158.5          158.5         -1.4723876     -0.3349126     -3.3952704     -0.6869799      48.006749    
     28720   69.372993      158.5          158.5          158.5         -3.6600706     -4.7485785     -2.6688081     -3.5628251      69.372993    
     28740   63.766256      158.5          158.5          158.5          1.384286       2.98947       -0.38464814     1.5480361      63.766256    
     28760   70.806301      158.5          158.5          158.5         -2.9248776     -0.54308163    -5.4845879     -2.7469633      70.806301    
     28780   67.806117      158.5          158.5          158.5          0.37050054     2.4557136     -0.12007313    -1.2241388      67.806117    
     28800   57.454985      158.5          158.5          158.5          2.3929692      5.1735803      1.2877883      0.71753883     57.454985    
     28820   68.37605       158.5          158.5          158.5         -1.1510408     -0.73775018    -1.3377399     -1.3776323      68.37605     
     28840   76.801019      158.5          158.5          158.5          1.7918739     -0.43317103     2.7350161      3.0737768      76.801019    
     28860   65.685711      158.5          158.5          158.5          2.3895186      1.0510978      3.1983759      2.9190822      65.685711    
     28880   74.19626       158.5          158.5          158.5         -1.0700965     -2.848757       1.5222011     -1.8837335      74.19626     
     28900   80.402749      158.5          158.5          158.5          2.4448813     -1.1010622      6.1904278      2.2452784      80.402749    
     28920   68.395204      158.5          158.5          158.5          2.3932798      2.6873748      1.53381        2.9586544      68.395204    
     28940   72.198886      158.5          158.5          158.5         -2.1760259      1.404119      -3.6586142     -4.2735824      72.198886    
     28960   67.79152       158.5          158.5          158.5         -0.95991906    -3.0567751      2.8251456     -2.6481277      67.79152     
     28980   65.712416      158.5          158.5          158.5          2.1120798     -1.1595366      4.471715       3.024061       65.712416    
     29000   75.739194      158.5          158.5          158.5         -4.2312237     -4.9057801     -5.7082177     -2.0796733      75.739194    
     29020   74.626789      158.5          158.5          158.5         -0.60910819    -2.1443821      0.23010534     0.086952143    74.626789    
     29040   69.703823      158.5          158.5          158.5          0.089018745    0.40866915     1.1609606     -1.3025735      69.703823    
     29060   65.759082      158.5          158.5          158.5         -3.2332121     -0.9841828     -4.3687904     -4.3466633      65.759082    
     29080   68.602704      158.5          158.5          158.5          3.5186256      3.5461868      3.579077       3.4306129      68.602704    
     29100   66.220245      158.5          158.5          158.5          2.2235349      3.5297702      0.93184231     2.2089921      66.220245    
     29120   64.231396      158.5          158.5          158.5         -3.0896932     -0.80504121    -4.6483138     -3.8157247      64.231396    
     29140   72.690332      158.5          158.5          158.5          2.8584411      3.3071086      2.0777495      3.1904653      72.690332    
     29160   60.099016      158.5          158.5          158.5         -0.31666486     1.8545553     -2.9539609      0.14941107     60.099016    
     29180   74.123702      158.5          158.5          158.5         -3.4322031     -1.0524473     -5.0328872     -4.2112747      74.123702    
     29200   61.669133      158.5          158.5          158.5          4.8989337      3.9853068      5.3952031      5.3162912      61.669133    
     29220   69.282171      158.5          158.5          158.5         -1.4302141     -3.0709949     -0.62849973    -0.59114752     69.282171    
     29240   72.58956       158.5          158.5          158.5         -0.97404185     1.0089342     -3.8570477     -0.074012029    72.58956     
     29260   65.3067        158.5          158.5          158.5          4.291054       5.6997801      1.5383501      5.6350318      65.3067      
     29280   71.951784      158.5          158.5          158.5          1.7423821      0.77094429     1.9543207      2.5018814      71.951784    
     29300   86.961185      158.5          158.5          158.5         -1.4384665     -1.6792562      0.12149778    -2.7576412      86.961185    
     29320   78.123937      158.5          158.5          158.5         -0.4434599      0.16346911     0.87981714    -2.373666       78.123937    
     29340   74.976172      158.5          158.5          158.5         -0.28721582    -1.0984634     -0.47339177     0.71020769     74.976172    
     29360   76.86272       158.5          158.5          158.5         -2.7207797     -4.5810522     -3.0128655     -0.56842134     76.86272     
     29380   74.901403      158.5          158.5          158.5         -1.166169      -4.7542528      1.1963858      0.059359953    74.901403    
     29400   84.372172      158.5          158.5          158.5          0.69013386     3.4231375     -1.6709347      0.31819883     84.372172    
     29420   71.35703       158.5          158.5          158.5          0.012418901    1.6829798     -1.7991328      0.15340978     71.35703     
     29440   76.539718      158.5          158.5          158.5          1.7525767     -2.609495       6.0223287      1.8448965      76.539718    
     29460   64.70783       158.5          158.5          158.5          0.019052464   -1.1785377      3.1548128     -1.9191178      64.70783     
     29480   69.590172      158.5          158.5          158.5          0.49256274     3.0556543      1.1975828     -2.7755489      69.590172    
     29500   62.504494      158.5          158.5          158.5          0.33408718     2.5272498      0.60105863    -2.1260469      62.504494    
     29520   71.642697      158.5          158.5          158.5         -2.9891655     -2.4540245     -4.34364       -2.169832       71.642697    
     29540   64.032961      158.5          158.5          158.5          0.67135313    -0.56943424     0.94784009     1.6356535      64.032961    
     29560   69.730489      158.5          158.5          158.5         -2.2884665     -1.6082931     -2.3553321     -2.9017743      69.730489    
     29580   55.870605      158.5          158.5          158.5         -2.653348      -0.33648916    -4.5760384     -3.0475164      55.870605    
     29600   64.572555      158.5          158.5          158.5          0.60443017     0.26674051    -0.29741541     1.8439654      64.572555    
     29620   61.908219      158.5          158.5          158.5         -0.34778515    -1.2966289      1.5221878     -1.2689144      61.908219    
     29640   61.039273      158.5          158.5          158.5         -2.998094      -0.24315902    -4.8486946     -3.9024284      61.039273    
     29660   62.603025      158.5          158.5          158.5         -0.031440308    0.51717186    -4.1251845      3.5136917      62.603025    
     29680   60.466684      158.5          158.5          158.5          1.3299135     -0.50975133     0.15616364     4.3433281      60.466684    
     29700   59.897862      158.5          158.5          158.5         -2.6601299     -0.60354556    -2.962241      -4.4146032      59.897862    
     29720   62.450521      158.5          158.5          158.5          0.75746519     2.6586923     -1.0276387      0.64134194     62.450521    
     29740   63.091071      158.5          158.5          158.5          1.029439       0.23249        0.51168175     2.3441453      63.091071    
     29760   66.798994      158.5          158.5          158.5          0.33231868    -0.12267533    -0.79140116     1.9110325      66.798994    
     29780   62.864825      158.5          158.5          158.5          2.3544323      1.9256686      1.8891722      3.2484563      62.864825    
     29800   72.542316      158.5          158.5          158.5          0.47971015     1.8760386     -0.70761112     0.270703       72.542316    
     29820   68.792228      158.5          158.5          158.5          2.6178959      3.4041869      1.6704623      2.7790385      68.792228    
     29840   64.921649      158.5          158.5          158.5         -0.97634319    -2.8779179      0.32712575    -0.37823744     64.921649    
     29860   81.542694      158.5          158.5          158.5         -0.10574209     0.40674857     1.4399174     -2.1638923      81.542694    
     29880   70.825915      158.5          158.5          158.5          2.1508801      2.9784152      4.6000242     -1.1257991      70.825915    
     29900   76.367248      158.5          158.5          158.5         -3.0471916     -4.8721967     -1.0897455     -3.1796326      76.367248    
     29920   81.008474      158.5          158.5          158.5          0.65073924    -0.16993544    -0.5936602      2.7158134      81.008474    
     29940   75.830836      158.5          158.5          158.5          0.47237787     0.82834612     1.1519251     -0.56313761     75.830836    
     29960   70.472426      158.5          158.5          158.5         -2.3776833     -0.52832876    -1.5569051     -5.0478162      70.472426    
     29980   71.297324      158.5          158.5          158.5         -0.8479552     -0.87551152    -2.595223       0.92686889     71.297324    
     30000   82.697814      158.5          158.5          158.5          0.26026822    -2.2334588     -1.5150322      4.5292957      82.697814    
     30020   84.172921      158.5          158.5          158.5          2.6793629      4.4996217      1.8339336      1.7045333      84.172921    
     30040   73.655946      158.5          158.5          158.5         -2.7799885     -1.6451174     -3.0962108     -3.5986374      73.655946    
     30060   82.218205      158.5          158.5          158.5          3.8102381      1.7975663      4.583342       5.0498061      82.218205    
     30080   71.414539      158.5          158.5          158.5          0.89938289     1.5787562      1.1807654     -0.061372943    71.414539    
     30100   76.288258      158.5          158.5          158.5         -3.0276901     -2.1725527     -1.9952332     -4.9152844      76.288258    
     30120   72.739538      158.5          158.5          158.5          1.1016234     -1.631463       3.0069897      1.9293437      72.739538    
     30140   79.763643      158.5          158.5          158.5         -2.7131276     -3.8044263     -0.93970358    -3.3952529      79.763643    
     30160   73.582268      158.5          158.5          158.5         -2.8089664     -4.511388      -2.0709465     -1.8445648      73.582268    
     30180   72.053889      158.5          158.5          158.5         -0.79745241    -0.36384871    -2.1610558      0.13254732     72.053889    
     30200   68.69488       158.5          158.5          158.5          0.029683127    2.2369656     -1.5062028     -0.64171347     68.69488     
     30220   70.952239      158.5          158.5          158.5          1.1887018      0.19568655     1.6752263      1.6951926      70.952239    
     30240   72.021263      158.5          158.5          158.5          1.2519058      0.31555896     2.9816782      0.4584802      72.021263    
     30260   70.616135      158.5          158.5          158.5          1.8822828      4.5420096      1.9137368     -0.8088979      70.616135    
     30280   71.539385      158.5          158.5          158.5         -0.16666154     0.75823384     0.80153578    -2.0597542      71.539385    
     30300   67.697319      158.5          158.5          158.5          0.60900035    -2.3020528      0.6763249      3.4527289      67.697319    
     30320   68.847508      158.5          158.5          158.5          2.968585       3.9627009      1.6180932      3.324961       68.847508    
     30340   65.519403      158.5          158.5          158.5         -0.48340981     0.15545151    -0.021552654   -1.5841283      65.519403    
     30360   48.012877      158.5          158.5          158.5          0.7209795     -0.79639488     2.3715387      0.58779473     48.012877    
     30380   59.067098      158.5          158.5          158.5          1.7027234      0.4261313      1.3488293      3.3332097      59.067098    
     30400   64.482797      158.5          158.5          158.5         -0.5656384      0.58888284    -0.55701866    -1.7287794      64.482797    
     30420   54.995013      158.5          158.5          158.5         -1.5754611      0.15207761     0.38178389    -5.2602449      54.995013    
     30440   50.663565      158.5          158.5          158.5         -1.293952      -2.9881797     -1.0371796      0.14350345     50.663565    
     30460   50.814149      158.5          158.5          158.5          0.17691544    -4.4159821      2.417316       2.5294124      50.814149    
     30480   55.866184      158.5          158.5          158.5          0.22233807    -1.7429406      1.7204058      0.68954898     55.866184    
     30500   55.546732      158.5          158.5          158.5          0.58108098    -0.93104665     1.8449714      0.8293182      55.546732    
     30520   54.204917      158.5          158.5          158.5          2.3287424      0.95191032     5.2843226      0.74999438     54.204917    
     30540   54.882572      158.5          158.5          158.5         -2.0004597     -3.9749941      1.2701668     -3.2965518      54.882572    
     30560   46.635273      158.5          158.5          158.5          1.2987676      0.87272536     2.0318304      0.99174689     46.635273    
     30580   51.039144      158.5          158.5          158.5          0.3570999      1.6711446      0.34819028    -0.94803514     51.039144    
     30600   50.327002      158.5          158.5          158.5         -4.7147902     -5.7889584     -3.5252114     -4.830201       50.327002    
     30620   55.437386      158.5          158.5          158.5          2.0191032      0.059746109    3.3597356      2.637828       55.437386    
     30640   45.104144      158.5          158.5          158.5          0.97754961    -0.30248317     0.77570968     2.4594223      45.104144    
     30660   57.823389      158.5          158.5          158.5         -2.9025428     -2.6340812     -4.4695029     -1.6040445      57.823389    
     30680   49.175654      158.5          158.5          158.5          1.5870592      1.2652151      4.8863429     -1.3903803      49.175654    
     30700   48.661678      158.5          158.5          158.5          0.35742699    -3.5118696      5.9017508     -1.3176002      48.661678    
     30720   46.956823      158.5          158.5          158.5         -3.3452632     -5.303225      -2.012784      -2.7197805      46.956823    
     30740   44.356807      158.5          158.5          158.5          1.7819955      3.1283407      0.7485923      1.4690533      44.356807    
     30760   44.246336      158.5          158.5          158.5         -0.4573364      0.01669904    -0.7056049     -0.68310334     44.246336    
     30780   50.90058       158.5          158.5          158.5          0.063446293   -1.4912242      1.1948121      0.48675106     50.90058     
     30800   45.56069       158.5          158.5          158.5          3.9065002      4.8179412      3.5024315      3.3991279      45.56069     
     30820   35.520183      158.5          158.5          158.5          0.46256995     2.5053613      0.85338313    -1.9710346      35.520183    
     30840   41.119604      158.5          158.5          158.5         -0.3257502     -2.3301876      2.0525504     -0.69961344     41.119604    
     30860   47.529213      158.5          158.5          158.5         -0.50524942    -3.8301772      1.2961463      1.0182826      47.529213    
     30880   51.487345      158.5          158.5          158.5         -1.7708062     -0.50136751    -3.74831       -1.0627412      51.487345    
     30900   48.17647       158.5          158.5          158.5         -2.6825769     -2.7501059     -4.6988181     -0.59880671     48.17647     
     30920   41.887189      158.5          158.5          158.5         -0.25842459    -2.8697245      0.39828929     1.6961614      41.887189    
     30940   51.042938      158.5          158.5          158.5         -1.908513      -1.9834893     -2.2543712     -1.4876786      51.042938    
     30960   41.622528      158.5          158.5          158.5         -3.0497452     -1.5999313     -4.7823597     -2.7669445      41.622528    
     30980   41.72793       158.5          158.5          158.5          1.5540126      2.8888251      1.8288786     -0.055665967    41.72793     
     31000   39.087053      158.5          158.5          158.5         -0.29231929     0.81595762    -0.27751444    -1.415401       39.087053    
     31020   44.511027      158.5          158.5          158.5          0.29363549    -1.2868219      0.56717306     1.6005554      44.511027    
     31040   35.717747      158.5          158.5          158.5          0.87290749    -1.4796733      3.0628373      1.0355585      35.717747    
     31060   46.480267      158.5          158.5          158.5          0.65813648     1.3749169      4.4651415     -3.8656489      46.480267    
     31080   39.920106      158.5          158.5          158.5          1.9265082      1.0062078      6.2030224     -1.4297057      39.920106    
     31100   35.472114      158.5          158.5          158.5          2.2083921      1.4758322      3.4601703      1.6891738      35.472114    
     31120   42.294506      158.5          158.5          158.5         -1.0519503      1.2329229      0.5294386     -4.9182124      42.294506    
     31140   38.909837      158.5          158.5          158.5         -0.63520979    -3.034568       2.3390358     -1.2100971      38.909837    
     31160   32.185388      158.5          158.5          158.5          1.0409535     -0.96203416    -1.2814219      5.3663166      32.185388    
     31180   48.562887      158.5          158.5          158.5         -0.95201808    -0.19187724    -4.3205659      1.6563889      48.562887    
     31200   36.222065      158.5          158.5          158.5          1.3225642      2.1333019      2.4432545     -0.60886371     36.222065    
     31220   37.739395      158.5          158.5          158.5          1.1419418      2.1018137      2.3408347     -1.0168231      37.739395    
     31240   36.921458      158.5          158.5          158.5         -0.99115252    -0.32891576    -3.7021596      1.0576178      36.921458    
     31260   35.585857      158.5          158.5          158.5          1.6736946      1.2978872      0.27419738     3.4489992      35.585857    
     31280   45.950286      158.5          158.5          158.5         -2.0719264     -1.8620206     -1.7835296     -2.570229       45.950286    
     31300   31.459715      158.5          158.5          158.5         -0.48624683     0.63421505    -2.0658066     -0.027148917    31.459715    
     31320   39.040943      158.5          158.5          158.5          0.45099471    -1.3244251      0.18492881     2.4924804      39.040943    
     31340   38.162306      158.5          158.5          158.5         -1.3240545     -2.9344437     -0.16902919    -0.86869046     38.162306    
     31360   31.376466      158.5          158.5          158.5          1.4185662      3.8555655     -1.2412364      1.6413693      31.376466    
     31380   35.278798      158.5          158.5          158.5          1.9400946      3.7370141     -0.087945376    2.171215       35.278798    
     31400   29.144564      158.5          158.5          158.5          0.55427267    -0.49285445     0.33020525     1.8254672      29.144564    
     31420   40.214354      158.5          158.5          158.5         -0.63598929     0.068839509   -2.8639936      0.88718616     40.214354    
     31440   38.675343      158.5          158.5          158.5         -1.1384523      1.3712275     -0.41985358    -4.3667307      38.675343    
     31460   47.95594       158.5          158.5          158.5          0.77048062     0.89200778     4.1365864     -2.7171523      47.95594     
     31480   38.971004      158.5          158.5          158.5          1.5465103      3.4607648      0.97227727     0.206489       38.971004    
     31500   47.00244       158.5          158.5          158.5          0.65116764     1.7142514     -1.117737       1.3569885      47.00244     
     31520   45.706774      158.5          158.5          158.5          2.1403754      4.5944972      1.1457073      0.68092182     45.706774    
     31540   47.314369      158.5          158.5          158.5          1.2713597      3.3211538     -2.0577252      2.5506504      47.314369    
     31560   47.135395      158.5          158.5          158.5         -0.70829414    -4.7607763     -0.012606893    2.6485008      47.135395    
     31580   48.549839      158.5          158.5          158.5          2.8720464      1.8146302      5.7552598      1.0462492      48.549839    
     31600   48.50633       158.5          158.5          158.5         -1.1467367      2.3903616     -0.28289294    -5.5476786      48.50633     
     31620   45.072516      158.5          158.5          158.5         -1.7341849     -2.3139141     -1.6266986     -1.261942       45.072516    
     31640   50.297707      158.5          158.5          158.5         -0.092045206   -4.163178       1.6967746      2.1902679      50.297707    
     31660   44.652024      158.5          158.5          158.5         -4.3908973     -4.6174725     -5.466342      -3.0888772      44.652024    
     31680   47.735361      158.5          158.5          158.5         -2.1616565      0.36122563    -2.4535716     -4.3926236      47.735361    
     31700   44.193739      158.5          158.5          158.5         -0.50870873    -0.53052262     2.4123344     -3.4079379      44.193739    
     31720   43.088453      158.5          158.5          158.5          0.7835298     -2.7129799      1.5424858      3.5210835      43.088453    
     31740   43.071604      158.5          158.5          158.5          1.6123268      1.1916417      1.3976141      2.2477247      43.071604    
     31760   45.229032      158.5          158.5          158.5          0.2486243      4.7286433      0.72930589    -4.7120763      45.229032    
     31780   32.561047      158.5          158.5          158.5          3.2475143      5.2223015      1.8568759      2.6633654      32.561047    
     31800   37.310972      158.5          158.5          158.5          1.2715076     -1.3470874      0.1942762      4.9673339      37.310972    
     31820   31.179055      158.5          158.5          158.5         -0.15089212    -0.55892113     0.60437698    -0.49813221     31.179055    
     31840   30.598801      158.5          158.5          158.5         -2.0396449      0.8628293     -0.44845074    -6.5333133      30.598801    
     31860   30.84596       158.5          158.5          158.5         -0.48904733    -0.2570593     -0.90378582    -0.30629687     30.84596     
     31880   30.621576      158.5          158.5          158.5         -0.13338869    -2.3665112     -1.1382961      3.1046412      30.621576    
     31900   26.091475      158.5          158.5          158.5         -0.74242361    -5.7856744      3.364668       0.19373552     26.091475    
     31920   31.931842      158.5          158.5          158.5          2.0394059      0.97392908     3.2678188      1.8764698      31.931842    
     31940   22.702592      158.5          158.5          158.5         -1.1166601      0.61282953    -4.0697188      0.10690894     22.702592    
     31960   31.198671      158.5          158.5          158.5         -1.1343083     -1.3767507     -2.5305761      0.50440203     31.198671    
     31980   21.088836      158.5          158.5          158.5          0.020859613   -1.2787235     -0.6748065      2.0161089      21.088836    
     32000   29.303842      158.5          158.5          158.5          0.44600756     1.6335427      0.35052511    -0.6460451      29.303842    
     32020   31.324067      158.5          158.5          158.5          2.1287306      1.5498283      2.8461333      1.9902302      31.324067    
     32040   26.489766      158.5          158.5          158.5          3.3244161     -1.7934731      4.5761627      7.1905587      26.489766    
     32060   26.122188      158.5          158.5          158.5         -1.1606798     -1.1710596     -3.0906284      0.77964849     26.122188    
     32080   32.962155      158.5          158.5          158.5         -2.2442168      2.4412209     -1.3018925     -7.8719788      32.962155    
     32100   30.157873      158.5          158.5          158.5         -0.56158679     0.041423586   -2.2687582      0.54257427     30.157873    
     32120   34.366489      158.5          158.5          158.5         -2.6971641     -5.0096416     -5.1333487      2.051498       34.366489    
     32140   36.046803      158.5          158.5          158.5         -2.4883301     -3.3939545     -0.20412185    -3.8669139      36.046803    
     32160   44.017092      158.5          158.5          158.5          0.25679477     2.0231802      1.6412764     -2.8940723      44.017092    
     32180   44.4923        158.5          158.5          158.5         -0.49643358    -0.01641294    -2.2793799      0.80649205     44.4923      
     32200   41.467772      158.5          158.5          158.5          1.7187169     -1.1409505      1.3137031      4.9833983      41.467772    
     32220   35.484748      158.5          158.5          158.5          0.30380803     3.9880677      0.24916721    -3.3258108      35.484748    
     32240   41.52951       158.5          158.5          158.5          0.20855531     7.4081348      0.02439382    -6.8068627      41.52951     
     32260   40.282642      158.5          158.5          158.5         -1.0284336      1.049527      -0.93593676    -3.1988909      40.282642    
     32280   38.496517      158.5          158.5          158.5          0.70606325    -0.74103206     1.153615       1.7056068      38.496517    
     32300   39.132032      158.5          158.5          158.5         -0.5972712     -0.93905103     2.2923405     -3.1451031      39.132032    
     32320   46.763951      158.5          158.5          158.5         -1.5069559      1.3566765     -0.66521561    -5.2123287      46.763951    
     32340   37.709104      158.5          158.5          158.5         -0.10138186     0.47550894    -2.5699133      1.7902588      37.709104    
     32360   42.177977      158.5          158.5          158.5         -2.6758922     -2.4115341     -4.9044422     -0.71170048     42.177977    
     32380   29.123182      158.5          158.5          158.5         -0.38056869    -0.5518173     -0.12674424    -0.46314451     29.123182    
     32400   36.352117      158.5          158.5          158.5          0.13267974     4.1726813     -0.18836058    -3.5862815      36.352117    
     32420   34.076262      158.5          158.5          158.5         -0.18098611     4.2576359     -4.2552905     -0.54530375     34.076262    
     32440   35.458109      158.5          158.5          158.5          2.1540945      0.94619606     0.6206174      4.89547        35.458109    
     32460   28.265544      158.5          158.5          158.5          0.36383218    -0.0068459836   3.3615471     -2.2632046      28.265544    
     32480   37.245836      158.5          158.5          158.5         -1.0046655      1.6104004      0.98015631    -5.6045531      37.245836    
     32500   28.07611       158.5          158.5          158.5          2.9685903      3.6431237      0.83005406     4.4325932      28.07611     
     32520   19.915923      158.5          158.5          158.5          1.0110751     -1.6316719     -1.0586152      5.7235125      19.915923    
     32540   29.231167      158.5          158.5          158.5         -1.1217129     -3.04081       -0.43314383     0.10881514     29.231167    
     32560   25.608974      158.5          158.5          158.5          0.0035372071  -0.33104283     2.4214235     -2.0797691      25.608974    
     32580   26.013277      158.5          158.5          158.5          0.042364004    1.8059527     -1.0418817     -0.63697899     26.013277    
     32600   36.23654       158.5          158.5          158.5         -0.42358256    -1.7243874     -3.0772244      3.5308641      36.23654     
     32620   34.081407      158.5          158.5          158.5          2.9918515     -1.0808847      2.9584478      7.0979913      34.081407    
     32640   41.154296      158.5          158.5          158.5          0.73242224    -0.32871627     4.078383      -1.5524001      41.154296    
     32660   32.927742      158.5          158.5          158.5          2.1040095      3.5065171      2.0378061      0.76770543     32.927742    
     32680   35.638009      158.5          158.5          158.5          0.987784      -0.83757018     0.1842615      3.6166607      35.638009    
     32700   48.472214      158.5          158.5          158.5         -0.70267179    -3.2466356      2.6143881     -1.4757679      48.472214    
     32720   46.81927       158.5          158.5          158.5          1.1209495      2.1217346      1.9121423     -0.67102837     46.81927     
     32740   34.838714      158.5          158.5          158.5         -0.12604419    -1.738746       0.89490336     0.46571005     34.838714    
     32760   42.294863      158.5          158.5          158.5          0.55199591     0.40445883     0.068039123    1.1834898      42.294863    
     32780   37.674096      158.5          158.5          158.5          0.81453169     3.0559073     -2.2256332      1.6133209      37.674096    
     32800   49.229524      158.5          158.5          158.5         -1.6783451     -4.121398       2.0973455     -3.0109829      49.229524    
     32820   38.326652      158.5          158.5          158.5          0.56804347    -1.8600474      1.5172186      2.0469592      38.326652    
     32840   41.534611      158.5          158.5          158.5          0.47249339    -0.28085895     0.98084326     0.71749587     41.534611    
     32860   34.609942      158.5          158.5          158.5          0.93942333     0.35817235     0.91156438     1.5485333      34.609942    
     32880   33.293379      158.5          158.5          158.5          0.76940627     0.11244774     2.0227711      0.17300001     33.293379    
     32900   33.468246      158.5          158.5          158.5          1.7699987      0.3899865      1.9499517      2.9700578      33.468246    
     32920   32.734585      158.5          158.5          158.5         -0.78308031    -1.1893437      1.9852344     -3.1451317      32.734585    
     32940   32.748833      158.5          158.5          158.5         -3.1402925     -2.439397      -1.0460784     -5.9354021      32.748833    
     32960   33.317638      158.5          158.5          158.5          1.5180596      3.467695       0.4939508      0.59253314     33.317638    
     32980   33.045159      158.5          158.5          158.5         -1.0197222      0.16642564    -1.3259618     -1.8996304      33.045159    
     33000   23.019619      158.5          158.5          158.5          1.2637656      3.8688823      2.4162845     -2.49387        23.019619    
     33020   21.135162      158.5          158.5          158.5         -0.31256332    -0.54399638    -0.11398571    -0.27970787     21.135162    
     33040   28.756376      158.5          158.5          158.5          0.27358743    -3.2627281     -1.1756345      5.2591249      28.756376    
     33060   29.049382      158.5          158.5          158.5          1.0456906      2.0468393      1.0163298      0.07390267     29.049382    
     33080   24.437973      158.5          158.5          158.5          0.24110815     1.72254       -0.082950633   -0.9162649      24.437973    
     33100   34.4982        158.5          158.5          158.5          3.0741818      1.9026153      6.5371125      0.78281772     34.4982      
     33120   27.267291      158.5          158.5          158.5         -0.70149453     1.0384403      0.28766022    -3.4305841      27.267291    
     33140   32.278145      158.5          158.5          158.5         -1.4949016     -0.75380849    -2.4445542     -1.2863421      32.278145    
     33160   24.154696      158.5          158.5          158.5         -0.50485204     1.6925236     -1.8622503     -1.3448294      24.154696    
     33180   40.966819      158.5          158.5          158.5          0.02907156     1.8081365     -1.6007564     -0.12016536     40.966819    
     33200   30.211933      158.5          158.5          158.5          1.6297584     -0.028918574    1.83132        3.0868736      30.211933    
     33220   36.204949      158.5          158.5          158.5          0.58821379    -2.3466933     -0.87930855     4.9906432      36.204949    
     33240   33.076764      158.5          158.5          158.5         -0.69406866     2.2028729     -2.9218026     -1.3632763      33.076764    
     33260   41.468968      158.5          158.5          158.5         -2.3973773      1.3293411     -1.7664055     -6.7550675      41.468968    
     33280   35.023381      158.5          158.5          158.5          2.4508199      1.9493334      0.11989943     5.2832268      35.023381    
     33300   23.576074      158.5          158.5          158.5         -1.801707      -2.4348606     -2.5780265     -0.39223393     23.576074    
     33320   44.938539      158.5          158.5          158.5          0.33606262     3.1567717      0.11216187    -2.2607457      44.938539    
     33340   45.633678      158.5          158.5          158.5         -0.04452679     2.4405804      0.78594211    -3.3601029      45.633678    
     33360   41.612792      158.5          158.5          158.5          0.24364777    -0.66134996     0.55690695     0.83538631     41.612792    
     33380   40.149139      158.5          158.5          158.5          1.3354044     -0.38230049     0.30590672     4.0826069      40.149139    
     33400   43.377085      158.5          158.5          158.5         -3.7948717     -5.0027862     -6.4729653      0.09113647     43.377085    
     33420   50.554119      158.5          158.5          158.5          0.046090059    1.7295158     -2.6939364      1.1026908      50.554119    
     33440   37.168615      158.5          158.5          158.5         -1.2612174      2.9706441     -4.6632512     -2.0910451      37.168615    
     33460   39.716389      158.5          158.5          158.5         -2.1731461     -4.103448      -3.6596215      1.2436313      39.716389    
     33480   36.303892      158.5          158.5          158.5          0.53195302    -1.5159228     -2.1054612      5.2172431      36.303892    
     33500   30.82122       158.5          158.5          158.5         -3.8747288     -2.3813386     -6.7239552     -2.5188927      30.82122     
     33520   29.785334      158.5          158.5          158.5          2.8577005      4.5368216      4.3310349     -0.29475516     29.785334    
     33540   37.461775      158.5          158.5          158.5         -0.73355251    -3.6733687     -1.037118       2.5098292      37.461775    
     33560   33.905101      158.5          158.5          158.5         -0.60588967    -2.8353692     -3.3620658      4.3797659      33.905101    
     33580   29.582891      158.5          158.5          158.5          1.0802901      5.1656421     -0.40468705    -1.5200847      29.582891    
     33600   37.782919      158.5          158.5          158.5         -1.2235648      0.41480542    -0.43197966    -3.6535202      37.782919    
     33620   37.759527      158.5          158.5          158.5         -1.7947613     -3.4949782     -2.6519514      0.76264565     37.759527    
     33640   42.810105      158.5          158.5          158.5         -3.2490088     -3.2365279     -7.7351929      1.2246943      42.810105    
     33660   35.666748      158.5          158.5          158.5          0.54474313     2.5781086     -0.46496648    -0.4789127      35.666748    
     33680   39.078218      158.5          158.5          158.5          0.77243657     1.5954621      2.564421      -1.8425734      39.078218    
     33700   39.891913      158.5          158.5          158.5          1.0058162     -0.075046303    1.0760524      2.0164425      39.891913    
     33720   45.393665      158.5          158.5          158.5          2.8858315      1.5997829      1.3522776      5.7054341      45.393665    
     33740   37.385267      158.5          158.5          158.5          0.88938475     3.578555      -0.62189976    -0.288501       37.385267    
     33760   36.60374       158.5          158.5          158.5         -0.60417677     0.029810068   -0.0032793769  -1.839061       36.60374     
     33780   46.061253      158.5          158.5          158.5         -0.43436588    -3.580881       1.1131995      1.1645838      46.061253    
     33800   40.578089      158.5          158.5          158.5          0.47276071    -2.0245565     -0.90142812     4.3442668      40.578089    
     33820   52.098552      158.5          158.5          158.5          2.3710895      3.0143248      2.4782869      1.6206569      52.098552    
     33840   39.973518      158.5          158.5          158.5          2.9220219      6.16039        2.7298207     -0.12414504     39.973518    
     33860   44.549344      158.5          158.5          158.5         -0.8057949     -1.1514553     -1.012177      -0.25375248     44.549344    
     33880   47.791753      158.5          158.5          158.5         -1.6928138     -3.3942378     -1.4012916     -0.28291198     47.791753    
     33900   39.637833      158.5          158.5          158.5         -2.556986      -1.2075781     -2.7181117     -3.745268       39.637833    
     33920   41.609539      158.5          158.5          158.5         -1.3279912      1.1551409     -1.8528153     -3.2862992      41.609539    
     33940   40.132581      158.5          158.5          158.5          2.7551234      0.74446376     3.0168976      4.504009       40.132581    
     33960   43.762412      158.5          158.5          158.5         -1.0630548     -4.412025      -0.37585836     1.598719       43.762412    
     33980   38.248195      158.5          158.5          158.5         -0.18950507     1.8259259     -2.319305      -0.075136182    38.248195    
     34000   43.106782      158.5          158.5          158.5          2.3239069      3.3456022      4.4206671     -0.79454865     43.106782    
     34020   31.721171      158.5          158.5          158.5          0.36694503    -2.0474433      3.4483394     -0.300061       31.721171    
     34040   39.982157      158.5          158.5          158.5         -0.33563615    -1.016137      -2.2926464      2.301875       39.982157    
     34060   38.938518      158.5          158.5          158.5         -0.78367061     2.6350017     -2.488404      -2.4976095      38.938518    
     34080   36.494418      158.5          158.5          158.5          0.77056385     3.7453426      1.0346907     -2.4683417      36.494418    
     34100   34.434531      158.5          158.5          158.5         -3.2681626     -3.1362074     -2.68891       -3.9793703      34.434531    
     34120   37.440621      158.5          158.5          158.5         -1.9588745     -5.0879397     -2.8642512      2.0755676      37.440621    
     34140   33.473616      158.5          158.5          158.5          1.5679769     -2.0961587      1.402306       5.3977834      33.473616    
     34160   36.982185      158.5          158.5          158.5         -1.2674301     -0.29085583     3.0542397     -6.5656741      36.982185    
     34180   38.158737      158.5          158.5          158.5          0.39064827     1.4923226      2.3740265     -2.6944043      38.158737    
     34200   37.60254       158.5          158.5          158.5          1.7720434      2.4451755     -4.3176774      7.1886323      37.60254     
     34220   31.483946      158.5          158.5          158.5         -1.7224849     -1.4902725     -3.3022129     -0.37496941     31.483946    
     34240   32.668597      158.5          158.5          158.5          0.19820288     1.7219496      2.4346761     -3.5620171      32.668597    
     34260   29.993812      158.5          158.5          158.5          1.0894625      3.367909       1.3377915     -1.437313       29.993812    
     34280   32.415022      158.5          158.5          158.5         -1.3986219     -2.2814287     -1.8952333     -0.019203702    32.415022    
     34300   33.689497      158.5          158.5          158.5          0.93371897    -0.088478833    2.9739845     -0.084348766    33.689497    
     34320   28.692976      158.5          158.5          158.5          2.3772402      5.2908687      3.5671062     -1.7262542      28.692976    
     34340   28.944939      158.5          158.5          158.5         -2.9581344     -0.93807851    -2.1832238     -5.7531008      28.944939    
     34360   31.101152      158.5          158.5          158.5          0.64240314    -0.84604726     1.6594946      1.1137621      31.101152    
     34380   20.680682      158.5          158.5          158.5          3.9974753      4.1679628      1.9621439      5.8623193      20.680682    
     34400   24.132989      158.5          158.5          158.5         -0.36295617     0.41471669    -0.39084486    -1.1127403      24.132989    
     34420   21.967614      158.5          158.5          158.5          3.1112015      2.6180853      5.8006817      0.91483756     21.967614    
     34440   32.021656      158.5          158.5          158.5         -1.2387595      0.67246126    -2.7518333     -1.6369064      32.021656    
     34460   20.88739       158.5          158.5          158.5         -0.046491288   -0.53369727    -0.35362731     0.74785072     20.88739     
     34480   21.359409      158.5          158.5          158.5          1.2743426     -0.62815557     3.0624865      1.3886969      21.359409    
     34500   21.969814      158.5          158.5          158.5          0.87532059    -1.5402933      4.963607      -0.79735197     21.969814    
     34520   25.997781      158.5          158.5          158.5          0.47748655    -2.3625932      3.1880547      0.6069981      25.997781    
     34540   21.490423      158.5          158.5          158.5         -2.2893704     -6.1601454     -0.21652964    -0.49143631     21.490423    
     34560   24.362591      158.5          158.5          158.5         -1.85685       -2.6908657     -1.547082      -1.3326024      24.362591    
     34580   21.091899      158.5          158.5          158.5         -0.70534373    -0.61974933    -0.57118102    -0.92510083     21.091899    
     34600   23.835525      158.5          158.5          158.5         -1.4925921      0.093183976   -1.5901734     -2.980787       23.835525    
     34620   23.906027      158.5          158.5          158.5         -0.81435831    -0.54148848    -2.1583315      0.256745       23.906027    
     34640   20.861073      158.5          158.5          158.5          0.61512542    -0.78611253     0.16235733     2.4691315      20.861073    
     34660   21.862074      158.5          158.5          158.5         -0.91446917    -2.6367636      1.9737152     -2.0803591      21.862074    
     34680   26.48171       158.5          158.5          158.5         -1.6299291     -1.0013353     -0.027095472   -3.8613565      26.48171     
     34700   33.455871      158.5          158.5          158.5          0.5818618      1.834522      -0.45106523     0.36212863     33.455871    
     34720   29.855658      158.5          158.5          158.5         -3.2402515     -4.4622354     -4.3367753     -0.92174375     29.855658    
     34740   33.985392      158.5          158.5          158.5         -0.13239162    -1.7251951      0.0017321725   1.3262881      33.985392    
     34760   30.072233      158.5          158.5          158.5         -1.3097322      0.29869412    -0.42231214    -3.8055786      30.072233    
     34780   40.580679      158.5          158.5          158.5         -0.79592719     2.4760055     -3.9134121     -0.95037497     40.580679    
     34800   37.390382      158.5          158.5          158.5          4.4853866      4.6387402      2.4111041      6.4063155      37.390382    
     34820   38.986133      158.5          158.5          158.5         -2.9641706     -2.8092393     -2.2551365     -3.828136       38.986133    
     34840   28.640656      158.5          158.5          158.5          1.8880309      5.5094438     -2.9814897      3.1361387      28.640656    
     34860   33.742319      158.5          158.5          158.5          2.7305613      6.8705985     -3.1180987      4.439184       33.742319    
     34880   35.689036      158.5          158.5          158.5         -5.1077373     -4.1185114     -3.7910058     -7.4136946      35.689036    
     34900   34.78842       158.5          158.5          158.5          3.3944825      4.1933359      4.7503829      1.2397288      34.78842     
     34920   25.15496       158.5          158.5          158.5         -0.90923846     1.3260897     -1.7736834     -2.2801217      25.15496     
     34940   35.587238      158.5          158.5          158.5         -0.16471448    -0.38404198    -0.065397287   -0.044704156    35.587238    
     34960   31.657043      158.5          158.5          158.5          2.0428686      0.87884423     2.8415462      2.4082155      31.657043    
     34980   24.811754      158.5          158.5          158.5         -0.93302942    -1.5028291      0.34715792    -1.6434171      24.811754    
     35000   19.130491      158.5          158.5          158.5          1.975492       3.7557226      3.3564602     -1.1857068      19.130491    
     35020   14.284171      158.5          158.5          158.5         -0.17349195    -0.73446693     2.7507417     -2.5367507      14.284171    
     35040   13.125579      158.5          158.5          158.5          0.37371573    -4.9729532      2.748443       3.3456573      13.125579    
     35060   24.125369      158.5          158.5          158.5         -0.21877928    -5.0975095      1.0155862      3.4255854      24.125369    
     35080   12.282178      158.5          158.5          158.5         -0.65161988    -2.0392455     -1.4279955      1.5123814      12.282178    
     35100   17.099368      158.5          158.5          158.5         -0.11038082     1.9241758      0.64864504    -2.9039633      17.099368    
     35120   6.2881199      158.5          158.5          158.5         -1.7492588     -1.1470193     -1.1005848     -3.0001723      6.2881199    
     35140   12.944626      158.5          158.5          158.5          1.2163539     -0.40155201    -0.66249115     4.713105       12.944626    
     35160   0.2871286      158.5          158.5          158.5         -1.7901992     -3.5356309     -1.37915       -0.45581663     0.2871286    
     35180   7.4914809      158.5          158.5          158.5          1.4828545      3.4412009      1.5110458     -0.5036831      7.4914809    
     35200   8.3819353      158.5          158.5          158.5          0.38968403    -2.0800143      2.8288869      0.42017948     8.3819353    
     35220   14.706951      158.5          158.5          158.5         -0.35644213    -3.4248587      1.0858055      1.2697268      14.706951    
     35240   2.5033565      158.5          158.5          158.5          1.5055721      2.6124517     -1.9362734      3.8405381      2.5033565    
     35260   3.1553352      158.5          158.5          158.5          0.10608087     1.334664      -1.4943005      0.47787917     3.1553352    
     35280   15.268608      158.5          158.5          158.5          1.9962911     -0.3689592      3.9269618      2.4308707      15.268608    
     35300   17.667278      158.5          158.5          158.5         -4.2423301     -7.2087796     -3.7148965     -1.803314       17.667278    
     35320   9.807509       158.5          158.5          158.5         -1.5888705     -2.2801693     -1.2992779     -1.1871644      9.807509     
     35340   12.591556      158.5          158.5          158.5          0.087099882    0.73911464     1.2938857     -1.7717006      12.591556    
     35360   14.883251      158.5          158.5          158.5         -2.3774722     -0.68989244    -2.0520012     -4.390523       14.883251    
     35380   11.967519      158.5          158.5          158.5          1.7999456      2.5117657     -0.58231425     3.4703854      11.967519    
     35400   14.721731      158.5          158.5          158.5         -0.81340134    -2.3923243      1.3899488     -1.4378286      14.721731    
     35420   19.373738      158.5          158.5          158.5          2.4367504      3.5014683      4.2589779     -0.45019517     19.373738    
     35440   12.361014      158.5          158.5          158.5          0.45174923     3.0842964     -2.2081738      0.47912504     12.361014    
     35460   20.67491       158.5          158.5          158.5         -1.9463892     -1.2082742     -1.8204601     -2.8104333      20.67491     
     35480   23.10835       158.5          158.5          158.5          0.73028671    -1.2606666      4.1233232     -0.67179645     23.10835     
     35500   25.940009      158.5          158.5          158.5         -0.65449135    -1.6439201      0.77797366    -1.0975276      25.940009    
     35520   24.196737      158.5          158.5          158.5          1.5447298      5.8086538     -1.0072535     -0.16721087     24.196737    
     35540   16.639379      158.5          158.5          158.5         -0.038897708   -0.34068037     1.0990093     -0.87502206     16.639379    
     35560   24.428799      158.5          158.5          158.5         -0.20525369    -0.36727581     0.94694422    -1.1954295      24.428799    
     35580   18.450897      158.5          158.5          158.5          0.2623397      4.4975989     -1.7405918     -1.969988       18.450897    
     35600   25.693197      158.5          158.5          158.5          1.2881396      3.2955799     -0.65953587     1.2283748      25.693197    
     35620   13.013736      158.5          158.5          158.5         -0.55463979    -1.1860047     -0.89620222     0.41828757     13.013736    
     35640   18.037857      158.5          158.5          158.5         -1.8662153     -1.2105969     -0.31354991    -4.0744992      18.037857    
     35660   15.018653      158.5          158.5          158.5          1.8118265      4.7393599      2.0095838     -1.3134643      15.018653    
     35680   6.9631997      158.5          158.5          158.5         -1.4289132      0.57520609    -5.7470053      0.88505948     6.9631997    
     35700   14.10418       158.5          158.5          158.5          0.15310849    -2.5239304     -1.9020731      4.885329       14.10418     
     35720   4.1031922      158.5          158.5          158.5          1.8233022      0.33813994     3.5817801      1.5499865      4.1031922    
     35740   15.967875      158.5          158.5          158.5         -3.0939011     -0.89196622    -1.8271204     -6.5626166      15.967875    
     35760   16.096304      158.5          158.5          158.5         -0.066405539    1.3004253     -3.018741       1.5190991      16.096304    
     35780   7.9060174      158.5          158.5          158.5         -1.545002      -3.461893      -2.4157934      1.2426804      7.9060174    
     35800   12.320981      158.5          158.5          158.5         -0.52841831    -1.1100129      0.26357027    -0.73881227     12.320981    
     35820   18.141538      158.5          158.5          158.5          1.7202093      2.9004991      2.4951159     -0.23498701     18.141538    
     35840   16.140542      158.5          158.5          158.5         -1.4987201     -3.9184807     -1.5266189      0.94893926     16.140542    
     35860   16.435081      158.5          158.5          158.5          2.2093363      3.2723293      1.6352949      1.7203847      16.435081    
     35880   15.763568      158.5          158.5          158.5         -0.24862938     0.89443934     0.37696561    -2.0172931      15.763568    
     35900   23.936967      158.5          158.5          158.5          1.102363      -1.5447459      5.6469113     -0.79507639     23.936967    
     35920   9.4491018      158.5          158.5          158.5          2.4829051      0.34450538     4.4492088      2.6550013      9.4491018    
     35940   16.48647       158.5          158.5          158.5         -0.94658678     0.75486034    -2.5936996     -1.0009211      16.48647     
     35960   13.278585      158.5          158.5          158.5          2.0568594      5.0256554      1.6507821     -0.50585943     13.278585    
     35980   15.84294       158.5          158.5          158.5          2.0901458      1.8139134      4.0136677      0.44285641     15.84294     
     36000   13.762401      158.5          158.5          158.5          0.84089457     2.2131914      0.69247899    -0.38298667     13.762401    
     36020   18.119859      158.5          158.5          158.5          1.6692218      2.1641975      1.5275391      1.3159287      18.119859    
     36040   4.8667642      158.5          158.5          158.5          3.6196546      4.6372719      5.8991798      0.32251217     4.8667642    
     36060   9.2464832      158.5          158.5          158.5         -0.00037404151  0.86589143     3.6820541     -4.5490677      9.2464832    
     36080   10.380765      158.5          158.5          158.5          0.20031266    -2.119802       0.25363906     2.467101       10.380765    
     36100   11.190158      158.5          158.5          158.5         -0.25943921    -2.5299408     -1.0774739      2.829097       11.190158    
     36120   13.087718      158.5          158.5          158.5         -2.7319956     -4.3190089     -1.7763434     -2.1006345      13.087718    
     36140   8.5223052      158.5          158.5          158.5          1.3889273      1.6773629      3.6313066     -1.1418876      8.5223052    
     36160   4.9002192      158.5          158.5          158.5         -0.73265862    -2.8257854      0.93242073    -0.30461122     4.9002192    
     36180   13.755307      158.5          158.5          158.5         -2.4685444     -5.5205372     -2.1628476      0.27775147     13.755307    
     36200  -4.9447153      158.5          158.5          158.5          1.8227371      1.9795984      2.1584488      1.3301641     -4.9447153    
     36220   10.652831      158.5          158.5          158.5         -2.0520923     -0.37114361    -2.3444317     -3.4407015      10.652831    
     36240   12.178748      158.5          158.5          158.5         -0.1533627     -3.4325997      0.58934722     2.3831644      12.178748    
     36260   4.3703084      158.5          158.5          158.5          1.9533193      0.23770626    -0.69974087     6.3219924      4.3703084    
     36280   8.6077764      158.5          158.5          158.5         -2.3718859     -2.0014387     -4.8449437     -0.2692752      8.6077764    
     36300   12.619064      158.5          158.5          158.5         -1.0127782     -1.4103859      0.44772356    -2.0756722      12.619064    
     36320   3.2448168      158.5          158.5          158.5          0.20798485     0.43947214    -2.3157074      2.5001898      3.2448168    
     36340   17.511959      158.5          158.5          158.5         -1.359874      -0.10082775    -3.2870672     -0.69172714     17.511959    
     36360   0.82130242     158.5          158.5          158.5         -1.8413394     -0.9449706     -1.7177569     -2.8612907      0.82130242   
     36380   4.5265154      158.5          158.5          158.5          1.833607       2.5353692      1.3552854      1.6101664      4.5265154    
     36400   2.5416549      158.5          158.5          158.5         -4.8037588     -2.9526513     -7.7529602     -3.7056649      2.5416549    
     36420   5.5071445      158.5          158.5          158.5         -4.0811409     -2.4359978     -5.8685352     -3.9388898      5.5071445    
     36440   10.328687      158.5          158.5          158.5          3.0445868      4.777434       5.5551005     -1.198774       10.328687    
     36460   4.1920041      158.5          158.5          158.5         -0.73414121     2.4064721     -1.0099085     -3.5989873      4.1920041    
     36480   7.7397825      158.5          158.5          158.5         -0.83565106     2.7993818     -4.0142512     -1.2920837      7.7397825    
     36500   4.3517084      158.5          158.5          158.5          2.9444742      5.5240868      4.3828625     -1.0735265      4.3517084    
     36520   6.7182281      158.5          158.5          158.5         -0.29627234     0.69358797     1.4499439     -3.0323489      6.7182281    
     36540   0.27681564     158.5          158.5          158.5          2.1968281      2.276519       2.0469103      2.267055       0.27681564   
     36560   4.7941527      158.5          158.5          158.5          0.55504146     0.60808708     1.9475524     -0.89051507     4.7941527    
     36580   2.0744558      158.5          158.5          158.5         -0.13201514    -0.20006871     2.0721683     -2.268145       2.0744558    
     36600   15.084408      158.5          158.5          158.5          0.65988684     0.95857433     2.2812311     -1.2601449      15.084408    
     36620   3.3110552      158.5          158.5          158.5         -2.5549827     -0.56782349    -1.1737089     -5.9234157      3.3110552    
     36640   11.340864      158.5          158.5          158.5          0.75144447     2.5198847      1.9302065     -2.1957578      11.340864    
     36660   8.1543062      158.5          158.5          158.5         -2.9833789     -1.9415661      0.5247916     -7.533362       8.1543062    
     36680   7.6878628      158.5          158.5          158.5          2.1238826      4.8778238      3.3326189     -1.838795       7.6878628    
     36700   7.7988893      158.5          158.5          158.5          1.4901811      1.4812698      0.5932291      2.3960444      7.7988893    
     36720   5.5975912      158.5          158.5          158.5         -2.5521333     -3.1679231     -3.1946649     -1.2938119      5.5975912    
     36740   10.238373      158.5          158.5          158.5          3.1732251      3.6294502      6.3857786     -0.49555369     10.238373    
     36760   5.9881605      158.5          158.5          158.5         -1.7813182     -1.5448718      1.3437005     -5.1427831      5.9881605    
     36780   15.946273      158.5          158.5          158.5          2.6513017      1.8887632      3.8521066      2.2130353      15.946273    
     36800   11.611392      158.5          158.5          158.5          2.4671263      4.106662       0.53316787     2.761549       11.611392    
     36820   14.57794       158.5          158.5          158.5         -2.7111009     -2.8113467     -2.869892      -2.4520639      14.57794     
     36840   13.85411       158.5          158.5          158.5          5.1661734      3.1468638      5.0725667      7.2790898      13.85411     
     36860   12.997195      158.5          158.5          158.5         -0.86816949     1.2823704     -5.7114866      1.8246078      12.997195    
     36880   18.687824      158.5          158.5          158.5         -0.94112549     1.6627197     -6.9933801      2.5072839      18.687824    
     36900   13.515115      158.5          158.5          158.5         -2.1306234     -1.5642825     -5.155965       0.32837736     13.515115    
     36920   11.881774      158.5          158.5          158.5         -3.0045695     -1.6649649     -4.7649627     -2.5837808      11.881774    
     36940   3.4366189      158.5          158.5          158.5          2.2078364      2.7143148      0.36640226     3.542792       3.4366189    
     36960   3.9837481      158.5          158.5          158.5          1.3155521     -1.669262       1.2798617      4.3360567      3.9837481    
     36980   2.4018981      158.5          158.5          158.5          2.1510928      1.9926983      1.7198933      2.7406867      2.4018981    
     37000   4.4867842      158.5          158.5          158.5         -0.032747725    1.3420595     -1.3871823     -0.05312039     4.4867842    
     37020   0.15851971     158.5          158.5          158.5          0.041459098   -1.7245287     -0.75769722     2.6066032      0.15851971   
     37040   6.1943311      158.5          158.5          158.5          0.40004648    -2.013522       1.3290025      1.8846589      6.1943311    
     37060  -6.0267673      158.5          158.5          158.5          1.5676556      0.648731       2.4579667      1.596269      -6.0267673    
     37080  -1.8033516      158.5          158.5          158.5         -1.9882063     -2.1779176     -2.1035691     -1.6831321     -1.8033516    
     37100   1.330167       158.5          158.5          158.5          1.7853056      3.75243        1.3268057      0.27668122     1.330167     
     37120  -10.759366      158.5          158.5          158.5          1.77171        3.1337438      1.6282619      0.55312417    -10.759366    
     37140  -8.3750932      158.5          158.5          158.5         -1.2534101     -2.1124742     -2.3077464      0.65999034    -8.3750932    
     37160   0.80944854     158.5          158.5          158.5         -0.62743526     0.35172353    -0.55362336    -1.680406       0.80944854   
     37180  -2.3579907      158.5          158.5          158.5         -1.467722      -0.15498163    -1.1298409     -3.1183435     -2.3579907    
     37200  -7.9781421      158.5          158.5          158.5         -2.6743914     -4.4723586     -2.1626875     -1.3881282     -7.9781421    
     37220   8.9528286      158.5          158.5          158.5         -0.55281323    -0.59984682     0.73886766    -1.7974605      8.9528286    
     37240   13.851629      158.5          158.5          158.5         -0.70374343    -0.2055675     -2.2221534      0.31649059     13.851629    
     37260  -2.2689102      158.5          158.5          158.5         -0.49682219    -0.83176425    -0.59876451    -0.059937796   -2.2689102    
     37280   10.227212      158.5          158.5          158.5          1.1829723      1.748236       1.9217338     -0.12105282     10.227212    
     37300   9.0267896      158.5          158.5          158.5         -2.6784249     -3.672147      -1.903231      -2.4598966      9.0267896    
     37320   15.87751       158.5          158.5          158.5         -0.057885708    1.1061335     -0.14261       -1.1371806      15.87751     
     37340   9.9966245      158.5          158.5          158.5         -0.74284347     2.3565506      0.0060497608  -4.5911308      9.9966245    
     37360   7.8461843      158.5          158.5          158.5          0.49722912     0.651563       2.9871103     -2.146986       7.8461843    
     37380   10.576618      158.5          158.5          158.5          0.048913768   -0.54130704    -1.126285       1.8143333      10.576618    
     37400   15.820623      158.5          158.5          158.5          0.80817655     1.5522538     -0.25609371     1.1283695      15.820623    
     37420   20.106168      158.5          158.5          158.5          1.498003       0.60030257     3.5634012      0.33030511     20.106168    
     37440   2.5899969      158.5          158.5          158.5          0.74493231     0.57138624     2.2823865     -0.61897584     2.5899969    
     37460   17.378292      158.5          158.5          158.5          0.70579114     2.1715192      0.91570904    -0.96985484     17.378292    
     37480   6.9751282      158.5          158.5          158.5          2.9717074      3.2726119      3.9059961      1.7365142      6.9751282    
     37500   11.261457      158.5          158.5          158.5          3.3202506      1.570887       4.0926003      4.2972646      11.261457    
     37520   9.2016962      158.5          158.5          158.5          2.7351797      5.6680541      3.6441617     -1.1066768      9.2016962    
     37540   5.0418042      158.5          158.5          158.5          1.2503766      2.5868464     -0.075899992    1.2401835      5.0418042    
     37560   1.5543871      158.5          158.5          158.5          0.50845619    -2.0605575      1.1416724      2.4442536      1.5543871    
     37580   8.3266569      158.5          158.5          158.5         -1.2638771     -5.9750265      2.1816731      0.0017221048   8.3266569    
     37600   0.33225234     158.5          158.5          158.5         -2.4143632      0.75972108    -1.8853463     -6.1174644      0.33225234   
     37620   9.2200457      158.5          158.5          158.5          0.82761688     1.9420733      0.82739016    -0.28661277     9.2200457    
     37640   0.061380761    158.5          158.5          158.5          0.85706743    -5.393686       2.7086264      5.2562619      0.061380761  
     37660   4.2102207      158.5          158.5          158.5          0.9194606     -3.8808714      3.0568444      3.5824088      4.2102207    
     37680   10.148327      158.5          158.5          158.5          1.283848       3.1191371      1.1669882     -0.43458117     10.148327    
     37700  -5.5280049      158.5          158.5          158.5          0.039530667   -2.234149       0.8322246      1.5205164     -5.5280049    
     37720  -3.9223238      158.5          158.5          158.5         -1.6143108     -4.9568423     -0.58173445     0.69564439    -3.9223238    
     37740  -7.8706699      158.5          158.5          158.5         -0.515335       0.74760536    -1.8564648     -0.43714553    -7.8706699    
     37760   7.2410852      158.5          158.5          158.5         -1.8225906      2.4664169     -4.2176719     -3.7165167      7.2410852    
     37780   4.4309384      158.5          158.5          158.5         -2.7222612      0.46816948    -6.626838      -2.008115       4.4309384    
     37800   6.9140101      158.5          158.5          158.5         -1.0510942     -2.1395576     -3.1527678      2.1390426      6.9140101    
     37820   0.35372863     158.5          158.5          158.5         -4.0461139     -2.637243      -6.8796111     -2.6214878      0.35372863   
     37840   2.4104871      158.5          158.5          158.5         -2.5429161      1.4437569     -5.1569436     -3.9155618      2.4104871    
     37860   12.584117      158.5          158.5          158.5          3.182817       5.1827326      2.7723587      1.5933598      12.584117    
     37880   14.533237      158.5          158.5          158.5         -0.20327601    -3.0065188     -1.6976432      4.0943339      14.533237    
     37900   15.939152      158.5          158.5          158.5          2.8429529      2.5305446      1.7443329      4.2539812      15.939152    
     37920   12.613647      158.5          158.5          158.5          2.2945663      8.0043779      1.7657769     -2.8864559      12.613647    
     37940   20.874497      158.5          158.5          158.5         -1.3282771     -0.038706451   -2.6075582     -1.3385668      20.874497    
     37960   23.496594      158.5          158.5          158.5         -2.8982825     -4.9898196     -3.0227669     -0.68226117     23.496594    
     37980   13.467013      158.5          158.5          158.5          0.45226658     2.9237905     -0.68827636    -0.87871445     13.467013    
     38000   18.637681      158.5          158.5          158.5         -3.4132605      0.16392011    -4.4901717     -5.9135299      18.637681    
     38020   22.10907       158.5          158.5          158.5         -0.60429812     1.2263813     -2.9861202     -0.053155424    22.10907     
     38040   13.001311      158.5          158.5          158.5          0.96379827     3.8385018     -4.9757477      4.0286407      13.001311    
     38060   23.868907      158.5          158.5          158.5         -2.0269895     -5.5401337     -0.11801471    -0.42282005     23.868907    
     38080   20.971168      158.5          158.5          158.5          3.2381161      2.4558214      4.9906727      2.2678542      20.971168    
     38100   2.4373657      158.5          158.5          158.5         -0.59485208    -0.14151886    -1.208942      -0.43409539     2.4373657    
     38120   14.92216       158.5          158.5          158.5         -1.544511      -4.5631587     -0.49743434     0.42705987     14.92216     
     38140   19.196084      158.5          158.5          158.5          1.7610241      1.3283024      2.5430907      1.411679       19.196084    
     38160   8.9071314      158.5          158.5          158.5         -2.435371      -3.209255      -3.2639948     -0.83286321     8.9071314    
     38180   0.82751876     158.5          158.5          158.5         -0.92411533    -3.9117335      1.6476555     -0.50826799     0.82751876   
     38200   9.2159748      158.5          158.5          158.5          3.3311592      1.0548319      5.9802958      2.95835        9.2159748    
     38220   0.62834276     158.5          158.5          158.5          0.92726257    -1.5344071      1.8081792      2.5080156      0.62834276   
     38240  -1.4201227      158.5          158.5          158.5         -1.2262798     -3.0310991     -0.51797541    -0.12976489    -1.4201227    
     38260   0.18991543     158.5          158.5          158.5          1.0975327      3.5111331      3.8947313     -4.1132665      0.18991543   
     38280   2.5874119      158.5          158.5          158.5          2.4898536      5.2087225      5.2117863     -2.950948       2.5874119    
     38300  -0.83514368     158.5          158.5          158.5         -1.0084957     -0.28887569    -0.45098295    -2.2856285     -0.83514368   
     38320   1.1542207      158.5          158.5          158.5          1.4440481      2.9817558      0.79193852     0.55844991     1.1542207    
     38340  -3.6167248      158.5          158.5          158.5         -3.0431418     -3.5430931      0.57249618    -6.1588286     -3.6167248    
     38360  -7.7391302      158.5          158.5          158.5         -0.72496687    -0.19682196    -0.083848284   -1.8942304     -7.7391302    
     38380  -3.5467155      158.5          158.5          158.5          2.9950874      8.6692928     -0.74357849     1.0595477     -3.5467155    
     38400  -0.22385866     158.5          158.5          158.5          2.2647047      2.8650902      2.3027581      1.6262658     -0.22385866   
     38420  -1.2912975      158.5          158.5          158.5          2.7686193     -1.9093986      4.5069491      5.7083074     -1.2912975    
     38440  -6.6861254      158.5          158.5          158.5         -3.1625479     -0.7854856     -1.9727916     -6.7293665     -6.6861254    
     38460  -8.703418       158.5          158.5          158.5          1.5883847      4.919484      -1.0370824      0.88275263    -8.703418     
     38480   2.104391       158.5          158.5          158.5          0.53642456     0.94008913    -1.0836138      1.7527984      2.104391     
     38500  -1.6871855      158.5          158.5          158.5          0.044936946   -1.8622429      3.080838      -1.0837843     -1.6871855    
     38520   2.7845154      158.5          158.5          158.5          2.9302776      3.2169199      4.1159402      1.4579727      2.7845154    
     38540  -0.28432403     158.5          158.5          158.5         -2.9088283      1.1405594     -4.9879323     -4.8791121     -0.28432403   
     38560   5.7880889      158.5          158.5          158.5          0.92673467     0.68920873     1.4113656      0.67962967     5.7880889    
     38580   5.2480437      158.5          158.5          158.5         -0.81773694    -4.9740978      3.8071555     -1.2862684      5.2480437    
     38600   2.351609       158.5          158.5          158.5         -2.1803117     -2.0734836     -0.57676953    -3.8906819      2.351609     
     38620   11.831304      158.5          158.5          158.5          1.2070284      1.1238145     -0.46090968     2.9581804      11.831304    
     38640   17.607334      158.5          158.5          158.5         -3.1160683     -4.8557736     -1.3511239     -3.1413074      17.607334    
     38660   10.322991      158.5          158.5          158.5          0.59134468    -0.7310188      2.3548564      0.15019647     10.322991    
     38680   17.473124      158.5          158.5          158.5         -1.6918466      0.10763534    -0.26222816    -4.9209469      17.473124    
     38700   6.5344335      158.5          158.5          158.5         -1.3095555     -4.6046391      2.0252393     -1.3492666      6.5344335    
     38720   9.2631903      158.5          158.5          158.5          0.78129214    -2.8051555      1.6799257      3.4691063      9.2631903    
     38740   9.1264092      158.5          158.5          158.5         -4.0489052     -1.2903505     -4.6520132     -6.2043519      9.1264092    
     38760   9.4049692      158.5          158.5          158.5          3.893033       8.283336       5.6816129     -2.28585        9.4049692    
     38780   3.3996365      158.5          158.5          158.5          0.501453       4.0332405     -1.5838202     -0.94506129     3.3996365    
     38800   12.651361      158.5          158.5          158.5         -2.1722915     -0.10627257    -7.6144012      1.2037993      12.651361    
     38820   6.0578865      158.5          158.5          158.5          2.455239       2.205073       0.63958989     4.5210541      6.0578865    
     38840   8.8178128      158.5          158.5          158.5         -1.3327786     -0.1344331     -0.13570244    -3.7282004      8.8178128    
     38860   3.2787058      158.5          158.5          158.5          1.434797       3.8335947     -1.2062407      1.6770371      3.2787058    
     38880  -4.5869013      158.5          158.5          158.5         -1.6462594      1.5381709     -5.890883      -0.58606626    -4.5869013    
     38900  -1.013641       158.5          158.5          158.5          0.11891811     1.5575838     -1.6928058      0.49197634    -1.013641     
     38920   4.6233605      158.5          158.5          158.5          0.025784814   -0.027535078    0.50637378    -0.40148426     4.6233605    
     38940   4.2019633      158.5          158.5          158.5         -1.5522577     -1.558751      -1.5886995     -1.5093225      4.2019633    
     38960   1.6267403      158.5          158.5          158.5          3.6968155      3.6976005      0.27168477     7.1211613      1.6267403    
     38980   2.8818184      158.5          158.5          158.5         -0.66868734    -0.49395411    -0.86565704    -0.64645086     2.8818184    
     39000  -5.0944695      158.5          158.5          158.5          0.55679774    -0.29712945     3.0974551     -1.1299324     -5.0944695    
     39020   0.26152941     158.5          158.5          158.5          0.30257749    -4.4297599      2.0211834      3.316309       0.26152941   
     39040  -4.9800683      158.5          158.5          158.5         -2.4942079     -5.536358      -2.034129       0.087863448   -4.9800683    
     39060   3.5662896      158.5          158.5          158.5         -0.52028682     1.7303217     -1.4197638     -1.8714184      3.5662896    
     39080  -1.029016       158.5          158.5          158.5         -3.2446064     -7.7374706     -1.8168651     -0.17948358    -1.029016     
     39100  -1.5611306      158.5          158.5          158.5          1.9301221     -2.8857285      4.0562946      4.6198003     -1.5611306    
     39120   4.1755881      158.5          158.5          158.5         -0.16076539    -0.35726594    -0.83695596     0.71192572     4.1755881    
     39140   2.2606566      158.5          158.5          158.5         -3.8669847     -2.3440215     -4.301849      -4.9550837      2.2606566    
     39160   1.769143       158.5          158.5          158.5          2.2633965     -3.8018614      3.5437135      7.0483374      1.769143     
     39180  -2.4321692      158.5          158.5          158.5         -1.2303124     -6.2796377      0.62861728     1.9600831     -2.4321692    
     39200   3.3722776      158.5          158.5          158.5          0.10522872    -0.091321605    1.272604      -0.86559625     3.3722776    
     39220  -2.8204676      158.5          158.5          158.5          1.2383713      3.1820695      1.0941479     -0.56110358    -2.8204676    
     39240   6.014846       158.5          158.5          158.5         -2.6763826     -4.1942158     -1.9327748     -1.9021572      6.014846     
     39260   3.3350061      158.5          158.5          158.5         -0.023599475   -1.5158733     -0.81526686     2.2603417      3.3350061    
     39280   1.85834        158.5          158.5          158.5         -0.53264182     3.3283135     -1.9939174     -2.9323215      1.85834      
     39300  -0.58329263     158.5          158.5          158.5          0.35790608     2.5870945     -0.34920823    -1.1641681     -0.58329263   
     39320   9.854231       158.5          158.5          158.5          1.242098      -3.1278873      2.1338357      4.7203457      9.854231     
     39340  -6.4953943      158.5          158.5          158.5          1.3663791      1.1066184      0.38839205     2.6041268     -6.4953943    
     39360   1.6930805      158.5          158.5          158.5          3.6750751      8.7199624      1.89312        0.41214289     1.6930805    
     39380   6.1190638      158.5          158.5          158.5         -0.74453585     0.55626511    -0.090865468   -2.6990072      6.1190638    
     39400   3.1885014      158.5          158.5          158.5          2.7461229      3.8045115      1.413126       3.0207312      3.1885014    
     39420   5.9802546      158.5          158.5          158.5          2.8523109      4.8668307      2.7201732      0.96992876     5.9802546    
     39440   20.381457      158.5          158.5          158.5         -2.7614389     -0.4436771     -1.6681635     -6.1724762      20.381457    
     39460   9.4581579      158.5          158.5          158.5         -1.2590362     -0.43353641     0.30124772    -3.6448198      9.4581579    
     39480   9.3947188      158.5          158.5          158.5         -0.015507611   -2.6214983      1.873404       0.70157152     9.3947188    
     39500   17.312321      158.5          158.5          158.5         -2.4131232     -0.56092723    -0.76882161    -5.9096207      17.312321    
     39520   11.340128      158.5          158.5          158.5         -0.040244297    4.8843658     -2.9094911     -2.0956076      11.340128    
     39540   6.5160097      158.5          158.5          158.5          1.973058       2.3194857      0.58014098     3.0195474      6.5160097    
     39560   24.130496      158.5          158.5          158.5          4.464143       2.2614997      4.3250591      6.8058704      24.130496    
     39580  -1.5016252      158.5          158.5          158.5          1.143433       3.1844885     -0.23853669     0.48434724    -1.5016252    
     39600   1.3714433      158.5          158.5          158.5         -0.6218604      4.766028      -2.3663754     -4.2652338      1.3714433    
     39620   14.557538      158.5          158.5          158.5         -0.90213995    -0.012818781   -1.5247246     -1.1688765      14.557538    
     39640  -5.2955889      158.5          158.5          158.5         -1.8204863     -5.2926672     -1.2350701      1.0662783     -5.2955889    
     39660   6.0572475      158.5          158.5          158.5          0.50249353    -0.40623934     2.6338022     -0.72008222     6.0572475    
     39680  -0.39303834     158.5          158.5          158.5         -1.7128949      0.29826053    -0.90150999    -4.5354352     -0.39303834   
     39700   1.0847375      158.5          158.5          158.5          0.38429891     2.598144      -3.3652795      1.9200323      1.0847375    
     39720  -4.9285252      158.5          158.5          158.5          2.2148908      1.78148        2.0224454      2.8407469     -4.9285252    
     39740  -2.3768265      158.5          158.5          158.5          0.86206176     1.0256576      3.1043953     -1.5438676     -2.3768265    
     39760   2.9487537      158.5          158.5          158.5          2.2226879      4.3260156     -0.45233889     2.7943871      2.9487537    
     39780  -4.2645742      158.5          158.5          158.5         -0.82768856    -2.804789      -3.7460049      4.0677283     -4.2645742    
     39800   5.2339017      158.5          158.5          158.5         -1.4274052     -2.8495921     -1.3705739     -0.062049616    5.2339017    
     39820   3.4596509      158.5          158.5          158.5         -1.3597476     -1.6145858     -2.1177742     -0.34688289     3.4596509    
     39840  -0.75225279     158.5          158.5          158.5          0.10117344    -2.8859586     -1.6925984      4.8820774     -0.75225279   
     39860  -4.5578456      158.5          158.5          158.5         -0.6597779     -3.276097       1.2244736      0.072289664   -4.5578456    
     39880   3.4114603      158.5          158.5          158.5         -1.1048375      2.3499502     -0.051537645   -5.6129252      3.4114603    
     39900   12.277562      158.5          158.5          158.5          0.95642558    -0.042806612    1.1565268      1.7555566      12.277562    
     39920   15.641925      158.5          158.5          158.5         -1.7209416     -4.9540637     -1.1108678      0.90210674     15.641925    
     39940   10.249186      158.5          158.5          158.5          3.5260521      1.0560418      5.9895125      3.532602       10.249186    
     39960   13.240646      158.5          158.5          158.5          1.0880784      1.5132149      2.484297      -0.73327652     13.240646    
     39980   18.240398      158.5          158.5          158.5         -2.6292451     -3.5354566     -4.9510356      0.59875697     18.240398    
     40000   14.748423      158.5          158.5          158.5          3.9254861     -0.0034088341   3.6975669      8.0823004      14.748423    
     40020   20.007095      158.5          158.5          158.5         -1.629018      -2.4966059      1.0349178     -3.425366       20.007095    
     40040   10.581157      158.5          158.5          158.5          1.1209687      2.2147507      2.9172929     -1.7691375      10.581157    
     40060   8.6266503      158.5          158.5          158.5          1.6631007      0.86849565    -0.50599072     4.6267971      8.6266503    
     40080   4.4863974      158.5          158.5          158.5         -4.1174261     -3.9535926     -5.1674125     -3.2312733      4.4863974    
     40100   5.5968659      158.5          158.5          158.5         -1.6999652     -4.0939726      2.0915135     -3.0974363      5.5968659    
     40120   3.1147306      158.5          158.5          158.5         -0.2718005     -4.0883859      2.9934031      0.27958133     3.1147306    
     40140   8.3961797      158.5          158.5          158.5          0.88465192     4.3092065     -4.566995       2.9117442      8.3961797    
     40160   0.021157543    158.5          158.5          158.5         -2.2009474      0.80734709    -7.6423904      0.23220094     0.021157543  
     40180   13.849453      158.5          158.5          158.5          3.6279684      5.9059581      3.8533026      1.1246445      13.849453    
     40200  -2.5953193      158.5          158.5          158.5          2.2320453      1.9197683      1.6346917      3.1416759     -2.5953193    
     40220   2.6674876      158.5          158.5          158.5         -3.8195595     -3.7611612     -7.3148732     -0.38264414     2.6674876    
     40240  -0.74712193     158.5          158.5          158.5          2.0015959     -0.26319615     1.2440605      5.0239235     -0.74712193   
     40260  -3.3974895      158.5          158.5          158.5         -0.66335488    -0.33418256     0.44976474    -2.1056468     -3.3974895    
     40280  -0.71742501     158.5          158.5          158.5         -3.4037018     -1.7477516     -4.184491      -4.2788626     -0.71742501   
     40300   8.2112534      158.5          158.5          158.5         -0.32055277    -4.2258559     -1.3360818      4.6002794      8.2112534    
     40320   5.5979943      158.5          158.5          158.5         -1.2246626     -2.5755278     -2.1275744      1.0291143      5.5979943    
     40340  -10.740523      158.5          158.5          158.5         -2.7076892      0.64607008    -3.6304828     -5.1386549     -10.740523    
     40360   5.3586842      158.5          158.5          158.5         -0.16574142    -0.9197316      1.157718      -0.73521067     5.3586842    
     40380   5.2528747      158.5          158.5          158.5         -2.1820964     -3.9698058     -2.1444687     -0.43201468     5.2528747    
     40400   7.8465116      158.5          158.5          158.5          0.96573241     2.6127013     -1.3835799      1.6680758      7.8465116    
     40420  -5.5858201      158.5          158.5          158.5         -0.090940627    0.71942049     2.2046481     -3.1968905     -5.5858201    
     40440   6.7924671      158.5          158.5          158.5         -0.17404579     1.2208249     -0.6565948     -1.0863675      6.7924671    
     40460  -1.2339435      158.5          158.5          158.5          0.13151226    -0.11745718     1.1573593     -0.64536536    -1.2339435    
     40480   2.2530685      158.5          158.5          158.5          1.2426939      1.3890283      3.6892457     -1.3501923      2.2530685    
     40500   5.9429726      158.5          158.5          158.5         -2.9958221     -0.75026395    -0.74740055    -7.4898018      5.9429726    
     40520   16.429521      158.5          158.5          158.5         -2.6375903     -3.4139104     -0.6806995     -3.8181611      16.429521    
     40540   6.4562155      158.5          158.5          158.5         -0.70838622    -2.7063492      3.3923024     -2.8111119      6.4562155    
     40560   3.3899135      158.5          158.5          158.5         -2.7070183     -5.806155       0.13724464    -2.4521446      3.3899135    
     40580   1.2844584      158.5          158.5          158.5          1.7095582     -1.1496922      2.2833464      3.9950205      1.2844584    
     40600   15.268812      158.5          158.5          158.5          1.3096068      0.90115213     2.8304685      0.19719988     15.268812    
     40620   3.0786899      158.5          158.5          158.5         -0.95169658    -0.97378365    -0.51998103    -1.3613251      3.0786899    
     40640   6.2534101      158.5          158.5          158.5          1.6787936      0.96851724     2.9533965      1.1144671      6.2534101    
     40660   8.8574255      158.5          158.5          158.5          0.71919099    -0.5348437      2.9528641     -0.26044746     8.8574255    
     40680   4.582988       158.5          158.5          158.5         -0.18290008    -0.58829431     1.2087401     -1.1691461      4.582988     
     40700   15.013559      158.5          158.5          158.5         -1.4760736     -1.6335037     -1.7538123     -1.040905       15.013559    
     40720  -1.1306834      158.5          158.5          158.5          1.3201831      1.8885248      2.7156385     -0.64361391    -1.1306834    
     40740   7.4598198      158.5          158.5          158.5          0.18866869    -2.6172263      2.5490896      0.6341428      7.4598198    
     40760  -0.54627712     158.5          158.5          158.5         -1.3316075     -2.8349235     -3.0060449      1.8461458     -0.54627712   
     40780  -5.6397211      158.5          158.5          158.5          1.7004103      4.6211438     -1.8591139      2.3392009     -5.6397211    
     40800   0.82876696     158.5          158.5          158.5          0.2141746      1.5939275     -0.72923041    -0.22217329     0.82876696   
     40820   10.650386      158.5          158.5          158.5          0.28638315    -0.68347127    -1.7603462      3.3029669      10.650386    
     40840  -4.8253669      158.5          158.5          158.5          0.68602203     2.4406153     -2.7002522      2.3177031     -4.8253669    
     40860   7.0685328      158.5          158.5          158.5          1.1032131      1.0122583      1.0024759      1.294905       7.0685328    
     40880   0.40559168     158.5          158.5          158.5          1.1013533      0.45598117     1.6881114      1.1599672      0.40559168   
     40900   1.6868931      158.5          158.5          158.5          0.43422148     2.4059593     -0.72053888    -0.382756       1.6868931    
     40920   5.0594514      158.5          158.5          158.5          0.41536829     1.5327437      1.387098      -1.6737368      5.0594514    
     40940  -0.32757544     158.5          158.5          158.5         -0.36981117    -0.35946482    -0.42540615    -0.32456254    -0.32757544   
     40960   1.859421       158.5          158.5          158.5          2.0614682      2.2636036      3.0721661      0.84863498     1.859421     
     40980   12.440478      158.5          158.5          158.5         -1.4472202     -1.789739      -1.4356896     -1.1162321      12.440478    
     41000   10.350204      158.5          158.5          158.5          0.75872887     0.56741054     0.22017898     1.4885971      10.350204    
     41020   5.0385431      158.5          158.5          158.5          1.014025       0.4725066      0.42898068     2.1405877      5.0385431    
     41040   7.7899411      158.5          158.5          158.5         -1.3491258     -5.442739       0.31574351     1.079618       7.7899411    
     41060  -0.24554891     158.5          158.5          158.5          0.11880053    -0.61181222     0.79577282     0.17244099    -0.24554891   
     41080   8.2262856      158.5          158.5          158.5         -0.72127395     2.303352      -3.5456364     -0.9215375      8.2262856    
     41100   6.7524205      158.5          158.5          158.5          0.68906758     0.17992572     1.8378879      0.049389163    6.7524205    
     41120   10.948804      158.5          158.5          158.5         -1.7033131     -4.9146437      2.5502677     -2.7455634      10.948804    
     41140   6.3836544      158.5          158.5          158.5         -3.1390771     -2.9789796     -4.9345695     -1.5036821      6.3836544    
     41160   3.2137664      158.5          158.5          158.5          2.2538461      2.9460636      0.43158648     3.3838881      3.2137664    
     41180   4.7789963      158.5          158.5          158.5          0.70125909    -0.10015693     1.1190124      1.0849218      4.7789963    
     41200   12.924814      158.5          158.5          158.5         -3.5623569     -5.6565182     -3.9002929     -1.1302594      12.924814    
     41220   10.920312      158.5          158.5          158.5          0.6910829      3.9215226     -3.6538368      1.8055629      10.920312    
     41240   9.7742463      158.5          158.5          158.5         -2.2619654      0.59463401    -5.6123307     -1.7681994      9.7742463    
     41260   5.345909       158.5          158.5          158.5         -1.0416733     -3.5370316      0.15584877     0.25616306     5.345909     
     41280  -1.4771718      158.5          158.5          158.5          2.2780386     -0.76103062     5.3999615      2.1951849     -1.4771718    
     41300  -3.2918195      158.5          158.5          158.5         -3.1408489      0.26236899    -5.2940976     -4.3908181     -3.2918195    
     41320  -8.7610618      158.5          158.5          158.5          0.61752731     1.6336743     -1.7731086      1.9920162     -8.7610618    
     41340  -1.4862613      158.5          158.5          158.5         -0.94474325    -4.4499561      2.0544223     -0.43869594    -1.4862613    
     41360  -3.2132835      158.5          158.5          158.5          0.70179522    -1.0945963      4.623588      -1.4236061     -3.2132835    
     41380   0.36311402     158.5          158.5          158.5          2.8056302      6.0376572     -1.1483659      3.5275992      0.36311402   
     41400  -7.2635924      158.5          158.5          158.5          0.48269859     0.95551477    -1.7374641      2.2300451     -7.2635924    
     41420   6.6731593      158.5          158.5          158.5          3.7855021      3.5006609      5.1990777      2.6567677      6.6731593    
     41440  -21.512187      158.5          158.5          158.5         -1.0768549      1.1917506     -2.0821059     -2.3402094     -21.512187    
     41460   2.1688167      158.5          158.5          158.5         -1.9184893     -0.26634018    -2.5534599     -2.9356677      2.1688167    
     41480  -2.476416       158.5          158.5          158.5          2.297907       3.4926732      5.2565663     -1.8555186     -2.476416     
     41500  -3.5276639      158.5          158.5          158.5          0.02894031    -0.12423914     2.6772116     -2.4661515     -3.5276639    
     41520   3.8833454      158.5          158.5          158.5          2.331186       4.8579627     -1.9597401      4.0953354      3.8833454    
     41540  -0.79678386     158.5          158.5          158.5         -2.2256233      0.037256055   -4.5762001     -2.1379257     -0.79678386   
     41560  -5.5990627      158.5          158.5          158.5          1.1451125      0.13391532     4.924466      -1.6230439     -5.5990627    
     41580   1.2704667      158.5          158.5          158.5          0.084679708   -0.30505737     0.73088264    -0.17178614     1.2704667    
     41600  -1.1135571      158.5          158.5          158.5         -0.092923367    1.9208392     -1.9922607     -0.20734858    -1.1135571    
     41620   1.4008955      158.5          158.5          158.5         -1.5873565     -0.7144953      0.00011478361 -4.0476889      1.4008955    
     41640   0.021317647    158.5          158.5          158.5          0.48757885     0.078238584    0.36163191     1.022866       0.021317647  
     41660  -4.4501808      158.5          158.5          158.5          1.235752      -0.82559452     3.9856809      0.54716962    -4.4501808    
     41680   0.73244557     158.5          158.5          158.5         -0.93322357    -0.84764426     1.4576416     -3.4096681      0.73244557   
     41700  -2.7614453      158.5          158.5          158.5          0.79795239     2.6343996     -1.989133       1.7485906     -2.7614453    
     41720   8.4796344      158.5          158.5          158.5         -0.47424033    -1.1938526      0.23459854    -0.46346688     8.4796344    
     41740  -4.7042531      158.5          158.5          158.5         -0.99992834    -2.9644995      2.4313672     -2.4666527     -4.7042531    
     41760   1.9761821      158.5          158.5          158.5          1.0438165      2.5642289      1.7907517     -1.223531       1.9761821    
     41780  -15.396855      158.5          158.5          158.5         -0.19819341     1.6504368     -0.39009993    -1.8549171     -15.396855    
     41800  -2.8770976      158.5          158.5          158.5          0.42948737    -0.62634448     1.5161446      0.39866199    -2.8770976    
     41820  -10.385622      158.5          158.5          158.5          0.66102385     2.8700866      0.0092023994  -0.89621745    -10.385622    
     41840  -12.064685      158.5          158.5          158.5         -3.2400246     -0.50225029    -5.6330409     -3.5847827     -12.064685    
     41860  -8.4007531      158.5          158.5          158.5         -1.8886838     -2.1391688      0.0033512099  -3.5302339     -8.4007531    
     41880  -10.875794      158.5          158.5          158.5          1.1469356      2.3829537      0.80126393     0.25658929    -10.875794    
     41900  -4.5927447      158.5          158.5          158.5         -0.88255681     0.51032941    -1.4416916     -1.7163083     -4.5927447    
     41920  -15.00512       158.5          158.5          158.5         -0.013744666    1.0341904      0.05313162    -1.128556      -15.00512     
     41940  -13.701386      158.5          158.5          158.5          1.0217999      3.138787      -0.58729583     0.51390837    -13.701386    
     41960  -16.509631      158.5          158.5          158.5         -1.4773701      0.32227378    -2.5673863     -2.1869979     -16.509631    
     41980  -9.8320095      158.5          158.5          158.5         -2.0389149     -2.8977696     -1.4559036     -1.7630714     -9.8320095    
     42000  -5.6442277      158.5          158.5          158.5         -0.035763509   -0.63258615     0.098976993    0.42631863    -5.6442277    
     42020  -5.520765       158.5          158.5          158.5          0.13631752    -0.95950969    -0.0095673949   1.3780297     -5.520765     
     42040  -5.4654516      158.5          158.5          158.5         -0.67377668    -0.49618116    -2.2775851      0.7524362     -5.4654516    
     42060  -1.4236679      158.5          158.5          158.5          0.67347362     1.9869575     -0.73941992     0.77288331    -1.4236679    
     42080  -13.155203      158.5          158.5          158.5          0.42633508    -2.1566216      0.75870513     2.6769217     -13.155203    
     42100   6.300843       158.5          158.5          158.5         -4.4648298     -9.0294384     -0.39008785    -3.9749631      6.300843     
     42120  -4.9990779      158.5          158.5          158.5          1.2103143      1.9269397      3.3812559     -1.6772527     -4.9990779    
     42140  -0.34956135     158.5          158.5          158.5         -0.057730677    0.45900991    -1.0157388      0.38353686    -0.34956135   
     42160   6.2347582      158.5          158.5          158.5         -0.037757552   -4.0346773      1.25869        2.6627147      6.2347582    
     42180  -7.5339696      158.5          158.5          158.5          0.34244945     0.088463241    1.7611123     -0.82222717    -7.5339696    
     42200   7.3868158      158.5          158.5          158.5         -2.3052059      0.33203695    -2.3746471     -4.8730074      7.3868158    
     42220  -4.9894582      158.5          158.5          158.5          0.083681051   -0.49863112     1.7910932     -1.041419      -4.9894582    
     42240   3.1307058      158.5          158.5          158.5          0.56598465    -0.91360347     1.939668       0.67188938     3.1307058    
     42260  -4.4489117      158.5          158.5          158.5          1.876182       3.4117763      0.41297738     1.8037924     -4.4489117    
     42280  -1.2554921      158.5          158.5          158.5         -0.64234976     1.6325388     -2.5416811     -1.017907      -1.2554921    
     42300  -4.6326295      158.5          158.5          158.5          1.0550691      2.226676       1.4312641     -0.49273272    -4.6326295    
     42320   5.9476366      158.5          158.5          158.5         -0.66807389    -1.2227814     -1.1370565      0.35561624     5.9476366    
     42340   6.5890393      158.5          158.5          158.5         -0.66784083     2.1032603     -5.2485566      1.1417738      6.5890393    
     42360   8.9050411      158.5          158.5          158.5          3.3898771      3.6171103      0.79493194     5.7575889      8.9050411    
     42380  -9.4165678      158.5          158.5          158.5         -3.4944086     -4.1884419     -3.1439663     -3.1508177     -9.4165678    
     42400   5.831396       158.5          158.5          158.5          2.1814372      0.36786483     2.6384727      3.5379741      5.831396     
     42420   2.8906253      158.5          158.5          158.5          0.81076352     0.26600533     0.46287212     1.7034131      2.8906253    
     42440   0.82307345     158.5          158.5          158.5         -1.6378047      0.091367072   -2.2024277     -2.8023535      0.82307345   
     42460   3.3647572      158.5          158.5          158.5          4.6374997      5.0603691      4.4859886      4.3661413      3.3647572    
     42480  -1.3260685      158.5          158.5          158.5         -0.83486598     0.6135704      0.28329476    -3.4014631     -1.3260685    
     42500   2.1630815      158.5          158.5          158.5         -0.26727597     2.0544942     -0.2335514     -2.6227708      2.1630815    
     42520  -6.9553655      158.5          158.5          158.5          1.3909522      2.3462493      1.4492781      0.37732925    -6.9553655    
     42540  -0.027357251    158.5          158.5          158.5         -0.1224632      0.45783527     1.194096      -2.0193208     -0.027357251  
     42560  -1.2615261      158.5          158.5          158.5          0.71225878     2.005227       0.81404571    -0.68249639    -1.2615261    
     42580  -1.6279406      158.5          158.5          158.5          2.6440796      2.0355397      2.9970186      2.8996804     -1.6279406    
     42600  -1.4543087      158.5          158.5          158.5          0.94372515    -2.0436928      4.5561594      0.31870886    -1.4543087    
     42620  -1.5116717      158.5          158.5          158.5         -0.59038025     0.13645855    -0.19312792    -1.7144714     -1.5116717    
     42640  -8.4345113      158.5          158.5          158.5          3.0676566      4.8049334     -0.64053263     5.0385691     -8.4345113    
     42660  -1.8891586      158.5          158.5          158.5         -1.1928798     -1.4940843     -2.4659904      0.38143522    -1.8891586    
     42680  -4.1156959      158.5          158.5          158.5         -1.3916272     -3.6511471      0.96322963    -1.4869642     -4.1156959    
     42700   6.8488423      158.5          158.5          158.5         -0.68801764    -0.263896      -0.12240397    -1.6777529      6.8488423    
     42720  -0.017271285    158.5          158.5          158.5         -4.1165575     -1.4609556     -7.7962245     -3.0924922     -0.017271285  
     42740  -5.5871685      158.5          158.5          158.5         -1.0254298     -0.53242184    -3.4917611      0.94789351    -5.5871685    
     42760  -2.2251787      158.5          158.5          158.5         -1.6772349     -2.9594695     -0.92690028    -1.145335      -2.2251787    
     42780   2.5636879      158.5          158.5          158.5          2.2013527      1.9998969      3.238419       1.3657421      2.5636879    
     42800  -2.8216201      158.5          158.5          158.5         -0.27583892    -1.7332042     -0.73771615     1.6434036     -2.8216201    
     42820  -5.8293197      158.5          158.5          158.5         -0.36251523    -3.0456171     -0.82158491     2.7796563     -5.8293197    
     42840  -0.25748312     158.5          158.5          158.5          0.0084196158   0.53692605     1.1974839     -1.7091511     -0.25748312   
     42860   1.2798698      158.5          158.5          158.5          2.5204532      2.9549886      3.5504631      1.0559079      1.2798698    
     42880  -1.0299986      158.5          158.5          158.5          2.8394804      2.2547813      1.4462078      4.8174521     -1.0299986    
     42900   6.9595227      158.5          158.5          158.5         -0.31037276    -2.032652      -0.067294694    1.1688284      6.9595227    
     42920   1.7403199      158.5          158.5          158.5          1.9795637      0.55573193     4.7206737      0.66228541     1.7403199    
     42940   5.5705493      158.5          158.5          158.5         -0.79930465     0.1535095     -2.7064422      0.15501873     5.5705493    
     42960   0.37382362     158.5          158.5          158.5         -0.34512688    -1.758484      -0.8325758      1.5556792      0.37382362   
     42980   2.9740934      158.5          158.5          158.5          1.4554244      0.27098699     1.8529203      2.242366       2.9740934    
     43000   6.2994413      158.5          158.5          158.5         -2.3191261     -5.4577042     -1.4215459     -0.078128096    6.2994413    
     43020   7.0062386      158.5          158.5          158.5         -0.20442604     0.045949925   -0.013120049   -0.64610801     7.0062386    
     43040   7.4103692      158.5          158.5          158.5          1.9681104      5.023221      -0.52700849     1.4081188      7.4103692    
     43060   9.9929677      158.5          158.5          158.5         -0.4934499     -2.0702146     -2.3029381      2.892803       9.9929677    
     43080   16.047743      158.5          158.5          158.5          0.059466313   -1.5614782     -0.13202945     1.8719066      16.047743    
     43100   14.282302      158.5          158.5          158.5          2.893274       5.1831356      2.6683992      0.82828714     14.282302    
     43120   8.7257818      158.5          158.5          158.5         -0.22710934     1.6081248     -1.6993349     -0.59011792     8.7257818    
     43140   3.8254848      158.5          158.5          158.5         -2.9440705     -3.4435274     -3.3448436     -2.0438406      3.8254848    
     43160   3.8245141      158.5          158.5          158.5          4.7432991      3.9638673      5.7099342      4.5560959      3.8245141    
     43180  -3.0935487      158.5          158.5          158.5         -0.88239738    -3.5222365      0.85217887     0.02286545    -3.0935487    
     43200  -7.4150038      158.5          158.5          158.5         -0.89604657    -0.16412171    -0.90803199    -1.615986      -7.4150038    
     43220   4.383122       158.5          158.5          158.5          2.4710067      3.9519713      0.96880647     2.4922424      4.383122     
     43240  -6.4619911      158.5          158.5          158.5         -2.4236314     -2.8926807     -1.2400063     -3.1382072     -6.4619911    
     43260  -5.6932361      158.5          158.5          158.5          3.4605827      1.7255848      4.652074       4.0040894     -5.6932361    
     43280  -16.377157      158.5          158.5          158.5          0.93778516     3.5826752      0.17880311    -0.94812279    -16.377157    
     43300   3.2603558      158.5          158.5          158.5         -0.93152488     0.95655058     0.56503641    -4.3161616      3.2603558    
     43320  -21.481809      158.5          158.5          158.5          2.5396162      2.9755507      1.7340182      2.9092797     -21.481809    
     43340  -15.242104      158.5          158.5          158.5         -0.23346758     1.4898576     -2.7080042      0.51774388    -15.242104    
     43360  -4.4920806      158.5          158.5          158.5          1.2377649      1.3814425     -0.36637429     2.6982265     -4.4920806    
     43380  -12.658562      158.5          158.5          158.5         -2.0587005     -1.5867248     -1.8120887     -2.7772882     -12.658562    
     43400  -15.731943      158.5          158.5          158.5          1.0228948      2.7227415     -0.9217196      1.2676626     -15.731943    
     43420  -5.1098987      158.5          158.5          158.5         -0.34827742    -0.84861013    -2.3769801      2.1807579     -5.1098987    
     43440  -7.5298953      158.5          158.5          158.5          1.2040408     -1.8189917      2.2685903      3.1625239     -7.5298953    
     43460  -4.4009789      158.5          158.5          158.5          3.8112884      4.5267228      3.3484006      3.5587418     -4.4009789    
     43480  -1.1823621      158.5          158.5          158.5         -1.6977639      0.44384687    -3.209997      -2.3271416     -1.1823621    
     43500  -13.077534      158.5          158.5          158.5          2.2479385      2.5866824      3.388931       0.76820207    -13.077534    
     43520  -12.968013      158.5          158.5          158.5         -0.17106402    -2.2655323      2.1072738     -0.35493363    -12.968013    
     43540  -9.5132072      158.5          158.5          158.5         -0.65569786    -0.51073051    -0.38211672    -1.0742463     -9.5132072    
     43560   0.098562359    158.5          158.5          158.5          4.0116581      5.0724691      3.5689856      3.3935195      0.098562359  
     43580  -0.41156604     158.5          158.5          158.5         -3.6656711     -4.5575556     -4.6217926     -1.817665      -0.41156604   
     43600   11.631132      158.5          158.5          158.5         -0.18263533    -1.9015263     -1.4539206      2.807541       11.631132    
     43620  -1.5322628      158.5          158.5          158.5         -0.025672956   -1.2096514      0.43164416     0.70098839    -1.5322628    
     43640  -8.0758625      158.5          158.5          158.5          1.8818681      0.39203319     4.4114996      0.84207135    -8.0758625    
     43660   2.336123       158.5          158.5          158.5          0.55575479    -0.8982878      0.47935037     2.0862018      2.336123     
     43680   7.7868613      158.5          158.5          158.5          1.9147801      0.9810763      2.1846396      2.5786244      7.7868613    
     43700   7.6491796      158.5          158.5          158.5          0.070202917   -0.15951058     1.6200539     -1.2499345      7.6491796    
     43720   0.77997205     158.5          158.5          158.5         -2.5246178     -4.6005867     -0.53800753    -2.4352592      0.77997205   
     43740   1.9817377      158.5          158.5          158.5          3.1421333      3.3316063      2.8351989      3.2595946      1.9817377    
     43760   7.665881       158.5          158.5          158.5         -0.72435852     1.0298892     -2.4744662     -0.72849846     7.665881     
     43780   5.2987456      158.5          158.5          158.5         -0.028169246    0.18226429     1.1585403     -1.4253123      5.2987456    
     43800  -7.3381161      158.5          158.5          158.5         -1.9198977     -0.15861151    -1.0109382     -4.5901434     -7.3381161    
     43820  -14.927804      158.5          158.5          158.5         -0.89202309     0.94043543    -1.8731267     -1.743378      -14.927804    
     43840  -15.611054      158.5          158.5          158.5         -0.21569898    -0.86522158     0.39907286    -0.18094822    -15.611054    
     43860  -17.965057      158.5          158.5          158.5         -1.4725604     -2.6738544      0.22885478    -1.9726816     -17.965057    
     43880  -16.353954      158.5          158.5          158.5          0.54059509     0.68400105    -0.59154435     1.5293286     -16.353954    
     43900  -10.429274      158.5          158.5          158.5         -2.3158624     -0.44913845    -4.9030799     -1.5953689     -10.429274    
     43920  -19.576827      158.5          158.5          158.5          1.9136018      1.7651911      0.70027088     3.2753434     -19.576827    
     43940  -9.5569199      158.5          158.5          158.5         -1.8441813     -4.2856192     -2.0677429      0.82081814    -9.5569199    
     43960  -21.768448      158.5          158.5          158.5          0.21390908    -0.81549955     1.0279618      0.42926495    -21.768448    
     43980  -6.106974       158.5          158.5          158.5          4.7129343      5.6447359      4.3521972      4.1418699     -6.106974     
     44000  -8.3306615      158.5          158.5          158.5         -3.1466377     -4.1354461     -5.4483143      0.14384741    -8.3306615    
     44020  -14.316083      158.5          158.5          158.5          1.5779489     -0.71126246     1.2581503      4.1869587     -14.316083    
     44040  -5.9597221      158.5          158.5          158.5          2.6181175      2.1758445      1.465497       4.2130109     -5.9597221    
     44060  -2.9855765      158.5          158.5          158.5         -1.7956898     -1.576651      -3.8019531     -0.0084652686  -2.9855765    
     44080  -3.2680467      158.5          158.5          158.5         -2.4138654     -1.1154429     -4.1703499     -1.9558035     -3.2680467    
     44100  -2.6481682      158.5          158.5          158.5         -0.041851379    1.4184178     -1.7060089      0.16203698    -2.6481682    
     44120  -8.0549171      158.5          158.5          158.5         -0.21128727    -2.0157289     -0.014583169    1.3964503     -8.0549171    
     44140  -1.2003768      158.5          158.5          158.5          2.2800648      3.1125901      0.99696876     2.7306354     -1.2003768    
     44160  -2.1905539      158.5          158.5          158.5          0.40729936     3.4810159     -0.58445733    -1.6746605     -2.1905539    
     44180   6.0456909      158.5          158.5          158.5          1.6350215      1.4243067      2.3824246      1.0983333      6.0456909    
     44200   3.3608759      158.5          158.5          158.5          2.7271619     -0.11545024     2.2992387      5.9976973      3.3608759    
     44220  -1.9754117      158.5          158.5          158.5         -0.4223138      0.58015594    -2.6784112      0.8313139     -1.9754117    
     44240   1.4419592      158.5          158.5          158.5          0.13172408     2.2754566     -0.35672492    -1.5235595      1.4419592    
     44260  -4.6073384      158.5          158.5          158.5          0.64964921    -2.4416771      2.2703309      2.1202938     -4.6073384    
     44280   1.6933552      158.5          158.5          158.5         -2.5177733     -3.6379104     -2.708874      -1.2065356      1.6933552    
     44300   5.3827284      158.5          158.5          158.5          0.47725832    -0.13973673     2.2506877     -0.679176       5.3827284    
     44320   6.1384617      158.5          158.5          158.5         -3.3767326     -4.975612      -0.80562061    -4.3489653      6.1384617    
     44340  -6.8362705      158.5          158.5          158.5         -4.0044473     -3.8611444     -2.6382101     -5.5139873     -6.8362705    
     44360   0.15229196     158.5          158.5          158.5          1.1099597      0.4910936      3.4774818     -0.63869633     0.15229196   
     44380   3.4220053      158.5          158.5          158.5         -0.85007564    -0.49627975     0.21381301    -2.2677602      3.4220053    
     44400  -5.7082136      158.5          158.5          158.5          2.3392122      4.6670906      2.4949833     -0.14443718    -5.7082136    
     44420  -4.2754933      158.5          158.5          158.5          1.1288275      0.12034411     2.9440698      0.32206847    -4.2754933    
     44440  -0.33107182     158.5          158.5          158.5         -2.039057      -3.8966865      1.5175427     -3.7380271     -0.33107182   
     44460  -14.943438      158.5          158.5          158.5          0.017472535    1.6936057      0.28373388    -1.924922      -14.943438    
     44480  -12.299336      158.5          158.5          158.5         -1.2600359      3.9701244     -4.2696937     -3.4805385     -12.299336    
     44500  -11.998662      158.5          158.5          158.5         -2.3122855     -1.529086      -0.77409361    -4.6336767     -11.998662    
     44520  -17.874656      158.5          158.5          158.5          1.6017967      1.6005892      2.5028572      0.70194374    -17.874656    
     44540  -19.589749      158.5          158.5          158.5         -1.4372217      1.1243159     -1.1389384     -4.2970427     -19.589749    
     44560  -15.865336      158.5          158.5          158.5         -3.5181755     -2.2403939     -3.3672302     -4.9469023     -15.865336    
     44580  -9.954894       158.5          158.5          158.5          0.29327735    -1.4699457      0.6809554      1.6688223     -9.954894     
     44600  -5.7500658      158.5          158.5          158.5         -1.9508966     -3.1370993     -1.0935461     -1.6220445     -5.7500658    
     44620  -1.2526976      158.5          158.5          158.5          1.2697699      1.84487        2.0843803     -0.11994059    -1.2526976    
     44640  -9.0113841      158.5          158.5          158.5          1.0423177      1.86418        2.9553425     -1.6925694     -9.0113841    
     44660  -4.9634887      158.5          158.5          158.5         -1.7137179     -3.0203059     -1.4148982     -0.70594975    -4.9634887    
     44680   6.375688       158.5          158.5          158.5          2.2107349     -0.19941293     0.58524711     6.2463704      6.375688     
     44700  -13.569721      158.5          158.5          158.5          0.39895784    -0.89288775     2.9616647     -0.87190341    -13.569721    
     44720  -3.4648825      158.5          158.5          158.5         -0.52371471    -1.2874847      0.94386626    -1.2275256     -3.4648825    
     44740  -4.3273813      158.5          158.5          158.5          2.9402256      2.3602265      1.5781894      4.882261      -4.3273813    
     44760  -9.2501145      158.5          158.5          158.5         -1.5497338     -3.4768856     -0.1846137     -0.98770216    -9.2501145    
     44780  -1.5005302      158.5          158.5          158.5         -0.8663998     -2.8571981      0.27219033    -0.014191621   -1.5005302    
     44800   3.295198       158.5          158.5          158.5          0.73268792     0.83344533     0.0097796667   1.3548387      3.295198     
     44820   8.2380096      158.5          158.5          158.5          3.0554486      4.75651        1.3278425      3.0819932      8.2380096    
     44840  -2.9450502      158.5          158.5          158.5         -0.73444533    -0.31385288    -0.49470013    -1.394783      -2.9450502    
     44860   3.4038297      158.5          158.5          158.5         -0.25983046    -0.027448432   -0.68565228    -0.066390681    3.4038297    
     44880  -0.28588889     158.5          158.5          158.5         -0.55712286     0.9706656     -4.0485269      1.4064927     -0.28588889   
     44900  -4.150593       158.5          158.5          158.5          0.13192203     0.36608599    -0.72936181     0.75904192    -4.150593     
     44920   4.4340421      158.5          158.5          158.5         -2.4232842     -0.85472392    -3.8228506     -2.5922781      4.4340421    
     44940  -2.4996082      158.5          158.5          158.5          1.2595064      3.4936855     -0.99098659     1.2758203     -2.4996082    
     44960   11.778674      158.5          158.5          158.5         -0.28168812    -1.3666389     -0.24128743     0.76286194     11.778674    
     44980   4.5813135      158.5          158.5          158.5         -2.7649635     -1.9024499     -4.1678766     -2.224564       4.5813135    
     45000   3.1986668      158.5          158.5          158.5          1.5929462      2.5931498      0.39488496     1.7908039      3.1986668    
     45020   0.38691575     158.5          158.5          158.5         -1.9592398     -0.90895375    -3.4881324     -1.4806333      0.38691575   
     45040   14.859346      158.5          158.5          158.5          1.6193593      2.4254621      0.47565139     1.9569645      14.859346    
     45060  -21.555675      158.5          158.5          158.5          0.9065538      1.0931643      0.99741158     0.62908553    -21.555675    
     45080  -9.092027       158.5          158.5          158.5         -1.698594      -2.4315309      0.67606087    -3.3403119     -9.092027     
     45100  -10.965376      158.5          158.5          158.5         -0.37045663    -1.0749425     -2.1929631      2.1565357     -10.965376    
     45120  -14.655335      158.5          158.5          158.5          0.71787545     1.6733844      1.5803797     -1.1001377     -14.655335    
     45140  -13.317118      158.5          158.5          158.5          2.3908225      0.69155761     5.5080755      0.97283442    -13.317118    
     45160  -2.9274026      158.5          158.5          158.5         -0.99103945    -3.4140894     -1.521869       1.96284       -2.9274026    
     45180  -16.545883      158.5          158.5          158.5          3.0188466      1.6253208      4.6117687      2.8194503     -16.545883    
     45200  -13.210165      158.5          158.5          158.5          3.2358221      2.6876096      3.1499134      3.8699434     -13.210165    
     45220  -16.101687      158.5          158.5          158.5         -0.65088799    -0.39244611    -1.8629057      0.30268787    -16.101687    
     45240  -10.744812      158.5          158.5          158.5          4.3616204      4.132381       4.4608697      4.4916104     -10.744812    
     45260  -19.603703      158.5          158.5          158.5         -1.0179712     -2.6581844      0.83927213    -1.2350014     -19.603703    
     45280  -8.1841814      158.5          158.5          158.5         -2.916176      -2.7429842     -2.3326115     -3.6729324     -8.1841814    
     45300  -9.0770549      158.5          158.5          158.5          0.22005648     0.54604023    -0.29858062     0.41270985    -9.0770549    
     45320  -18.933246      158.5          158.5          158.5          1.8600328      1.3164393      1.4072819      2.8563772     -18.933246    
     45340  -5.8485603      158.5          158.5          158.5          4.6394128      5.5019578      1.0332075      7.3830731     -5.8485603    
     45360  -13.178518      158.5          158.5          158.5          0.6615571      3.1141065     -2.8781362      1.748701      -13.178518    
     45380  -3.6128016      158.5          158.5          158.5          0.23529955    -0.14952041    -0.48666017     1.3420792     -3.6128016    
     45400  -11.44594       158.5          158.5          158.5         -1.0793095     -1.8807871     -1.3109263     -0.046215168   -11.44594     
     45420  -9.6349753      158.5          158.5          158.5          0.043242864   -0.59028795    -1.3777071      2.0977236     -9.6349753    
     45440  -5.0400254      158.5          158.5          158.5         -0.85542689     0.6517895     -0.57530933    -2.6427609     -5.0400254    
     45460  -1.3677397      158.5          158.5          158.5         -2.7498435     -0.8011812     -1.5736065     -5.8747428     -1.3677397    
     45480  -6.2430352      158.5          158.5          158.5          1.4084622      2.4724462      1.9676933     -0.2147531     -6.2430352    
     45500  -0.29742379     158.5          158.5          158.5         -1.0758469     -1.6950009     -0.47756248    -1.0549772     -0.29742379   
     45520   0.94423301     158.5          158.5          158.5         -0.7369584     -2.6022427      1.1092713     -0.71790377     0.94423301   
     45540  -0.69646164     158.5          158.5          158.5          0.19254862    -1.1876444      2.9867601     -1.2214698     -0.69646164   
     45560   8.0938766      158.5          158.5          158.5         -1.1718177     -2.3588583     -0.60506081    -0.5515341      8.0938766    
     45580  -1.1066564      158.5          158.5          158.5          1.586824       0.7509168      3.7220808      0.28747439    -1.1066564    
     45600   1.8867117      158.5          158.5          158.5         -1.8256792     -1.2613779      0.7082287     -4.9238883      1.8867117    
     45620  -2.2005845      158.5          158.5          158.5          1.985571       3.7491375      1.0107328      1.1968426     -2.2005845    
     45640  -2.5757415      158.5          158.5          158.5         -1.8771226     -0.49072723    -2.8444424     -2.2961983     -2.5757415    
     45660  -1.6467871      158.5          158.5          158.5         -1.578132      -2.3700812      0.68541586    -3.0497307     -1.6467871    
     45680   10.364688      158.5          158.5          158.5          4.3990003      4.6548832      5.8941203      2.6479975      10.364688    
     45700  -6.162302       158.5          158.5          158.5         -0.71759728    -0.95285785    -0.42132415    -0.77860984    -6.162302     
     45720  -2.7110159      158.5          158.5          158.5          3.0764409      3.9473358      1.7108363      3.5711505     -2.7110159    
     45740  -1.7355515      158.5          158.5          158.5          0.4154782      0.46600387     1.4031064     -0.62267569    -1.7355515    
     45760  -1.3777324      158.5          158.5          158.5         -3.3464629     -4.5686835     -0.51178943    -4.9589158     -1.3777324    
     45780  -4.7341526      158.5          158.5          158.5          0.29873197    -2.834386       2.8183089      0.91227302    -4.7341526    
     45800   0.86737463     158.5          158.5          158.5         -4.9033432     -5.6850922     -3.5929767     -5.4319606      0.86737463   
     45820  -4.0019346      158.5          158.5          158.5         -1.0382833     -3.4924377      1.4117874     -1.0341996     -4.0019346    
     45840  -11.10217       158.5          158.5          158.5         -0.38095203    -1.8917746     -0.91504177     1.6639602     -11.10217     
     45860  -11.426991      158.5          158.5          158.5         -1.2560141     -1.3129961     -1.5073316     -0.94771465    -11.426991    
     45880  -9.8806658      158.5          158.5          158.5          0.27049505     0.35487204     2.0692957     -1.6126825     -9.8806658    
     45900  -11.868673      158.5          158.5          158.5         -1.6326015     -2.5064839     -0.62427518    -1.7670454     -11.868673    
     45920  -11.615122      158.5          158.5          158.5          1.2129137      0.85820677     0.042605829    2.7379286     -11.615122    
     45940  -11.167993      158.5          158.5          158.5          1.9921687      1.481975       1.4440754      3.0504555     -11.167993    
     45960  -18.599832      158.5          158.5          158.5          0.17146118    -0.62974674     1.3211315     -0.17700122    -18.599832    
     45980  -12.596609      158.5          158.5          158.5         -2.6810537     -2.8647576     -2.6872554     -2.491148      -12.596609    
     46000  -16.974054      158.5          158.5          158.5          1.0535583      0.37430656     0.017990561    2.7683779     -16.974054    
     46020  -12.21667       158.5          158.5          158.5          2.3092963      0.28446055     3.0515649      3.5918633     -12.21667     
     46040  -11.561625      158.5          158.5          158.5         -3.6726036     -5.9569124     -1.3731764     -3.6877219     -11.561625    
     46060  -11.208919      158.5          158.5          158.5          4.8939954      6.9251504      4.5078169      3.2490188     -11.208919    
     46080  -8.527578       158.5          158.5          158.5         -0.44158727     0.44380998    -1.5817257     -0.18684607    -8.527578     
     46100  -9.7321887      158.5          158.5          158.5          0.71551309    -1.3025463      1.7239083      1.7251773     -9.7321887    
     46120  -1.4239899      158.5          158.5          158.5          1.8897196      0.91104632     1.9207474      2.8373652     -1.4239899    
     46140  -7.2484914      158.5          158.5          158.5         -1.8868732     -0.92953056    -1.7376963     -2.9933929     -7.2484914    
     46160   3.128812       158.5          158.5          158.5          2.7152401      3.6626641      1.8573182      2.6257379      3.128812     
     46180   0.63597478     158.5          158.5          158.5         -1.5142722     -4.2775864     -0.38750086     0.12227074     0.63597478   
     46200   8.4153828      158.5          158.5          158.5         -1.4503468     -4.5752247     -0.10352398     0.32770823     8.4153828    
     46220  -3.6289351      158.5          158.5          158.5          2.2159727      1.3567966      2.0068183      3.2843032     -3.6289351    
     46240   4.160272       158.5          158.5          158.5          0.143581       0.088357712   -0.63506368     0.97744898     4.160272     
     46260  -1.9387658      158.5          158.5          158.5         -0.37097803    -0.37414489     0.24981099    -0.98860019    -1.9387658    
     46280   8.667229       158.5          158.5          158.5         -1.7170904      0.53102487    -1.5746137     -4.1076824      8.667229     
     46300   12.929837      158.5          158.5          158.5         -0.34764266     4.2564457     -0.41563266    -4.883741       12.929837    
     46320   10.989148      158.5          158.5          158.5         -0.30112777    -0.42087012    -2.7317576      2.2492444      10.989148    
     46340  -5.0194005      158.5          158.5          158.5         -0.14043054    -3.060456      -1.3035776      3.9427419     -5.0194005    
     46360   4.8413526      158.5          158.5          158.5          0.22410344     1.4971603      0.61713241    -1.4419824      4.8413526    
     46380  -2.4775815      158.5          158.5          158.5         -0.3565123     -0.22046532    -0.1373912     -0.71168037    -2.4775815    
     46400  -0.44930497     158.5          158.5          158.5          2.2429216     -2.4111742      0.1309468      9.0089923     -0.44930497   
     46420   1.3525107      158.5          158.5          158.5          1.7974478      0.82125579     0.46704649     4.1040411      1.3525107    
     46440   9.8700804      158.5          158.5          158.5          1.1518236      2.6704896      1.268792      -0.48381093     9.8700804    
     46460  -8.5116972      158.5          158.5          158.5          1.5503621      1.2173395      0.58276234     2.8509843     -8.5116972    
     46480  -3.4851648      158.5          158.5          158.5         -0.69419511    -3.8847782     -0.57839339     2.3805862     -3.4851648    
     46500  -7.1683879      158.5          158.5          158.5          1.6803783      0.023818786    1.4127341      3.6045821     -7.1683879    
     46520   1.0296198      158.5          158.5          158.5          0.25574658     1.3338108     -0.59073937     0.024168367    1.0296198    
     46540  -3.3365125      158.5          158.5          158.5         -0.21469692     0.61475037    -1.2954324      0.036591226   -3.3365125    
     46560   5.790853       158.5          158.5          158.5          2.4205804      1.3800148      1.1365988      4.7451276      5.790853     
     46580  -9.7948308      158.5          158.5          158.5         -1.7610258     -2.8325558      0.59917861    -3.0497004     -9.7948308    
     46600  -9.7473917      158.5          158.5          158.5          0.088666979    1.178235       2.3559555     -3.2681895     -9.7473917    
     46620  -8.1910795      158.5          158.5          158.5         -0.79644146    -1.3436499     -2.0337799      0.98810534    -8.1910795    
     46640   4.9205969      158.5          158.5          158.5          1.5141104      0.40212572     2.1907863      1.9494191      4.9205969    
     46660  -3.1638674      158.5          158.5          158.5          0.57753824    -0.3480536      2.2182465     -0.13757821    -3.1638674    
     46680  -3.7159421      158.5          158.5          158.5          2.4019963      3.2647197      0.71168381     3.2295854     -3.7159421    
     46700  -15.931494      158.5          158.5          158.5          0.54182148     2.603035      -2.9298426      1.9522721     -15.931494    
     46720  -10.600995      158.5          158.5          158.5         -1.3319565     -1.4814815     -0.60747679    -1.9069112     -10.600995    
     46740  -3.0651672      158.5          158.5          158.5          0.37790981     0.42084985     1.327772      -0.61489246    -3.0651672    
     46760  -5.5301331      158.5          158.5          158.5         -2.1697566     -3.8029004     -0.0079587865  -2.6984107     -5.5301331    
     46780   2.7714707      158.5          158.5          158.5         -0.69291773    -0.18668578    -0.29490414    -1.5971633      2.7714707    
     46800   0.91844678     158.5          158.5          158.5         -4.192665      -3.9270539     -4.0455475     -4.6053936      0.91844678   
     46820  -1.9333022      158.5          158.5          158.5          1.1193566     -0.4487869      2.4028013      1.4040553     -1.9333022    
     46840  -8.4782167      158.5          158.5          158.5          2.3145434      0.64983248     1.291707       5.0020906     -8.4782167    
     46860   2.7205291      158.5          158.5          158.5         -2.420098      -0.70840917    -3.4663171     -3.0855677      2.7205291    
     46880  -9.2967085      158.5          158.5          158.5          3.8445708      2.9883624      3.6295384      4.9158115     -9.2967085    
     46900   3.9797372      158.5          158.5          158.5          0.067775364   -0.30173319     1.4672506     -0.96219127     3.9797372    
     46920   2.528081       158.5          158.5          158.5         -2.2843979     -0.12214528    -1.3426428     -5.3884058      2.528081     
     46940  -5.3093859      158.5          158.5          158.5         -1.060997      -1.4885871      1.466282      -3.160686      -5.3093859    
     46960   6.076889       158.5          158.5          158.5         -2.0439788     -0.98419217    -0.72439892    -4.4233452      6.076889     
     46980   4.2060895      158.5          158.5          158.5         -0.49821162     1.0420494     -0.28882218    -2.2478621      4.2060895    
     47000   4.3989438      158.5          158.5          158.5         -1.5915038      0.014967556   -0.89599479    -3.8934842      4.3989438    
     47020   2.4002624      158.5          158.5          158.5          0.437526       0.67601059     1.8537176     -1.2171502      2.4002624    
     47040   8.8503148      158.5          158.5          158.5          2.3036115      1.1970873      2.3997528      3.3139946      8.8503148    
     47060   5.9519733      158.5          158.5          158.5          1.6512906     -0.70925184    -0.73425652     6.39738        5.9519733    
     47080   3.9290514      158.5          158.5          158.5          4.1127623      5.7721331     -0.32170131     6.8878552      3.9290514    
     47100   5.4482049      158.5          158.5          158.5          1.4820308      4.1711516      0.89643498    -0.62149424     5.4482049    
     47120   16.977617      158.5          158.5          158.5          0.53243242     1.4159363      1.2199468     -1.0385858      16.977617    
     47140   6.1232703      158.5          158.5          158.5         -0.048230154    0.11716163    -1.1660298      0.90417769     6.1232703    
     47160   9.1302208      158.5          158.5          158.5         -2.5466661     -0.57226402    -3.6741781     -3.3935562      9.1302208    
     47180   5.296476       158.5          158.5          158.5          3.8524821      5.2535448      6.3238321     -0.019930523    5.296476     
     47200   2.0552405      158.5          158.5          158.5         -1.9872255     -2.7417049     -2.4576415     -0.76233014     2.0552405    
     47220   2.7283519      158.5          158.5          158.5          0.21726031     0.5424952     -1.5707602      1.6800459      2.7283519    
     47240  -1.3361398      158.5          158.5          158.5          2.1785648      3.7905313      1.8454683      0.89969483    -1.3361398    
     47260   2.5923687      158.5          158.5          158.5         -0.18932606     1.5820211     -2.8323645      0.68236522     2.5923687    
     47280  -8.2841711      158.5          158.5          158.5          1.9503307      4.3737882      0.065750394    1.4114536     -8.2841711    
     47300   0.59721747     158.5          158.5          158.5          0.5985181      2.4065458      1.8150438     -2.4260353      0.59721747   
     47320  -4.6660821      158.5          158.5          158.5         -1.2484876      0.93862658    -1.4363894     -3.2477        -4.6660821    
     47340  -4.5670564      158.5          158.5          158.5         -0.8930059     -0.49232484     0.023321989   -2.2100149     -4.5670564    
     47360  -5.6330045      158.5          158.5          158.5          1.9693011      0.78740192     2.8079311      2.3125702     -5.6330045    
     47380  -2.6858768      158.5          158.5          158.5         -0.54326767    -0.77046589    -1.2604743      0.40113721    -2.6858768    
     47400   5.4356301      158.5          158.5          158.5          1.828313       2.6595991      1.7080754      1.1172645      5.4356301    
     47420   4.4217526      158.5          158.5          158.5         -0.1197136      1.909802      -2.1302945     -0.13864829     4.4217526    
     47440  -6.8685759      158.5          158.5          158.5          2.1605691      2.7151362      1.2387085      2.5278624     -6.8685759    
     47460  -11.364645      158.5          158.5          158.5          1.1449118      1.2361106      4.032411      -1.8337862     -11.364645    
     47480  -9.2144019      158.5          158.5          158.5         -5.0512493     -2.6964951     -4.4428278     -8.0144252     -9.2144019    
     47500   2.5921088      158.5          158.5          158.5          2.4479525      5.5460132      1.5708262      0.22701801     2.5921088    
     47520   3.2190802      158.5          158.5          158.5          1.544449      -1.840709       4.3393125      2.1347434      3.2190802    
     47540  -12.206947      158.5          158.5          158.5         -0.68761533    -1.9902029     -2.6433431      2.5707        -12.206947    
     47560  -0.19576947     158.5          158.5          158.5          4.260613       6.3581738      2.571902       3.8517631     -0.19576947   
     47580  -3.9010329      158.5          158.5          158.5         -1.1428763     -2.5006168      0.66323865    -1.5912508     -3.9010329    
     47600   4.4921895      158.5          158.5          158.5         -0.50306376    -1.8414616      2.3008251     -1.9685547      4.4921895    
     47620   9.9793521      158.5          158.5          158.5          0.45459278     1.6095919      3.0919992     -3.3378128      9.9793521    
     47640   3.2931052      158.5          158.5          158.5         -5.0486549     -7.0300913     -4.1917371     -3.9241364      3.2931052    
     47660  -0.59517372     158.5          158.5          158.5          2.0166986      2.7396969      2.7288038      0.58159521    -0.59517372   
     47680  -5.9027584      158.5          158.5          158.5          0.028640515    1.09456        1.5541809     -2.5628194     -5.9027584    
     47700   13.623346      158.5          158.5          158.5         -1.5874653     -2.6794822     -1.6014478     -0.48146574     13.623346    
     47720  -3.0418497      158.5          158.5          158.5          1.0176402     -0.87637856     0.58883791     3.3404612     -3.0418497    
     47740   7.989446       158.5          158.5          158.5          1.4880364      3.5076901      1.4462841     -0.48986499     7.989446     
     47760  -1.6142999      158.5          158.5          158.5          1.7500247      5.6121308     -1.442036       1.0799794     -1.6142999    
     47780  -5.3964631      158.5          158.5          158.5          0.0027643191  -1.3473646      0.059722676    1.2959349     -5.3964631    
     47800   0.095953385    158.5          158.5          158.5         -0.219859      -1.7997934      1.1339216      0.0062947901   0.095953385  
     47820  -13.284571      158.5          158.5          158.5         -1.9606261     -0.74219728    -3.2479959     -1.891685      -13.284571    
     47840  -2.6465251      158.5          158.5          158.5         -3.8129267     -4.6035588     -0.18950122    -6.6457201     -2.6465251    
     47860  -7.9471427      158.5          158.5          158.5         -2.8617661     -2.9138102     -0.26400324    -5.4074849     -7.9471427    
     47880  -19.02821       158.5          158.5          158.5          1.3803896      1.4068374     -0.11289123     2.8472227     -19.02821     
     47900  -13.895781      158.5          158.5          158.5          0.64965788     1.7190518      1.913761      -1.6838391     -13.895781    
     47920   1.3805382      158.5          158.5          158.5         -0.99821995     0.34713871    -1.8234521     -1.5183464      1.3805382    
     47940  -16.090566      158.5          158.5          158.5          1.7664934     -0.58564918     1.6950949      4.1900344     -16.090566    
     47960  -12.440311      158.5          158.5          158.5          0.66099866    -0.56126676    -0.79411474     3.3383775     -12.440311    
     47980  -7.2690609      158.5          158.5          158.5         -1.2421824      1.3693325     -2.9303653     -2.1655144     -7.2690609    
     48000  -6.4914111      158.5          158.5          158.5          0.1840912     -0.45698045     0.41532257     0.59393149    -6.4914111    
     48020  -8.6270992      158.5          158.5          158.5         -0.14545707    -1.0081755      1.8316651     -1.2598608     -8.6270992    
     48040  -4.1025276      158.5          158.5          158.5         -1.8250632     -1.6220167     -0.75621178    -3.0969612     -4.1025276    
     48060   2.0185095      158.5          158.5          158.5          0.242393      -0.17804868    -1.1389912      2.0442189      2.0185095    
     48080  -2.6418237      158.5          158.5          158.5          0.2076185     -2.3016198      2.064581       0.85989433    -2.6418237    
     48100   3.4260279      158.5          158.5          158.5         -0.78046455    -0.85621979    -1.2908811     -0.19429278     3.4260279    
     48120   4.0964297      158.5          158.5          158.5          3.6482544      4.2768331      2.0473522      4.620578       4.0964297    
     48140   9.3233466      158.5          158.5          158.5          0.58163509    -0.57401107     2.0097678      0.30914857     9.3233466    
     48160  -3.0493208      158.5          158.5          158.5         -1.0232436     -1.7499958     -1.557165       0.23742999    -3.0493208    
     48180   6.1538603      158.5          158.5          158.5         -0.5896894     -0.8372183     -1.2831345      0.35128457     6.1538603    
     48200   3.9598503      158.5          158.5          158.5         -1.5464261     -5.1630656      2.0850855     -1.5612981      3.9598503    
     48220   5.3913803      158.5          158.5          158.5         -1.4735782     -0.62492057     2.8036012     -6.5994151      5.3913803    
     48240   7.1526351      158.5          158.5          158.5          0.72720653     4.886523      -1.5551271     -1.1497762      7.1526351    
     48260   6.7725613      158.5          158.5          158.5         -6.3641479     -7.8628676     -6.9167577     -4.3128184      6.7725613    
     48280  -10.082315      158.5          158.5          158.5         -1.1456462     -4.796388       1.8588421     -0.49939273    -10.082315    
     48300   0.88639337     158.5          158.5          158.5         -0.028311936   -0.52466409     3.2449566     -2.8052283      0.88639337   
     48320   0.37894516     158.5          158.5          158.5         -2.641485      -1.0607457     -1.9416152     -4.9220941      0.37894516   
     48340  -4.4790089      158.5          158.5          158.5         -0.71806226    -0.25053283    -2.5351267      0.63147276    -4.4790089    
     48360  -3.7751238      158.5          158.5          158.5          1.5160283     -1.2801763      1.8206546      4.0076067     -3.7751238    
     48380  -3.8876516      158.5          158.5          158.5          1.091698       0.92495627     1.4588937      0.89124412    -3.8876516    
     48400  -1.9040895      158.5          158.5          158.5          1.8474638      4.704779       0.14933715     0.68827521    -1.9040895    
     48420   3.4084722      158.5          158.5          158.5          0.90137571     0.7997431     -1.6432977      3.5476817      3.4084722    
     48440  -2.7242         158.5          158.5          158.5          0.039313067    0.1042131     -0.74192803     0.75565413    -2.7242       
     48460  -3.8846996      158.5          158.5          158.5         -0.064802635   -0.12538909     3.1721539     -3.2411727     -3.8846996    
     48480   2.1682351      158.5          158.5          158.5          2.410298       0.60022145     2.017797       4.6128755      2.1682351    
     48500  -11.045739      158.5          158.5          158.5         -2.230682      -1.8517752     -4.5301664     -0.3101045     -11.045739    
     48520  -11.642526      158.5          158.5          158.5         -1.2247176     -0.21291397    -2.7776243     -0.68361453    -11.642526    
     48540  -5.5215876      158.5          158.5          158.5          0.34381514    -1.5571566      2.0728894      0.51571263    -5.5215876    
     48560  -1.3747916      158.5          158.5          158.5          0.25104814    -0.84139638     2.4872712     -0.89273043    -1.3747916    
     48580  -9.2953719      158.5          158.5          158.5          1.3932796      2.6654537     -1.20243        2.7168151     -9.2953719    
     48600   4.0634106      158.5          158.5          158.5          0.47909914     1.4145053     -0.44521537     0.46800752     4.0634106    
     48620  -3.4877163      158.5          158.5          158.5          0.9321568      0.3703861      3.1421088     -0.71602452    -3.4877163    
     48640  -4.9315419      158.5          158.5          158.5         -1.0669433     -0.39119624     0.57148045    -3.3811142     -4.9315419    
     48660   2.6474416      158.5          158.5          158.5          0.042303195    3.2407916     -4.4338717      1.3199897      2.6474416    
     48680  -2.684987       158.5          158.5          158.5          0.59850879     3.8232672      1.4185821     -3.446323      -2.684987     
     48700   0.032371169    158.5          158.5          158.5         -4.3028617     -6.360152       0.50513428    -7.0535675      0.032371169  
     48720  -6.2515152      158.5          158.5          158.5          0.97916488     0.29378985     2.4196756      0.22402921    -6.2515152    
     48740  -1.9987783      158.5          158.5          158.5          1.3634183      3.1393123     -2.5366997      3.4876423     -1.9987783    
     48760  -0.71838298     158.5          158.5          158.5          0.28453437     0.16827712    -0.17632739     0.86165338    -0.71838298   
     48780   8.7333877      158.5          158.5          158.5          1.650403       1.9227537      3.131424      -0.10296856     8.7333877    
     48800  -0.95555379     158.5          158.5          158.5          0.094491132   -0.74286366     1.4746218     -0.44828479    -0.95555379   
     48820  -0.80248623     158.5          158.5          158.5         -0.57227284    -0.92198189     0.6328548     -1.4276914     -0.80248623   
     48840  -0.87184881     158.5          158.5          158.5         -0.70005226    -0.87043244     1.2654937     -2.495218      -0.87184881   
     48860   8.2099858      158.5          158.5          158.5         -0.55614555    -1.0609387      1.7886994     -2.3961974      8.2099858    
     48880  -3.4032151      158.5          158.5          158.5          1.987385       0.60240347     0.87272437     4.4870271     -3.4032151    
     48900   11.356077      158.5          158.5          158.5          0.78579189     1.8884153     -0.53862326     1.0075837      11.356077    
     48920   0.43961122     158.5          158.5          158.5         -0.49468236     0.38878855     1.1758974     -3.0487331      0.43961122   
     48940  -1.8119879      158.5          158.5          158.5          0.44027114    -1.5726603     -0.9955579      3.8890316     -1.8119879    
     48960  -6.0893292      158.5          158.5          158.5         -0.50773984    -4.4984097     -1.9869091      4.9620993     -6.0893292    
     48980   6.5741246      158.5          158.5          158.5          0.19869404     0.22932405     0.10350322     0.26325484     6.5741246    
     49000   5.8085433      158.5          158.5          158.5          2.5364862      5.9617672      1.7137462     -0.066054898    5.8085433    
     49020  -4.4813479      158.5          158.5          158.5          0.24226579     0.2627371     -1.125415       1.5894753     -4.4813479    
     49040  -7.1460988      158.5          158.5          158.5         -0.076177684   -1.9701371     -1.2459738      2.9875778     -7.1460988    
     49060  -12.552811      158.5          158.5          158.5          0.51644337     1.140229      -1.409875       1.8189761     -12.552811    
     49080  -9.6959632      158.5          158.5          158.5         -2.142994      -2.0211654      1.221377      -5.6291934     -9.6959632    
     49100  -12.726092      158.5          158.5          158.5         -1.8838737     -0.98923822    -2.0962711     -2.5661118     -12.726092    
     49120  -9.8856584      158.5          158.5          158.5          1.0989177     -1.1248728     -0.7207531      5.142379      -9.8856584    
     49140  -9.586002       158.5          158.5          158.5         -2.3964674     -4.6738771     -2.1613175     -0.35420751    -9.586002     
     49160  -4.6072357      158.5          158.5          158.5          2.5093275      3.4621868     -0.33078911     4.3965849     -4.6072357    
     49180  -16.252981      158.5          158.5          158.5          0.87268811     0.728366      -2.0247168      3.9144151     -16.252981    
     49200  -0.71367546     158.5          158.5          158.5         -1.4515956     -3.624431      -2.3220712      1.5917155     -0.71367546   
     49220  -3.8212179      158.5          158.5          158.5          1.6655762      3.5413736     -2.1997851      3.6551401     -3.8212179    
     49240  -8.2640017      158.5          158.5          158.5          0.26096304     0.25900948     0.35727838     0.16660128    -8.2640017    
     49260  -14.003398      158.5          158.5          158.5          0.64293756    -0.80681751     0.13211068     2.6035195     -14.003398    
     49280  -2.8276697      158.5          158.5          158.5          0.5673837     -0.85572053     0.073902957    2.4839687     -2.8276697    
     49300  -19.013698      158.5          158.5          158.5          0.36065572     1.4121592     -0.66011837     0.32992635    -19.013698    
     49320  -3.1122407      158.5          158.5          158.5          0.4213409      2.3802184     -0.82221346    -0.29398227    -3.1122407    
     49340  -3.4630846      158.5          158.5          158.5         -1.5121841     -1.828402      -0.56081995    -2.1473304     -3.4630846    
     49360  -11.702928      158.5          158.5          158.5          1.713769      -0.75451796     3.6638005      2.2320244     -11.702928    
     49380   3.2781893      158.5          158.5          158.5          0.18617172     0.33016497    -1.3089868      1.537337       3.2781893    
     49400   0.86319668     158.5          158.5          158.5         -1.5819271      0.79288405    -0.84286804    -4.6957973      0.86319668   
     49420  -1.6811417      158.5          158.5          158.5          0.64790601     0.3407688      0.82184946     0.78109976    -1.6811417    
     49440  -7.1010456      158.5          158.5          158.5         -0.28620897    -2.8039139     -1.3745868      3.3198738     -7.1010456    
     49460  -3.4190702      158.5          158.5          158.5         -1.5860589     -3.2946738      0.25326395    -1.7167668     -3.4190702    
     49480   7.1404832      158.5          158.5          158.5         -1.8478559     -1.3933735     -2.205142      -1.9450524      7.1404832    
     49500  -6.423823       158.5          158.5          158.5         -0.30458503    -0.2664569     -3.0590489      2.4117507     -6.423823     
     49520  -1.4555035      158.5          158.5          158.5         -0.8351445     -3.0354288      0.35971479     0.17028049    -1.4555035    
     49540   7.6309904      158.5          158.5          158.5         -1.3372216     -2.2852197      1.4279002     -3.1543453      7.6309904    
     49560   6.6807726      158.5          158.5          158.5          3.7879861      4.9010458      3.6895867      2.7733257      6.6807726    
     49580  -5.03307        158.5          158.5          158.5         -1.1577824      1.2841216     -0.74504497    -4.0124238     -5.03307      
     49600   7.6579981      158.5          158.5          158.5         -1.0914886      0.0042877255  -1.8327389     -1.4460148      7.6579981    
     49620   11.341876      158.5          158.5          158.5         -0.58331931    -2.4322417      0.22038487     0.46189894     11.341876    
     49640  -5.4880958      158.5          158.5          158.5         -2.9632688     -5.0665433     -1.0864067     -2.7368565     -5.4880958    
     49660   3.8134916      158.5          158.5          158.5          0.77858737     3.4419029      0.9516462     -2.057787       3.8134916    
     49680   6.2456409      158.5          158.5          158.5         -0.83748452     0.32145903    -1.5890483     -1.2448643      6.2456409    
     49700   1.1131472      158.5          158.5          158.5          1.650327       2.3760997      0.43425814     2.1406233      1.1131472    
     49720   0.12132687     158.5          158.5          158.5          3.1701214      5.9259577      1.9493817      1.6350248      0.12132687   
     49740   3.5295523      158.5          158.5          158.5          0.015060255    3.5829032     -0.2473569     -3.2903656      3.5295523    
     49760   6.5435491      158.5          158.5          158.5          1.2405898      1.5483505      1.0524266      1.1209923      6.5435491    
     49780   11.739886      158.5          158.5          158.5          1.7702112      1.4565025     -3.2771615      7.1312926      11.739886    
     49800   14.581716      158.5          158.5          158.5          0.81357954    -1.1125312     -0.5325021      4.0857719      14.581716    
     49820   12.748119      158.5          158.5          158.5         -0.019929463   -2.1351003      1.9074636      0.16784827     12.748119    
     49840   8.149911       158.5          158.5          158.5          0.50663336     2.3911292     -0.92402799     0.052798862    8.149911     
     49860   5.3376361      158.5          158.5          158.5          0.52109773     2.8205597     -2.1164905      0.85922395     5.3376361    
     49880   6.4063242      158.5          158.5          158.5         -2.2171008     -3.1995303     -1.4929241     -1.958848       6.4063242    
     49900   2.73393        158.5          158.5          158.5          2.1402822      2.5751784      4.3469597     -0.50129162     2.73393      
     49920   6.502839       158.5          158.5          158.5         -1.7040027     -0.078703949   -2.6285589     -2.4047453      6.502839     
     49940   3.2628759      158.5          158.5          158.5         -0.19004781    -0.93644571    -1.7674283      2.1337306      3.2628759    
     49960   12.256192      158.5          158.5          158.5         -2.2123667     -5.8835135     -1.1800857      0.42649897     12.256192    
     49980   2.4417651      158.5          158.5          158.5         -1.5724366     -1.5969478     -2.6737111     -0.44665093     2.4417651    
     50000   2.8118983      158.5          158.5          158.5          0.57330096     1.7336459     -1.3578121      1.3440691      2.8118983    
     50020   3.0018206      158.5          158.5          158.5          0.18302161     0.54535906     0.64324877    -0.63954301     3.0018206    
     50040  -0.82452111     158.5          158.5          158.5          0.047042333   -0.51484511     0.61140142     0.044570689   -0.82452111   
     50060  -6.5348641      158.5          158.5          158.5          0.011183797   -2.2122221     -0.6945711      2.9403446     -6.5348641    
     50080  -7.9704881      158.5          158.5          158.5         -0.68286796     0.3067332     -1.2948181     -1.060519      -7.9704881    
     50100  -3.1572484      158.5          158.5          158.5         -1.1741155     -2.0293575     -0.30184798    -1.1911411     -3.1572484    
     50120  -6.1482136      158.5          158.5          158.5         -2.4590476     -4.5546483     -3.8403581      1.0178637     -6.1482136    
     50140  -0.44414515     158.5          158.5          158.5         -1.0762711     -1.2385118     -1.5796283     -0.41067314    -0.44414515   
     50160  -9.559953       158.5          158.5          158.5          2.1151439      2.1946083      4.6442282     -0.49340481    -9.559953     
     50180  -4.7630914      158.5          158.5          158.5          2.0463987      1.8209218      2.91589        1.4023843     -4.7630914    
     50200  -0.11974124     158.5          158.5          158.5         -1.1424025      0.57434881    -3.849881      -0.15167535    -0.11974124   
     50220   12.856253      158.5          158.5          158.5         -0.1595822      1.1318534     -1.7983517      0.18775176     12.856253    
     50240   0.59257295     158.5          158.5          158.5         -4.1673732     -1.5951933     -3.7355863     -7.1713401      0.59257295   
     50260  -2.729126       158.5          158.5          158.5          1.0016742      1.6189552      0.6825162      0.70355132    -2.729126     
     50280   9.4124848      158.5          158.5          158.5         -0.33771551    -1.5179447     -2.2911758      2.795974       9.4124848    
     50300   2.0273577      158.5          158.5          158.5         -1.294834       1.653629      -0.74561164    -4.7925193      2.0273577    
     50320   1.9407991      158.5          158.5          158.5          1.1636304      2.5321007      1.3342065     -0.37541589     1.9407991    
     50340   12.412573      158.5          158.5          158.5         -3.460677      -4.3927641     -3.9323238     -2.056943       12.412573    
     50360   18.957593      158.5          158.5          158.5          1.1645238     -1.1418901      0.41832084     4.2171407      18.957593    
     50380   5.6533825      158.5          158.5          158.5         -1.242526      -1.9808314     -2.7580727      1.011326       5.6533825    
     50400   15.548738      158.5          158.5          158.5         -2.0118845     -0.21804085    -2.1516801     -3.6659326      15.548738    
     50411   15.148242      158.5          158.5          158.5         -0.40114834    -0.57584898    -0.17284284    -0.45475322     15.148242    
Loop time of 4.62506 on 1 procs for 50000 steps with 100 atoms

Performance: 934.042 ns/day, 0.026 hours/ns, 10810.672 timesteps/s, 1.081 Matom-step/s
83.0% CPU use with 1 MPI tasks x no OpenMP threads

MPI task timing breakdown:
Section |  min time  |  avg time  |  max time  |%varavg| %total
---------------------------------------------------------------
Pair    | 2.1005     | 2.1005     | 2.1005     |   0.0 | 45.41
Bond    | 0.8536     | 0.8536     | 0.8536     |   0.0 | 18.46
Neigh   | 0.058335   | 0.058335   | 0.058335   |   0.0 |  1.26
Comm    | 0.012887   | 0.012887   | 0.012887   |   0.0 |  0.28
Output  | 0.28471    | 0.28471    | 0.28471    |   0.0 |  6.16
Modify  | 1.2571     | 1.2571     | 1.2571     |   0.0 | 27.18
Other   |            | 0.05794    |            |       |  1.25

Nlocal:            100 ave         100 max         100 min
Histogram: 1 0 0 0 0 0 0 0 0 0
Nghost:              0 ave           0 max           0 min
Histogram: 1 0 0 0 0 0 0 0 0 0
Neighs:           4160 ave        4160 max        4160 min
Histogram: 1 0 0 0 0 0 0 0 0 0
FullNghs:            0 ave           0 max           0 min
Histogram: 1 0 0 0 0 0 0 0 0 0

Total # of neighbors = 4160
Ave neighs/atom = 41.6
Ave special neighs/atom = 5.88
Neighbor list builds = 397
Dangerous builds = 0

# Access cumulative reaction counts after the simulation
variable react1_count equal f_3[1]
variable react2_count equal f_3[2]
variable react3_count equal f_3[3]
variable react4_count equal f_3[4]

# Output cumulative reaction counts
print "Cumulative reaction count for reac1to2: ${react1_count}"
Cumulative reaction count for reac1to2: 0
print "Cumulative reaction count for reac2to3: ${react2_count}"
Cumulative reaction count for reac2to3: 0
print "Cumulative reaction count for reac3to2: ${react3_count}"
Cumulative reaction count for reac3to2: 0
print "Cumulative reaction count for reac2to1: ${react4_count}"
Cumulative reaction count for reac2to1: 0

print "All done"
All done
write_data final.data nofix
System init for write_data ...
Generated 0 of 3 mixed pair_coeff terms from geometric mixing rule
WARNING: Not all mixed pair coeffs generated from mixing. Use write_data with 'pair ij' option to store all pair coeffs. (src/src/write_data.cpp:326)
Total wall time: 0:00:08
