read_data	InitialFile.txt
Reading data file ...
  orthogonal box = (0 0 0) to (158.5 158.5 158.5)
  1 by 1 by 1 MPI processor grid
WARNING: Atom style in data file atomic differs from currently defined atom style molecular (src/src/read_data.cpp:621)
  reading atoms ...
  100 atoms
  scanning bonds ...
  1 = max bonds/atom
  scanning angles ...
  1 = max angles/atom
  scanning dihedrals ...
  1 = max dihedrals/atom
  reading bonds ...
  99 bonds
  reading angles ...
  98 angles
  reading dihedrals ...
  97 dihedrals
Finding 1-2 1-3 1-4 neighbors ...
  special bond factors lj:    0        0        0       
  special bond factors coul:  0        0        0       
     2 = max # of 1-2 neighbors
     2 = max # of 1-3 neighbors
     4 = max # of 1-4 neighbors
     6 = max # of special neighbors
  special bonds CPU = 0.011 seconds
  read_data CPU = 0.029 seconds

# Dreiding potential information
neighbor	0.4 bin
neigh_modify	every 10 one 10000

bond_style      harmonic
bond_coeff	1 350 1.53
bond_coeff	2 700 1.53

angle_style     harmonic
angle_coeff	1 60 109.5
angle_coeff	2 120 109.5

dihedral_style	multi/harmonic
dihedral_coeff	1 1.73 -4.49 0.776 6.99 0.0
dihedral_coeff	2 1.73 -4.49 0.776 6.99 0.0

pair_style	lj/cut 10.5
pair_coeff	* * 1.0 1.0 10.5
pair_coeff	3 3 2.0 0.5 10.5

compute csym all centro/atom fcc
compute peratom all pe/atom


#####################################################
# Equilibration (Brownian dynamics at 300 K)

velocity 	all create 300.0 1231
fix		1 all nve/limit 0.05
fix 2 all brownian 300 108410 gamma_t 1.0
thermo_style	custom step temp
thermo          10000
timestep	1
run		100000
Generated 0 of 3 mixed pair_coeff terms from geometric mixing rule
WARNING: One or more atoms are time integrated more than once (src/src/modify.cpp:289)
Neighbor list info ...
  update: every = 10 steps, delay = 0 steps, check = yes
  max neighbors/atom: 10000, page size: 100000
  master list distance cutoff = 10.9
  ghost atom cutoff = 10.9
  binsize = 5.45, bins = 30 30 30
  2 neighbor lists, perpetual/occasional/extra = 1 1 0
  (1) pair lj/cut, perpetual
      attributes: half, newton on
      pair build: half/bin/newton
      stencil: half/bin/3d
      bin: standard
  (2) compute centro/atom, occasional
      attributes: full, newton on
      pair build: full/bin
      stencil: full/bin/3d
      bin: standard
Per MPI rank memory allocation (min/avg/max) = 8.15 | 8.15 | 8.15 Mbytes
   Step          Temp     
         0   300          
     10000   9354.1476    
     20000   10223.119    
     30000   10011.231    
     40000   10507.878    
     50000   9830.943     
     60000   9970.5527    
     70000   10365.402    
     80000   9931.7978    
     90000   10391.328    
    100000   10339.073    
Loop time of 3.13065 on 1 procs for 100000 steps with 100 atoms

Performance: 2759.806 ns/day, 0.009 hours/ns, 31942.202 timesteps/s, 3.194 Matom-step/s
97.4% CPU use with 1 MPI tasks x no OpenMP threads

MPI task timing breakdown:
Section |  min time  |  avg time  |  max time  |%varavg| %total
---------------------------------------------------------------
Pair    | 0.70884    | 0.70884    | 0.70884    |   0.0 | 22.64
Bond    | 1.3814     | 1.3814     | 1.3814     |   0.0 | 44.13
Neigh   | 0.51958    | 0.51958    | 0.51958    |   0.0 | 16.60
Comm    | 0.021162   | 0.021162   | 0.021162   |   0.0 |  0.68
Output  | 0.00021999 | 0.00021999 | 0.00021999 |   0.0 |  0.01
Modify  | 0.46031    | 0.46031    | 0.46031    |   0.0 | 14.70
Other   |            | 0.03912    |            |       |  1.25

Nlocal:            100 ave         100 max         100 min
Histogram: 1 0 0 0 0 0 0 0 0 0
Nghost:              0 ave           0 max           0 min
Histogram: 1 0 0 0 0 0 0 0 0 0
Neighs:            616 ave         616 max         616 min
Histogram: 1 0 0 0 0 0 0 0 0 0
FullNghs:            0 ave           0 max           0 min
Histogram: 1 0 0 0 0 0 0 0 0 0

Total # of neighbors = 616
Ave neighs/atom = 6.16
Ave special neighs/atom = 5.88
Neighbor list builds = 10000
Dangerous builds = 10000
unfix 1
unfix 2
write_restart 	restart.${simname}.dreiding1
write_restart 	restart.InitialFile.dreiding1
System init for write_restart ...
Generated 0 of 3 mixed pair_coeff terms from geometric mixing rule

#####################################################
# Define Settings
compute eng all pe/atom
compute eatoms all reduce sum c_eng

#####################################################
# Minimization

dump mydmp all atom 100 dump.lammpstrj

reset_timestep 0
fix 1 all nvt temp 300.0 300.0 100.0
thermo 20
thermo_style custom step pe lx ly lz press pxx pyy pzz c_eatoms
min_style cg
minimize 1e-25 1e-25 500000 1000000
Switching to 'neigh_modify every 1 delay 0 check yes' setting during minimization
Generated 0 of 3 mixed pair_coeff terms from geometric mixing rule
Per MPI rank memory allocation (min/avg/max) = 9.275 | 9.275 | 9.275 Mbytes
   Step         PotEng           Lx             Ly             Lz           Press           Pxx            Pyy            Pzz          c_eatoms   
         0   282.08361      158.5          158.5          158.5          33.056673      36.5612        29.702132      32.906686      282.08361    
        20   52.282609      158.5          158.5          158.5          34.648825      40.333987      29.489639      34.12285       52.282609    
        40   40.382199      158.5          158.5          158.5          34.302274      39.576173      29.112838      34.217812      40.382199    
        60   34.139866      158.5          158.5          158.5          34.421568      39.776001      29.285312      34.203389      34.139866    
        80   30.47228       158.5          158.5          158.5          34.564414      40.13355       29.433008      34.126684      30.47228     
       100   28.248801      158.5          158.5          158.5          34.564738      40.134824      29.356028      34.203361      28.248801    
       120   27.355096      158.5          158.5          158.5          34.685191      40.083381      29.618431      34.353762      27.355096    
       140   25.456754      158.5          158.5          158.5          34.723912      40.156995      29.713283      34.301457      25.456754    
       160   24.553266      158.5          158.5          158.5          34.720839      40.098022      29.706572      34.357923      24.553266    
       180   24.052039      158.5          158.5          158.5          34.757796      40.235212      29.671915      34.366261      24.052039    
       200   23.145631      158.5          158.5          158.5          34.576058      40.238152      29.410987      34.079035      23.145631    
       220   22.358154      158.5          158.5          158.5          34.458183      39.856495      29.419616      34.098438      22.358154    
       240   21.811342      158.5          158.5          158.5          34.620562      40.084783      29.539639      34.237263      21.811342    
       260   21.331564      158.5          158.5          158.5          34.67303       40.153934      29.548385      34.31677       21.331564    
       280   21.017436      158.5          158.5          158.5          34.564433      39.998184      29.4483        34.246815      21.017436    
       300   20.682859      158.5          158.5          158.5          34.539275      39.975243      29.451016      34.191567      20.682859    
       320   20.589986      158.5          158.5          158.5          34.554487      39.963821      29.511341      34.188301      20.589986    
       340   20.44876       158.5          158.5          158.5          34.71928       40.203056      29.649591      34.305194      20.44876     
       360   20.266569      158.5          158.5          158.5          34.713458      40.219919      29.590482      34.329972      20.266569    
       380   20.088758      158.5          158.5          158.5          34.702077      40.234835      29.556328      34.315068      20.088758    
       400   19.79022       158.5          158.5          158.5          34.762747      40.346338      29.603816      34.338087      19.79022     
       420   19.543299      158.5          158.5          158.5          34.739479      40.244808      29.639532      34.334098      19.543299    
       440   19.32689       158.5          158.5          158.5          34.877357      40.382064      29.825402      34.424603      19.32689     
       460   18.954297      158.5          158.5          158.5          34.958119      40.407705      29.903892      34.562759      18.954297    
       480   18.382868      158.5          158.5          158.5          34.708481      40.151463      29.624587      34.349394      18.382868    
       500   18.022806      158.5          158.5          158.5          34.728063      40.157749      29.654273      34.372167      18.022806    
       520   17.823277      158.5          158.5          158.5          34.862466      40.330965      29.803534      34.452899      17.823277    
       540   17.622525      158.5          158.5          158.5          34.922404      40.519574      29.844751      34.402886      17.622525    
       560   17.426858      158.5          158.5          158.5          34.940486      40.439458      29.915934      34.466064      17.426858    
       580   17.283216      158.5          158.5          158.5          34.982073      40.519547      29.91585       34.510822      17.283216    
       600   17.156227      158.5          158.5          158.5          34.971451      40.468402      29.891359      34.554591      17.156227    
       620   17.118452      158.5          158.5          158.5          34.891051      40.434003      29.783344      34.455806      17.118452    
       640   17.064559      158.5          158.5          158.5          34.955821      40.472885      29.896648      34.497932      17.064559    
       660   16.999195      158.5          158.5          158.5          34.909772      40.466926      29.808569      34.453822      16.999195    
       680   16.936088      158.5          158.5          158.5          34.873235      40.383751      29.788051      34.447904      16.936088    
       700   16.849704      158.5          158.5          158.5          34.883742      40.336412      29.83054       34.484274      16.849704    
       720   16.772806      158.5          158.5          158.5          34.9048        40.389301      29.814394      34.510705      16.772806    
       740   16.712864      158.5          158.5          158.5          34.931009      40.462806      29.816873      34.513348      16.712864    
       760   16.680467      158.5          158.5          158.5          34.928492      40.44628       29.82341       34.515788      16.680467    
       780   16.636535      158.5          158.5          158.5          34.928041      40.498685      29.812375      34.473064      16.636535    
       800   16.561037      158.5          158.5          158.5          34.9289        40.481079      29.845682      34.45994       16.561037    
       820   16.492939      158.5          158.5          158.5          34.911221      40.440995      29.837173      34.455495      16.492939    
       840   16.451414      158.5          158.5          158.5          34.91971       40.439329      29.836484      34.483317      16.451414    
       860   16.417953      158.5          158.5          158.5          34.908591      40.4332        29.8097        34.482873      16.417953    
       880   16.378676      158.5          158.5          158.5          34.904277      40.456847      29.786076      34.46991       16.378676    
       900   16.338893      158.5          158.5          158.5          34.932004      40.468965      29.832533      34.494514      16.338893    
       920   16.329203      158.5          158.5          158.5          34.918707      40.45779       29.813993      34.484339      16.329203    
       940   16.314587      158.5          158.5          158.5          34.940617      40.443698      29.855306      34.522847      16.314587    
       960   16.296172      158.5          158.5          158.5          34.949208      40.47159       29.871648      34.504386      16.296172    
       980   16.252922      158.5          158.5          158.5          34.94787       40.501481      29.821842      34.520288      16.252922    
      1000   16.169815      158.5          158.5          158.5          34.899102      40.483791      29.800938      34.412578      16.169815    
      1020   16.05951       158.5          158.5          158.5          34.930591      40.496322      29.829902      34.465548      16.05951     
      1040   15.952738      158.5          158.5          158.5          34.952803      40.506268      29.823351      34.52879       15.952738    
      1060   15.889735      158.5          158.5          158.5          34.978349      40.516289      29.884135      34.534624      15.889735    
      1080   15.838683      158.5          158.5          158.5          34.955441      40.503588      29.840466      34.522269      15.838683    
      1100   15.791936      158.5          158.5          158.5          34.941424      40.480806      29.824189      34.519277      15.791936    
      1120   15.746885      158.5          158.5          158.5          34.953928      40.485675      29.864255      34.511856      15.746885    
      1140   15.657026      158.5          158.5          158.5          34.956376      40.480362      29.905685      34.483082      15.657026    
      1160   15.561245      158.5          158.5          158.5          34.917994      40.383019      29.871897      34.499065      15.561245    
      1180   15.474487      158.5          158.5          158.5          34.859219      40.366878      29.771259      34.439522      15.474487    
      1200   15.32465       158.5          158.5          158.5          34.902534      40.410804      29.802346      34.494452      15.32465     
      1220   15.262255      158.5          158.5          158.5          34.918259      40.422051      29.832354      34.500373      15.262255    
      1240   15.225546      158.5          158.5          158.5          34.93496       40.465258      29.836436      34.503185      15.225546    
      1260   15.187445      158.5          158.5          158.5          34.986561      40.564225      29.892759      34.502701      15.187445    
      1280   15.160203      158.5          158.5          158.5          34.998365      40.531025      29.900912      34.563157      15.160203    
      1300   15.144607      158.5          158.5          158.5          34.978012      40.527103      29.876426      34.530506      15.144607    
      1320   15.132489      158.5          158.5          158.5          34.980832      40.530126      29.870511      34.54186       15.132489    
      1340   15.125784      158.5          158.5          158.5          34.996615      40.529937      29.900622      34.559286      15.125784    
      1360   15.119404      158.5          158.5          158.5          34.979942      40.519105      29.880098      34.540623      15.119404    
      1380   15.111057      158.5          158.5          158.5          34.95945       40.48715       29.877335      34.513866      15.111057    
      1400   15.099879      158.5          158.5          158.5          34.96158       40.50597       29.868874      34.509895      15.099879    
      1420   15.08598       158.5          158.5          158.5          34.961595      40.52334       29.851482      34.509964      15.08598     
      1440   15.070252      158.5          158.5          158.5          34.975273      40.503418      29.903266      34.519135      15.070252    
      1460   15.050029      158.5          158.5          158.5          34.989223      40.517377      29.8955        34.554791      15.050029    
      1480   15.028896      158.5          158.5          158.5          34.984706      40.461208      29.907195      34.585714      15.028896    
      1500   14.988895      158.5          158.5          158.5          34.949433      40.515082      29.84501       34.488208      14.988895    
      1520   14.96641       158.5          158.5          158.5          34.977165      40.508952      29.882951      34.539592      14.96641     
      1540   14.949439      158.5          158.5          158.5          34.983374      40.532843      29.890548      34.526732      14.949439    
      1560   14.93556       158.5          158.5          158.5          34.978298      40.517303      29.885377      34.532213      14.93556     
      1580   14.926338      158.5          158.5          158.5          34.992806      40.528121      29.897363      34.552933      14.926338    
      1600   14.917981      158.5          158.5          158.5          35.005142      40.539585      29.913833      34.562008      14.917981    
      1620   14.909602      158.5          158.5          158.5          35.003673      40.54427       29.90583       34.560918      14.909602    
      1640   14.90259       158.5          158.5          158.5          34.999549      40.546911      29.897229      34.554507      14.90259     
      1660   14.895556      158.5          158.5          158.5          34.997293      40.541492      29.891533      34.558854      14.895556    
      1680   14.886864      158.5          158.5          158.5          34.986024      40.517747      29.889366      34.550958      14.886864    
      1700   14.875835      158.5          158.5          158.5          34.985006      40.503843      29.883182      34.567993      14.875835    
      1720   14.861939      158.5          158.5          158.5          34.974145      40.509006      29.882122      34.531307      14.861939    
      1740   14.84608       158.5          158.5          158.5          34.970246      40.501182      29.877023      34.532534      14.84608     
      1760   14.830346      158.5          158.5          158.5          34.966013      40.526036      29.874004      34.497999      14.830346    
      1780   14.811276      158.5          158.5          158.5          34.918055      40.428924      29.849761      34.47548       14.811276    
      1800   14.788858      158.5          158.5          158.5          34.945036      40.464427      29.867339      34.503343      14.788858    
      1820   14.779031      158.5          158.5          158.5          34.9302        40.463964      29.849346      34.477289      14.779031    
      1840   14.764989      158.5          158.5          158.5          34.980577      40.521342      29.890707      34.529681      14.764989    
      1860   14.754947      158.5          158.5          158.5          34.979146      40.513701      29.889239      34.534498      14.754947    
      1880   14.747034      158.5          158.5          158.5          34.995089      40.522907      29.903291      34.55907       14.747034    
      1900   14.738897      158.5          158.5          158.5          34.990216      40.542378      29.887329      34.540943      14.738897    
      1920   14.73299       158.5          158.5          158.5          35.008683      40.551098      29.910903      34.564047      14.73299     
      1940   14.726003      158.5          158.5          158.5          35.007185      40.554397      29.909389      34.557768      14.726003    
      1960   14.718139      158.5          158.5          158.5          35.000046      40.535384      29.922811      34.541942      14.718139    
      1980   14.709763      158.5          158.5          158.5          34.986944      40.529032      29.885628      34.546172      14.709763    
      2000   14.700027      158.5          158.5          158.5          34.988267      40.542549      29.890901      34.531352      14.700027    
      2020   14.68789       158.5          158.5          158.5          34.980254      40.521113      29.891648      34.528002      14.68789     
      2040   14.675303      158.5          158.5          158.5          34.994501      40.520822      29.903816      34.558864      14.675303    
      2060   14.66219       158.5          158.5          158.5          35.005951      40.543289      29.913888      34.560675      14.66219     
      2080   14.644985      158.5          158.5          158.5          34.983572      40.504937      29.892333      34.553445      14.644985    
      2100   14.614682      158.5          158.5          158.5          34.935011      40.479584      29.848836      34.476614      14.614682    
      2120   14.594927      158.5          158.5          158.5          34.980933      40.513044      29.888305      34.541452      14.594927    
      2140   14.583606      158.5          158.5          158.5          34.991962      40.527641      29.908949      34.539296      14.583606    
      2160   14.575978      158.5          158.5          158.5          34.980388      40.514937      29.890458      34.535769      14.575978    
      2180   14.563881      158.5          158.5          158.5          34.992117      40.534485      29.891769      34.550098      14.563881    
      2200   14.554985      158.5          158.5          158.5          35.007895      40.557314      29.904189      34.562182      14.554985    
      2220   14.547796      158.5          158.5          158.5          35.002568      40.537545      29.913707      34.556453      14.547796    
      2240   14.539887      158.5          158.5          158.5          35.012475      40.554788      29.918018      34.564618      14.539887    
      2260   14.536237      158.5          158.5          158.5          35.011203      40.552659      29.911405      34.569544      14.536237    
      2280   14.530756      158.5          158.5          158.5          34.999151      40.531236      29.908812      34.557404      14.530756    
      2300   14.527031      158.5          158.5          158.5          35.009246      40.545452      29.914451      34.567834      14.527031    
      2320   14.523063      158.5          158.5          158.5          34.996388      40.532476      29.907788      34.5489        14.523063    
      2340   14.516927      158.5          158.5          158.5          34.985359      40.515742      29.898326      34.542007      14.516927    
      2360   14.51187       158.5          158.5          158.5          34.981605      40.529572      29.884725      34.530517      14.51187     
      2380   14.501908      158.5          158.5          158.5          34.968642      40.504556      29.870427      34.530942      14.501908    
      2400   14.490154      158.5          158.5          158.5          34.972589      40.496681      29.891134      34.529951      14.490154    
      2420   14.487062      158.5          158.5          158.5          34.98815       40.529873      29.891441      34.543136      14.487062    
      2440   14.482403      158.5          158.5          158.5          34.982571      40.52888       29.888472      34.530361      14.482403    
      2460   14.47937       158.5          158.5          158.5          34.986813      40.532154      29.890958      34.537326      14.47937     
      2480   14.47583       158.5          158.5          158.5          34.98774       40.527687      29.893504      34.542027      14.47583     
      2500   14.472321      158.5          158.5          158.5          34.998185      40.541779      29.900604      34.552172      14.472321    
      2520   14.470116      158.5          158.5          158.5          34.999831      40.540176      29.905078      34.554238      14.470116    
      2540   14.465123      158.5          158.5          158.5          34.999662      40.547686      29.898407      34.552893      14.465123    
      2560   14.452723      158.5          158.5          158.5          34.989002      40.539025      29.881274      34.546708      14.452723    
      2580   14.432216      158.5          158.5          158.5          34.989558      40.541483      29.879388      34.547803      14.432216    
      2600   14.401853      158.5          158.5          158.5          34.978003      40.538838      29.857842      34.53733       14.401853    
      2620   14.35872       158.5          158.5          158.5          34.97585       40.509979      29.874677      34.542895      14.35872     
      2640   14.310055      158.5          158.5          158.5          34.963507      40.488954      29.878476      34.523092      14.310055    
      2660   14.280085      158.5          158.5          158.5          34.977354      40.499357      29.897626      34.535078      14.280085    
      2680   14.258313      158.5          158.5          158.5          34.980803      40.501052      29.909927      34.53143       14.258313    
      2700   14.220375      158.5          158.5          158.5          34.995421      40.538587      29.903452      34.544223      14.220375    
      2720   14.210178      158.5          158.5          158.5          35.002013      40.54433       29.909167      34.552541      14.210178    
      2740   14.201788      158.5          158.5          158.5          34.996643      40.524774      29.903873      34.561282      14.201788    
      2760   14.194683      158.5          158.5          158.5          34.991759      40.527632      29.898118      34.549528      14.194683    
      2780   14.185903      158.5          158.5          158.5          35.012847      40.559202      29.915229      34.56411       14.185903    
      2800   14.17786       158.5          158.5          158.5          35.001708      40.553231      29.896743      34.55515       14.17786     
      2820   14.170236      158.5          158.5          158.5          35.006741      40.552669      29.904919      34.562634      14.170236    
      2840   14.166113      158.5          158.5          158.5          35.015858      40.556641      29.922204      34.56873       14.166113    
      2860   14.163557      158.5          158.5          158.5          35.016424      40.561303      29.919028      34.568942      14.163557    
      2880   14.161928      158.5          158.5          158.5          35.010794      40.546975      29.916543      34.568863      14.161928    
      2900   14.161001      158.5          158.5          158.5          35.006419      40.550866      29.907574      34.560816      14.161001    
      2920   14.159049      158.5          158.5          158.5          35.005603      40.559106      29.901696      34.556008      14.159049    
      2940   14.156205      158.5          158.5          158.5          34.992172      40.540834      29.894995      34.540686      14.156205    
      2960   14.152887      158.5          158.5          158.5          34.98401       40.518068      29.898442      34.535521      14.152887    
      2980   14.150204      158.5          158.5          158.5          34.996642      40.531076      29.91215       34.5467        14.150204    
      3000   14.144614      158.5          158.5          158.5          35.005069      40.545286      29.909401      34.56052       14.144614    
      3020   14.142168      158.5          158.5          158.5          34.995013      40.536477      29.902405      34.546157      14.142168    
      3040   14.141073      158.5          158.5          158.5          34.997226      40.537222      29.909716      34.544741      14.141073    
      3060   14.139773      158.5          158.5          158.5          35.003595      40.545018      29.912112      34.553656      14.139773    
      3080   14.137943      158.5          158.5          158.5          35.007044      40.549381      29.914618      34.557135      14.137943    
      3100   14.136273      158.5          158.5          158.5          35.007479      40.547305      29.914426      34.560707      14.136273    
      3120   14.135099      158.5          158.5          158.5          35.004605      40.540484      29.910073      34.563257      14.135099    
      3140   14.131547      158.5          158.5          158.5          35.014135      40.5459        29.914111      34.582394      14.131547    
      3160   14.12314       158.5          158.5          158.5          35.024019      40.561041      29.927612      34.583405      14.12314     
      3180   14.112411      158.5          158.5          158.5          35.038274      40.592429      29.93114       34.591253      14.112411    
      3200   14.101198      158.5          158.5          158.5          35.030251      40.578202      29.936158      34.576392      14.101198    
      3220   14.076495      158.5          158.5          158.5          35.011623      40.560608      29.913472      34.56079       14.076495    
      3240   14.053713      158.5          158.5          158.5          34.987555      40.522924      29.8934        34.54634       14.053713    
      3260   14.033711      158.5          158.5          158.5          35.008506      40.553543      29.908483      34.563491      14.033711    
      3280   14.011618      158.5          158.5          158.5          35.004088      40.533388      29.918959      34.559917      14.011618    
      3300   13.981853      158.5          158.5          158.5          34.993681      40.510323      29.901594      34.569127      13.981853    
      3320   13.975675      158.5          158.5          158.5          34.994297      40.520137      29.910818      34.551936      13.975675    
      3340   13.967176      158.5          158.5          158.5          35.014236      40.563364      29.923927      34.555419      13.967176    
      3360   13.957488      158.5          158.5          158.5          34.997656      40.534133      29.9073        34.551537      13.957488    
      3380   13.949856      158.5          158.5          158.5          35.009465      40.547599      29.903851      34.576946      13.949856    
      3400   13.941427      158.5          158.5          158.5          35.034229      40.577992      29.933881      34.590814      13.941427    
      3420   13.937334      158.5          158.5          158.5          35.0342        40.575732      29.930948      34.595919      13.937334    
      3440   13.934157      158.5          158.5          158.5          35.03149       40.571647      29.932823      34.59          13.934157    
      3460   13.929541      158.5          158.5          158.5          35.013312      40.557547      29.911119      34.57127       13.929541    
      3480   13.927243      158.5          158.5          158.5          35.018382      40.554693      29.921217      34.579236      13.927243    
      3500   13.92581       158.5          158.5          158.5          35.014066      40.553139      29.917465      34.571595      13.92581     
      3520   13.925137      158.5          158.5          158.5          35.016728      40.556907      29.921512      34.571765      13.925137    
      3540   13.924595      158.5          158.5          158.5          35.017801      40.556119      29.921436      34.575846      13.924595    
      3560   13.923718      158.5          158.5          158.5          35.013243      40.553696      29.918964      34.567068      13.923718    
      3580   13.92283       158.5          158.5          158.5          35.01722       40.557857      29.920144      34.57366       13.92283     
      3600   13.922248      158.5          158.5          158.5          35.014428      40.556295      29.919928      34.567061      13.922248    
      3620   13.921976      158.5          158.5          158.5          35.017198      40.556412      29.921923      34.573258      13.921976    
      3640   13.92153       158.5          158.5          158.5          35.015499      40.554285      29.920403      34.571809      13.92153     
      3660   13.921129      158.5          158.5          158.5          35.012606      40.548574      29.917825      34.571419      13.921129    
      3680   13.920642      158.5          158.5          158.5          35.015689      40.556786      29.919395      34.570886      13.920642    
      3700   13.920068      158.5          158.5          158.5          35.016621      40.555739      29.918687      34.575437      13.920068    
      3720   13.919383      158.5          158.5          158.5          35.021418      40.564122      29.923668      34.576464      13.919383    
      3740   13.918047      158.5          158.5          158.5          35.027463      40.56958       29.928457      34.584353      13.918047    
      3760   13.915832      158.5          158.5          158.5          35.02594       40.560158      29.928551      34.589113      13.915832    
      3780   13.913822      158.5          158.5          158.5          35.022686      40.56544       29.920409      34.582208      13.913822    
      3800   13.910501      158.5          158.5          158.5          35.023736      40.557233      29.931973      34.582001      13.910501    
      3820   13.907055      158.5          158.5          158.5          35.022074      40.561886      29.929874      34.574463      13.907055    
      3840   13.905205      158.5          158.5          158.5          35.013311      40.548757      29.92351       34.567664      13.905205    
      3860   13.903804      158.5          158.5          158.5          35.011237      40.545275      29.924755      34.563682      13.903804    
      3880   13.900993      158.5          158.5          158.5          35.009508      40.536024      29.926437      34.566063      13.900993    
      3900   13.896514      158.5          158.5          158.5          35.012341      40.544276      29.91988       34.572866      13.896514    
      3920   13.89337       158.5          158.5          158.5          35.012054      40.554871      29.921699      34.559591      13.89337     
      3940   13.891262      158.5          158.5          158.5          35.021572      40.563398      29.931342      34.569977      13.891262    
      3960   13.890169      158.5          158.5          158.5          35.017239      40.556246      29.927218      34.568253      13.890169    
      3980   13.889029      158.5          158.5          158.5          35.019926      40.557097      29.92864       34.574042      13.889029    
      4000   13.887546      158.5          158.5          158.5          35.019575      40.557614      29.92867       34.57244       13.887546    
      4020   13.885033      158.5          158.5          158.5          35.020588      40.557686      29.926755      34.577323      13.885033    
      4040   13.883729      158.5          158.5          158.5          35.020188      40.556316      29.925876      34.578371      13.883729    
      4060   13.881981      158.5          158.5          158.5          35.018222      40.560326      29.921891      34.57245       13.881981    
      4080   13.880451      158.5          158.5          158.5          35.020143      40.557002      29.926391      34.577035      13.880451    
      4100   13.879652      158.5          158.5          158.5          35.019111      40.559609      29.92421       34.573515      13.879652    
      4120   13.879007      158.5          158.5          158.5          35.017708      40.55268       29.923422      34.577022      13.879007    
      4140   13.878627      158.5          158.5          158.5          35.017868      40.554129      29.924485      34.574991      13.878627    
      4160   13.878332      158.5          158.5          158.5          35.020426      40.560053      29.926262      34.574962      13.878332    
      4180   13.878109      158.5          158.5          158.5          35.01931       40.557965      29.925913      34.574053      13.878109    
      4200   13.877946      158.5          158.5          158.5          35.019716      40.557897      29.926496      34.574753      13.877946    
      4220   13.877877      158.5          158.5          158.5          35.017953      40.558586      29.924338      34.570935      13.877877    
      4240   13.877679      158.5          158.5          158.5          35.018268      40.557265      29.923617      34.573923      13.877679    
      4260   13.877387      158.5          158.5          158.5          35.0144        40.549674      29.921257      34.572267      13.877387    
      4280   13.876892      158.5          158.5          158.5          35.016938      40.550454      29.923992      34.576369      13.876892    
      4300   13.876387      158.5          158.5          158.5          35.017714      40.553761      29.923834      34.575548      13.876387    
      4320   13.875757      158.5          158.5          158.5          35.022832      40.559565      29.93224       34.57669       13.875757    
      4340   13.874492      158.5          158.5          158.5          35.022604      40.561394      29.926101      34.580317      13.874492    
      4360   13.873386      158.5          158.5          158.5          35.019014      40.553926      29.924693      34.578424      13.873386    
      4380   13.872388      158.5          158.5          158.5          35.026269      40.56631       29.930251      34.582245      13.872388    
      4400   13.870828      158.5          158.5          158.5          35.01784       40.561827      29.92166       34.570033      13.870828    
      4420   13.869734      158.5          158.5          158.5          35.01601       40.558824      29.92336       34.565846      13.869734    
      4440   13.868121      158.5          158.5          158.5          35.019368      40.556134      29.928349      34.573621      13.868121    
      4460   13.8661        158.5          158.5          158.5          35.029733      40.560052      29.940364      34.588782      13.8661      
      4480   13.86271       158.5          158.5          158.5          35.015649      40.540391      29.932073      34.574484      13.86271     
      4500   13.858497      158.5          158.5          158.5          35.01825       40.549934      29.928852      34.575963      13.858497    
      4520   13.856882      158.5          158.5          158.5          35.020119      40.55436       29.929226      34.576772      13.856882    
      4540   13.856101      158.5          158.5          158.5          35.020513      40.557465      29.92985       34.574224      13.856101    
      4560   13.855642      158.5          158.5          158.5          35.017567      40.554916      29.924816      34.572969      13.855642    
      4580   13.854971      158.5          158.5          158.5          35.019478      40.555571      29.927665      34.575198      13.854971    
      4600   13.854504      158.5          158.5          158.5          35.020487      40.561537      29.926403      34.57352       13.854504    
      4620   13.853976      158.5          158.5          158.5          35.021303      40.561538      29.927116      34.575254      13.853976    
      4640   13.853392      158.5          158.5          158.5          35.020472      40.559078      29.925255      34.577083      13.853392    
      4660   13.852918      158.5          158.5          158.5          35.023826      40.561905      29.92897       34.580602      13.852918    
      4680   13.852717      158.5          158.5          158.5          35.023375      40.559982      29.931257      34.578885      13.852717    
      4700   13.852132      158.5          158.5          158.5          35.028453      40.569153      29.935569      34.580635      13.852132    
      4720   13.851641      158.5          158.5          158.5          35.024184      40.561413      29.931053      34.580085      13.851641    
      4740   13.851533      158.5          158.5          158.5          35.021687      40.558353      29.92856       34.578148      13.851533    
      4760   13.851369      158.5          158.5          158.5          35.020102      40.558382      29.925727      34.576198      13.851369    
      4780   13.851207      158.5          158.5          158.5          35.022574      40.562321      29.928663      34.576737      13.851207    
      4800   13.85106       158.5          158.5          158.5          35.022152      40.561607      29.928266      34.576584      13.85106     
      4820   13.851021      158.5          158.5          158.5          35.022127      40.560653      29.928075      34.577653      13.851021    
      4840   13.850953      158.5          158.5          158.5          35.021528      40.55628       29.929756      34.578548      13.850953    
      4860   13.850758      158.5          158.5          158.5          35.023395      40.56115       29.930037      34.578999      13.850758    
      4880   13.850537      158.5          158.5          158.5          35.024323      40.56193       29.929634      34.581406      13.850537    
      4900   13.849977      158.5          158.5          158.5          35.020291      40.558886      29.924529      34.577459      13.849977    
      4920   13.849063      158.5          158.5          158.5          35.019444      40.558213      29.922728      34.577393      13.849063    
      4940   13.848229      158.5          158.5          158.5          35.016886      40.555341      29.921622      34.573696      13.848229    
      4960   13.846794      158.5          158.5          158.5          35.025615      40.567167      29.928781      34.580898      13.846794    
      4980   13.845377      158.5          158.5          158.5          35.023621      40.556493      29.93052       34.58385       13.845377    
      5000   13.844113      158.5          158.5          158.5          35.021807      40.561057      29.925619      34.578744      13.844113    
      5020   13.842626      158.5          158.5          158.5          35.02233       40.563451      29.927934      34.575606      13.842626    
      5040   13.841866      158.5          158.5          158.5          35.019338      40.562235      29.9259        34.569879      13.841866    
      5060   13.840841      158.5          158.5          158.5          35.017681      40.552179      29.929916      34.570948      13.840841    
      5080   13.83965       158.5          158.5          158.5          35.019807      40.551311      29.930325      34.577784      13.83965     
      5100   13.838903      158.5          158.5          158.5          35.022743      40.559618      29.928818      34.579793      13.838903    
      5120   13.838636      158.5          158.5          158.5          35.022168      40.55987       29.930462      34.576172      13.838636    
      5140   13.83842       158.5          158.5          158.5          35.020622      40.557862      29.928879      34.575125      13.83842     
      5160   13.838233      158.5          158.5          158.5          35.021748      40.559635      29.929013      34.576596      13.838233    
      5180   13.838         158.5          158.5          158.5          35.022494      40.563379      29.927739      34.576364      13.838       
      5200   13.837684      158.5          158.5          158.5          35.021309      40.558203      29.927047      34.578678      13.837684    
      5220   13.8374        158.5          158.5          158.5          35.021978      40.560009      29.927322      34.578604      13.8374      
      5240   13.837153      158.5          158.5          158.5          35.025621      40.563313      29.930288      34.583262      13.837153    
      5260   13.836891      158.5          158.5          158.5          35.024437      40.563321      29.929786      34.580203      13.836891    
      5280   13.836681      158.5          158.5          158.5          35.02185       40.558511      29.928265      34.578773      13.836681    
      5300   13.836423      158.5          158.5          158.5          35.023538      40.56271       29.928074      34.579831      13.836423    
      5320   13.836264      158.5          158.5          158.5          35.023702      40.562836      29.929661      34.57861       13.836264    
      5340   13.836152      158.5          158.5          158.5          35.022847      40.559075      29.930133      34.579331      13.836152    
      5360   13.83607       158.5          158.5          158.5          35.022104      40.559218      29.92858       34.578513      13.83607     
      5380   13.835984      158.5          158.5          158.5          35.02282       40.559528      29.93035       34.578583      13.835984    
      5400   13.835899      158.5          158.5          158.5          35.022439      40.55955       29.929533      34.578235      13.835899    
      5420   13.835855      158.5          158.5          158.5          35.021751      40.558695      29.929181      34.577375      13.835855    
      5440   13.835779      158.5          158.5          158.5          35.022474      40.56075       29.929148      34.577524      13.835779    
      5460   13.83572       158.5          158.5          158.5          35.02221       40.561024      29.928099      34.577507      13.83572     
      5480   13.835604      158.5          158.5          158.5          35.024507      40.561857      29.930495      34.58117       13.835604    
      5500   13.835443      158.5          158.5          158.5          35.025159      40.563731      29.930313      34.581434      13.835443    
      5520   13.835346      158.5          158.5          158.5          35.024914      40.562011      29.931427      34.581304      13.835346    
      5540   13.835236      158.5          158.5          158.5          35.025367      40.560677      29.932452      34.582971      13.835236    
      5560   13.835113      158.5          158.5          158.5          35.023382      40.560039      29.929578      34.58053       13.835113    
      5580   13.835025      158.5          158.5          158.5          35.021745      40.558511      29.927762      34.578962      13.835025    
      5600   13.834913      158.5          158.5          158.5          35.024799      40.561053      29.932314      34.581031      13.834913    
      5620   13.834796      158.5          158.5          158.5          35.02464       40.56171       29.931919      34.580291      13.834796    
      5640   13.834707      158.5          158.5          158.5          35.022792      40.560068      29.930609      34.577698      13.834707    
      5660   13.834648      158.5          158.5          158.5          35.023391      40.561546      29.930281      34.578347      13.834648    
      5680   13.834502      158.5          158.5          158.5          35.02409       40.562507      29.930424      34.57934       13.834502    
      5700   13.834323      158.5          158.5          158.5          35.023104      40.561491      29.930114      34.577707      13.834323    
      5720   13.834192      158.5          158.5          158.5          35.021677      40.557926      29.930533      34.576573      13.834192    
      5740   13.834071      158.5          158.5          158.5          35.023316      40.560607      29.930973      34.578368      13.834071    
      5760   13.83401       158.5          158.5          158.5          35.023685      40.561397      29.930825      34.578831      13.83401     
      5780   13.833914      158.5          158.5          158.5          35.023699      40.561704      29.930225      34.579169      13.833914    
      5800   13.833808      158.5          158.5          158.5          35.024324      40.561097      29.931737      34.580138      13.833808    
      5820   13.833736      158.5          158.5          158.5          35.023753      40.561152      29.930734      34.579373      13.833736    
      5840   13.833636      158.5          158.5          158.5          35.024735      40.562302      29.931065      34.580837      13.833636    
      5860   13.833545      158.5          158.5          158.5          35.02436       40.562066      29.930449      34.580566      13.833545    
      5880   13.83346       158.5          158.5          158.5          35.024804      40.562876      29.930108      34.581427      13.83346     
      5900   13.833336      158.5          158.5          158.5          35.023956      40.561958      29.930191      34.579718      13.833336    
      5920   13.833257      158.5          158.5          158.5          35.023201      40.560855      29.928729      34.580021      13.833257    
      5940   13.833184      158.5          158.5          158.5          35.024007      40.562416      29.930346      34.57926       13.833184    
      5960   13.833118      158.5          158.5          158.5          35.023156      40.562344      29.92964       34.577483      13.833118    
      5980   13.83308       158.5          158.5          158.5          35.023775      40.561488      29.93031       34.579526      13.83308     
      6000   13.833011      158.5          158.5          158.5          35.022824      40.560463      29.929377      34.578634      13.833011    
      6020   13.832957      158.5          158.5          158.5          35.024228      40.562478      29.930169      34.580036      13.832957    
      6040   13.832898      158.5          158.5          158.5          35.023432      40.560622      29.930429      34.579245      13.832898    
      6060   13.832825      158.5          158.5          158.5          35.025083      40.56301       29.931345      34.580894      13.832825    
      6080   13.832769      158.5          158.5          158.5          35.024985      40.563022      29.930787      34.581145      13.832769    
      6100   13.832691      158.5          158.5          158.5          35.025549      40.561842      29.932402      34.582404      13.832691    
      6120   13.832537      158.5          158.5          158.5          35.027039      40.563522      29.932595      34.585         13.832537    
      6140   13.832467      158.5          158.5          158.5          35.025229      40.561662      29.931844      34.582181      13.832467    
      6160   13.832418      158.5          158.5          158.5          35.023341      40.560701      29.929014      34.580307      13.832418    
      6180   13.832354      158.5          158.5          158.5          35.024444      40.56176       29.930755      34.580819      13.832354    
      6200   13.832272      158.5          158.5          158.5          35.023657      40.56187       29.930022      34.579079      13.832272    
      6220   13.8322        158.5          158.5          158.5          35.024942      40.563761      29.93145       34.579616      13.8322      
      6240   13.832148      158.5          158.5          158.5          35.023537      40.560524      29.93108       34.579009      13.832148    
      6260   13.832101      158.5          158.5          158.5          35.023893      40.560833      29.930996      34.579851      13.832101    
      6280   13.832017      158.5          158.5          158.5          35.023171      40.561062      29.931055      34.577396      13.832017    
      6300   13.831863      158.5          158.5          158.5          35.024746      40.563458      29.931169      34.579611      13.831863    
      6320   13.831759      158.5          158.5          158.5          35.023614      40.562423      29.930599      34.57782       13.831759    
      6340   13.831649      158.5          158.5          158.5          35.023655      40.561609      29.930266      34.57909       13.831649    
      6360   13.831604      158.5          158.5          158.5          35.023134      40.5619        29.929751      34.577751      13.831604    
      6380   13.83155       158.5          158.5          158.5          35.024418      40.562623      29.931085      34.579545      13.83155     
      6400   13.831487      158.5          158.5          158.5          35.024461      40.561678      29.931656      34.580049      13.831487    
      6420   13.831425      158.5          158.5          158.5          35.022839      40.559364      29.92949       34.579663      13.831425    
      6440   13.83137       158.5          158.5          158.5          35.024441      40.562041      29.930539      34.580743      13.83137     
      6460   13.831308      158.5          158.5          158.5          35.026345      40.564506      29.931645      34.582883      13.831308    
      6480   13.831203      158.5          158.5          158.5          35.023681      40.561034      29.929552      34.580458      13.831203    
      6500   13.831101      158.5          158.5          158.5          35.024657      40.561231      29.931637      34.581104      13.831101    
      6520   13.831009      158.5          158.5          158.5          35.026376      40.564179      29.932575      34.582376      13.831009    
      6540   13.830934      158.5          158.5          158.5          35.024859      40.563423      29.930332      34.580822      13.830934    
      6560   13.830873      158.5          158.5          158.5          35.023289      40.560164      29.930203      34.579498      13.830873    
      6580   13.830818      158.5          158.5          158.5          35.023784      40.561766      29.930733      34.578854      13.830818    
      6600   13.830671      158.5          158.5          158.5          35.022429      40.559755      29.930611      34.576921      13.830671    
      6620   13.830606      158.5          158.5          158.5          35.022188      40.560503      29.928616      34.577445      13.830606    
      6640   13.83054       158.5          158.5          158.5          35.023876      40.55908       29.931513      34.581036      13.83054     
      6660   13.830484      158.5          158.5          158.5          35.025209      40.562931      29.93133       34.581366      13.830484    
      6680   13.830407      158.5          158.5          158.5          35.026257      40.56263       29.932602      34.583539      13.830407    
      6700   13.830327      158.5          158.5          158.5          35.024079      40.560921      29.931559      34.579756      13.830327    
      6720   13.830269      158.5          158.5          158.5          35.025535      40.563129      29.931607      34.581871      13.830269    
      6740   13.8302        158.5          158.5          158.5          35.026234      40.563616      29.933044      34.582041      13.8302      
      6760   13.830116      158.5          158.5          158.5          35.024536      40.561777      29.930988      34.580843      13.830116    
      6780   13.830077      158.5          158.5          158.5          35.025071      40.561146      29.931808      34.582259      13.830077    
      6800   13.830045      158.5          158.5          158.5          35.024582      40.561005      29.931613      34.581129      13.830045    
      6820   13.830015      158.5          158.5          158.5          35.024637      40.561973      29.931143      34.580795      13.830015    
      6840   13.829973      158.5          158.5          158.5          35.024338      40.562048      29.930564      34.580402      13.829973    
      6860   13.829939      158.5          158.5          158.5          35.023639      40.5618        29.929632      34.579484      13.829939    
      6880   13.82989       158.5          158.5          158.5          35.023635      40.561411      29.930285      34.579208      13.82989     
      6900   13.829783      158.5          158.5          158.5          35.024621      40.562356      29.932958      34.578549      13.829783    
      6920   13.829716      158.5          158.5          158.5          35.024925      40.562743      29.932182      34.579852      13.829716    
      6940   13.829642      158.5          158.5          158.5          35.022792      40.560131      29.929258      34.578987      13.829642    
      6960   13.829579      158.5          158.5          158.5          35.023621      40.56037       29.930406      34.580088      13.829579    
      6980   13.829549      158.5          158.5          158.5          35.024151      40.561682      29.931033      34.579737      13.829549    
      7000   13.829525      158.5          158.5          158.5          35.024672      40.561956      29.931218      34.580841      13.829525    
      7020   13.829502      158.5          158.5          158.5          35.024637      40.562736      29.930789      34.580387      13.829502    
      7040   13.829475      158.5          158.5          158.5          35.02534       40.562243      29.931772      34.582004      13.829475    
      7060   13.829415      158.5          158.5          158.5          35.025166      40.562537      29.930696      34.582264      13.829415    
      7080   13.82935       158.5          158.5          158.5          35.025005      40.561496      29.931824      34.581696      13.82935     
      7100   13.829105      158.5          158.5          158.5          35.02579       40.560523      29.933315      34.583533      13.829105    
      7120   13.828712      158.5          158.5          158.5          35.025147      40.563974      29.927435      34.584032      13.828712    
      7140   13.828305      158.5          158.5          158.5          35.025037      40.557877      29.93108       34.586153      13.828305    
      7160   13.827941      158.5          158.5          158.5          35.025056      40.560838      29.930711      34.583618      13.827941    
      7180   13.827651      158.5          158.5          158.5          35.02376       40.560044      29.930449      34.580787      13.827651    
      7200   13.827275      158.5          158.5          158.5          35.026212      40.563961      29.93196       34.582713      13.827275    
      7220   13.827088      158.5          158.5          158.5          35.022552      40.559932      29.927327      34.580398      13.827088    
      7240   13.826828      158.5          158.5          158.5          35.023341      40.560804      29.929834      34.579385      13.826828    
      7260   13.826465      158.5          158.5          158.5          35.028187      40.561785      29.934144      34.588631      13.826465    
      7280   13.825985      158.5          158.5          158.5          35.021022      40.561755      29.924736      34.576574      13.825985    
      7300   13.825311      158.5          158.5          158.5          35.021143      40.557768      29.926949      34.578712      13.825311    
      7320   13.825094      158.5          158.5          158.5          35.025071      40.563692      29.931046      34.580476      13.825094    
      7340   13.825044      158.5          158.5          158.5          35.025605      40.563664      29.932349      34.580801      13.825044    
      7360   13.825022      158.5          158.5          158.5          35.025472      40.563054      29.932463      34.5809        13.825022    
      7380   13.825004      158.5          158.5          158.5          35.025819      40.563217      29.93262       34.58162       13.825004    
      7400   13.824986      158.5          158.5          158.5          35.025135      40.562219      29.931988      34.581197      13.824986    
      7420   13.82497       158.5          158.5          158.5          35.025215      40.561976      29.931958      34.581711      13.82497     
      7440   13.824953      158.5          158.5          158.5          35.024677      40.561897      29.931284      34.580849      13.824953    
      7460   13.824938      158.5          158.5          158.5          35.025298      40.562133      29.932174      34.581588      13.824938    
      7480   13.82491       158.5          158.5          158.5          35.024746      40.560523      29.931927      34.581788      13.82491     
      7500   13.824862      158.5          158.5          158.5          35.026253      40.563653      29.932408      34.582697      13.824862    
      7520   13.824834      158.5          158.5          158.5          35.024841      40.562092      29.931967      34.580464      13.824834    
      7540   13.824815      158.5          158.5          158.5          35.025639      40.562748      29.932034      34.582135      13.824815    
      7560   13.824804      158.5          158.5          158.5          35.025587      40.562803      29.932479      34.581477      13.824804    
      7580   13.824788      158.5          158.5          158.5          35.02576       40.56244       29.932874      34.581965      13.824788    
      7600   13.824775      158.5          158.5          158.5          35.025369      40.562311      29.93198       34.581816      13.824775    
      7620   13.824754      158.5          158.5          158.5          35.024753      40.562228      29.931854      34.580177      13.824754    
      7640   13.824734      158.5          158.5          158.5          35.025584      40.563776      29.932065      34.58091       13.824734    
      7660   13.824691      158.5          158.5          158.5          35.025639      40.564472      29.932095      34.58035       13.824691    
      7680   13.824584      158.5          158.5          158.5          35.026426      40.564229      29.933461      34.581588      13.824584    
      7700   13.824412      158.5          158.5          158.5          35.025442      40.564983      29.932102      34.57924       13.824412    
      7720   13.824207      158.5          158.5          158.5          35.026436      40.564052      29.93228       34.582976      13.824207    
      7740   13.823958      158.5          158.5          158.5          35.025557      40.561933      29.932975      34.581764      13.823958    
      7760   13.82383       158.5          158.5          158.5          35.026307      40.562309      29.933521      34.583093      13.82383     
      7780   13.823748      158.5          158.5          158.5          35.024333      40.561393      29.930223      34.581382      13.823748    
      7800   13.823544      158.5          158.5          158.5          35.024408      40.562255      29.930589      34.580381      13.823544    
      7820   13.823489      158.5          158.5          158.5          35.024385      40.561723      29.931203      34.580231      13.823489    
      7840   13.823448      158.5          158.5          158.5          35.025972      40.562598      29.932544      34.582774      13.823448    
      7860   13.823405      158.5          158.5          158.5          35.026042      40.56391       29.932547      34.581668      13.823405    
      7880   13.823372      158.5          158.5          158.5          35.02749       40.564392      29.933772      34.584306      13.823372    
      7900   13.823322      158.5          158.5          158.5          35.025684      40.563346      29.931995      34.581712      13.823322    
      7920   13.823255      158.5          158.5          158.5          35.025562      40.561767      29.932891      34.582027      13.823255    
      7940   13.823207      158.5          158.5          158.5          35.026504      40.563246      29.933826      34.58244       13.823207    
      7960   13.823174      158.5          158.5          158.5          35.025222      40.562615      29.932501      34.580551      13.823174    
      7980   13.823161      158.5          158.5          158.5          35.024931      40.56191       29.931869      34.581014      13.823161    
      8000   13.823153      158.5          158.5          158.5          35.025102      40.56166       29.932273      34.581371      13.823153    
      8020   13.823141      158.5          158.5          158.5          35.026045      40.563013      29.932944      34.582179      13.823141    
      8040   13.82313       158.5          158.5          158.5          35.025912      40.563436      29.932715      34.581585      13.82313     
      8060   13.823118      158.5          158.5          158.5          35.025464      40.562701      29.932261      34.581429      13.823118    
      8080   13.823098      158.5          158.5          158.5          35.025208      40.562578      29.930985      34.582062      13.823098    
      8100   13.823066      158.5          158.5          158.5          35.027378      40.565624      29.933387      34.583124      13.823066    
      8120   13.823051      158.5          158.5          158.5          35.0265        40.563931      29.932905      34.582664      13.823051    
      8140   13.823035      158.5          158.5          158.5          35.02547       40.562724      29.932186      34.581499      13.823035    
      8160   13.82302       158.5          158.5          158.5          35.026518      40.563491      29.933842      34.582221      13.82302     
      8180   13.823007      158.5          158.5          158.5          35.025471      40.56245       29.932396      34.581568      13.823007    
      8200   13.822994      158.5          158.5          158.5          35.024777      40.56169       29.932001      34.580639      13.822994    
      8220   13.822981      158.5          158.5          158.5          35.024693      40.561167      29.932384      34.580527      13.822981    
      8240   13.822961      158.5          158.5          158.5          35.025608      40.562372      29.932619      34.581833      13.822961    
      8260   13.82293       158.5          158.5          158.5          35.025625      40.562855      29.933571      34.58045       13.82293     
      8280   13.822903      158.5          158.5          158.5          35.026596      40.564974      29.932643      34.58217       13.822903    
      8300   13.822861      158.5          158.5          158.5          35.025261      40.562201      29.932271      34.581311      13.822861    
      8320   13.822824      158.5          158.5          158.5          35.026262      40.564535      29.932143      34.582109      13.822824    
      8340   13.822793      158.5          158.5          158.5          35.027298      40.565333      29.933214      34.583345      13.822793    
      8360   13.822765      158.5          158.5          158.5          35.025754      40.563092      29.932013      34.582158      13.822765    
      8380   13.822738      158.5          158.5          158.5          35.025752      40.562497      29.932593      34.582167      13.822738    
      8400   13.822679      158.5          158.5          158.5          35.024984      40.563711      29.931479      34.579762      13.822679    
      8420   13.822633      158.5          158.5          158.5          35.026218      40.563155      29.932203      34.583294      13.822633    
      8440   13.822599      158.5          158.5          158.5          35.02633       40.563355      29.932713      34.582923      13.822599    
      8460   13.822567      158.5          158.5          158.5          35.027109      40.564447      29.933586      34.583292      13.822567    
      8480   13.822536      158.5          158.5          158.5          35.026478      40.564146      29.933146      34.582143      13.822536    
      8500   13.822498      158.5          158.5          158.5          35.025375      40.563147      29.931575      34.581404      13.822498    
      8520   13.822469      158.5          158.5          158.5          35.026403      40.564396      29.932621      34.582192      13.822469    
      8540   13.822447      158.5          158.5          158.5          35.025718      40.56331       29.933172      34.580671      13.822447    
      8560   13.82242       158.5          158.5          158.5          35.026339      40.563654      29.932875      34.582488      13.82242     
      8580   13.822397      158.5          158.5          158.5          35.024605      40.562023      29.931452      34.580341      13.822397    
      8600   13.822379      158.5          158.5          158.5          35.02489       40.561177      29.932072      34.581422      13.822379    
      8620   13.822367      158.5          158.5          158.5          35.02595       40.562754      29.932916      34.58218       13.822367    
      8640   13.822356      158.5          158.5          158.5          35.02642       40.563622      29.933483      34.582153      13.822356    
      8660   13.822347      158.5          158.5          158.5          35.026046      40.563498      29.932719      34.581919      13.822347    
      8680   13.822336      158.5          158.5          158.5          35.02584       40.563137      29.932101      34.582281      13.822336    
      8700   13.822324      158.5          158.5          158.5          35.026775      40.564077      29.933316      34.582932      13.822324    
      8720   13.822319      158.5          158.5          158.5          35.025639      40.562586      29.932127      34.582203      13.822319    
      8740   13.822313      158.5          158.5          158.5          35.025856      40.562958      29.932817      34.581793      13.822313    
      8760   13.822307      158.5          158.5          158.5          35.026063      40.563733      29.932731      34.581724      13.822307    
      8780   13.822299      158.5          158.5          158.5          35.025659      40.562495      29.932657      34.581826      13.822299    
      8800   13.822286      158.5          158.5          158.5          35.024692      40.56048       29.932468      34.581129      13.822286    
      8820   13.822254      158.5          158.5          158.5          35.024496      40.561101      29.93192       34.580466      13.822254    
      8840   13.822192      158.5          158.5          158.5          35.026405      40.562057      29.933869      34.583289      13.822192    
      8860   13.822112      158.5          158.5          158.5          35.026187      40.563177      29.934849      34.580536      13.822112    
      8880   13.822026      158.5          158.5          158.5          35.026344      40.565113      29.932013      34.581906      13.822026    
      8900   13.821902      158.5          158.5          158.5          35.025103      40.563384      29.931341      34.580585      13.821902    
      8920   13.821744      158.5          158.5          158.5          35.026137      40.563843      29.933341      34.581226      13.821744    
      8940   13.821632      158.5          158.5          158.5          35.025911      40.563633      29.933333      34.580768      13.821632    
      8960   13.821482      158.5          158.5          158.5          35.024465      40.560339      29.930434      34.582622      13.821482    
      8980   13.821367      158.5          158.5          158.5          35.025784      40.564272      29.931665      34.581416      13.821367    
      9000   13.821197      158.5          158.5          158.5          35.026114      40.56423       29.933311      34.580802      13.821197    
      9020   13.821094      158.5          158.5          158.5          35.027118      40.564438      29.932587      34.584329      13.821094    
      9040   13.821014      158.5          158.5          158.5          35.025831      40.563334      29.932075      34.582084      13.821014    
      9060   13.820933      158.5          158.5          158.5          35.026789      40.565515      29.933164      34.581688      13.820933    
      9080   13.820863      158.5          158.5          158.5          35.027091      40.564091      29.93426       34.582922      13.820863    
      9100   13.820773      158.5          158.5          158.5          35.025807      40.56288       29.933609      34.580932      13.820773    
      9120   13.820702      158.5          158.5          158.5          35.025671      40.563664      29.933259      34.58009       13.820702    
      9140   13.820649      158.5          158.5          158.5          35.025493      40.563717      29.932962      34.579799      13.820649    
      9160   13.820614      158.5          158.5          158.5          35.025869      40.562991      29.933045      34.58157       13.820614    
      9180   13.820579      158.5          158.5          158.5          35.025653      40.5629        29.932836      34.581222      13.820579    
      9200   13.820551      158.5          158.5          158.5          35.025541      40.561853      29.932853      34.581916      13.820551    
      9220   13.820533      158.5          158.5          158.5          35.025923      40.562883      29.932953      34.581934      13.820533    
      9240   13.820523      158.5          158.5          158.5          35.025928      40.563191      29.933027      34.581566      13.820523    
      9260   13.820518      158.5          158.5          158.5          35.026271      40.56337       29.933192      34.582251      13.820518    
      9280   13.820514      158.5          158.5          158.5          35.02607       40.563074      29.932981      34.582155      13.820514    
      9300   13.820511      158.5          158.5          158.5          35.026293      40.563364      29.933168      34.582348      13.820511    
      9320   13.820509      158.5          158.5          158.5          35.026161      40.563025      29.933013      34.582445      13.820509    
      9340   13.820505      158.5          158.5          158.5          35.026352      40.563501      29.933271      34.582286      13.820505    
      9360   13.8205        158.5          158.5          158.5          35.026463      40.563985      29.933404      34.582001      13.8205      
      9380   13.820485      158.5          158.5          158.5          35.026689      40.563526      29.934006      34.582534      13.820485    
      9400   13.820449      158.5          158.5          158.5          35.024901      40.560875      29.932108      34.581718      13.820449    
      9420   13.820385      158.5          158.5          158.5          35.025413      40.561041      29.933617      34.581581      13.820385    
      9440   13.820273      158.5          158.5          158.5          35.024929      40.561709      29.932409      34.580668      13.820273    
      9460   13.820108      158.5          158.5          158.5          35.026332      40.564387      29.934076      34.580534      13.820108    
      9480   13.819922      158.5          158.5          158.5          35.024645      40.564852      29.930874      34.578208      13.819922    
      9500   13.819644      158.5          158.5          158.5          35.026563      40.563995      29.933443      34.582249      13.819644    
      9520   13.81937       158.5          158.5          158.5          35.027276      40.565518      29.933189      34.583122      13.81937     
      9540   13.819118      158.5          158.5          158.5          35.027232      40.56295       29.935649      34.583098      13.819118    
      9560   13.818974      158.5          158.5          158.5          35.027836      40.563798      29.932739      34.586971      13.818974    
      9580   13.818908      158.5          158.5          158.5          35.025788      40.563238      29.932124      34.582002      13.818908    
      9600   13.818748      158.5          158.5          158.5          35.025334      40.56167       29.932095      34.582238      13.818748    
      9620   13.8187        158.5          158.5          158.5          35.026753      40.564305      29.933379      34.582574      13.8187      
      9640   13.818673      158.5          158.5          158.5          35.027281      40.564013      29.933937      34.583894      13.818673    
      9660   13.818651      158.5          158.5          158.5          35.027006      40.563859      29.93391       34.58325       13.818651    
      9680   13.818637      158.5          158.5          158.5          35.026462      40.56298       29.933458      34.582946      13.818637    
      9700   13.818621      158.5          158.5          158.5          35.026388      40.563076      29.933159      34.582929      13.818621    
      9720   13.818606      158.5          158.5          158.5          35.026471      40.563308      29.933444      34.58266       13.818606    
      9740   13.818599      158.5          158.5          158.5          35.026618      40.563497      29.933771      34.582588      13.818599    
      9760   13.818591      158.5          158.5          158.5          35.025927      40.562854      29.932962      34.581965      13.818591    
      9780   13.818583      158.5          158.5          158.5          35.025867      40.562752      29.932812      34.582037      13.818583    
      9800   13.818577      158.5          158.5          158.5          35.02646       40.56308       29.933766      34.582533      13.818577    
      9820   13.818573      158.5          158.5          158.5          35.02667       40.563265      29.933809      34.582935      13.818573    
      9840   13.818571      158.5          158.5          158.5          35.026528      40.563311      29.933587      34.582686      13.818571    
      9860   13.818569      158.5          158.5          158.5          35.026672      40.56341       29.933419      34.583186      13.818569    
      9880   13.818566      158.5          158.5          158.5          35.02628       40.563095      29.933033      34.582713      13.818566    
      9900   13.818559      158.5          158.5          158.5          35.026605      40.563784      29.933431      34.582601      13.818559    
      9920   13.818558      158.5          158.5          158.5          35.026705      40.56359       29.933458      34.583069      13.818558    
      9940   13.818556      158.5          158.5          158.5          35.026593      40.563527      29.933541      34.582711      13.818556    
      9960   13.818555      158.5          158.5          158.5          35.026615      40.563636      29.933626      34.582584      13.818555    
      9980   13.818552      158.5          158.5          158.5          35.02659       40.563583      29.933519      34.582668      13.818552    
     10000   13.818549      158.5          158.5          158.5          35.026396      40.563187      29.933458      34.582544      13.818549    
     10020   13.818545      158.5          158.5          158.5          35.025898      40.56268       29.933201      34.581812      13.818545    
     10040   13.81854       158.5          158.5          158.5          35.026373      40.563245      29.933528      34.582344      13.81854     
     10060   13.818534      158.5          158.5          158.5          35.026671      40.563724      29.933739      34.58255       13.818534    
     10080   13.818526      158.5          158.5          158.5          35.02608       40.563072      29.933347      34.58182       13.818526    
     10100   13.818517      158.5          158.5          158.5          35.026581      40.56359       29.933541      34.58261       13.818517    
     10120   13.818508      158.5          158.5          158.5          35.027154      40.564112      29.934058      34.583294      13.818508    
     10140   13.818497      158.5          158.5          158.5          35.02659       40.563395      29.933485      34.582891      13.818497    
     10160   13.818487      158.5          158.5          158.5          35.026498      40.563211      29.933515      34.582769      13.818487    
     10180   13.818475      158.5          158.5          158.5          35.026527      40.562573      29.933653      34.583355      13.818475    
     10200   13.818439      158.5          158.5          158.5          35.024964      40.560736      29.932005      34.58215       13.818439    
     10220   13.818418      158.5          158.5          158.5          35.026476      40.562697      29.933063      34.583667      13.818418    
     10240   13.818411      158.5          158.5          158.5          35.026497      40.563041      29.933613      34.582838      13.818411    
     10260   13.818406      158.5          158.5          158.5          35.026557      40.563147      29.933582      34.582941      13.818406    
     10280   13.818401      158.5          158.5          158.5          35.026758      40.563638      29.933778      34.582859      13.818401    
     10300   13.818397      158.5          158.5          158.5          35.026424      40.563131      29.933674      34.582468      13.818397    
     10320   13.818394      158.5          158.5          158.5          35.026628      40.563438      29.933973      34.582472      13.818394    
     10340   13.818391      158.5          158.5          158.5          35.026783      40.563803      29.933811      34.582736      13.818391    
     10360   13.818387      158.5          158.5          158.5          35.026483      40.563232      29.933363      34.582856      13.818387    
     10380   13.818384      158.5          158.5          158.5          35.026158      40.563102      29.933188      34.582185      13.818384    
     10400   13.81838       158.5          158.5          158.5          35.026505      40.563369      29.933495      34.582652      13.81838     
     10420   13.818376      158.5          158.5          158.5          35.026456      40.563288      29.933407      34.582674      13.818376    
     10440   13.818374      158.5          158.5          158.5          35.026523      40.56338       29.933583      34.582606      13.818374    
     10460   13.818373      158.5          158.5          158.5          35.026475      40.563392      29.933445      34.58259       13.818373    
     10480   13.818371      158.5          158.5          158.5          35.026802      40.56362       29.9337        34.583085      13.818371    
     10500   13.818369      158.5          158.5          158.5          35.02652       40.563621      29.933427      34.582512      13.818369    
     10520   13.818367      158.5          158.5          158.5          35.026719      40.563632      29.93359       34.582936      13.818367    
     10540   13.818366      158.5          158.5          158.5          35.026454      40.563119      29.933559      34.582685      13.818366    
     10560   13.818365      158.5          158.5          158.5          35.026529      40.563288      29.933581      34.58272       13.818365    
     10580   13.818363      158.5          158.5          158.5          35.026552      40.563288      29.933804      34.582563      13.818363    
     10600   13.81836       158.5          158.5          158.5          35.026486      40.563239      29.933675      34.582544      13.81836     
     10620   13.818357      158.5          158.5          158.5          35.026115      40.563043      29.933297      34.582007      13.818357    
     10640   13.818354      158.5          158.5          158.5          35.026419      40.563186      29.933622      34.58245       13.818354    
     10660   13.818349      158.5          158.5          158.5          35.026621      40.563315      29.933715      34.582834      13.818349    
     10680   13.818345      158.5          158.5          158.5          35.026116      40.562744      29.933308      34.582295      13.818345    
     10700   13.81834       158.5          158.5          158.5          35.026292      40.563351      29.933149      34.582375      13.81834     
     10720   13.818335      158.5          158.5          158.5          35.026688      40.563688      29.933645      34.58273       13.818335    
     10740   13.818331      158.5          158.5          158.5          35.026707      40.563326      29.933906      34.58289       13.818331    
     10760   13.818326      158.5          158.5          158.5          35.026359      40.563154      29.933318      34.582605      13.818326    
     10780   13.818318      158.5          158.5          158.5          35.026602      40.562862      29.933392      34.583551      13.818318    
     10800   13.818286      158.5          158.5          158.5          35.024767      40.560229      29.932642      34.581429      13.818286    
     10820   13.81827       158.5          158.5          158.5          35.026547      40.562792      29.93331       34.58354       13.81827     
     10840   13.818265      158.5          158.5          158.5          35.026453      40.563041      29.93343       34.582889      13.818265    
     10860   13.818262      158.5          158.5          158.5          35.0267        40.563469      29.933723      34.582907      13.818262    
     10880   13.81826       158.5          158.5          158.5          35.026682      40.563428      29.933805      34.582815      13.81826     
     10900   13.818259      158.5          158.5          158.5          35.026377      40.563021      29.933303      34.582807      13.818259    
     10920   13.818256      158.5          158.5          158.5          35.0264        40.562969      29.933589      34.582643      13.818256    
     10940   13.818254      158.5          158.5          158.5          35.026678      40.563684      29.93363       34.58272       13.818254    
     10960   13.818251      158.5          158.5          158.5          35.026495      40.563481      29.933422      34.582583      13.818251    
     10980   13.818249      158.5          158.5          158.5          35.026145      40.563088      29.933149      34.582199      13.818249    
     11000   13.818246      158.5          158.5          158.5          35.026412      40.563416      29.933364      34.582455      13.818246    
     11020   13.818243      158.5          158.5          158.5          35.026408      40.56326       29.933591      34.582374      13.818243    
     11040   13.81824       158.5          158.5          158.5          35.026709      40.563538      29.933721      34.582869      13.81824     
     11060   13.818238      158.5          158.5          158.5          35.026559      40.563385      29.933628      34.582664      13.818238    
     11080   13.818236      158.5          158.5          158.5          35.026633      40.563388      29.93359       34.582923      13.818236    
     11100   13.818234      158.5          158.5          158.5          35.026585      40.563667      29.933496      34.582593      13.818234    
     11120   13.818232      158.5          158.5          158.5          35.026725      40.563577      29.933545      34.583052      13.818232    
     11140   13.818231      158.5          158.5          158.5          35.026555      40.563543      29.933534      34.582589      13.818231    
     11160   13.818229      158.5          158.5          158.5          35.026546      40.563425      29.933605      34.582608      13.818229    
     11180   13.818226      158.5          158.5          158.5          35.026426      40.56338       29.93348       34.582419      13.818226    
     11200   13.818224      158.5          158.5          158.5          35.02639       40.563217      29.933459      34.582494      13.818224    
     11220   13.818222      158.5          158.5          158.5          35.02623       40.563178      29.933398      34.582114      13.818222    
     11240   13.81822       158.5          158.5          158.5          35.026423      40.563454      29.933356      34.582459      13.81822     
     11260   13.818216      158.5          158.5          158.5          35.026519      40.563103      29.933412      34.583043      13.818216    
     11280   13.818213      158.5          158.5          158.5          35.02654       40.563169      29.93371       34.58274       13.818213    
     11300   13.818211      158.5          158.5          158.5          35.026642      40.563457      29.933662      34.582808      13.818211    
     11320   13.818209      158.5          158.5          158.5          35.026693      40.563562      29.933581      34.582936      13.818209    
     11340   13.818207      158.5          158.5          158.5          35.026539      40.563239      29.933453      34.582925      13.818207    
     11360   13.818203      158.5          158.5          158.5          35.026501      40.563132      29.933541      34.58283       13.818203    
     11380   13.818197      158.5          158.5          158.5          35.026376      40.562341      29.933487      34.5833        13.818197    
     11400   13.81817       158.5          158.5          158.5          35.025317      40.56228       29.932401      34.581269      13.81817     
     11420   13.818154      158.5          158.5          158.5          35.02634       40.562485      29.933489      34.583047      13.818154    
     11440   13.81815       158.5          158.5          158.5          35.026402      40.562924      29.933548      34.582733      13.81815     
     11460   13.818148      158.5          158.5          158.5          35.026511      40.563318      29.93342       34.582795      13.818148    
     11480   13.818146      158.5          158.5          158.5          35.026682      40.563393      29.933706      34.582949      13.818146    
     11500   13.818144      158.5          158.5          158.5          35.026474      40.563292      29.933419      34.582712      13.818144    
     11520   13.818141      158.5          158.5          158.5          35.026414      40.563161      29.933649      34.58243       13.818141    
     11540   13.818139      158.5          158.5          158.5          35.026687      40.563354      29.933709      34.582997      13.818139    
     11560   13.818136      158.5          158.5          158.5          35.026314      40.563154      29.933355      34.582433      13.818136    
     11580   13.818134      158.5          158.5          158.5          35.026276      40.563233      29.933288      34.582306      13.818134    
     11600   13.818132      158.5          158.5          158.5          35.026364      40.56307       29.933486      34.582537      13.818132    
     11620   13.81813       158.5          158.5          158.5          35.026499      40.56323       29.933562      34.582705      13.81813     
     11640   13.818128      158.5          158.5          158.5          35.026491      40.563359      29.933494      34.582619      13.818128    
     11660   13.818126      158.5          158.5          158.5          35.026573      40.56342       29.933629      34.582671      13.818126    
     11680   13.818125      158.5          158.5          158.5          35.026631      40.563441      29.933594      34.582856      13.818125    
     11700   13.818123      158.5          158.5          158.5          35.026494      40.563649      29.933295      34.582539      13.818123    
     11720   13.818121      158.5          158.5          158.5          35.026538      40.563359      29.93352       34.582736      13.818121    
     11740   13.81812       158.5          158.5          158.5          35.026476      40.563329      29.933554      34.582545      13.81812     
     11760   13.818118      158.5          158.5          158.5          35.026596      40.56336       29.933731      34.582697      13.818118    
     11780   13.818117      158.5          158.5          158.5          35.026442      40.563419      29.933461      34.582445      13.818117    
     11800   13.818115      158.5          158.5          158.5          35.026496      40.563455      29.93352       34.582514      13.818115    
     11820   13.818113      158.5          158.5          158.5          35.026163      40.5631        29.933181      34.582209      13.818113    
     11840   13.818111      158.5          158.5          158.5          35.026366      40.563278      29.93328       34.58254       13.818111    
     11860   13.818109      158.5          158.5          158.5          35.026715      40.563626      29.933587      34.58293       13.818109    
     11880   13.818107      158.5          158.5          158.5          35.026426      40.563002      29.93349       34.582785      13.818107    
     11900   13.818104      158.5          158.5          158.5          35.0265        40.563039      29.9336        34.58286       13.818104    
     11920   13.818102      158.5          158.5          158.5          35.026475      40.563202      29.933451      34.582771      13.818102    
     11940   13.818101      158.5          158.5          158.5          35.026652      40.563454      29.933734      34.582769      13.818101    
     11960   13.818099      158.5          158.5          158.5          35.026498      40.563074      29.933579      34.582841      13.818099    
     11980   13.818097      158.5          158.5          158.5          35.026425      40.562885      29.933481      34.582909      13.818097    
     12000   13.818093      158.5          158.5          158.5          35.026193      40.562478      29.933329      34.582774      13.818093    
     12020   13.818089      158.5          158.5          158.5          35.026317      40.56291       29.933267      34.582775      13.818089    
     12040   13.818086      158.5          158.5          158.5          35.026611      40.563271      29.933755      34.582806      13.818086    
     12060   13.818084      158.5          158.5          158.5          35.026918      40.563597      29.933925      34.583233      13.818084    
     12080   13.818082      158.5          158.5          158.5          35.026368      40.56327       29.933238      34.582595      13.818082    
     12100   13.818078      158.5          158.5          158.5          35.02628       40.562681      29.933528      34.58263       13.818078    
     12120   13.818076      158.5          158.5          158.5          35.026717      40.563348      29.933793      34.583009      13.818076    
     12140   13.818073      158.5          158.5          158.5          35.026457      40.563578      29.933318      34.582474      13.818073    
     12160   13.818071      158.5          158.5          158.5          35.026299      40.563039      29.933433      34.582425      13.818071    
     12180   13.81807       158.5          158.5          158.5          35.026452      40.563176      29.933605      34.582575      13.81807     
     12200   13.818068      158.5          158.5          158.5          35.026484      40.563398      29.933458      34.582597      13.818068    
     12220   13.818067      158.5          158.5          158.5          35.026532      40.563238      29.933556      34.582802      13.818067    
     12240   13.818066      158.5          158.5          158.5          35.026443      40.563294      29.933401      34.582635      13.818066    
     12260   13.818065      158.5          158.5          158.5          35.026615      40.563441      29.933617      34.582786      13.818065    
     12280   13.818064      158.5          158.5          158.5          35.026692      40.563583      29.933797      34.582698      13.818064    
     12300   13.818058      158.5          158.5          158.5          35.026438      40.563498      29.933388      34.582428      13.818058    
     12320   13.818055      158.5          158.5          158.5          35.026615      40.563491      29.933664      34.582691      13.818055    
     12340   13.818054      158.5          158.5          158.5          35.026607      40.563465      29.933512      34.582844      13.818054    
     12360   13.818053      158.5          158.5          158.5          35.026519      40.563172      29.933637      34.582749      13.818053    
     12380   13.818052      158.5          158.5          158.5          35.026376      40.563254      29.933452      34.582423      13.818052    
     12400   13.81805       158.5          158.5          158.5          35.026421      40.563195      29.933469      34.582598      13.81805     
     12420   13.818049      158.5          158.5          158.5          35.026444      40.563389      29.933454      34.582489      13.818049    
     12440   13.818047      158.5          158.5          158.5          35.026181      40.563132      29.933061      34.582349      13.818047    
     12460   13.818044      158.5          158.5          158.5          35.026557      40.563262      29.933674      34.582735      13.818044    
     12480   13.818043      158.5          158.5          158.5          35.026833      40.563456      29.933872      34.583172      13.818043    
     12500   13.81804       158.5          158.5          158.5          35.026351      40.562989      29.933481      34.582583      13.81804     
     12520   13.818037      158.5          158.5          158.5          35.026621      40.56324       29.933652      34.582972      13.818037    
     12540   13.818035      158.5          158.5          158.5          35.02696       40.563887      29.933938      34.583055      13.818035    
     12560   13.818031      158.5          158.5          158.5          35.026551      40.563365      29.933488      34.582801      13.818031    
     12580   13.818028      158.5          158.5          158.5          35.026295      40.56265       29.93329       34.582945      13.818028    
     12600   13.818023      158.5          158.5          158.5          35.026317      40.562474      29.933467      34.583009      13.818023    
     12620   13.81802       158.5          158.5          158.5          35.026228      40.562917      29.933116      34.582652      13.81802     
     12640   13.818018      158.5          158.5          158.5          35.026568      40.563267      29.933628      34.582808      13.818018    
     12660   13.818015      158.5          158.5          158.5          35.026708      40.563687      29.933728      34.582709      13.818015    
     12680   13.818013      158.5          158.5          158.5          35.0266        40.563305      29.933555      34.582941      13.818013    
     12700   13.81801       158.5          158.5          158.5          35.026301      40.562876      29.933448      34.582579      13.81801     
     12720   13.818008      158.5          158.5          158.5          35.026471      40.563137      29.933429      34.582846      13.818008    
     12740   13.818006      158.5          158.5          158.5          35.026288      40.562858      29.933488      34.582519      13.818006    
     12760   13.818005      158.5          158.5          158.5          35.026398      40.563321      29.933368      34.582504      13.818005    
     12780   13.818003      158.5          158.5          158.5          35.0265        40.563414      29.933508      34.582579      13.818003    
     12800   13.818002      158.5          158.5          158.5          35.02647       40.563192      29.933515      34.582701      13.818002    
     12820   13.818         158.5          158.5          158.5          35.026534      40.563459      29.933487      34.582657      13.818       
     12840   13.817999      158.5          158.5          158.5          35.026562      40.563403      29.933528      34.582755      13.817999    
     12860   13.817998      158.5          158.5          158.5          35.026614      40.563431      29.933704      34.582708      13.817998    
     12880   13.817997      158.5          158.5          158.5          35.026597      40.563583      29.933604      34.582605      13.817997    
     12900   13.817994      158.5          158.5          158.5          35.026313      40.563308      29.933049      34.582583      13.817994    
     12920   13.817992      158.5          158.5          158.5          35.026498      40.563327      29.93355       34.582617      13.817992    
     12940   13.817991      158.5          158.5          158.5          35.026611      40.563297      29.933715      34.582822      13.817991    
     12960   13.81799       158.5          158.5          158.5          35.026417      40.563113      29.933564      34.582575      13.81799     
     12980   13.817989      158.5          158.5          158.5          35.026629      40.563524      29.933611      34.582752      13.817989    
     13000   13.817987      158.5          158.5          158.5          35.026418      40.563214      29.933577      34.582462      13.817987    
     13020   13.817986      158.5          158.5          158.5          35.026537      40.563563      29.933451      34.582598      13.817986    
     13040   13.817984      158.5          158.5          158.5          35.026545      40.563415      29.933493      34.582726      13.817984    
     13060   13.817982      158.5          158.5          158.5          35.026657      40.563383      29.933559      34.583029      13.817982    
     13080   13.817981      158.5          158.5          158.5          35.026635      40.563486      29.933627      34.582793      13.817981    
     13100   13.817979      158.5          158.5          158.5          35.026553      40.563084      29.933754      34.58282       13.817979    
     13120   13.817977      158.5          158.5          158.5          35.026586      40.563234      29.933609      34.582913      13.817977    
     13140   13.817975      158.5          158.5          158.5          35.02672       40.563363      29.933918      34.582879      13.817975    
     13160   13.817973      158.5          158.5          158.5          35.026379      40.56299       29.933517      34.582631      13.817973    
     13180   13.81797       158.5          158.5          158.5          35.026124      40.562727      29.933326      34.582319      13.81797     
     13200   13.817967      158.5          158.5          158.5          35.026496      40.562891      29.933717      34.582879      13.817967    
     13220   13.817965      158.5          158.5          158.5          35.026309      40.562959      29.933351      34.582618      13.817965    
     13240   13.817964      158.5          158.5          158.5          35.026409      40.563076      29.933482      34.582669      13.817964    
     13260   13.817961      158.5          158.5          158.5          35.026901      40.563788      29.933892      34.583022      13.817961    
     13280   13.817959      158.5          158.5          158.5          35.026574      40.563328      29.93368       34.582714      13.817959    
     13300   13.817958      158.5          158.5          158.5          35.026444      40.56306       29.933546      34.582725      13.817958    
     13320   13.817956      158.5          158.5          158.5          35.026571      40.563333      29.933477      34.582904      13.817956    
     13340   13.817955      158.5          158.5          158.5          35.026639      40.563551      29.933477      34.58289       13.817955    
     13360   13.817953      158.5          158.5          158.5          35.026498      40.563402      29.933434      34.582659      13.817953    
     13380   13.817952      158.5          158.5          158.5          35.026557      40.563483      29.933476      34.582711      13.817952    
     13400   13.817951      158.5          158.5          158.5          35.026517      40.563369      29.933583      34.5826        13.817951    
     13420   13.81795       158.5          158.5          158.5          35.026625      40.563526      29.933597      34.582751      13.81795     
     13440   13.817948      158.5          158.5          158.5          35.026461      40.563289      29.933521      34.582572      13.817948    
     13460   13.817947      158.5          158.5          158.5          35.026559      40.563252      29.933691      34.582735      13.817947    
     13480   13.817946      158.5          158.5          158.5          35.026706      40.563553      29.933758      34.582806      13.817946    
     13500   13.817944      158.5          158.5          158.5          35.026464      40.563504      29.933562      34.582328      13.817944    
     13520   13.817942      158.5          158.5          158.5          35.026548      40.563336      29.933606      34.582703      13.817942    
     13540   13.817941      158.5          158.5          158.5          35.026467      40.563172      29.933603      34.582625      13.817941    
     13560   13.81794       158.5          158.5          158.5          35.02652       40.563311      29.933478      34.582771      13.81794     
     13580   13.817938      158.5          158.5          158.5          35.02653       40.5635        29.933538      34.582553      13.817938    
     13600   13.817937      158.5          158.5          158.5          35.026472      40.563272      29.93356       34.582583      13.817937    
     13620   13.817936      158.5          158.5          158.5          35.026526      40.56352       29.933365      34.582695      13.817936    
     13640   13.817934      158.5          158.5          158.5          35.026475      40.563427      29.933395      34.582604      13.817934    
     13660   13.817933      158.5          158.5          158.5          35.026499      40.56321       29.933441      34.582846      13.817933    
     13680   13.817932      158.5          158.5          158.5          35.026573      40.563161      29.933675      34.582884      13.817932    
     13700   13.81793       158.5          158.5          158.5          35.026301      40.563028      29.933358      34.582518      13.81793     
     13720   13.817929      158.5          158.5          158.5          35.026675      40.563408      29.933828      34.58279       13.817929    
     13740   13.817927      158.5          158.5          158.5          35.026777      40.563453      29.933886      34.582992      13.817927    
     13760   13.817925      158.5          158.5          158.5          35.026304      40.562934      29.933482      34.582496      13.817925    
     13780   13.817924      158.5          158.5          158.5          35.026284      40.562957      29.933323      34.582571      13.817924    
     13800   13.817921      158.5          158.5          158.5          35.026129      40.562965      29.93312       34.582302      13.817921    
     13820   13.817919      158.5          158.5          158.5          35.026282      40.56282       29.933569      34.582458      13.817919    
     13840   13.817918      158.5          158.5          158.5          35.026518      40.56323       29.933628      34.582698      13.817918    
     13860   13.817915      158.5          158.5          158.5          35.026777      40.56352       29.933842      34.582969      13.817915    
     13880   13.817912      158.5          158.5          158.5          35.026469      40.562912      29.933578      34.582918      13.817912    
     13900   13.817911      158.5          158.5          158.5          35.026271      40.562859      29.933471      34.582484      13.817911    
     13920   13.81791       158.5          158.5          158.5          35.026596      40.56345       29.93347       34.582867      13.81791     
     13940   13.817908      158.5          158.5          158.5          35.026413      40.563324      29.933325      34.582589      13.817908    
     13960   13.817907      158.5          158.5          158.5          35.026506      40.563457      29.933402      34.582657      13.817907    
     13980   13.817905      158.5          158.5          158.5          35.026714      40.56364       29.933635      34.582866      13.817905    
     14000   13.817904      158.5          158.5          158.5          35.026594      40.563357      29.933606      34.58282       13.817904    
     14020   13.817903      158.5          158.5          158.5          35.026499      40.563376      29.933519      34.582603      13.817903    
     14040   13.817902      158.5          158.5          158.5          35.026338      40.563144      29.933435      34.582436      13.817902    
     14060   13.817902      158.5          158.5          158.5          35.026288      40.563025      29.933323      34.582516      13.817902    
     14080   13.8179        158.5          158.5          158.5          35.026283      40.563103      29.933309      34.582437      13.8179      
     14100   13.817899      158.5          158.5          158.5          35.026427      40.563068      29.933569      34.582643      13.817899    
     14120   13.817898      158.5          158.5          158.5          35.0264        40.563173      29.933517      34.582511      13.817898    
     14140   13.817897      158.5          158.5          158.5          35.026493      40.563261      29.933616      34.582601      13.817897    
     14160   13.817896      158.5          158.5          158.5          35.026394      40.563234      29.933485      34.582465      13.817896    
     14180   13.817895      158.5          158.5          158.5          35.026505      40.563367      29.933508      34.58264       13.817895    
     14200   13.817894      158.5          158.5          158.5          35.026522      40.563301      29.933575      34.58269       13.817894    
     14220   13.817893      158.5          158.5          158.5          35.02664       40.563445      29.933527      34.582949      13.817893    
     14240   13.817892      158.5          158.5          158.5          35.026446      40.563409      29.93349       34.58244       13.817892    
     14260   13.81789       158.5          158.5          158.5          35.026595      40.563512      29.933503      34.582771      13.81789     
     14280   13.817889      158.5          158.5          158.5          35.026743      40.563539      29.933671      34.583018      13.817889    
     14300   13.817888      158.5          158.5          158.5          35.026261      40.562855      29.933212      34.582715      13.817888    
     14320   13.817886      158.5          158.5          158.5          35.026392      40.562799      29.933616      34.582762      13.817886    
     14340   13.817884      158.5          158.5          158.5          35.026751      40.563311      29.93407       34.582872      13.817884    
     14360   13.817881      158.5          158.5          158.5          35.026474      40.563179      29.933689      34.582555      13.817881    
     14380   13.817879      158.5          158.5          158.5          35.026216      40.562845      29.933439      34.582363      13.817879    
     14400   13.817877      158.5          158.5          158.5          35.026324      40.562939      29.933413      34.58262       13.817877    
     14420   13.817876      158.5          158.5          158.5          35.026328      40.562867      29.933484      34.582634      13.817876    
     14440   13.817874      158.5          158.5          158.5          35.026605      40.563241      29.933698      34.582876      13.817874    
     14460   13.817871      158.5          158.5          158.5          35.026722      40.563323      29.933904      34.58294       13.817871    
     14480   13.817869      158.5          158.5          158.5          35.026385      40.563037      29.933372      34.582747      13.817869    
     14500   13.817867      158.5          158.5          158.5          35.026309      40.563009      29.933534      34.582385      13.817867    
     14520   13.817866      158.5          158.5          158.5          35.026606      40.563357      29.933654      34.582808      13.817866    
     14540   13.817865      158.5          158.5          158.5          35.026413      40.563392      29.933243      34.582604      13.817865    
     14560   13.817863      158.5          158.5          158.5          35.026533      40.563376      29.933453      34.582771      13.817863    
     14580   13.817863      158.5          158.5          158.5          35.026589      40.563358      29.933626      34.582781      13.817863    
     14600   13.817862      158.5          158.5          158.5          35.026482      40.563319      29.933462      34.582664      13.817862    
     14620   13.817861      158.5          158.5          158.5          35.026436      40.563357      29.933388      34.582564      13.817861    
     14640   13.81786       158.5          158.5          158.5          35.026439      40.563261      29.93354       34.582517      13.81786     
     14660   13.817859      158.5          158.5          158.5          35.026458      40.563194      29.933645      34.582535      13.817859    
     14680   13.817858      158.5          158.5          158.5          35.026476      40.56327       29.933559      34.582597      13.817858    
     14700   13.817857      158.5          158.5          158.5          35.026648      40.563461      29.933766      34.582717      13.817857    
     14720   13.817856      158.5          158.5          158.5          35.026499      40.563232      29.933583      34.582681      13.817856    
     14740   13.817855      158.5          158.5          158.5          35.026486      40.563196      29.933675      34.582587      13.817855    
     14760   13.817854      158.5          158.5          158.5          35.026409      40.563313      29.933406      34.582507      13.817854    
     14780   13.817854      158.5          158.5          158.5          35.026452      40.563371      29.933434      34.582552      13.817854    
     14800   13.817853      158.5          158.5          158.5          35.026396      40.563054      29.93355       34.582583      13.817853    
     14820   13.817852      158.5          158.5          158.5          35.026642      40.563436      29.933536      34.582956      13.817852    
     14840   13.81785       158.5          158.5          158.5          35.026717      40.563665      29.933597      34.582887      13.81785     
     14860   13.817849      158.5          158.5          158.5          35.026522      40.563434      29.933457      34.582675      13.817849    
     14880   13.817848      158.5          158.5          158.5          35.026603      40.563371      29.933508      34.582929      13.817848    
     14900   13.817847      158.5          158.5          158.5          35.026358      40.562994      29.933392      34.582689      13.817847    
     14920   13.817846      158.5          158.5          158.5          35.026269      40.562704      29.933491      34.582611      13.817846    
     14940   13.817844      158.5          158.5          158.5          35.026873      40.563659      29.933986      34.582972      13.817844    
     14960   13.817841      158.5          158.5          158.5          35.026442      40.563193      29.933555      34.582577      13.817841    
     14980   13.817839      158.5          158.5          158.5          35.026291      40.56296       29.933372      34.58254       13.817839    
     15000   13.817838      158.5          158.5          158.5          35.026342      40.562928      29.933414      34.582685      13.817838    
     15020   13.817836      158.5          158.5          158.5          35.026339      40.563         29.933352      34.582664      13.817836    
     15040   13.817835      158.5          158.5          158.5          35.026599      40.563177      29.933741      34.582879      13.817835    
     15060   13.817832      158.5          158.5          158.5          35.026432      40.563121      29.933553      34.582621      13.817832    
     15080   13.81783       158.5          158.5          158.5          35.026445      40.563045      29.933613      34.582676      13.81783     
     15100   13.817829      158.5          158.5          158.5          35.026351      40.563094      29.933529      34.582429      13.817829    
     15120   13.817828      158.5          158.5          158.5          35.026523      40.563154      29.933628      34.582788      13.817828    
     15140   13.817827      158.5          158.5          158.5          35.026459      40.563302      29.933409      34.582664      13.817827    
     15160   13.817825      158.5          158.5          158.5          35.026627      40.563414      29.933528      34.582941      13.817825    
     15180   13.817824      158.5          158.5          158.5          35.026566      40.56336       29.933489      34.582848      13.817824    
     15200   13.817823      158.5          158.5          158.5          35.026514      40.563258      29.933547      34.582737      13.817823    
     15220   13.817823      158.5          158.5          158.5          35.026477      40.563387      29.933473      34.582572      13.817823    
     15240   13.817822      158.5          158.5          158.5          35.026488      40.563297      29.933583      34.582585      13.817822    
     15260   13.817822      158.5          158.5          158.5          35.02632       40.563012      29.933604      34.582343      13.817822    
     15280   13.817821      158.5          158.5          158.5          35.026434      40.563111      29.933457      34.582733      13.817821    
     15300   13.81782       158.5          158.5          158.5          35.026535      40.563373      29.933521      34.582712      13.81782     
     15320   13.817819      158.5          158.5          158.5          35.026374      40.563201      29.933389      34.582533      13.817819    
     15340   13.817818      158.5          158.5          158.5          35.026382      40.563173      29.933465      34.582508      13.817818    
     15360   13.817817      158.5          158.5          158.5          35.02652       40.563325      29.933526      34.582709      13.817817    
     15380   13.817817      158.5          158.5          158.5          35.026381      40.56323       29.933366      34.582545      13.817817    
     15400   13.817816      158.5          158.5          158.5          35.026409      40.563249      29.933443      34.582534      13.817816    
     15420   13.817815      158.5          158.5          158.5          35.026746      40.563536      29.933681      34.58302       13.817815    
     15440   13.817814      158.5          158.5          158.5          35.026554      40.563395      29.933503      34.582765      13.817814    
     15460   13.817813      158.5          158.5          158.5          35.02653       40.563275      29.933445      34.58287       13.817813    
     15480   13.817812      158.5          158.5          158.5          35.026554      40.563263      29.933512      34.582888      13.817812    
     15500   13.817811      158.5          158.5          158.5          35.026411      40.562973      29.933511      34.58275       13.817811    
     15520   13.81781       158.5          158.5          158.5          35.026375      40.56286       29.9336        34.582665      13.81781     
     15540   13.817808      158.5          158.5          158.5          35.026709      40.563361      29.933723      34.583043      13.817808    
     15560   13.817807      158.5          158.5          158.5          35.026557      40.563283      29.933665      34.582723      13.817807    
     15580   13.817805      158.5          158.5          158.5          35.026347      40.563154      29.933434      34.582454      13.817805    
     15600   13.817804      158.5          158.5          158.5          35.026231      40.562749      29.933308      34.582638      13.817804    
     15620   13.817802      158.5          158.5          158.5          35.026298      40.562933      29.933418      34.582541      13.817802    
     15640   13.8178        158.5          158.5          158.5          35.026552      40.563375      29.933523      34.582757      13.8178      
     15660   13.817798      158.5          158.5          158.5          35.026418      40.56302       29.933588      34.582647      13.817798    
     15680   13.817796      158.5          158.5          158.5          35.02634       40.562934      29.933465      34.58262       13.817796    
     15700   13.817795      158.5          158.5          158.5          35.026455      40.563049      29.933572      34.582743      13.817795    
     15720   13.817795      158.5          158.5          158.5          35.026521      40.56319       29.933554      34.582819      13.817795    
     15740   13.817794      158.5          158.5          158.5          35.026433      40.563182      29.933408      34.582709      13.817794    
     15760   13.817793      158.5          158.5          158.5          35.026536      40.563455      29.933483      34.582671      13.817793    
     15780   13.817792      158.5          158.5          158.5          35.02681       40.563595      29.933706      34.583129      13.817792    
     15800   13.817791      158.5          158.5          158.5          35.026523      40.563334      29.933546      34.582689      13.817791    
     15820   13.81779       158.5          158.5          158.5          35.026455      40.563373      29.933365      34.582627      13.81779     
     15840   13.81779       158.5          158.5          158.5          35.026455      40.563283      29.933489      34.582593      13.81779     
     15860   13.817789      158.5          158.5          158.5          35.02643       40.563206      29.933492      34.582593      13.817789    
     15880   13.817789      158.5          158.5          158.5          35.02646       40.563168      29.933591      34.582621      13.817789    
     15900   13.817788      158.5          158.5          158.5          35.026364      40.563196      29.933408      34.582489      13.817788    
     15920   13.817788      158.5          158.5          158.5          35.026562      40.563338      29.933665      34.582681      13.817788    
     15940   13.817787      158.5          158.5          158.5          35.026499      40.563314      29.933466      34.582717      13.817787    
     15960   13.817786      158.5          158.5          158.5          35.026409      40.563189      29.933472      34.582565      13.817786    
     15980   13.817786      158.5          158.5          158.5          35.026361      40.563309      29.933406      34.582369      13.817786    
     16000   13.817785      158.5          158.5          158.5          35.026674      40.563493      29.933595      34.582934      13.817785    
     16020   13.817784      158.5          158.5          158.5          35.026434      40.56348       29.933487      34.582336      13.817784    
     16040   13.817783      158.5          158.5          158.5          35.026511      40.563321      29.933499      34.582711      13.817783    
     16060   13.817782      158.5          158.5          158.5          35.026575      40.563306      29.933557      34.582861      13.817782    
     16080   13.817781      158.5          158.5          158.5          35.026552      40.563181      29.933613      34.582861      13.817781    
     16100   13.817781      158.5          158.5          158.5          35.026421      40.563095      29.933501      34.582666      13.817781    
     16120   13.817779      158.5          158.5          158.5          35.026594      40.563001      29.933819      34.582963      13.817779    
     16140   13.817777      158.5          158.5          158.5          35.026444      40.56318       29.933536      34.582616      13.817777    
     16160   13.817776      158.5          158.5          158.5          35.026447      40.563153      29.933555      34.582634      13.817776    
     16180   13.817773      158.5          158.5          158.5          35.026268      40.562761      29.933404      34.582637      13.817773    
     16200   13.817765      158.5          158.5          158.5          35.026062      40.56219       29.933625      34.582372      13.817765    
     16220   13.81776       158.5          158.5          158.5          35.026468      40.563233      29.933496      34.582675      13.81776     
     16240   13.817758      158.5          158.5          158.5          35.026351      40.562976      29.933467      34.582611      13.817758    
     16260   13.817758      158.5          158.5          158.5          35.026424      40.563098      29.933518      34.582657      13.817758    
     16280   13.817757      158.5          158.5          158.5          35.026556      40.563122      29.933659      34.582888      13.817757    
     16300   13.817755      158.5          158.5          158.5          35.026361      40.562912      29.933483      34.582688      13.817755    
     16320   13.817755      158.5          158.5          158.5          35.026549      40.563276      29.933556      34.582816      13.817755    
     16340   13.817754      158.5          158.5          158.5          35.026514      40.563278      29.933548      34.582715      13.817754    
     16360   13.817754      158.5          158.5          158.5          35.026422      40.563235      29.933343      34.582687      13.817754    
     16380   13.817753      158.5          158.5          158.5          35.026347      40.563289      29.933269      34.582482      13.817753    
     16400   13.817752      158.5          158.5          158.5          35.026641      40.563391      29.933616      34.582916      13.817752    
     16420   13.817751      158.5          158.5          158.5          35.026336      40.562981      29.933479      34.582548      13.817751    
     16440   13.81775       158.5          158.5          158.5          35.026494      40.563348      29.93358       34.582555      13.81775     
     16460   13.817749      158.5          158.5          158.5          35.026416      40.563233      29.933448      34.582566      13.817749    
     16480   13.817749      158.5          158.5          158.5          35.026496      40.563298      29.933545      34.582643      13.817749    
     16500   13.817748      158.5          158.5          158.5          35.02644       40.563147      29.933521      34.582653      13.817748    
     16520   13.817748      158.5          158.5          158.5          35.026452      40.563272      29.933501      34.582583      13.817748    
     16540   13.817747      158.5          158.5          158.5          35.026471      40.563351      29.933428      34.582632      13.817747    
     16560   13.817746      158.5          158.5          158.5          35.026312      40.563         29.933433      34.582505      13.817746    
     16580   13.817745      158.5          158.5          158.5          35.026247      40.562967      29.933344      34.582432      13.817745    
     16600   13.817745      158.5          158.5          158.5          35.026548      40.563357      29.933497      34.58279       13.817745    
     16620   13.817744      158.5          158.5          158.5          35.026481      40.563392      29.933522      34.582527      13.817744    
     16640   13.817743      158.5          158.5          158.5          35.026587      40.563414      29.933587      34.582761      13.817743    
     16660   13.817742      158.5          158.5          158.5          35.026536      40.563296      29.933575      34.582737      13.817742    
     16680   13.817742      158.5          158.5          158.5          35.026465      40.563171      29.933418      34.582805      13.817742    
     16700   13.817741      158.5          158.5          158.5          35.026376      40.562991      29.933408      34.582728      13.817741    
     16720   13.817741      158.5          158.5          158.5          35.026441      40.562886      29.933599      34.582839      13.817741    
     16740   13.81774       158.5          158.5          158.5          35.026358      40.562918      29.933557      34.582599      13.81774     
     16760   13.817739      158.5          158.5          158.5          35.026388      40.56307       29.933505      34.582589      13.817739    
     16780   13.817737      158.5          158.5          158.5          35.026356      40.563093      29.933391      34.582584      13.817737    
     16800   13.817735      158.5          158.5          158.5          35.026172      40.562738      29.933303      34.582473      13.817735    
     16820   13.817734      158.5          158.5          158.5          35.026532      40.563138      29.933592      34.582865      13.817734    
     16840   13.817733      158.5          158.5          158.5          35.026516      40.563253      29.933567      34.58273       13.817733    
     16860   13.817731      158.5          158.5          158.5          35.026415      40.56301       29.933559      34.582677      13.817731    
     16880   13.817731      158.5          158.5          158.5          35.026448      40.562962      29.933606      34.582775      13.817731    
     16900   13.81773       158.5          158.5          158.5          35.026334      40.563005      29.933386      34.582612      13.81773     
     16920   13.817729      158.5          158.5          158.5          35.026455      40.5632        29.933437      34.582726      13.817729    
     16940   13.817729      158.5          158.5          158.5          35.02659       40.563388      29.933579      34.582802      13.817729    
     16960   13.817728      158.5          158.5          158.5          35.026662      40.563312      29.933749      34.582926      13.817728    
     16980   13.817728      158.5          158.5          158.5          35.026506      40.563359      29.933463      34.582696      13.817728    
     17000   13.817727      158.5          158.5          158.5          35.026525      40.563242      29.933488      34.582844      13.817727    
     17020   13.817726      158.5          158.5          158.5          35.02639       40.563082      29.933536      34.582552      13.817726    
     17040   13.817725      158.5          158.5          158.5          35.026497      40.5633        29.933638      34.582551      13.817725    
     17060   13.817725      158.5          158.5          158.5          35.026444      40.563285      29.933404      34.582642      13.817725    
     17080   13.817724      158.5          158.5          158.5          35.026369      40.563121      29.933463      34.582525      13.817724    
     17100   13.817724      158.5          158.5          158.5          35.026478      40.563191      29.933534      34.582711      13.817724    
     17120   13.817723      158.5          158.5          158.5          35.026476      40.56323       29.933558      34.582641      13.817723    
     17140   13.817723      158.5          158.5          158.5          35.026392      40.563238      29.933357      34.582579      13.817723    
     17160   13.817722      158.5          158.5          158.5          35.026428      40.563237      29.933512      34.582536      13.817722    
     17180   13.817722      158.5          158.5          158.5          35.026268      40.563032      29.933404      34.582369      13.817722    
     17200   13.817721      158.5          158.5          158.5          35.02648       40.563189      29.933508      34.582743      13.817721    
     17220   13.81772       158.5          158.5          158.5          35.026452      40.563259      29.93348       34.582617      13.81772     
     17240   13.81772       158.5          158.5          158.5          35.026675      40.563422      29.93368       34.582923      13.81772     
     17260   13.817719      158.5          158.5          158.5          35.026525      40.563264      29.933523      34.582788      13.817719    
     17280   13.817719      158.5          158.5          158.5          35.026442      40.563129      29.933476      34.58272       13.817719    
     17300   13.817718      158.5          158.5          158.5          35.026312      40.562812      29.933449      34.582674      13.817718    
     17320   13.817718      158.5          158.5          158.5          35.026536      40.563016      29.933744      34.582849      13.817718    
     17340   13.817717      158.5          158.5          158.5          35.026403      40.563078      29.933547      34.582584      13.817717    
     17360   13.817715      158.5          158.5          158.5          35.02653       40.563386      29.933639      34.582565      13.817715    
     17380   13.817714      158.5          158.5          158.5          35.026478      40.563248      29.933494      34.582694      13.817714    
     17400   13.817712      158.5          158.5          158.5          35.026173      40.562783      29.933394      34.582343      13.817712    
     17420   13.81771       158.5          158.5          158.5          35.02654       40.563201      29.933635      34.582783      13.81771     
     17440   13.817709      158.5          158.5          158.5          35.026524      40.563177      29.933685      34.58271       13.817709    
     17460   13.817708      158.5          158.5          158.5          35.026415      40.56304       29.933592      34.582613      13.817708    
     17480   13.817707      158.5          158.5          158.5          35.026448      40.56297       29.933639      34.582736      13.817707    
     17500   13.817706      158.5          158.5          158.5          35.026342      40.562996      29.933373      34.582658      13.817706    
     17520   13.817706      158.5          158.5          158.5          35.026425      40.56315       29.933479      34.582647      13.817706    
     17540   13.817706      158.5          158.5          158.5          35.026533      40.563287      29.933513      34.582797      13.817706    
     17560   13.817705      158.5          158.5          158.5          35.026533      40.563226      29.933585      34.58279       13.817705    
     17580   13.817705      158.5          158.5          158.5          35.0265        40.563299      29.933502      34.5827        13.817705    
     17600   13.817704      158.5          158.5          158.5          35.02657       40.563314      29.933575      34.582821      13.817704    
     17620   13.817703      158.5          158.5          158.5          35.026451      40.563279      29.933511      34.582563      13.817703    
     17640   13.817702      158.5          158.5          158.5          35.026405      40.563373      29.933383      34.582458      13.817702    
     17660   13.817702      158.5          158.5          158.5          35.026489      40.56331       29.933598      34.58256       13.817702    
     17680   13.817702      158.5          158.5          158.5          35.026448      40.563162      29.933554      34.58263       13.817702    
     17700   13.817701      158.5          158.5          158.5          35.026557      40.563277      29.93361       34.582782      13.817701    
     17720   13.817701      158.5          158.5          158.5          35.026504      40.56327       29.933598      34.582645      13.817701    
     17740   13.8177        158.5          158.5          158.5          35.026404      40.563239      29.933432      34.58254       13.8177      
     17760   13.8177        158.5          158.5          158.5          35.026459      40.563302      29.933505      34.582569      13.8177      
     17780   13.817699      158.5          158.5          158.5          35.026317      40.563116      29.933387      34.582449      13.817699    
     17800   13.817698      158.5          158.5          158.5          35.026487      40.563275      29.933418      34.582769      13.817698    
     17820   13.817698      158.5          158.5          158.5          35.026436      40.563257      29.933433      34.582619      13.817698    
     17840   13.817697      158.5          158.5          158.5          35.026665      40.563404      29.933663      34.582929      13.817697    
     17860   13.817697      158.5          158.5          158.5          35.026505      40.563294      29.933558      34.582661      13.817697    
     17880   13.817696      158.5          158.5          158.5          35.026471      40.563174      29.933493      34.582745      13.817696    
     17900   13.817696      158.5          158.5          158.5          35.026346      40.562966      29.933452      34.58262       13.817696    
     17920   13.817696      158.5          158.5          158.5          35.026515      40.563146      29.933637      34.582764      13.817696    
     17940   13.817695      158.5          158.5          158.5          35.026458      40.563155      29.933639      34.582579      13.817695    
     17960   13.817693      158.5          158.5          158.5          35.026533      40.563404      29.933609      34.582587      13.817693    
     17980   13.817692      158.5          158.5          158.5          35.026565      40.56325       29.93358       34.582863      13.817692    
     18000   13.817691      158.5          158.5          158.5          35.026088      40.562681      29.933216      34.582368      13.817691    
     18020   13.817689      158.5          158.5          158.5          35.026617      40.56327       29.933682      34.582898      13.817689    
     18040   13.817688      158.5          158.5          158.5          35.026429      40.563149      29.933546      34.582591      13.817688    
     18060   13.817686      158.5          158.5          158.5          35.026414      40.563137      29.933475      34.582631      13.817686    
     18080   13.817686      158.5          158.5          158.5          35.026534      40.563123      29.933666      34.582812      13.817686    
     18100   13.817685      158.5          158.5          158.5          35.02636       40.563         29.933465      34.582614      13.817685    
     18120   13.817685      158.5          158.5          158.5          35.026433      40.563123      29.933499      34.582678      13.817685    
     18140   13.817685      158.5          158.5          158.5          35.026507      40.563251      29.93353       34.582741      13.817685    
     18160   13.817684      158.5          158.5          158.5          35.026552      40.563275      29.93359       34.582793      13.817684    
     18180   13.817684      158.5          158.5          158.5          35.026483      40.563251      29.933553      34.582644      13.817684    
     18200   13.817683      158.5          158.5          158.5          35.026474      40.563242      29.933392      34.582787      13.817683    
     18220   13.817683      158.5          158.5          158.5          35.026326      40.563024      29.93343       34.582525      13.817683    
     18240   13.817682      158.5          158.5          158.5          35.02634       40.563142      29.933315      34.582563      13.817682    
     18260   13.817681      158.5          158.5          158.5          35.026414      40.563194      29.933456      34.582593      13.817681    
     18280   13.817681      158.5          158.5          158.5          35.02648       40.563278      29.933497      34.582665      13.817681    
     18300   13.817681      158.5          158.5          158.5          35.02654       40.563316      29.933598      34.582705      13.817681    
     18320   13.817681      158.5          158.5          158.5          35.026504      40.563254      29.9336        34.582658      13.817681    
     18340   13.81768       158.5          158.5          158.5          35.026409      40.563253      29.933396      34.582577      13.81768     
     18360   13.81768       158.5          158.5          158.5          35.026441      40.563288      29.933474      34.582561      13.81768     
     18380   13.817679      158.5          158.5          158.5          35.026364      40.563148      29.9335        34.582445      13.817679    
     18400   13.817679      158.5          158.5          158.5          35.026481      40.563211      29.933505      34.582728      13.817679    
     18420   13.817678      158.5          158.5          158.5          35.026472      40.563389      29.933414      34.582613      13.817678    
     18440   13.817678      158.5          158.5          158.5          35.026642      40.563404      29.933646      34.582877      13.817678    
     18460   13.817677      158.5          158.5          158.5          35.026515      40.563259      29.933607      34.582678      13.817677    
     18480   13.817677      158.5          158.5          158.5          35.026453      40.56318       29.933522      34.582657      13.817677    
     18500   13.817676      158.5          158.5          158.5          35.026404      40.56307       29.933493      34.582648      13.817676    
     18520   13.817676      158.5          158.5          158.5          35.026508      40.563132      29.933628      34.582765      13.817676    
     18540   13.817675      158.5          158.5          158.5          35.026379      40.563077      29.933516      34.582543      13.817675    
     18560   13.817674      158.5          158.5          158.5          35.026539      40.5633        29.933649      34.582668      13.817674    
     18580   13.817673      158.5          158.5          158.5          35.026418      40.5631        29.933481      34.582673      13.817673    
     18600   13.817672      158.5          158.5          158.5          35.026273      40.562848      29.933446      34.582524      13.817672    
     18620   13.817671      158.5          158.5          158.5          35.026475      40.563103      29.933576      34.582747      13.817671    
     18640   13.81767       158.5          158.5          158.5          35.02658       40.563283      29.93372       34.582737      13.81767     
     18660   13.817668      158.5          158.5          158.5          35.026438      40.563153      29.933496      34.582664      13.817668    
     18680   13.817668      158.5          158.5          158.5          35.026508      40.56321       29.933584      34.582728      13.817668    
     18700   13.817668      158.5          158.5          158.5          35.026379      40.563057      29.933483      34.582598      13.817668    
     18720   13.817667      158.5          158.5          158.5          35.026436      40.563112      29.933508      34.582688      13.817667    
     18740   13.817667      158.5          158.5          158.5          35.026492      40.563247      29.933514      34.582716      13.817667    
     18760   13.817667      158.5          158.5          158.5          35.02651       40.56326       29.933521      34.582749      13.817667    
     18780   13.817666      158.5          158.5          158.5          35.026523      40.563313      29.933487      34.582768      13.817666    
     18800   13.817666      158.5          158.5          158.5          35.026451      40.563124      29.933512      34.582716      13.817666    
     18820   13.817665      158.5          158.5          158.5          35.026358      40.563109      29.933433      34.582531      13.817665    
     18840   13.817665      158.5          158.5          158.5          35.026462      40.563296      29.933475      34.582616      13.817665    
     18860   13.817664      158.5          158.5          158.5          35.026462      40.563289      29.933477      34.582621      13.817664    
     18880   13.817664      158.5          158.5          158.5          35.026451      40.563205      29.933533      34.582615      13.817664    
     18900   13.817664      158.5          158.5          158.5          35.026535      40.5633        29.933531      34.582774      13.817664    
     18920   13.817663      158.5          158.5          158.5          35.026512      40.563247      29.933609      34.582679      13.817663    
     18940   13.817663      158.5          158.5          158.5          35.026427      40.563262      29.933467      34.582553      13.817663    
     18960   13.817663      158.5          158.5          158.5          35.026452      40.563232      29.933506      34.582617      13.817663    
     18980   13.817662      158.5          158.5          158.5          35.026328      40.563066      29.933439      34.58248       13.817662    
     19000   13.817662      158.5          158.5          158.5          35.02644       40.563104      29.933498      34.582719      13.817662    
     19020   13.817661      158.5          158.5          158.5          35.026526      40.563317      29.933508      34.582752      13.817661    
     19040   13.817661      158.5          158.5          158.5          35.026584      40.563286      29.933576      34.58289       13.817661    
     19060   13.817661      158.5          158.5          158.5          35.026478      40.563202      29.933498      34.582735      13.817661    
     19080   13.81766       158.5          158.5          158.5          35.026469      40.563121      29.933552      34.582734      13.81766     
     19100   13.81766       158.5          158.5          158.5          35.026392      40.562985      29.933526      34.582665      13.81766     
     19120   13.81766       158.5          158.5          158.5          35.026433      40.563105      29.933532      34.582661      13.81766     
     19140   13.817659      158.5          158.5          158.5          35.026444      40.563239      29.933494      34.582599      13.817659    
     19160   13.817658      158.5          158.5          158.5          35.026622      40.563519      29.93361       34.582737      13.817658    
     19180   13.817657      158.5          158.5          158.5          35.026489      40.563251      29.933466      34.582751      13.817657    
     19200   13.817656      158.5          158.5          158.5          35.026229      40.562817      29.933371      34.582499      13.817656    
     19220   13.817655      158.5          158.5          158.5          35.026571      40.563215      29.933632      34.582866      13.817655    
     19240   13.817653      158.5          158.5          158.5          35.026563      40.563178      29.933722      34.582788      13.817653    
     19260   13.817652      158.5          158.5          158.5          35.026377      40.563074      29.933512      34.582545      13.817652    
     19280   13.817652      158.5          158.5          158.5          35.026465      40.563067      29.933637      34.582692      13.817652    
     19300   13.817652      158.5          158.5          158.5          35.026401      40.563088      29.933478      34.582637      13.817652    
     19320   13.817651      158.5          158.5          158.5          35.026457      40.563182      29.933495      34.582695      13.817651    
     19340   13.817651      158.5          158.5          158.5          35.026483      40.563245      29.933516      34.582689      13.817651    
     19360   13.817651      158.5          158.5          158.5          35.026525      40.563308      29.933531      34.582736      13.817651    
     19380   13.81765       158.5          158.5          158.5          35.026487      40.563286      29.933546      34.582628      13.81765     
     19400   13.81765       158.5          158.5          158.5          35.026491      40.563244      29.933533      34.582697      13.81765     
     19420   13.817649      158.5          158.5          158.5          35.026467      40.563283      29.933524      34.582595      13.817649    
     19440   13.817649      158.5          158.5          158.5          35.02652       40.56331       29.933641      34.582609      13.817649    
     19460   13.817649      158.5          158.5          158.5          35.026448      40.563197      29.933541      34.582608      13.817649    
     19480   13.817648      158.5          158.5          158.5          35.026474      40.563236      29.933511      34.582674      13.817648    
     19500   13.817648      158.5          158.5          158.5          35.026655      40.563402      29.933696      34.582868      13.817648    
     19520   13.817648      158.5          158.5          158.5          35.026464      40.56322       29.933502      34.582671      13.817648    
     19540   13.817647      158.5          158.5          158.5          35.02647       40.563233      29.933533      34.582645      13.817647    
     19560   13.817647      158.5          158.5          158.5          35.02652       40.56326       29.93362       34.58268       13.817647    
     19580   13.817647      158.5          158.5          158.5          35.026382      40.563184      29.933476      34.582488      13.817647    
     19600   13.817646      158.5          158.5          158.5          35.02651       40.563309      29.933563      34.582658      13.817646    
     19620   13.817646      158.5          158.5          158.5          35.026551      40.563296      29.9336        34.582758      13.817646    
     19640   13.817645      158.5          158.5          158.5          35.026532      40.56323       29.933577      34.58279       13.817645    
     19660   13.817645      158.5          158.5          158.5          35.026448      40.563128      29.933487      34.58273       13.817645    
     19680   13.817645      158.5          158.5          158.5          35.026488      40.563205      29.93355       34.582707      13.817645    
     19700   13.817645      158.5          158.5          158.5          35.026336      40.562995      29.93338       34.582632      13.817645    
     19720   13.817644      158.5          158.5          158.5          35.026431      40.563031      29.933594      34.582667      13.817644    
     19740   13.817644      158.5          158.5          158.5          35.026455      40.563216      29.933605      34.582544      13.817644    
     19760   13.817643      158.5          158.5          158.5          35.026484      40.563152      29.933627      34.582673      13.817643    
     19780   13.817642      158.5          158.5          158.5          35.026378      40.562996      29.933418      34.582719      13.817642    
     19800   13.817641      158.5          158.5          158.5          35.02629       40.562903      29.933385      34.582582      13.817641    
     19820   13.81764       158.5          158.5          158.5          35.026424      40.563088      29.933507      34.582677      13.81764     
     19840   13.817639      158.5          158.5          158.5          35.026468      40.563209      29.933521      34.582675      13.817639    
     19860   13.817638      158.5          158.5          158.5          35.026417      40.563214      29.933516      34.582521      13.817638    
     19880   13.817638      158.5          158.5          158.5          35.026428      40.563042      29.933594      34.582646      13.817638    
     19900   13.817637      158.5          158.5          158.5          35.026387      40.563022      29.933475      34.582664      13.817637    
     19920   13.817637      158.5          158.5          158.5          35.026393      40.563102      29.933455      34.582621      13.817637    
     19940   13.817637      158.5          158.5          158.5          35.026541      40.563302      29.933553      34.582767      13.817637    
     19960   13.817637      158.5          158.5          158.5          35.026598      40.563362      29.933633      34.582798      13.817637    
     19980   13.817636      158.5          158.5          158.5          35.026515      40.563297      29.933546      34.582702      13.817636    
     20000   13.817636      158.5          158.5          158.5          35.026505      40.563354      29.933451      34.582711      13.817636    
     20020   13.817635      158.5          158.5          158.5          35.02645       40.563236      29.93356       34.582555      13.817635    
     20040   13.817635      158.5          158.5          158.5          35.026478      40.563266      29.933555      34.582612      13.817635    
     20060   13.817635      158.5          158.5          158.5          35.026457      40.563237      29.933485      34.582649      13.817635    
     20080   13.817635      158.5          158.5          158.5          35.026437      40.563129      29.933506      34.582675      13.817635    
     20100   13.817634      158.5          158.5          158.5          35.02657       40.563344      29.933593      34.582774      13.817634    
     20120   13.817634      158.5          158.5          158.5          35.026515      40.563212      29.933559      34.582772      13.817634    
     20140   13.817634      158.5          158.5          158.5          35.026467      40.563279      29.933482      34.58264       13.817634    
     20160   13.817634      158.5          158.5          158.5          35.026449      40.563213      29.933539      34.582595      13.817634    
     20180   13.817633      158.5          158.5          158.5          35.026472      40.563224      29.933577      34.582615      13.817633    
     20200   13.817633      158.5          158.5          158.5          35.02646       40.56323       29.933466      34.582686      13.817633    
     20220   13.817633      158.5          158.5          158.5          35.026508      40.563351      29.933488      34.582685      13.817633    
     20240   13.817632      158.5          158.5          158.5          35.026574      40.5633        29.933631      34.582792      13.817632    
     20260   13.817632      158.5          158.5          158.5          35.026521      40.563312      29.933544      34.582708      13.817632    
     20280   13.817632      158.5          158.5          158.5          35.026435      40.563219      29.933443      34.582641      13.817632    
     20300   13.817631      158.5          158.5          158.5          35.026413      40.563086      29.933516      34.582636      13.817631    
     20320   13.817631      158.5          158.5          158.5          35.026434      40.563075      29.933577      34.582649      13.817631    
     20340   13.817631      158.5          158.5          158.5          35.026487      40.563113      29.933627      34.582721      13.817631    
     20360   13.81763       158.5          158.5          158.5          35.026481      40.563149      29.933608      34.582684      13.81763     
     20380   13.81763       158.5          158.5          158.5          35.026416      40.563002      29.933534      34.582713      13.81763     
     20400   13.817629      158.5          158.5          158.5          35.02637       40.563078      29.933461      34.58257       13.817629    
     20420   13.817628      158.5          158.5          158.5          35.026471      40.563128      29.933613      34.582671      13.817628    
     20440   13.817627      158.5          158.5          158.5          35.026582      40.563357      29.933732      34.582657      13.817627    
     20460   13.817627      158.5          158.5          158.5          35.026442      40.563089      29.933565      34.582673      13.817627    
     20480   13.817626      158.5          158.5          158.5          35.026455      40.56312       29.933534      34.58271       13.817626    
     20500   13.817626      158.5          158.5          158.5          35.02645       40.56317       29.933498      34.582682      13.817626    
     20520   13.817626      158.5          158.5          158.5          35.026443      40.563155      29.93351       34.582663      13.817626    
     20540   13.817626      158.5          158.5          158.5          35.026541      40.56323       29.933647      34.582747      13.817626    
     20560   13.817625      158.5          158.5          158.5          35.026542      40.563319      29.933507      34.582799      13.817625    
     20580   13.817625      158.5          158.5          158.5          35.02644       40.563195      29.933484      34.58264       13.817625    
     20600   13.817624      158.5          158.5          158.5          35.026401      40.563107      29.933448      34.582649      13.817624    
     20620   13.817624      158.5          158.5          158.5          35.02648       40.56317       29.933557      34.582714      13.817624    
     20640   13.817624      158.5          158.5          158.5          35.026429      40.563155      29.933513      34.582621      13.817624    
     20660   13.817624      158.5          158.5          158.5          35.026411      40.56318       29.933444      34.58261       13.817624    
     20680   13.817624      158.5          158.5          158.5          35.026467      40.56316       29.933576      34.582666      13.817624    
     20700   13.817623      158.5          158.5          158.5          35.026634      40.563288      29.933727      34.582888      13.817623    
     20720   13.817623      158.5          158.5          158.5          35.02647       40.563134      29.933614      34.582662      13.817623    
     20740   13.817623      158.5          158.5          158.5          35.026468      40.563194      29.93351       34.5827        13.817623    
     20760   13.817623      158.5          158.5          158.5          35.026399      40.563142      29.933486      34.58257       13.817623    
     20780   13.817622      158.5          158.5          158.5          35.026496      40.563218      29.933563      34.582706      13.817622    
     20800   13.817622      158.5          158.5          158.5          35.026458      40.563187      29.933523      34.582663      13.817622    
     20820   13.817622      158.5          158.5          158.5          35.026596      40.563312      29.933615      34.582861      13.817622    
     20840   13.817622      158.5          158.5          158.5          35.026508      40.563277      29.933536      34.58271       13.817622    
     20860   13.817621      158.5          158.5          158.5          35.026538      40.563203      29.933551      34.582862      13.817621    
     20880   13.817621      158.5          158.5          158.5          35.026393      40.563112      29.933471      34.582596      13.817621    
     20900   13.817621      158.5          158.5          158.5          35.026466      40.563214      29.933501      34.582685      13.817621    
     20920   13.81762       158.5          158.5          158.5          35.026521      40.563118      29.93368       34.582766      13.81762     
     20940   13.81762       158.5          158.5          158.5          35.026463      40.563123      29.933547      34.582719      13.81762     
     20960   13.817619      158.5          158.5          158.5          35.026426      40.563096      29.933551      34.582632      13.817619    
     20980   13.817619      158.5          158.5          158.5          35.026465      40.562956      29.933662      34.582777      13.817619    
     21000   13.817618      158.5          158.5          158.5          35.026429      40.563181      29.933497      34.582608      13.817618    
     21020   13.817618      158.5          158.5          158.5          35.026384      40.563068      29.933508      34.582577      13.817618    
     21040   13.817617      158.5          158.5          158.5          35.026445      40.563148      29.933491      34.582696      13.817617    
     21060   13.817617      158.5          158.5          158.5          35.026387      40.563087      29.933501      34.582572      13.817617    
     21080   13.817616      158.5          158.5          158.5          35.026433      40.563069      29.933526      34.582705      13.817616    
     21100   13.817616      158.5          158.5          158.5          35.026479      40.563172      29.933571      34.582693      13.817616    
     21120   13.817616      158.5          158.5          158.5          35.026463      40.563224      29.933489      34.582676      13.817616    
     21140   13.817615      158.5          158.5          158.5          35.026489      40.563184      29.933556      34.582725      13.817615    
     21160   13.817615      158.5          158.5          158.5          35.026526      40.563221      29.93357       34.582786      13.817615    
     21180   13.817615      158.5          158.5          158.5          35.026401      40.563128      29.933452      34.582622      13.817615    
     21200   13.817614      158.5          158.5          158.5          35.026486      40.563249      29.933502      34.582709      13.817614    
     21220   13.817614      158.5          158.5          158.5          35.026421      40.563192      29.933462      34.582609      13.817614    
     21240   13.817614      158.5          158.5          158.5          35.026414      40.563119      29.933508      34.582616      13.817614    
     21260   13.817614      158.5          158.5          158.5          35.026405      40.56315       29.933475      34.582591      13.817614    
     21280   13.817614      158.5          158.5          158.5          35.026417      40.563088      29.933503      34.582659      13.817614    
     21300   13.817614      158.5          158.5          158.5          35.026548      40.563302      29.933595      34.582747      13.817614    
     21320   13.817613      158.5          158.5          158.5          35.026476      40.563135      29.933614      34.582678      13.817613    
     21340   13.817613      158.5          158.5          158.5          35.026418      40.563103      29.933498      34.582655      13.817613    
     21360   13.817613      158.5          158.5          158.5          35.026412      40.563126      29.933534      34.582577      13.817613    
     21380   13.817613      158.5          158.5          158.5          35.026529      40.56331       29.933564      34.582713      13.817613    
     21400   13.817613      158.5          158.5          158.5          35.026405      40.563126      29.933496      34.582593      13.817613    
     21420   13.817613      158.5          158.5          158.5          35.026469      40.563191      29.933473      34.582743      13.817613    
     21440   13.817612      158.5          158.5          158.5          35.026545      40.563265      29.933559      34.582811      13.817612    
     21460   13.817612      158.5          158.5          158.5          35.026531      40.563223      29.933569      34.582801      13.817612    
     21480   13.817612      158.5          158.5          158.5          35.026434      40.563099      29.933539      34.582664      13.817612    
     21500   13.817611      158.5          158.5          158.5          35.026472      40.563121      29.933556      34.582738      13.817611    
     21520   13.817611      158.5          158.5          158.5          35.0264        40.562999      29.933487      34.582715      13.817611    
     21540   13.817611      158.5          158.5          158.5          35.026368      40.562983      29.933544      34.582578      13.817611    
     21560   13.81761       158.5          158.5          158.5          35.026461      40.563083      29.933539      34.58276       13.81761     
     21580   13.817609      158.5          158.5          158.5          35.026463      40.563032      29.933704      34.582653      13.817609    
     21600   13.817609      158.5          158.5          158.5          35.026404      40.56318       29.933497      34.582534      13.817609    
     21620   13.817608      158.5          158.5          158.5          35.026418      40.563066      29.933503      34.582684      13.817608    
     21640   13.817608      158.5          158.5          158.5          35.026403      40.563046      29.933475      34.582689      13.817608    
     21660   13.817607      158.5          158.5          158.5          35.026445      40.563102      29.933605      34.58263       13.817607    
     21680   13.817606      158.5          158.5          158.5          35.026483      40.563116      29.933551      34.582781      13.817606    
     21700   13.817606      158.5          158.5          158.5          35.026465      40.563106      29.933575      34.582713      13.817606    
     21720   13.817606      158.5          158.5          158.5          35.026406      40.563179      29.933437      34.582602      13.817606    
     21740   13.817606      158.5          158.5          158.5          35.026556      40.56329       29.933576      34.582802      13.817606    
     21760   13.817605      158.5          158.5          158.5          35.026533      40.563214      29.933559      34.582826      13.817605    
     21780   13.817605      158.5          158.5          158.5          35.026543      40.563225      29.933616      34.582788      13.817605    
     21800   13.817605      158.5          158.5          158.5          35.02639       40.563152      29.933399      34.58262       13.817605    
     21820   13.817605      158.5          158.5          158.5          35.026512      40.56326       29.933605      34.582671      13.817605    
     21840   13.817605      158.5          158.5          158.5          35.026419      40.56313       29.933545      34.582584      13.817605    
     21860   13.817604      158.5          158.5          158.5          35.026415      40.56313       29.933482      34.582634      13.817604    
     21880   13.817604      158.5          158.5          158.5          35.02645       40.563173      29.933524      34.582651      13.817604    
     21900   13.817604      158.5          158.5          158.5          35.026498      40.563189      29.933574      34.582729      13.817604    
     21920   13.817604      158.5          158.5          158.5          35.026471      40.563183      29.933532      34.582699      13.817604    
     21940   13.817604      158.5          158.5          158.5          35.02643       40.563173      29.933487      34.582631      13.817604    
     21960   13.817604      158.5          158.5          158.5          35.026416      40.563155      29.933538      34.582553      13.817604    
     21980   13.817604      158.5          158.5          158.5          35.026492      40.563211      29.933558      34.582707      13.817604    
     22000   13.817604      158.5          158.5          158.5          35.026417      40.563165      29.933487      34.582598      13.817604    
     22020   13.817603      158.5          158.5          158.5          35.026652      40.563331      29.933696      34.582929      13.817603    
     22040   13.817603      158.5          158.5          158.5          35.026586      40.563339      29.933607      34.582812      13.817603    
     22060   13.817603      158.5          158.5          158.5          35.026449      40.563119      29.933495      34.582732      13.817603    
     22080   13.817603      158.5          158.5          158.5          35.02642       40.563161      29.933431      34.582667      13.817603    
     22100   13.817602      158.5          158.5          158.5          35.02644       40.563133      29.933479      34.582707      13.817602    
     22120   13.817602      158.5          158.5          158.5          35.026471      40.563095      29.933625      34.582694      13.817602    
     22140   13.817602      158.5          158.5          158.5          35.026478      40.563079      29.933581      34.582772      13.817602    
     22160   13.817601      158.5          158.5          158.5          35.026386      40.56298       29.933585      34.582592      13.817601    
     22180   13.8176        158.5          158.5          158.5          35.026372      40.562895      29.93359       34.58263       13.8176      
     22200   13.8176        158.5          158.5          158.5          35.026362      40.563         29.933462      34.582623      13.8176      
     22220   13.817599      158.5          158.5          158.5          35.026396      40.562989      29.933496      34.582703      13.817599    
     22240   13.817599      158.5          158.5          158.5          35.02641       40.563121      29.933482      34.582627      13.817599    
     22260   13.817598      158.5          158.5          158.5          35.026439      40.563085      29.933541      34.582691      13.817598    
     22280   13.817598      158.5          158.5          158.5          35.026461      40.563094      29.933636      34.582652      13.817598    
     22300   13.817598      158.5          158.5          158.5          35.026454      40.563141      29.933562      34.58266       13.817598    
     22320   13.817598      158.5          158.5          158.5          35.026418      40.563189      29.93342       34.582644      13.817598    
     22340   13.817597      158.5          158.5          158.5          35.026464      40.56315       29.933505      34.582738      13.817597    
     22360   13.817597      158.5          158.5          158.5          35.026557      40.563255      29.933625      34.582791      13.817597    
     22380   13.817597      158.5          158.5          158.5          35.026561      40.563288      29.933617      34.582779      13.817597    
     22400   13.817597      158.5          158.5          158.5          35.026406      40.563127      29.933462      34.582628      13.817597    
     22420   13.817597      158.5          158.5          158.5          35.026489      40.563245      29.93356       34.582663      13.817597    
     22440   13.817596      158.5          158.5          158.5          35.026458      40.563209      29.933536      34.582628      13.817596    
     22460   13.817596      158.5          158.5          158.5          35.026392      40.563111      29.933451      34.582616      13.817596    
     22480   13.817596      158.5          158.5          158.5          35.026461      40.563132      29.933572      34.58268       13.817596    
     22500   13.817596      158.5          158.5          158.5          35.026489      40.563208      29.933545      34.582713      13.817596    
     22520   13.817596      158.5          158.5          158.5          35.02647       40.563161      29.933548      34.5827        13.817596    
     22540   13.817596      158.5          158.5          158.5          35.026399      40.563099      29.933501      34.582596      13.817596    
     22560   13.817596      158.5          158.5          158.5          35.026458      40.563177      29.933552      34.582645      13.817596    
     22580   13.817596      158.5          158.5          158.5          35.026479      40.563255      29.933539      34.582643      13.817596    
     22600   13.817596      158.5          158.5          158.5          35.026482      40.563229      29.933549      34.582668      13.817596    
     22620   13.817595      158.5          158.5          158.5          35.026536      40.563192      29.933629      34.582786      13.817595    
     22640   13.817595      158.5          158.5          158.5          35.026536      40.56322       29.9336        34.582788      13.817595    
     22660   13.817595      158.5          158.5          158.5          35.026456      40.563138      29.933513      34.582716      13.817595    
     22680   13.817595      158.5          158.5          158.5          35.026462      40.563181      29.933439      34.582767      13.817595    
     22700   13.817595      158.5          158.5          158.5          35.026442      40.563132      29.933526      34.582669      13.817595    
     22720   13.817594      158.5          158.5          158.5          35.026458      40.56309       29.933608      34.582676      13.817594    
     22740   13.817594      158.5          158.5          158.5          35.026426      40.563001      29.933566      34.58271       13.817594    
     22760   13.817593      158.5          158.5          158.5          35.026394      40.563038      29.933496      34.582648      13.817593    
     22780   13.817593      158.5          158.5          158.5          35.026393      40.563037      29.933553      34.58259       13.817593    
     22800   13.817593      158.5          158.5          158.5          35.026357      40.563052      29.933525      34.582492      13.817593    
     22820   13.817592      158.5          158.5          158.5          35.026438      40.56296       29.933616      34.582738      13.817592    
     22840   13.817592      158.5          158.5          158.5          35.026287      40.562839      29.933408      34.582613      13.817592    
     22860   13.817591      158.5          158.5          158.5          35.026482      40.563049      29.933678      34.582718      13.817591    
     22880   13.81759       158.5          158.5          158.5          35.026474      40.563121      29.93358       34.582719      13.81759     
     22900   13.81759       158.5          158.5          158.5          35.02645       40.563091      29.933563      34.582696      13.81759     
     22920   13.81759       158.5          158.5          158.5          35.02645       40.56319       29.933479      34.582682      13.81759     
     22940   13.81759       158.5          158.5          158.5          35.026559      40.563322      29.933606      34.582749      13.81759     
     22960   13.817589      158.5          158.5          158.5          35.026493      40.563174      29.933559      34.582746      13.817589    
     22980   13.817589      158.5          158.5          158.5          35.026472      40.563174      29.933564      34.582677      13.817589    
     23000   13.817589      158.5          158.5          158.5          35.026451      40.563148      29.933514      34.582691      13.817589    
     23020   13.817589      158.5          158.5          158.5          35.026432      40.563179      29.93351       34.582606      13.817589    
     23040   13.817589      158.5          158.5          158.5          35.026391      40.563081      29.933469      34.582621      13.817589    
     23060   13.817589      158.5          158.5          158.5          35.02643       40.56313       29.933502      34.582658      13.817589    
     23080   13.817589      158.5          158.5          158.5          35.026462      40.563191      29.933547      34.582648      13.817589    
     23100   13.817588      158.5          158.5          158.5          35.026493      40.563202      29.933551      34.582726      13.817588    
     23120   13.817588      158.5          158.5          158.5          35.026455      40.56317       29.933538      34.582659      13.817588    
     23140   13.817588      158.5          158.5          158.5          35.026454      40.563163      29.933521      34.582677      13.817588    
     23160   13.817588      158.5          158.5          158.5          35.026426      40.563123      29.933506      34.582647      13.817588    
     23180   13.817588      158.5          158.5          158.5          35.026431      40.563161      29.933486      34.582646      13.817588    
     23200   13.817588      158.5          158.5          158.5          35.026484      40.563234      29.933505      34.582713      13.817588    
     23220   13.817588      158.5          158.5          158.5          35.026497      40.563206      29.933568      34.582719      13.817588    
     23240   13.817588      158.5          158.5          158.5          35.026496      40.563208      29.933521      34.58276       13.817588    
     23260   13.817587      158.5          158.5          158.5          35.026492      40.563197      29.93355       34.582728      13.817587    
     23280   13.817587      158.5          158.5          158.5          35.026464      40.563174      29.933541      34.582677      13.817587    
     23300   13.817587      158.5          158.5          158.5          35.026455      40.563149      29.933519      34.582697      13.817587    
     23320   13.817587      158.5          158.5          158.5          35.026508      40.563098      29.933669      34.582756      13.817587    
     23340   13.817586      158.5          158.5          158.5          35.026506      40.56307       29.933699      34.582748      13.817586    
     23360   13.817585      158.5          158.5          158.5          35.026366      40.563079      29.933465      34.582554      13.817585    
     23380   13.817585      158.5          158.5          158.5          35.026288      40.56279       29.933448      34.582625      13.817585    
     23400   13.817585      158.5          158.5          158.5          35.026437      40.563106      29.933545      34.582659      13.817585    
     23420   13.817584      158.5          158.5          158.5          35.026394      40.56303       29.9335        34.582653      13.817584    
     23440   13.817584      158.5          158.5          158.5          35.02632       40.563005      29.933404      34.58255       13.817584    
     23460   13.817583      158.5          158.5          158.5          35.026485      40.563102      29.933668      34.582684      13.817583    
     23480   13.817583      158.5          158.5          158.5          35.026497      40.563138      29.93359       34.582761      13.817583    
     23500   13.817583      158.5          158.5          158.5          35.026429      40.563095      29.933504      34.582689      13.817583    
     23520   13.817583      158.5          158.5          158.5          35.026464      40.563184      29.933501      34.582708      13.817583    
     23540   13.817582      158.5          158.5          158.5          35.026515      40.5632        29.933577      34.582769      13.817582    
     23560   13.817582      158.5          158.5          158.5          35.026443      40.563141      29.933498      34.582688      13.817582    
     23580   13.817582      158.5          158.5          158.5          35.02652       40.563235      29.933564      34.582761      13.817582    
     23600   13.817582      158.5          158.5          158.5          35.026468      40.56324       29.933512      34.582652      13.817582    
     23620   13.817582      158.5          158.5          158.5          35.026444      40.563163      29.933524      34.582645      13.817582    
     23640   13.817582      158.5          158.5          158.5          35.026408      40.563098      29.933503      34.582621      13.817582    
     23660   13.817582      158.5          158.5          158.5          35.026432      40.56314       29.933515      34.58264       13.817582    
     23680   13.817582      158.5          158.5          158.5          35.026467      40.56317       29.933557      34.582674      13.817582    
     23700   13.817582      158.5          158.5          158.5          35.026474      40.563192      29.933534      34.582696      13.817582    
     23720   13.817582      158.5          158.5          158.5          35.026465      40.563146      29.93359       34.58266       13.817582    
     23740   13.817581      158.5          158.5          158.5          35.026441      40.563139      29.933539      34.582643      13.817581    
     23760   13.817581      158.5          158.5          158.5          35.026399      40.563109      29.933494      34.582594      13.817581    
     23780   13.817581      158.5          158.5          158.5          35.026473      40.563171      29.93355       34.582698      13.817581    
     23800   13.817581      158.5          158.5          158.5          35.026468      40.563253      29.933521      34.582629      13.817581    
     23820   13.817581      158.5          158.5          158.5          35.02653       40.563202      29.933603      34.582786      13.817581    
     23840   13.817581      158.5          158.5          158.5          35.026491      40.563193      29.93354       34.58274       13.817581    
     23860   13.817581      158.5          158.5          158.5          35.02653       40.56326       29.93359       34.582742      13.817581    
     23880   13.817581      158.5          158.5          158.5          35.026461      40.563171      29.933523      34.582688      13.817581    
     23900   13.81758       158.5          158.5          158.5          35.02642       40.563093      29.933512      34.582655      13.81758     
     23920   13.81758       158.5          158.5          158.5          35.026416      40.563001      29.933589      34.582659      13.81758     
     23940   13.81758       158.5          158.5          158.5          35.026427      40.563086      29.933573      34.582622      13.81758     
     23960   13.817579      158.5          158.5          158.5          35.026453      40.56317       29.933511      34.582679      13.817579    
     23980   13.817579      158.5          158.5          158.5          35.026327      40.56294       29.933459      34.582581      13.817579    
     24000   13.817579      158.5          158.5          158.5          35.026441      40.56311       29.933569      34.582644      13.817579    
     24020   13.817579      158.5          158.5          158.5          35.026445      40.563015      29.933589      34.582732      13.817579    
     24040   13.817578      158.5          158.5          158.5          35.026388      40.563091      29.933446      34.582626      13.817578    
     24060   13.817578      158.5          158.5          158.5          35.02646       40.563076      29.933583      34.582722      13.817578    
     24080   13.817578      158.5          158.5          158.5          35.02646       40.563131      29.933574      34.582675      13.817578    
     24100   13.817577      158.5          158.5          158.5          35.026442      40.563064      29.933579      34.582684      13.817577    
     24120   13.817577      158.5          158.5          158.5          35.026442      40.563142      29.93348       34.582704      13.817577    
     24140   13.817577      158.5          158.5          158.5          35.026531      40.56325       29.933613      34.58273       13.817577    
     24160   13.817577      158.5          158.5          158.5          35.026465      40.563187      29.933534      34.582675      13.817577    
     24180   13.817577      158.5          158.5          158.5          35.026533      40.563244      29.933606      34.58275       13.817577    
     24200   13.817577      158.5          158.5          158.5          35.026474      40.563221      29.933526      34.582673      13.817577    
     24220   13.817577      158.5          158.5          158.5          35.026447      40.56317       29.933497      34.582676      13.817577    
     24240   13.817577      158.5          158.5          158.5          35.026414      40.5631        29.933515      34.582628      13.817577    
     24260   13.817577      158.5          158.5          158.5          35.026454      40.56317       29.933538      34.582654      13.817577    
     24280   13.817577      158.5          158.5          158.5          35.026447      40.563138      29.933556      34.582648      13.817577    
     24300   13.817576      158.5          158.5          158.5          35.026494      40.563194      29.933543      34.582747      13.817576    
     24320   13.817576      158.5          158.5          158.5          35.026445      40.563121      29.933551      34.582663      13.817576    
     24340   13.817576      158.5          158.5          158.5          35.026436      40.563141      29.933541      34.582627      13.817576    
     24360   13.817576      158.5          158.5          158.5          35.026413      40.56314       29.933491      34.582606      13.817576    
     24380   13.817576      158.5          158.5          158.5          35.026472      40.563174      29.933556      34.582684      13.817576    
     24400   13.817576      158.5          158.5          158.5          35.026491      40.563233      29.933567      34.582672      13.817576    
     24420   13.817576      158.5          158.5          158.5          35.026518      40.563212      29.933563      34.582778      13.817576    
     24440   13.817576      158.5          158.5          158.5          35.02648       40.56313       29.933542      34.582768      13.817576    
     24460   13.817576      158.5          158.5          158.5          35.026514      40.563198      29.9336        34.582744      13.817576    
     24480   13.817576      158.5          158.5          158.5          35.026469      40.563231      29.933506      34.582671      13.817576    
     24500   13.817576      158.5          158.5          158.5          35.026424      40.563108      29.933502      34.582661      13.817576    
     24520   13.817575      158.5          158.5          158.5          35.026423      40.562971      29.933627      34.582671      13.817575    
     24540   13.817575      158.5          158.5          158.5          35.026432      40.563081      29.933568      34.582648      13.817575    
     24560   13.817575      158.5          158.5          158.5          35.026456      40.563183      29.93352       34.582664      13.817575    
     24580   13.817574      158.5          158.5          158.5          35.026432      40.563022      29.93356       34.582712      13.817574    
     24600   13.817574      158.5          158.5          158.5          35.026411      40.563098      29.93346       34.582675      13.817574    
     24620   13.817574      158.5          158.5          158.5          35.02638       40.563         29.933527      34.582612      13.817574    
     24640   13.817574      158.5          158.5          158.5          35.026399      40.563071      29.933461      34.582664      13.817574    
     24660   13.817573      158.5          158.5          158.5          35.026461      40.563033      29.933655      34.582696      13.817573    
     24680   13.817573      158.5          158.5          158.5          35.026464      40.563082      29.933645      34.582666      13.817573    
     24700   13.817573      158.5          158.5          158.5          35.026431      40.563079      29.933546      34.582669      13.817573    
     24720   13.817573      158.5          158.5          158.5          35.026467      40.563164      29.933522      34.582715      13.817573    
     24740   13.817573      158.5          158.5          158.5          35.026507      40.563237      29.933575      34.58271       13.817573    
     24760   13.817573      158.5          158.5          158.5          35.026515      40.563164      29.933619      34.582761      13.817573    
     24780   13.817573      158.5          158.5          158.5          35.026541      40.563219      29.933605      34.582798      13.817573    
     24800   13.817572      158.5          158.5          158.5          35.026461      40.563202      29.933522      34.58266       13.817572    
     24820   13.817572      158.5          158.5          158.5          35.026463      40.563182      29.93354       34.582666      13.817572    
     24840   13.817572      158.5          158.5          158.5          35.026435      40.563137      29.933511      34.582656      13.817572    
     24860   13.817572      158.5          158.5          158.5          35.026432      40.56313       29.933536      34.582629      13.817572    
     24880   13.817572      158.5          158.5          158.5          35.026429      40.563109      29.93353       34.582649      13.817572    
     24900   13.817572      158.5          158.5          158.5          35.026488      40.56319       29.933542      34.582733      13.817572    
     24920   13.817572      158.5          158.5          158.5          35.02644       40.563131      29.933553      34.582638      13.817572    
     24940   13.817572      158.5          158.5          158.5          35.026431      40.563138      29.933501      34.582653      13.817572    
     24960   13.817572      158.5          158.5          158.5          35.026425      40.563137      29.933504      34.582635      13.817572    
     24980   13.817572      158.5          158.5          158.5          35.026466      40.563194      29.933526      34.582678      13.817572    
     25000   13.817572      158.5          158.5          158.5          35.026486      40.563225      29.933549      34.582683      13.817572    
     25020   13.817572      158.5          158.5          158.5          35.026535      40.563207      29.93361       34.582788      13.817572    
     25040   13.817572      158.5          158.5          158.5          35.026493      40.563135      29.933579      34.582767      13.817572    
     25060   13.817572      158.5          158.5          158.5          35.026504      40.563242      29.933546      34.582725      13.817572    
     25080   13.817571      158.5          158.5          158.5          35.026459      40.563178      29.933515      34.582684      13.817571    
     25100   13.817571      158.5          158.5          158.5          35.02643       40.563087      29.933531      34.582673      13.817571    
     25120   13.817571      158.5          158.5          158.5          35.026461      40.56311       29.933634      34.58264       13.817571    
     25140   13.817571      158.5          158.5          158.5          35.026499      40.563098      29.933662      34.582738      13.817571    
     25160   13.817571      158.5          158.5          158.5          35.026408      40.563108      29.933489      34.582628      13.817571    
     25180   13.817571      158.5          158.5          158.5          35.02641       40.563071      29.933517      34.582642      13.817571    
     25200   13.81757       158.5          158.5          158.5          35.026431      40.563129      29.933501      34.582662      13.81757     
     25220   13.81757       158.5          158.5          158.5          35.026407      40.563016      29.933564      34.582641      13.81757     
     25240   13.81757       158.5          158.5          158.5          35.026425      40.563103      29.9335        34.582673      13.81757     
     25260   13.81757       158.5          158.5          158.5          35.02643       40.563062      29.93356       34.582666      13.81757     
     25280   13.81757       158.5          158.5          158.5          35.026423      40.56306       29.933572      34.582636      13.81757     
     25300   13.81757       158.5          158.5          158.5          35.026427      40.56307       29.933534      34.582676      13.81757     
     25320   13.81757       158.5          158.5          158.5          35.026459      40.563185      29.933498      34.582695      13.81757     
     25340   13.817569      158.5          158.5          158.5          35.026483      40.563205      29.933564      34.58268       13.817569    
     25360   13.817569      158.5          158.5          158.5          35.026496      40.563176      29.933555      34.582755      13.817569    
     25380   13.817569      158.5          158.5          158.5          35.0265        40.563195      29.933561      34.582743      13.817569    
     25400   13.817569      158.5          158.5          158.5          35.026481      40.563221      29.933534      34.582686      13.817569    
     25420   13.817569      158.5          158.5          158.5          35.026465      40.563175      29.933529      34.58269       13.817569    
     25440   13.817569      158.5          158.5          158.5          35.026414      40.56315       29.933479      34.582612      13.817569    
     25460   13.817569      158.5          158.5          158.5          35.026439      40.563135      29.933551      34.58263       13.817569    
     25480   13.817569      158.5          158.5          158.5          35.026444      40.563147      29.933546      34.582639      13.817569    
     25500   13.817569      158.5          158.5          158.5          35.026493      40.563192      29.933553      34.582734      13.817569    
     25520   13.817569      158.5          158.5          158.5          35.026456      40.563129      29.93357       34.58267       13.817569    
     25540   13.817569      158.5          158.5          158.5          35.026435      40.563146      29.933519      34.582641      13.817569    
     25560   13.817569      158.5          158.5          158.5          35.026426      40.56314       29.933521      34.582617      13.817569    
     25580   13.817569      158.5          158.5          158.5          35.026459      40.563181      29.933525      34.58267       13.817569    
     25600   13.817569      158.5          158.5          158.5          35.026484      40.563199      29.933552      34.5827        13.817569    
     25620   13.817569      158.5          158.5          158.5          35.026497      40.563179      29.933588      34.582725      13.817569    
     25640   13.817569      158.5          158.5          158.5          35.026479      40.563139      29.933567      34.582733      13.817569    
     25660   13.817568      158.5          158.5          158.5          35.026479      40.563184      29.933544      34.58271       13.817568    
     25680   13.817568      158.5          158.5          158.5          35.026466      40.56319       29.933515      34.582692      13.817568    
     25700   13.817568      158.5          158.5          158.5          35.026453      40.563108      29.933555      34.582697      13.817568    
     25720   13.817568      158.5          158.5          158.5          35.02642       40.563065      29.933557      34.582638      13.817568    
     25740   13.817568      158.5          158.5          158.5          35.026474      40.563123      29.933573      34.582727      13.817568    
     25760   13.817568      158.5          158.5          158.5          35.026396      40.563025      29.933516      34.582648      13.817568    
     25780   13.817568      158.5          158.5          158.5          35.026447      40.56309       29.933527      34.582725      13.817568    
     25800   13.817568      158.5          158.5          158.5          35.026472      40.563175      29.933516      34.582724      13.817568    
     25820   13.817567      158.5          158.5          158.5          35.026418      40.56307       29.933516      34.582668      13.817567    
     25840   13.817567      158.5          158.5          158.5          35.026425      40.563088      29.933521      34.582667      13.817567    
     25860   13.817567      158.5          158.5          158.5          35.026446      40.563054      29.933604      34.58268       13.817567    
     25880   13.817567      158.5          158.5          158.5          35.026452      40.563084      29.933582      34.582691      13.817567    
     25900   13.817567      158.5          158.5          158.5          35.026443      40.563104      29.933544      34.582682      13.817567    
     25920   13.817567      158.5          158.5          158.5          35.026449      40.563138      29.933527      34.582682      13.817567    
     25940   13.817567      158.5          158.5          158.5          35.026485      40.563189      29.933554      34.582714      13.817567    
     25960   13.817567      158.5          158.5          158.5          35.026476      40.563141      29.933557      34.582731      13.817567    
     25980   13.817567      158.5          158.5          158.5          35.026491      40.563175      29.933583      34.582716      13.817567    
     26000   13.817567      158.5          158.5          158.5          35.026484      40.563184      29.933555      34.582715      13.817567    
     26020   13.817566      158.5          158.5          158.5          35.026459      40.56317       29.933541      34.582666      13.817566    
     26040   13.817566      158.5          158.5          158.5          35.026441      40.563156      29.933529      34.582639      13.817566    
     26060   13.817566      158.5          158.5          158.5          35.026423      40.563151      29.933507      34.58261       13.817566    
     26080   13.817566      158.5          158.5          158.5          35.026445      40.563101      29.93356       34.582673      13.817566    
     26100   13.817566      158.5          158.5          158.5          35.026445      40.563135      29.933532      34.582668      13.817566    
     26120   13.817566      158.5          158.5          158.5          35.026455      40.563129      29.933571      34.582666      13.817566    
     26140   13.817566      158.5          158.5          158.5          35.026438      40.563147      29.933516      34.582651      13.817566    
     26160   13.817566      158.5          158.5          158.5          35.02643       40.563142      29.933514      34.582635      13.817566    
     26180   13.817566      158.5          158.5          158.5          35.026483      40.563185      29.933569      34.582696      13.817566    
     26200   13.817566      158.5          158.5          158.5          35.026461      40.563193      29.933539      34.582653      13.817566    
     26220   13.817566      158.5          158.5          158.5          35.026505      40.56318       29.933573      34.582762      13.817566    
     26240   13.817566      158.5          158.5          158.5          35.026459      40.563129      29.933531      34.582717      13.817566    
     26260   13.817566      158.5          158.5          158.5          35.026489      40.563203      29.933519      34.582744      13.817566    
     26280   13.817566      158.5          158.5          158.5          35.026452      40.563174      29.933547      34.582634      13.817566    
     26300   13.817566      158.5          158.5          158.5          35.026474      40.563141      29.93357       34.58271       13.817566    
     26320   13.817566      158.5          158.5          158.5          35.026447      40.563114      29.933537      34.582689      13.817566    
     26340   13.817565      158.5          158.5          158.5          35.026418      40.56304       29.93351       34.582704      13.817565    
     26360   13.817565      158.5          158.5          158.5          35.026396      40.56304       29.93353       34.582617      13.817565    
     26380   13.817565      158.5          158.5          158.5          35.026476      40.563135      29.933571      34.582723      13.817565    
     26400   13.817565      158.5          158.5          158.5          35.026328      40.56302       29.933453      34.582512      13.817565    
     26420   13.817564      158.5          158.5          158.5          35.02644       40.563099      29.933531      34.582689      13.817564    
     26440   13.817564      158.5          158.5          158.5          35.026385      40.563026      29.933517      34.582611      13.817564    
     26460   13.817564      158.5          158.5          158.5          35.026466      40.563107      29.933555      34.582736      13.817564    
     26480   13.817564      158.5          158.5          158.5          35.026497      40.5632        29.933574      34.582716      13.817564    
     26500   13.817564      158.5          158.5          158.5          35.026461      40.563113      29.933578      34.582691      13.817564    
     26520   13.817564      158.5          158.5          158.5          35.026426      40.563133      29.933502      34.582644      13.817564    
     26540   13.817564      158.5          158.5          158.5          35.026492      40.563212      29.93354       34.582724      13.817564    
     26560   13.817564      158.5          158.5          158.5          35.026468      40.563151      29.933541      34.582711      13.817564    
     26580   13.817564      158.5          158.5          158.5          35.02649       40.563159      29.933594      34.582717      13.817564    
     26600   13.817564      158.5          158.5          158.5          35.026467      40.563199      29.933531      34.582671      13.817564    
     26620   13.817564      158.5          158.5          158.5          35.026476      40.563181      29.933566      34.58268       13.817564    
     26640   13.817564      158.5          158.5          158.5          35.026433      40.563131      29.933512      34.582655      13.817564    
     26660   13.817564      158.5          158.5          158.5          35.026424      40.563142      29.933501      34.582628      13.817564    
     26680   13.817564      158.5          158.5          158.5          35.026429      40.563152      29.93352       34.582616      13.817564    
     26700   13.817564      158.5          158.5          158.5          35.026474      40.563167      29.933574      34.582682      13.817564    
     26720   13.817563      158.5          158.5          158.5          35.026423      40.563088      29.933543      34.582637      13.817563    
     26740   13.817563      158.5          158.5          158.5          35.026425      40.56312       29.93351       34.582646      13.817563    
     26760   13.817563      158.5          158.5          158.5          35.026446      40.563156      29.933529      34.582652      13.817563    
     26780   13.817563      158.5          158.5          158.5          35.026455      40.56315       29.933572      34.582642      13.817563    
     26800   13.817563      158.5          158.5          158.5          35.026479      40.56319       29.933559      34.582688      13.817563    
     26820   13.817563      158.5          158.5          158.5          35.026471      40.56319       29.933508      34.582715      13.817563    
     26840   13.817563      158.5          158.5          158.5          35.026451      40.563135      29.933506      34.58271       13.817563    
     26860   13.817563      158.5          158.5          158.5          35.026481      40.563156      29.933569      34.582719      13.817563    
     26880   13.817563      158.5          158.5          158.5          35.026478      40.563171      29.933562      34.5827        13.817563    
     26900   13.817563      158.5          158.5          158.5          35.02645       40.563136      29.933544      34.58267       13.817563    
     26920   13.817563      158.5          158.5          158.5          35.026456      40.563101      29.933545      34.582724      13.817563    
     26940   13.817563      158.5          158.5          158.5          35.026439      40.563042      29.933556      34.582719      13.817563    
     26960   13.817563      158.5          158.5          158.5          35.026397      40.563041      29.933508      34.582642      13.817563    
     26980   13.817563      158.5          158.5          158.5          35.026448      40.563107      29.933567      34.58267       13.817563    
     27000   13.817562      158.5          158.5          158.5          35.026427      40.563159      29.93356       34.582561      13.817562    
     27020   13.817562      158.5          158.5          158.5          35.026445      40.563115      29.933556      34.582664      13.817562    
     27040   13.817562      158.5          158.5          158.5          35.026401      40.563072      29.933505      34.582625      13.817562    
     27060   13.817562      158.5          158.5          158.5          35.026444      40.563045      29.933567      34.582718      13.817562    
     27080   13.817562      158.5          158.5          158.5          35.026474      40.563136      29.933549      34.582738      13.817562    
     27100   13.817562      158.5          158.5          158.5          35.026464      40.563144      29.933573      34.582677      13.817562    
     27120   13.817562      158.5          158.5          158.5          35.026468      40.563177      29.933539      34.582688      13.817562    
     27140   13.817562      158.5          158.5          158.5          35.026457      40.563135      29.933544      34.582692      13.817562    
     27160   13.817562      158.5          158.5          158.5          35.026471      40.563165      29.933537      34.58271       13.817562    
     27180   13.817562      158.5          158.5          158.5          35.026496      40.563191      29.933555      34.582742      13.817562    
     27200   13.817562      158.5          158.5          158.5          35.026486      40.563182      29.933576      34.582701      13.817562    
     27220   13.817562      158.5          158.5          158.5          35.026458      40.563158      29.933537      34.582681      13.817562    
     27240   13.817562      158.5          158.5          158.5          35.026418      40.563122      29.933499      34.582634      13.817562    
     27260   13.817562      158.5          158.5          158.5          35.026433      40.563135      29.933509      34.582656      13.817562    
     27280   13.817562      158.5          158.5          158.5          35.026448      40.563129      29.933546      34.582669      13.817562    
     27300   13.817561      158.5          158.5          158.5          35.026449      40.563106      29.933541      34.5827        13.817561    
     27320   13.817561      158.5          158.5          158.5          35.026438      40.563142      29.933543      34.582628      13.817561    
     27340   13.817561      158.5          158.5          158.5          35.026445      40.563135      29.933502      34.582699      13.817561    
     27360   13.817561      158.5          158.5          158.5          35.026424      40.563126      29.933511      34.582637      13.817561    
     27380   13.817561      158.5          158.5          158.5          35.026468      40.563152      29.933565      34.582688      13.817561    
     27400   13.817561      158.5          158.5          158.5          35.026472      40.563185      29.933559      34.582673      13.817561    
     27420   13.817561      158.5          158.5          158.5          35.026492      40.563194      29.933552      34.582729      13.817561    
     27440   13.817561      158.5          158.5          158.5          35.026482      40.563189      29.933544      34.582713      13.817561    
     27460   13.817561      158.5          158.5          158.5          35.026491      40.563162      29.933587      34.582724      13.817561    
     27480   13.817561      158.5          158.5          158.5          35.026448      40.563117      29.933542      34.582686      13.817561    
     27500   13.817561      158.5          158.5          158.5          35.026459      40.563112      29.933565      34.582699      13.817561    
     27520   13.817561      158.5          158.5          158.5          35.026456      40.563112      29.933566      34.582689      13.817561    
     27540   13.817561      158.5          158.5          158.5          35.026495      40.563157      29.933598      34.58273       13.817561    
     27560   13.817561      158.5          158.5          158.5          35.026441      40.563107      29.933535      34.582681      13.817561    
     27580   13.817561      158.5          158.5          158.5          35.026433      40.563065      29.933542      34.582691      13.817561    
     27600   13.817561      158.5          158.5          158.5          35.026433      40.563132      29.933559      34.582608      13.817561    
     27620   13.817561      158.5          158.5          158.5          35.026439      40.56309       29.933544      34.582682      13.817561    
     27640   13.817561      158.5          158.5          158.5          35.026414      40.563078      29.933508      34.582655      13.817561    
     27660   13.81756       158.5          158.5          158.5          35.026482      40.563134      29.933592      34.582721      13.81756     
     27680   13.81756       158.5          158.5          158.5          35.026461      40.563134      29.933568      34.58268       13.81756     
     27700   13.81756       158.5          158.5          158.5          35.026444      40.563124      29.933534      34.582674      13.81756     
     27720   13.81756       158.5          158.5          158.5          35.026439      40.563123      29.93352       34.582673      13.81756     
     27740   13.81756       158.5          158.5          158.5          35.026476      40.563145      29.93356       34.582723      13.81756     
     27760   13.81756       158.5          158.5          158.5          35.026493      40.563206      29.933538      34.582736      13.81756     
     27780   13.81756       158.5          158.5          158.5          35.0265        40.563202      29.933552      34.582748      13.81756     
     27800   13.81756       158.5          158.5          158.5          35.026456      40.563151      29.933529      34.582687      13.81756     
     27820   13.81756       158.5          158.5          158.5          35.02646       40.563149      29.93355       34.58268       13.81756     
     27840   13.81756       158.5          158.5          158.5          35.026441      40.563136      29.93353       34.582656      13.81756     
     27860   13.81756       158.5          158.5          158.5          35.026436      40.563149      29.933513      34.582645      13.81756     
     27880   13.81756       158.5          158.5          158.5          35.026433      40.563106      29.933522      34.582673      13.81756     
     27900   13.81756       158.5          158.5          158.5          35.026447      40.563115      29.933544      34.582682      13.81756     
     27920   13.81756       158.5          158.5          158.5          35.026457      40.563115      29.933566      34.58269       13.81756     
     27940   13.81756       158.5          158.5          158.5          35.026455      40.563159      29.933559      34.582646      13.81756     
     27960   13.81756       158.5          158.5          158.5          35.026446      40.56316       29.933523      34.582654      13.81756     
     27980   13.81756       158.5          158.5          158.5          35.02646       40.563157      29.933552      34.582672      13.81756     
     28000   13.81756       158.5          158.5          158.5          35.026458      40.563159      29.933537      34.582678      13.81756     
     28020   13.81756       158.5          158.5          158.5          35.026477      40.563201      29.933549      34.582681      13.81756     
     28040   13.81756       158.5          158.5          158.5          35.026439      40.563142      29.933506      34.58267       13.81756     
     28060   13.81756       158.5          158.5          158.5          35.026463      40.563135      29.933547      34.582706      13.81756     
     28080   13.81756       158.5          158.5          158.5          35.026469      40.563153      29.933556      34.582698      13.81756     
     28100   13.81756       158.5          158.5          158.5          35.02648       40.563158      29.933578      34.582704      13.81756     
     28120   13.81756       158.5          158.5          158.5          35.026481      40.563157      29.933583      34.582704      13.81756     
     28140   13.81756       158.5          158.5          158.5          35.026439      40.563096      29.933523      34.582698      13.81756     
     28160   13.817559      158.5          158.5          158.5          35.026379      40.563034      29.933472      34.582631      13.817559    
     28180   13.817559      158.5          158.5          158.5          35.026397      40.563006      29.933517      34.582669      13.817559    
     28200   13.817559      158.5          158.5          158.5          35.026386      40.563107      29.933483      34.582568      13.817559    
     28220   13.817559      158.5          158.5          158.5          35.026489      40.563168      29.933563      34.582737      13.817559    
     28240   13.817559      158.5          158.5          158.5          35.026409      40.563074      29.933508      34.582646      13.817559    
     28260   13.817559      158.5          158.5          158.5          35.026431      40.563096      29.933533      34.582663      13.817559    
     28280   13.817559      158.5          158.5          158.5          35.026459      40.563118      29.933574      34.582683      13.817559    
     28300   13.817559      158.5          158.5          158.5          35.026415      40.56309       29.933509      34.582645      13.817559    
     28320   13.817559      158.5          158.5          158.5          35.026445      40.563128      29.933529      34.582677      13.817559    
     28340   13.817559      158.5          158.5          158.5          35.026471      40.563158      29.933544      34.58271       13.817559    
     28360   13.817559      158.5          158.5          158.5          35.02648       40.563201      29.933523      34.582717      13.817559    
     28380   13.817559      158.5          158.5          158.5          35.026506      40.563192      29.933602      34.582724      13.817559    
     28400   13.817559      158.5          158.5          158.5          35.026487      40.563188      29.93357       34.582703      13.817559    
     28420   13.817559      158.5          158.5          158.5          35.026454      40.56314       29.933542      34.582679      13.817559    
     28440   13.817559      158.5          158.5          158.5          35.026428      40.563145      29.933494      34.582645      13.817559    
     28460   13.817559      158.5          158.5          158.5          35.026446      40.56315       29.933525      34.582663      13.817559    
     28480   13.817559      158.5          158.5          158.5          35.026465      40.563151      29.933559      34.582684      13.817559    
     28500   13.817559      158.5          158.5          158.5          35.026459      40.563119      29.933564      34.582693      13.817559    
     28520   13.817559      158.5          158.5          158.5          35.026449      40.563121      29.933544      34.582682      13.817559    
     28540   13.817559      158.5          158.5          158.5          35.026466      40.563168      29.933549      34.582681      13.817559    
     28560   13.817559      158.5          158.5          158.5          35.026436      40.563147      29.933515      34.582647      13.817559    
     28580   13.817559      158.5          158.5          158.5          35.026467      40.563166      29.933558      34.582677      13.817559    
     28600   13.817559      158.5          158.5          158.5          35.026462      40.563159      29.933547      34.582679      13.817559    
     28620   13.817558      158.5          158.5          158.5          35.026492      40.563198      29.933561      34.582718      13.817558    
     28640   13.817558      158.5          158.5          158.5          35.026467      40.563161      29.933539      34.5827        13.817558    
     28660   13.817558      158.5          158.5          158.5          35.026472      40.563152      29.933553      34.582712      13.817558    
     28680   13.817558      158.5          158.5          158.5          35.026452      40.563129      29.933534      34.582694      13.817558    
     28700   13.817558      158.5          158.5          158.5          35.026435      40.56311       29.933532      34.582662      13.817558    
     28720   13.817558      158.5          158.5          158.5          35.026467      40.563137      29.933552      34.582711      13.817558    
     28740   13.817558      158.5          158.5          158.5          35.026462      40.563113      29.933567      34.582707      13.817558    
     28760   13.817558      158.5          158.5          158.5          35.026422      40.56308       29.933552      34.582634      13.817558    
     28780   13.817558      158.5          158.5          158.5          35.026445      40.56309       29.933542      34.582704      13.817558    
     28800   13.817558      158.5          158.5          158.5          35.026401      40.563119      29.933515      34.58257       13.817558    
     28820   13.817558      158.5          158.5          158.5          35.026413      40.563058      29.933522      34.58266       13.817558    
     28840   13.817558      158.5          158.5          158.5          35.026436      40.563087      29.933575      34.582645      13.817558    
     28860   13.817558      158.5          158.5          158.5          35.026478      40.563137      29.933588      34.582711      13.817558    
     28880   13.817558      158.5          158.5          158.5          35.026462      40.563109      29.933571      34.582705      13.817558    
     28900   13.817558      158.5          158.5          158.5          35.026408      40.563081      29.933511      34.582632      13.817558    
     28920   13.817558      158.5          158.5          158.5          35.026469      40.563152      29.933543      34.582713      13.817558    
     28940   13.817558      158.5          158.5          158.5          35.02648       40.56315       29.933569      34.582721      13.817558    
     28960   13.817558      158.5          158.5          158.5          35.026491      40.563205      29.933535      34.582732      13.817558    
     28980   13.817558      158.5          158.5          158.5          35.02647       40.563167      29.933541      34.582701      13.817558    
     29000   13.817558      158.5          158.5          158.5          35.026452      40.563149      29.933531      34.582674      13.817558    
     29020   13.817558      158.5          158.5          158.5          35.026454      40.563153      29.933534      34.582674      13.817558    
     29040   13.817558      158.5          158.5          158.5          35.026429      40.563133      29.933518      34.582636      13.817558    
     29060   13.817558      158.5          158.5          158.5          35.026445      40.56313       29.933537      34.582667      13.817558    
     29080   13.817558      158.5          158.5          158.5          35.026458      40.563131      29.933551      34.582692      13.817558    
     29100   13.817558      158.5          158.5          158.5          35.026462      40.563147      29.933549      34.58269       13.817558    
     29120   13.817558      158.5          158.5          158.5          35.026455      40.563133      29.933547      34.582686      13.817558    
     29140   13.817558      158.5          158.5          158.5          35.026453      40.563159      29.933535      34.582664      13.817558    
     29160   13.817558      158.5          158.5          158.5          35.02645       40.563154      29.933547      34.582649      13.817558    
     29180   13.817557      158.5          158.5          158.5          35.026475      40.563171      29.933575      34.582678      13.817557    
     29200   13.817557      158.5          158.5          158.5          35.026475      40.563182      29.933556      34.582688      13.817557    
     29220   13.817557      158.5          158.5          158.5          35.026478      40.563192      29.933542      34.5827        13.817557    
     29240   13.817557      158.5          158.5          158.5          35.026457      40.563157      29.93353       34.582682      13.817557    
     29260   13.817557      158.5          158.5          158.5          35.026475      40.563159      29.933544      34.582722      13.817557    
     29280   13.817557      158.5          158.5          158.5          35.026459      40.563136      29.933539      34.582702      13.817557    
     29300   13.817557      158.5          158.5          158.5          35.026427      40.563109      29.933508      34.582666      13.817557    
     29320   13.817557      158.5          158.5          158.5          35.026452      40.563103      29.933557      34.582697      13.817557    
     29340   13.817557      158.5          158.5          158.5          35.026453      40.563099      29.933557      34.582701      13.817557    
     29360   13.817557      158.5          158.5          158.5          35.026397      40.563053      29.933499      34.582638      13.817557    
     29380   13.817557      158.5          158.5          158.5          35.026444      40.563087      29.933551      34.582694      13.817557    
     29400   13.817557      158.5          158.5          158.5          35.026391      40.563082      29.933516      34.582574      13.817557    
     29420   13.817557      158.5          158.5          158.5          35.026432      40.563076      29.93354       34.582681      13.817557    
     29440   13.817557      158.5          158.5          158.5          35.026418      40.563066      29.933527      34.582662      13.817557    
     29460   13.817557      158.5          158.5          158.5          35.026443      40.563097      29.933547      34.582684      13.817557    
     29480   13.817557      158.5          158.5          158.5          35.026455      40.563113      29.933547      34.582706      13.817557    
     29500   13.817557      158.5          158.5          158.5          35.026432      40.563108      29.933532      34.582656      13.817557    
     29520   13.817557      158.5          158.5          158.5          35.026454      40.563139      29.933533      34.582691      13.817557    
     29540   13.817557      158.5          158.5          158.5          35.026468      40.563144      29.933548      34.582712      13.817557    
     29560   13.817557      158.5          158.5          158.5          35.026468      40.563184      29.933528      34.582693      13.817557    
     29580   13.817557      158.5          158.5          158.5          35.026482      40.563176      29.93356       34.582709      13.817557    
     29600   13.817557      158.5          158.5          158.5          35.026467      40.563164      29.93355       34.582686      13.817557    
     29620   13.817557      158.5          158.5          158.5          35.026468      40.563168      29.933571      34.582666      13.817557    
     29640   13.817557      158.5          158.5          158.5          35.026433      40.563127      29.933521      34.58265       13.817557    
     29660   13.817557      158.5          158.5          158.5          35.026457      40.563149      29.933544      34.582677      13.817557    
     29680   13.817557      158.5          158.5          158.5          35.026463      40.563144      29.93356       34.582686      13.817557    
     29700   13.817557      158.5          158.5          158.5          35.026457      40.563128      29.933552      34.582691      13.817557    
     29720   13.817557      158.5          158.5          158.5          35.026454      40.563134      29.933546      34.582681      13.817557    
     29740   13.817557      158.5          158.5          158.5          35.026451      40.563139      29.933549      34.582666      13.817557    
     29760   13.817557      158.5          158.5          158.5          35.026446      40.563135      29.933543      34.582659      13.817557    
     29780   13.817557      158.5          158.5          158.5          35.026472      40.563175      29.933562      34.58268       13.817557    
     29800   13.817557      158.5          158.5          158.5          35.026464      40.563157      29.933549      34.582686      13.817557    
     29820   13.817556      158.5          158.5          158.5          35.026474      40.563168      29.933549      34.582705      13.817556    
     29840   13.817556      158.5          158.5          158.5          35.026464      40.563148      29.933553      34.582693      13.817556    
     29860   13.817556      158.5          158.5          158.5          35.026478      40.563155      29.933559      34.582719      13.817556    
     29880   13.817556      158.5          158.5          158.5          35.02646       40.563143      29.933538      34.5827        13.817556    
     29900   13.817556      158.5          158.5          158.5          35.026424      40.563076      29.933527      34.582669      13.817556    
     29920   13.817556      158.5          158.5          158.5          35.026432      40.563081      29.933522      34.582694      13.817556    
     29940   13.817556      158.5          158.5          158.5          35.026459      40.563126      29.933551      34.5827        13.817556    
     29960   13.817556      158.5          158.5          158.5          35.026439      40.563103      29.933547      34.582668      13.817556    
     29980   13.817556      158.5          158.5          158.5          35.026445      40.563093      29.93354       34.582704      13.817556    
     30000   13.817556      158.5          158.5          158.5          35.026381      40.56306       29.933516      34.582568      13.817556    
     30020   13.817556      158.5          158.5          158.5          35.026434      40.563089      29.933527      34.582687      13.817556    
     30040   13.817556      158.5          158.5          158.5          35.02641       40.563085      29.933525      34.582619      13.817556    
     30060   13.817556      158.5          158.5          158.5          35.026458      40.563133      29.933547      34.582694      13.817556    
     30080   13.817556      158.5          158.5          158.5          35.026481      40.56315       29.933582      34.582711      13.817556    
     30100   13.817556      158.5          158.5          158.5          35.026437      40.563116      29.933539      34.582657      13.817556    
     30120   13.817556      158.5          158.5          158.5          35.026461      40.563149      29.933538      34.582697      13.817556    
     30140   13.817556      158.5          158.5          158.5          35.026479      40.563155      29.933552      34.582731      13.817556    
     30160   13.817556      158.5          158.5          158.5          35.026469      40.563159      29.933543      34.582704      13.817556    
     30180   13.817556      158.5          158.5          158.5          35.026482      40.563179      29.933556      34.582712      13.817556    
     30200   13.817556      158.5          158.5          158.5          35.026461      40.563167      29.933541      34.582675      13.817556    
     30220   13.817556      158.5          158.5          158.5          35.026471      40.563175      29.933553      34.582686      13.817556    
     30240   13.817556      158.5          158.5          158.5          35.026447      40.563144      29.933539      34.582657      13.817556    
     30260   13.817556      158.5          158.5          158.5          35.026457      40.563148      29.933544      34.582681      13.817556    
     30280   13.817556      158.5          158.5          158.5          35.026453      40.563136      29.933544      34.582679      13.817556    
     30300   13.817556      158.5          158.5          158.5          35.026459      40.563126      29.933557      34.582693      13.817556    
     30320   13.817556      158.5          158.5          158.5          35.026445      40.563129      29.933535      34.582671      13.817556    
     30340   13.817556      158.5          158.5          158.5          35.026449      40.563127      29.933545      34.582675      13.817556    
     30360   13.817556      158.5          158.5          158.5          35.026437      40.563131      29.93353       34.582649      13.817556    
     30380   13.817556      158.5          158.5          158.5          35.026468      40.563163      29.933553      34.582688      13.817556    
     30400   13.817556      158.5          158.5          158.5          35.026469      40.563147      29.933566      34.582693      13.817556    
     30420   13.817556      158.5          158.5          158.5          35.026478      40.563179      29.933547      34.582708      13.817556    
     30440   13.817556      158.5          158.5          158.5          35.026468      40.563143      29.933565      34.582695      13.817556    
     30460   13.817556      158.5          158.5          158.5          35.026484      40.563147      29.933578      34.582727      13.817556    
     30480   13.817556      158.5          158.5          158.5          35.026439      40.563106      29.933539      34.582672      13.817556    
     30500   13.817555      158.5          158.5          158.5          35.026441      40.563118      29.93353       34.582676      13.817555    
     30520   13.817555      158.5          158.5          158.5          35.026454      40.563097      29.933572      34.582692      13.817555    
     30540   13.817555      158.5          158.5          158.5          35.026453      40.563128      29.933544      34.582686      13.817555    
     30560   13.817555      158.5          158.5          158.5          35.0264        40.563058      29.933524      34.582617      13.817555    
     30580   13.817555      158.5          158.5          158.5          35.026458      40.563121      29.933558      34.582696      13.817555    
     30600   13.817555      158.5          158.5          158.5          35.02641       40.563103      29.933561      34.582566      13.817555    
     30620   13.817555      158.5          158.5          158.5          35.02645       40.563133      29.93352       34.582699      13.817555    
     30640   13.817555      158.5          158.5          158.5          35.026406      40.563071      29.933513      34.582636      13.817555    
     30660   13.817555      158.5          158.5          158.5          35.026436      40.563107      29.933556      34.582646      13.817555    
     30680   13.817555      158.5          158.5          158.5          35.026453      40.563129      29.933547      34.582682      13.817555    
     30700   13.817555      158.5          158.5          158.5          35.026456      40.563125      29.933534      34.582709      13.817555    
     30720   13.817555      158.5          158.5          158.5          35.026447      40.56313       29.933537      34.582674      13.817555    
     30740   13.817555      158.5          158.5          158.5          35.026466      40.563134      29.933559      34.582705      13.817555    
     30760   13.817555      158.5          158.5          158.5          35.026464      40.563139      29.933565      34.582688      13.817555    
     30780   13.817555      158.5          158.5          158.5          35.026482      40.563179      29.933556      34.58271       13.817555    
     30800   13.817555      158.5          158.5          158.5          35.026468      40.563167      29.933549      34.582688      13.817555    
     30820   13.817555      158.5          158.5          158.5          35.026455      40.563153      29.93354       34.582672      13.817555    
     30840   13.817555      158.5          158.5          158.5          35.026438      40.563117      29.933527      34.582669      13.817555    
     30860   13.817555      158.5          158.5          158.5          35.026442      40.563132      29.933527      34.582666      13.817555    
     30880   13.817555      158.5          158.5          158.5          35.026449      40.56314       29.93354       34.582666      13.817555    
     30900   13.817555      158.5          158.5          158.5          35.026464      40.563135      29.933562      34.582695      13.817555    
     30920   13.817555      158.5          158.5          158.5          35.026454      40.563141      29.933544      34.582676      13.817555    
     30940   13.817555      158.5          158.5          158.5          35.026436      40.563126      29.933518      34.582663      13.817555    
     30960   13.817554      158.5          158.5          158.5          35.026442      40.563142      29.933528      34.582656      13.817554    
     30980   13.817554      158.5          158.5          158.5          35.026477      40.563161      29.933578      34.582691      13.817554    
     31000   13.817554      158.5          158.5          158.5          35.026465      40.563138      29.933558      34.582699      13.817554    
     31020   13.817554      158.5          158.5          158.5          35.026457      40.563129      29.933526      34.582716      13.817554    
     31040   13.817554      158.5          158.5          158.5          35.026459      40.563152      29.933529      34.582696      13.817554    
     31060   13.817554      158.5          158.5          158.5          35.026471      40.563153      29.933552      34.582708      13.817554    
     31080   13.817554      158.5          158.5          158.5          35.026439      40.563112      29.933538      34.582668      13.817554    
     31100   13.817554      158.5          158.5          158.5          35.026441      40.563114      29.933541      34.58267       13.817554    
     31120   13.817554      158.5          158.5          158.5          35.026488      40.563158      29.933599      34.582707      13.817554    
     31140   13.817554      158.5          158.5          158.5          35.026446      40.56312       29.933557      34.58266       13.817554    
     31160   13.817554      158.5          158.5          158.5          35.026436      40.563074      29.933546      34.582688      13.817554    
     31180   13.817554      158.5          158.5          158.5          35.026427      40.563102      29.933515      34.582664      13.817554    
     31200   13.817554      158.5          158.5          158.5          35.026471      40.563161      29.93352       34.582733      13.817554    
     31220   13.817554      158.5          158.5          158.5          35.026405      40.563062      29.93352       34.582632      13.817554    
     31240   13.817554      158.5          158.5          158.5          35.026428      40.56308       29.933529      34.582676      13.817554    
     31260   13.817554      158.5          158.5          158.5          35.026461      40.563148      29.933563      34.582671      13.817554    
     31280   13.817554      158.5          158.5          158.5          35.026461      40.563133      29.933548      34.582701      13.817554    
     31300   13.817554      158.5          158.5          158.5          35.026419      40.563074      29.933525      34.582657      13.817554    
     31320   13.817554      158.5          158.5          158.5          35.026455      40.563116      29.933546      34.582703      13.817554    
     31340   13.817554      158.5          158.5          158.5          35.026456      40.563136      29.933553      34.58268       13.817554    
     31360   13.817554      158.5          158.5          158.5          35.026478      40.563156      29.933554      34.582724      13.817554    
     31380   13.817554      158.5          158.5          158.5          35.026443      40.563112      29.933534      34.582684      13.817554    
     31400   13.817554      158.5          158.5          158.5          35.026478      40.563175      29.933559      34.5827        13.817554    
     31420   13.817554      158.5          158.5          158.5          35.026474      40.563166      29.933565      34.582693      13.817554    
     31440   13.817554      158.5          158.5          158.5          35.02644       40.563128      29.933538      34.582655      13.817554    
     31460   13.817554      158.5          158.5          158.5          35.026441      40.563129      29.933531      34.582664      13.817554    
     31480   13.817554      158.5          158.5          158.5          35.026455      40.563146      29.933542      34.582676      13.817554    
     31500   13.817554      158.5          158.5          158.5          35.026462      40.563138      29.933555      34.582693      13.817554    
     31520   13.817554      158.5          158.5          158.5          35.026447      40.563123      29.933546      34.582674      13.817554    
     31540   13.817554      158.5          158.5          158.5          35.026446      40.56314       29.933533      34.582664      13.817554    
     31560   13.817554      158.5          158.5          158.5          35.026437      40.563128      29.933524      34.582658      13.817554    
     31580   13.817554      158.5          158.5          158.5          35.026471      40.563161      29.933568      34.582683      13.817554    
     31600   13.817554      158.5          158.5          158.5          35.026482      40.563169      29.933566      34.58271       13.817554    
     31620   13.817554      158.5          158.5          158.5          35.026445      40.563119      29.933525      34.582692      13.817554    
     31640   13.817554      158.5          158.5          158.5          35.026469      40.563145      29.933545      34.582717      13.817554    
     31660   13.817554      158.5          158.5          158.5          35.026465      40.563148      29.933555      34.58269       13.817554    
     31680   13.817554      158.5          158.5          158.5          35.02646       40.563124      29.933551      34.582704      13.817554    
     31700   13.817554      158.5          158.5          158.5          35.026427      40.563089      29.933524      34.582669      13.817554    
     31720   13.817554      158.5          158.5          158.5          35.026465      40.563138      29.933562      34.582694      13.817554    
     31740   13.817554      158.5          158.5          158.5          35.02649       40.563165      29.933587      34.582719      13.817554    
     31760   13.817553      158.5          158.5          158.5          35.026427      40.563094      29.933529      34.582658      13.817553    
     31780   13.817553      158.5          158.5          158.5          35.026425      40.563096      29.933526      34.582654      13.817553    
     31800   13.817553      158.5          158.5          158.5          35.026461      40.563147      29.933532      34.582704      13.817553    
     31820   13.817553      158.5          158.5          158.5          35.02641       40.563068      29.933518      34.582645      13.817553    
     31840   13.817553      158.5          158.5          158.5          35.026436      40.563102      29.933537      34.582668      13.817553    
     31860   13.817553      158.5          158.5          158.5          35.026482      40.563175      29.933573      34.582698      13.817553    
     31880   13.817553      158.5          158.5          158.5          35.026449      40.563122      29.933544      34.582681      13.817553    
     31900   13.817553      158.5          158.5          158.5          35.026429      40.563088      29.933534      34.582665      13.817553    
     31920   13.817553      158.5          158.5          158.5          35.026452      40.563111      29.933542      34.582704      13.817553    
     31940   13.817553      158.5          158.5          158.5          35.02646       40.563138      29.933557      34.582685      13.817553    
     31960   13.817553      158.5          158.5          158.5          35.026465      40.563162      29.933531      34.582702      13.817553    
     31980   13.817553      158.5          158.5          158.5          35.026457      40.563139      29.933543      34.582689      13.817553    
     32000   13.817553      158.5          158.5          158.5          35.026486      40.563183      29.933568      34.582706      13.817553    
     32020   13.817553      158.5          158.5          158.5          35.026469      40.563156      29.933572      34.582679      13.817553    
     32040   13.817553      158.5          158.5          158.5          35.02644       40.56313       29.933531      34.582658      13.817553    
     32060   13.817553      158.5          158.5          158.5          35.026437      40.563122      29.933533      34.582656      13.817553    
     32080   13.817553      158.5          158.5          158.5          35.026457      40.563136      29.933554      34.582681      13.817553    
     32100   13.817553      158.5          158.5          158.5          35.026461      40.563133      29.933558      34.582692      13.817553    
     32120   13.817553      158.5          158.5          158.5          35.026453      40.563135      29.933548      34.582678      13.817553    
     32140   13.817553      158.5          158.5          158.5          35.026442      40.563126      29.933532      34.582668      13.817553    
     32160   13.817553      158.5          158.5          158.5          35.02644       40.56312       29.933534      34.582665      13.817553    
     32180   13.817553      158.5          158.5          158.5          35.026463      40.563143      29.933565      34.582681      13.817553    
     32200   13.817553      158.5          158.5          158.5          35.02646       40.563142      29.933546      34.582691      13.817553    
     32220   13.817553      158.5          158.5          158.5          35.026451      40.563123      29.933536      34.582695      13.817553    
     32240   13.817553      158.5          158.5          158.5          35.026469      40.563157      29.933544      34.582707      13.817553    
     32260   13.817553      158.5          158.5          158.5          35.026456      40.563125      29.933553      34.582688      13.817553    
     32280   13.817553      158.5          158.5          158.5          35.026437      40.563101      29.933525      34.582685      13.817553    
     32300   13.817553      158.5          158.5          158.5          35.026442      40.563091      29.933558      34.582676      13.817553    
     32320   13.817553      158.5          158.5          158.5          35.026478      40.56316       29.933568      34.582705      13.817553    
     32340   13.817553      158.5          158.5          158.5          35.026472      40.563145      29.93357       34.5827        13.817553    
     32360   13.817553      158.5          158.5          158.5          35.026416      40.563073      29.93352       34.582655      13.817553    
     32380   13.817553      158.5          158.5          158.5          35.026417      40.563078      29.933515      34.582659      13.817553    
     32400   13.817553      158.5          158.5          158.5          35.026491      40.563186      29.933596      34.582692      13.817553    
     32420   13.817553      158.5          158.5          158.5          35.026418      40.563091      29.933509      34.582654      13.817553    
     32440   13.817553      158.5          158.5          158.5          35.026422      40.56307       29.933538      34.582658      13.817553    
     32460   13.817553      158.5          158.5          158.5          35.026464      40.563145      29.933563      34.582682      13.817553    
     32480   13.817553      158.5          158.5          158.5          35.026471      40.563148      29.933552      34.582712      13.817553    
     32500   13.817553      158.5          158.5          158.5          35.026443      40.563098      29.933556      34.582674      13.817553    
     32520   13.817553      158.5          158.5          158.5          35.026449      40.563114      29.933535      34.582699      13.817553    
     32540   13.817553      158.5          158.5          158.5          35.026449      40.563127      29.933549      34.582671      13.817553    
     32560   13.817553      158.5          158.5          158.5          35.026467      40.563155      29.933548      34.582699      13.817553    
     32580   13.817553      158.5          158.5          158.5          35.026454      40.563135      29.933528      34.582699      13.817553    
     32600   13.817553      158.5          158.5          158.5          35.02647       40.563157      29.933563      34.582691      13.817553    
     32620   13.817553      158.5          158.5          158.5          35.026465      40.563161      29.933559      34.582676      13.817553    
     32640   13.817553      158.5          158.5          158.5          35.026448      40.563129      29.93354       34.582674      13.817553    
     32660   13.817553      158.5          158.5          158.5          35.026435      40.563137      29.933517      34.582651      13.817553    
     32680   13.817553      158.5          158.5          158.5          35.026452      40.563135      29.933546      34.582677      13.817553    
     32700   13.817553      158.5          158.5          158.5          35.026459      40.563134      29.933553      34.58269       13.817553    
     32720   13.817553      158.5          158.5          158.5          35.02645       40.563122      29.933548      34.582679      13.817553    
     32740   13.817553      158.5          158.5          158.5          35.026438      40.563128      29.933526      34.582661      13.817553    
     32760   13.817553      158.5          158.5          158.5          35.026443      40.563124      29.933536      34.582668      13.817553    
     32780   13.817553      158.5          158.5          158.5          35.026461      40.563143      29.933557      34.582683      13.817553    
     32800   13.817553      158.5          158.5          158.5          35.026464      40.563146      29.933552      34.582695      13.817553    
     32820   13.817553      158.5          158.5          158.5          35.026452      40.563136      29.933547      34.582673      13.817553    
     32840   13.817552      158.5          158.5          158.5          35.026468      40.563152      29.933557      34.582695      13.817552    
     32860   13.817552      158.5          158.5          158.5          35.026456      40.563134      29.933547      34.582688      13.817552    
     32880   13.817552      158.5          158.5          158.5          35.02645       40.563106      29.933557      34.582686      13.817552    
     32900   13.817552      158.5          158.5          158.5          35.026451      40.563101      29.933566      34.582686      13.817552    
     32920   13.817552      158.5          158.5          158.5          35.026478      40.563165      29.93357       34.5827        13.817552    
     32940   13.817552      158.5          158.5          158.5          35.026462      40.56314       29.933562      34.582683      13.817552    
     32960   13.817552      158.5          158.5          158.5          35.026423      40.56308       29.933537      34.582651      13.817552    
     32980   13.817552      158.5          158.5          158.5          35.026425      40.563111      29.933514      34.582651      13.817552    
     33000   13.817552      158.5          158.5          158.5          35.026485      40.563187      29.933541      34.582728      13.817552    
     33020   13.817552      158.5          158.5          158.5          35.026444      40.563119      29.933549      34.582664      13.817552    
     33040   13.817552      158.5          158.5          158.5          35.026419      40.563084      29.933524      34.582649      13.817552    
     33060   13.817552      158.5          158.5          158.5          35.026449      40.563122      29.933543      34.582682      13.817552    
     33080   13.817552      158.5          158.5          158.5          35.026461      40.563147      29.933546      34.582691      13.817552    
     33100   13.817552      158.5          158.5          158.5          35.026442      40.563102      29.933545      34.582679      13.817552    
     33120   13.817552      158.5          158.5          158.5          35.026443      40.563117      29.933533      34.58268       13.817552    
     33140   13.817552      158.5          158.5          158.5          35.026456      40.563136      29.933549      34.582684      13.817552    
     33160   13.817552      158.5          158.5          158.5          35.026463      40.563154      29.933539      34.582697      13.817552    
     33180   13.817552      158.5          158.5          158.5          35.02646       40.56314       29.933547      34.582694      13.817552    
     33200   13.817552      158.5          158.5          158.5          35.02646       40.563144      29.93354       34.582696      13.817552    
     33220   13.817552      158.5          158.5          158.5          35.026457      40.56313       29.933557      34.582685      13.817552    
     33240   13.817552      158.5          158.5          158.5          35.026444      40.563125      29.933537      34.582669      13.817552    
     33260   13.817552      158.5          158.5          158.5          35.02645       40.563131      29.933541      34.582679      13.817552    
     33280   13.817552      158.5          158.5          158.5          35.026452      40.563135      29.933545      34.582675      13.817552    
     33300   13.817552      158.5          158.5          158.5          35.026459      40.563135      29.933554      34.582687      13.817552    
     33320   13.817552      158.5          158.5          158.5          35.026451      40.563132      29.933547      34.582675      13.817552    
     33340   13.817552      158.5          158.5          158.5          35.026458      40.563134      29.933552      34.582687      13.817552    
     33360   13.817552      158.5          158.5          158.5          35.026436      40.563118      29.933526      34.582665      13.817552    
     33380   13.817552      158.5          158.5          158.5          35.026462      40.563133      29.933559      34.582694      13.817552    
     33400   13.817552      158.5          158.5          158.5          35.026457      40.563134      29.933555      34.582681      13.817552    
     33420   13.817552      158.5          158.5          158.5          35.026449      40.563142      29.933525      34.58268       13.817552    
     33440   13.817552      158.5          158.5          158.5          35.026461      40.563138      29.933543      34.582701      13.817552    
     33460   13.817552      158.5          158.5          158.5          35.026465      40.563129      29.933558      34.582708      13.817552    
     33480   13.817552      158.5          158.5          158.5          35.026447      40.563114      29.933549      34.582679      13.817552    
     33500   13.817552      158.5          158.5          158.5          35.026451      40.563129      29.933541      34.582682      13.817552    
     33520   13.817552      158.5          158.5          158.5          35.026461      40.563137      29.933556      34.58269       13.817552    
     33540   13.817552      158.5          158.5          158.5          35.026449      40.563106      29.933558      34.582682      13.817552    
     33560   13.817552      158.5          158.5          158.5          35.026408      40.563074      29.933514      34.582637      13.817552    
     33580   13.817552      158.5          158.5          158.5          35.026454      40.563113      29.933553      34.582696      13.817552    
     33600   13.817552      158.5          158.5          158.5          35.026522      40.563201      29.93358       34.582784      13.817552    
     33620   13.817552      158.5          158.5          158.5          35.026453      40.563114      29.933548      34.582696      13.817552    
     33640   13.817552      158.5          158.5          158.5          35.026418      40.563079      29.933522      34.582653      13.817552    
     33660   13.817552      158.5          158.5          158.5          35.026457      40.563152      29.933543      34.582675      13.817552    
     33680   13.817552      158.5          158.5          158.5          35.02644       40.563117      29.933545      34.582656      13.817552    
     33700   13.817552      158.5          158.5          158.5          35.026424      40.563095      29.933532      34.582646      13.817552    
     33720   13.817552      158.5          158.5          158.5          35.026447      40.563114      29.933541      34.582685      13.817552    
     33740   13.817552      158.5          158.5          158.5          35.026463      40.563134      29.933552      34.582703      13.817552    
     33760   13.817552      158.5          158.5          158.5          35.02646       40.563145      29.933547      34.582688      13.817552    
     33780   13.817552      158.5          158.5          158.5          35.026478      40.563159      29.933556      34.582718      13.817552    
     33800   13.817552      158.5          158.5          158.5          35.026448      40.563133      29.933542      34.582669      13.817552    
     33820   13.817552      158.5          158.5          158.5          35.02646       40.563147      29.933548      34.582687      13.817552    
     33840   13.817552      158.5          158.5          158.5          35.026458      40.563145      29.933542      34.582686      13.817552    
     33860   13.817552      158.5          158.5          158.5          35.026448      40.563126      29.933541      34.582676      13.817552    
     33880   13.817552      158.5          158.5          158.5          35.026446      40.563123      29.933539      34.582675      13.817552    
     33900   13.817552      158.5          158.5          158.5          35.026453      40.563125      29.933548      34.582684      13.817552    
     33920   13.817552      158.5          158.5          158.5          35.026448      40.563124      29.933544      34.582677      13.817552    
     33940   13.817552      158.5          158.5          158.5          35.026451      40.563132      29.933544      34.582677      13.817552    
     33960   13.817552      158.5          158.5          158.5          35.026462      40.563147      29.933557      34.582682      13.817552    
     33980   13.817552      158.5          158.5          158.5          35.026466      40.563149      29.933564      34.582686      13.817552    
     34000   13.817552      158.5          158.5          158.5          35.02646       40.56314       29.933553      34.582688      13.817552    
     34020   13.817552      158.5          158.5          158.5          35.026464      40.563141      29.933552      34.582698      13.817552    
     34040   13.817552      158.5          158.5          158.5          35.026464      40.563144      29.933548      34.5827        13.817552    
     34060   13.817552      158.5          158.5          158.5          35.026456      40.563123      29.933553      34.582693      13.817552    
     34080   13.817552      158.5          158.5          158.5          35.026447      40.563117      29.933538      34.582685      13.817552    
     34100   13.817552      158.5          158.5          158.5          35.026438      40.563108      29.933534      34.582673      13.817552    
     34120   13.817551      158.5          158.5          158.5          35.026425      40.563098      29.933533      34.582645      13.817551    
     34140   13.817551      158.5          158.5          158.5          35.02645       40.563122      29.933542      34.582687      13.817551    
     34160   13.817551      158.5          158.5          158.5          35.026425      40.563089      29.933523      34.582662      13.817551    
     34180   13.817551      158.5          158.5          158.5          35.026472      40.563153      29.933556      34.582707      13.817551    
     34200   13.817551      158.5          158.5          158.5          35.026409      40.563091      29.933512      34.582624      13.817551    
     34220   13.817551      158.5          158.5          158.5          35.026456      40.563112      29.933547      34.582709      13.817551    
     34240   13.817551      158.5          158.5          158.5          35.026442      40.563119      29.933555      34.582652      13.817551    
     34260   13.817551      158.5          158.5          158.5          35.026447      40.563129      29.933545      34.582666      13.817551    
     34280   13.817551      158.5          158.5          158.5          35.026442      40.563108      29.933541      34.582676      13.817551    
     34300   13.817551      158.5          158.5          158.5          35.026444      40.563113      29.933538      34.582682      13.817551    
     34320   13.817551      158.5          158.5          158.5          35.026452      40.563125      29.933551      34.582681      13.817551    
     34340   13.817551      158.5          158.5          158.5          35.026468      40.563146      29.933571      34.582688      13.817551    
     34360   13.817551      158.5          158.5          158.5          35.026466      40.56315       29.933548      34.582701      13.817551    
     34380   13.817551      158.5          158.5          158.5          35.026451      40.56312       29.933543      34.582692      13.817551    
     34400   13.817551      158.5          158.5          158.5          35.026454      40.56313       29.933549      34.582684      13.817551    
     34420   13.817551      158.5          158.5          158.5          35.026462      40.563135      29.933568      34.582684      13.817551    
     34440   13.817551      158.5          158.5          158.5          35.026451      40.563132      29.933537      34.582685      13.817551    
     34460   13.817551      158.5          158.5          158.5          35.026449      40.563127      29.933545      34.582676      13.817551    
     34480   13.817551      158.5          158.5          158.5          35.026447      40.563118      29.933545      34.582677      13.817551    
     34500   13.817551      158.5          158.5          158.5          35.026456      40.563126      29.93355       34.58269       13.817551    
     34520   13.817551      158.5          158.5          158.5          35.02645       40.563123      29.933551      34.582677      13.817551    
     34540   13.817551      158.5          158.5          158.5          35.026444      40.563127      29.933535      34.58267       13.817551    
     34560   13.817551      158.5          158.5          158.5          35.026457      40.563141      29.933551      34.582677      13.817551    
     34580   13.817551      158.5          158.5          158.5          35.026464      40.563137      29.933562      34.582693      13.817551    
     34600   13.817551      158.5          158.5          158.5          35.02645       40.563123      29.933544      34.582684      13.817551    
     34620   13.817551      158.5          158.5          158.5          35.02646       40.563143      29.933548      34.582688      13.817551    
     34640   13.817551      158.5          158.5          158.5          35.026467      40.56316       29.933542      34.5827        13.817551    
     34660   13.817551      158.5          158.5          158.5          35.026447      40.563118      29.933538      34.582686      13.817551    
     34680   13.817551      158.5          158.5          158.5          35.026446      40.563116      29.933538      34.582685      13.817551    
     34700   13.817551      158.5          158.5          158.5          35.026445      40.563107      29.933547      34.58268       13.817551    
     34720   13.817551      158.5          158.5          158.5          35.026459      40.563136      29.93356       34.582682      13.817551    
     34740   13.817551      158.5          158.5          158.5          35.026442      40.563107      29.933548      34.582671      13.817551    
     34760   13.817551      158.5          158.5          158.5          35.026429      40.563098      29.93355       34.582638      13.817551    
     34780   13.817551      158.5          158.5          158.5          35.026448      40.563127      29.933536      34.582683      13.817551    
     34800   13.817551      158.5          158.5          158.5          35.026442      40.563152      29.933512      34.582662      13.817551    
     34820   13.817551      158.5          158.5          158.5          35.026466      40.563131      29.93356       34.582705      13.817551    
     34840   13.817551      158.5          158.5          158.5          35.026405      40.563063      29.93351       34.582643      13.817551    
     34860   13.817551      158.5          158.5          158.5          35.026442      40.563123      29.933534      34.58267       13.817551    
     34880   13.817551      158.5          158.5          158.5          35.026458      40.563132      29.933558      34.582683      13.817551    
     34900   13.817551      158.5          158.5          158.5          35.026451      40.563129      29.933539      34.582684      13.817551    
     34920   13.817551      158.5          158.5          158.5          35.026443      40.563108      29.933537      34.582682      13.817551    
     34940   13.817551      158.5          158.5          158.5          35.026457      40.563141      29.933543      34.582686      13.817551    
     34960   13.817551      158.5          158.5          158.5          35.026464      40.563145      29.933552      34.582695      13.817551    
     34980   13.817551      158.5          158.5          158.5          35.026454      40.563129      29.933545      34.582689      13.817551    
     35000   13.817551      158.5          158.5          158.5          35.026453      40.563125      29.933544      34.58269       13.817551    
     35020   13.817551      158.5          158.5          158.5          35.026447      40.563125      29.933535      34.58268       13.817551    
     35040   13.817551      158.5          158.5          158.5          35.02645       40.563135      29.933541      34.582672      13.817551    
     35060   13.817551      158.5          158.5          158.5          35.026455      40.563134      29.933548      34.582683      13.817551    
     35080   13.817551      158.5          158.5          158.5          35.026448      40.563123      29.933544      34.582676      13.817551    
     35100   13.817551      158.5          158.5          158.5          35.026454      40.563126      29.933547      34.582688      13.817551    
     35120   13.817551      158.5          158.5          158.5          35.026451      40.563124      29.933551      34.582678      13.817551    
     35140   13.817551      158.5          158.5          158.5          35.026449      40.563126      29.933545      34.582677      13.817551    
     35160   13.817551      158.5          158.5          158.5          35.026457      40.563136      29.933548      34.582687      13.817551    
     35180   13.817551      158.5          158.5          158.5          35.026449      40.563124      29.933548      34.582677      13.817551    
     35200   13.817551      158.5          158.5          158.5          35.026458      40.563133      29.933551      34.582691      13.817551    
     35220   13.817551      158.5          158.5          158.5          35.026454      40.563133      29.933546      34.582684      13.817551    
     35240   13.817551      158.5          158.5          158.5          35.026461      40.563148      29.933539      34.582696      13.817551    
     35260   13.817551      158.5          158.5          158.5          35.026458      40.563123      29.93355       34.582701      13.817551    
     35280   13.817551      158.5          158.5          158.5          35.026451      40.563119      29.933547      34.582688      13.817551    
     35300   13.817551      158.5          158.5          158.5          35.026437      40.563098      29.93354       34.582673      13.817551    
     35320   13.817551      158.5          158.5          158.5          35.026456      40.563125      29.933561      34.582682      13.817551    
     35340   13.817551      158.5          158.5          158.5          35.026444      40.563109      29.933549      34.582676      13.817551    
     35360   13.817551      158.5          158.5          158.5          35.026426      40.563086      29.933539      34.582654      13.817551    
     35380   13.817551      158.5          158.5          158.5          35.026453      40.563124      29.933543      34.58269       13.817551    
     35400   13.817551      158.5          158.5          158.5          35.026441      40.563135      29.933542      34.582647      13.817551    
     35420   13.817551      158.5          158.5          158.5          35.026474      40.563156      29.933558      34.582708      13.817551    
     35440   13.817551      158.5          158.5          158.5          35.026422      40.563107      29.933517      34.582643      13.817551    
     35460   13.817551      158.5          158.5          158.5          35.026433      40.563106      29.93353       34.582661      13.817551    
     35480   13.817551      158.5          158.5          158.5          35.026449      40.56312       29.933547      34.582678      13.817551    
     35500   13.817551      158.5          158.5          158.5          35.026451      40.563118      29.933549      34.582684      13.817551    
     35520   13.817551      158.5          158.5          158.5          35.02644       40.563111      29.933536      34.582674      13.817551    
     35540   13.817551      158.5          158.5          158.5          35.026459      40.563128      29.93355       34.582697      13.817551    
     35560   13.817551      158.5          158.5          158.5          35.026463      40.563145      29.933551      34.582694      13.817551    
     35580   13.817551      158.5          158.5          158.5          35.026451      40.56313       29.933543      34.58268       13.817551    
     35600   13.817551      158.5          158.5          158.5          35.026458      40.563136      29.933549      34.582687      13.817551    
     35620   13.817551      158.5          158.5          158.5          35.026453      40.563122      29.933551      34.582686      13.817551    
     35640   13.817551      158.5          158.5          158.5          35.026453      40.563133      29.933547      34.58268       13.817551    
     35660   13.817551      158.5          158.5          158.5          35.026454      40.563131      29.93355       34.582682      13.817551    
     35680   13.817551      158.5          158.5          158.5          35.026451      40.563125      29.933548      34.582681      13.817551    
     35700   13.817551      158.5          158.5          158.5          35.026455      40.563128      29.933549      34.582688      13.817551    
     35720   13.817551      158.5          158.5          158.5          35.026449      40.563126      29.933542      34.582679      13.817551    
     35740   13.817551      158.5          158.5          158.5          35.026451      40.563128      29.933548      34.582678      13.817551    
     35760   13.817551      158.5          158.5          158.5          35.026451      40.563129      29.933542      34.582682      13.817551    
     35780   13.817551      158.5          158.5          158.5          35.02645       40.563123      29.933546      34.582681      13.817551    
     35800   13.817551      158.5          158.5          158.5          35.026458      40.563142      29.933541      34.58269       13.817551    
     35820   13.817551      158.5          158.5          158.5          35.026452      40.563121      29.933547      34.582689      13.817551    
     35840   13.817551      158.5          158.5          158.5          35.026449      40.56312       29.93354       34.582687      13.817551    
     35860   13.817551      158.5          158.5          158.5          35.026464      40.56314       29.933558      34.582694      13.817551    
     35880   13.817551      158.5          158.5          158.5          35.026452      40.563125      29.933546      34.582684      13.817551    
     35900   13.817551      158.5          158.5          158.5          35.02644       40.563102      29.933546      34.582672      13.817551    
     35920   13.817551      158.5          158.5          158.5          35.026457      40.56313       29.933557      34.582685      13.817551    
     35940   13.817551      158.5          158.5          158.5          35.026435      40.563112      29.933534      34.58266       13.817551    
     35960   13.817551      158.5          158.5          158.5          35.026436      40.56311       29.933539      34.582659      13.817551    
     35980   13.817551      158.5          158.5          158.5          35.026461      40.56314       29.933546      34.582697      13.817551    
     36000   13.817551      158.5          158.5          158.5          35.026445      40.563143      29.933543      34.582648      13.817551    
     36020   13.817551      158.5          158.5          158.5          35.026472      40.56315       29.933552      34.582715      13.817551    
     36040   13.817551      158.5          158.5          158.5          35.026442      40.56312       29.933549      34.582656      13.817551    
     36060   13.817551      158.5          158.5          158.5          35.026442      40.56311       29.933539      34.582677      13.817551    
     36080   13.817551      158.5          158.5          158.5          35.026448      40.563115      29.933546      34.582685      13.817551    
     36100   13.817551      158.5          158.5          158.5          35.026444      40.563108      29.933548      34.582674      13.817551    
     36120   13.817551      158.5          158.5          158.5          35.026448      40.563121      29.933552      34.582672      13.817551    
     36140   13.817551      158.5          158.5          158.5          35.026476      40.563159      29.933561      34.582708      13.817551    
     36160   13.817551      158.5          158.5          158.5          35.026449      40.563127      29.93354       34.582681      13.817551    
     36180   13.817551      158.5          158.5          158.5          35.026458      40.563136      29.933547      34.582691      13.817551    
     36200   13.817551      158.5          158.5          158.5          35.026457      40.563135      29.933552      34.582685      13.817551    
     36220   13.817551      158.5          158.5          158.5          35.026456      40.563126      29.933552      34.582689      13.817551    
     36240   13.817551      158.5          158.5          158.5          35.026446      40.563118      29.933545      34.582676      13.817551    
     36260   13.817551      158.5          158.5          158.5          35.026449      40.563127      29.933541      34.582678      13.817551    
     36280   13.817551      158.5          158.5          158.5          35.026455      40.563131      29.933552      34.582682      13.817551    
     36300   13.817551      158.5          158.5          158.5          35.026455      40.563127      29.933552      34.582687      13.817551    
     36320   13.817551      158.5          158.5          158.5          35.026452      40.563127      29.933546      34.582682      13.817551    
     36340   13.817551      158.5          158.5          158.5          35.026455      40.563132      29.933551      34.582683      13.817551    
     36360   13.817551      158.5          158.5          158.5          35.026449      40.563127      29.933545      34.582677      13.817551    
     36380   13.817551      158.5          158.5          158.5          35.02645       40.563119      29.93355       34.582682      13.817551    
     36400   13.817551      158.5          158.5          158.5          35.026456      40.563132      29.933545      34.582692      13.817551    
     36420   13.817551      158.5          158.5          158.5          35.026457      40.563125      29.933549      34.582696      13.817551    
     36440   13.817551      158.5          158.5          158.5          35.026456      40.56313       29.933546      34.582691      13.817551    
     36460   13.817551      158.5          158.5          158.5          35.026464      40.563143      29.933553      34.582695      13.817551    
     36480   13.817551      158.5          158.5          158.5          35.026444      40.563112      29.933542      34.582677      13.817551    
     36500   13.817551      158.5          158.5          158.5          35.026448      40.56312       29.933543      34.58268       13.817551    
     36520   13.817551      158.5          158.5          158.5          35.026453      40.56313       29.933553      34.582677      13.817551    
     36540   13.817551      158.5          158.5          158.5          35.026429      40.563104      29.933528      34.582656      13.817551    
     36560   13.817551      158.5          158.5          158.5          35.026447      40.563124      29.933535      34.582682      13.817551    
     36580   13.817551      158.5          158.5          158.5          35.026464      40.563138      29.933553      34.582701      13.817551    
     36600   13.817551      158.5          158.5          158.5          35.026446      40.56314       29.933529      34.582668      13.817551    
     36620   13.81755       158.5          158.5          158.5          35.026472      40.563154      29.93355       34.582712      13.81755     
     36640   13.81755       158.5          158.5          158.5          35.026442      40.563119      29.933539      34.58267       13.81755     
     36660   13.81755       158.5          158.5          158.5          35.026437      40.563117      29.933536      34.58266       13.81755     
     36680   13.81755       158.5          158.5          158.5          35.026451      40.563121      29.933545      34.582687      13.81755     
     36700   13.81755       158.5          158.5          158.5          35.026445      40.563108      29.93355       34.582676      13.81755     
     36720   13.81755       158.5          158.5          158.5          35.026448      40.56312       29.933543      34.58268       13.81755     
     36740   13.81755       158.5          158.5          158.5          35.026461      40.563145      29.933551      34.582688      13.81755     
     36760   13.81755       158.5          158.5          158.5          35.026458      40.563136      29.933546      34.58269       13.81755     
     36780   13.81755       158.5          158.5          158.5          35.02645       40.563123      29.933543      34.582684      13.81755     
     36800   13.81755       158.5          158.5          158.5          35.026456      40.563127      29.933551      34.582689      13.81755     
     36820   13.81755       158.5          158.5          158.5          35.026457      40.563125      29.933558      34.582687      13.81755     
     36840   13.81755       158.5          158.5          158.5          35.026444      40.563123      29.933536      34.582672      13.81755     
     36860   13.81755       158.5          158.5          158.5          35.026455      40.56313       29.933555      34.582681      13.81755     
     36880   13.81755       158.5          158.5          158.5          35.026453      40.563127      29.933549      34.582682      13.81755     
     36900   13.81755       158.5          158.5          158.5          35.026454      40.563125      29.93355       34.582686      13.81755     
     36920   13.81755       158.5          158.5          158.5          35.026451      40.563125      29.933547      34.582682      13.81755     
     36940   13.81755       158.5          158.5          158.5          35.026451      40.563128      29.933549      34.582677      13.81755     
     36960   13.81755       158.5          158.5          158.5          35.026447      40.563123      29.933541      34.582676      13.81755     
     36980   13.81755       158.5          158.5          158.5          35.026453      40.563125      29.933551      34.582682      13.81755     
     37000   13.81755       158.5          158.5          158.5          35.026454      40.563128      29.933548      34.582688      13.81755     
     37020   13.81755       158.5          158.5          158.5          35.026452      40.563122      29.933546      34.582687      13.81755     
     37040   13.81755       158.5          158.5          158.5          35.026455      40.563134      29.933543      34.582688      13.81755     
     37060   13.81755       158.5          158.5          158.5          35.026461      40.563138      29.933553      34.582694      13.81755     
     37080   13.81755       158.5          158.5          158.5          35.026455      40.563122      29.933552      34.58269       13.81755     
     37100   13.81755       158.5          158.5          158.5          35.026438      40.563107      29.933538      34.582669      13.81755     
     37120   13.81755       158.5          158.5          158.5          35.026455      40.56313       29.933561      34.582675      13.81755     
     37140   13.81755       158.5          158.5          158.5          35.026448      40.563123      29.933544      34.582679      13.81755     
     37160   13.81755       158.5          158.5          158.5          35.026438      40.563106      29.933541      34.582667      13.81755     
     37180   13.81755       158.5          158.5          158.5          35.026472      40.563157      29.933554      34.582704      13.81755     
     37200   13.81755       158.5          158.5          158.5          35.026426      40.56309       29.933537      34.58265       13.81755     
     37220   13.81755       158.5          158.5          158.5          35.026459      40.563133      29.933549      34.582695      13.81755     
     37240   13.81755       158.5          158.5          158.5          35.026448      40.563122      29.933546      34.582677      13.81755     
     37260   13.81755       158.5          158.5          158.5          35.026437      40.56311       29.93353       34.58267       13.81755     
     37280   13.81755       158.5          158.5          158.5          35.026453      40.563125      29.933558      34.582676      13.81755     
     37300   13.81755       158.5          158.5          158.5          35.026446      40.563114      29.933549      34.582675      13.81755     
     37320   13.81755       158.5          158.5          158.5          35.02645       40.56312       29.933547      34.582682      13.81755     
     37340   13.81755       158.5          158.5          158.5          35.026463      40.563142      29.933551      34.582695      13.81755     
     37360   13.81755       158.5          158.5          158.5          35.026457      40.563136      29.933547      34.582687      13.81755     
     37380   13.81755       158.5          158.5          158.5          35.026454      40.563125      29.933548      34.582687      13.81755     
     37400   13.81755       158.5          158.5          158.5          35.026454      40.563127      29.933547      34.582687      13.81755     
     37420   13.81755       158.5          158.5          158.5          35.026455      40.563124      29.933553      34.582687      13.81755     
     37440   13.81755       158.5          158.5          158.5          35.026453      40.563124      29.933551      34.582683      13.81755     
     37460   13.81755       158.5          158.5          158.5          35.02645       40.563122      29.933547      34.58268       13.81755     
     37480   13.81755       158.5          158.5          158.5          35.026449      40.563123      29.933545      34.582681      13.81755     
     37500   13.81755       158.5          158.5          158.5          35.026453      40.563123      29.933549      34.582686      13.81755     
     37520   13.81755       158.5          158.5          158.5          35.026452      40.563122      29.933549      34.582685      13.81755     
     37540   13.81755       158.5          158.5          158.5          35.02645       40.563124      29.933545      34.58268       13.81755     
     37560   13.81755       158.5          158.5          158.5          35.026456      40.563131      29.933549      34.582687      13.81755     
     37580   13.81755       158.5          158.5          158.5          35.026457      40.563132      29.933552      34.582687      13.81755     
     37600   13.81755       158.5          158.5          158.5          35.026455      40.56313       29.93355       34.582687      13.81755     
     37620   13.81755       158.5          158.5          158.5          35.026463      40.563142      29.933551      34.582696      13.81755     
     37640   13.81755       158.5          158.5          158.5          35.026452      40.563125      29.933549      34.582683      13.81755     
     37660   13.81755       158.5          158.5          158.5          35.026457      40.563132      29.93355       34.58269       13.81755     
     37680   13.81755       158.5          158.5          158.5          35.026444      40.563116      29.933544      34.582673      13.81755     
     37700   13.81755       158.5          158.5          158.5          35.026444      40.56311       29.933545      34.582677      13.81755     
     37720   13.81755       158.5          158.5          158.5          35.026446      40.56312       29.933545      34.582674      13.81755     
     37740   13.81755       158.5          158.5          158.5          35.026448      40.563119      29.933546      34.58268       13.81755     
     37760   13.81755       158.5          158.5          158.5          35.026442      40.563111      29.933545      34.582668      13.81755     
     37780   13.81755       158.5          158.5          158.5          35.026464      40.563147      29.93355       34.582695      13.81755     
     37800   13.81755       158.5          158.5          158.5          35.026432      40.563124      29.933515      34.582657      13.81755     
     37820   13.81755       158.5          158.5          158.5          35.026463      40.563144      29.93354       34.582703      13.81755     
     37840   13.81755       158.5          158.5          158.5          35.026455      40.563131      29.933551      34.582684      13.81755     
     37860   13.81755       158.5          158.5          158.5          35.02645       40.563125      29.933541      34.582685      13.81755     
     37880   13.81755       158.5          158.5          158.5          35.026454      40.563125      29.93355       34.582688      13.81755     
     37900   13.81755       158.5          158.5          158.5          35.02644       40.563103      29.93354       34.582677      13.81755     
     37920   13.81755       158.5          158.5          158.5          35.026444      40.563114      29.933544      34.582676      13.81755     
     37940   13.81755       158.5          158.5          158.5          35.026455      40.563129      29.933549      34.582686      13.81755     
     37960   13.81755       158.5          158.5          158.5          35.026453      40.563128      29.933546      34.582685      13.81755     
     37980   13.81755       158.5          158.5          158.5          35.026459      40.56313       29.933552      34.582694      13.81755     
     38000   13.81755       158.5          158.5          158.5          35.026457      40.563133      29.933551      34.582687      13.81755     
     38020   13.81755       158.5          158.5          158.5          35.026456      40.563132      29.933551      34.582686      13.81755     
     38040   13.81755       158.5          158.5          158.5          35.026454      40.563129      29.933546      34.582686      13.81755     
     38060   13.81755       158.5          158.5          158.5          35.026451      40.563125      29.933545      34.582683      13.81755     
     38080   13.81755       158.5          158.5          158.5          35.026455      40.563128      29.933551      34.582685      13.81755     
     38100   13.81755       158.5          158.5          158.5          35.026455      40.563126      29.93355       34.582688      13.81755     
     38120   13.81755       158.5          158.5          158.5          35.026453      40.563125      29.93355       34.582685      13.81755     
     38140   13.81755       158.5          158.5          158.5          35.026447      40.56312       29.933543      34.582678      13.81755     
     38160   13.81755       158.5          158.5          158.5          35.026445      40.563119      29.933541      34.582674      13.81755     
     38180   13.81755       158.5          158.5          158.5          35.026459      40.563134      29.933552      34.58269       13.81755     
     38200   13.81755       158.5          158.5          158.5          35.026453      40.563127      29.933548      34.582684      13.81755     
     38220   13.81755       158.5          158.5          158.5          35.026453      40.563118      29.933547      34.582696      13.81755     
     38240   13.81755       158.5          158.5          158.5          35.02645       40.563121      29.933544      34.582684      13.81755     
     38260   13.81755       158.5          158.5          158.5          35.026457      40.563129      29.933549      34.582692      13.81755     
     38280   13.81755       158.5          158.5          158.5          35.026456      40.563128      29.933555      34.582685      13.81755     
     38300   13.81755       158.5          158.5          158.5          35.026451      40.563126      29.933548      34.58268       13.81755     
     38320   13.81755       158.5          158.5          158.5          35.026454      40.563125      29.93355       34.582687      13.81755     
     38340   13.81755       158.5          158.5          158.5          35.026451      40.563126      29.933549      34.582678      13.81755     
     38360   13.81755       158.5          158.5          158.5          35.026444      40.56312       29.933543      34.58267       13.81755     
     38380   13.81755       158.5          158.5          158.5          35.026444      40.563116      29.933533      34.582683      13.81755     
     38400   13.81755       158.5          158.5          158.5          35.026453      40.563132      29.933542      34.582685      13.81755     
     38420   13.81755       158.5          158.5          158.5          35.026449      40.563113      29.933538      34.582695      13.81755     
     38440   13.81755       158.5          158.5          158.5          35.02644       40.56311       29.933542      34.582668      13.81755     
     38460   13.81755       158.5          158.5          158.5          35.02645       40.563123      29.933548      34.58268       13.81755     
     38480   13.81755       158.5          158.5          158.5          35.026454      40.56312       29.93355       34.582691      13.81755     
     38500   13.81755       158.5          158.5          158.5          35.026449      40.563119      29.933548      34.582679      13.81755     
     38520   13.81755       158.5          158.5          158.5          35.026457      40.56313       29.933552      34.582688      13.81755     
     38540   13.81755       158.5          158.5          158.5          35.026456      40.563133      29.933549      34.582687      13.81755     
     38560   13.81755       158.5          158.5          158.5          35.026451      40.563126      29.933544      34.582683      13.81755     
     38580   13.81755       158.5          158.5          158.5          35.026457      40.563127      29.93355       34.582694      13.81755     
     38600   13.81755       158.5          158.5          158.5          35.026451      40.563124      29.933546      34.582684      13.81755     
     38620   13.81755       158.5          158.5          158.5          35.026457      40.56313       29.933551      34.58269       13.81755     
     38640   13.81755       158.5          158.5          158.5          35.026449      40.563119      29.933547      34.582681      13.81755     
     38660   13.81755       158.5          158.5          158.5          35.026445      40.563118      29.933542      34.582674      13.81755     
     38680   13.81755       158.5          158.5          158.5          35.026453      40.563124      29.93355       34.582685      13.81755     
     38700   13.81755       158.5          158.5          158.5          35.026454      40.563125      29.93355       34.582687      13.81755     
     38720   13.81755       158.5          158.5          158.5          35.026453      40.563124      29.933549      34.582687      13.81755     
     38740   13.81755       158.5          158.5          158.5          35.026451      40.563125      29.933548      34.58268       13.81755     
     38760   13.81755       158.5          158.5          158.5          35.02645       40.563121      29.933549      34.58268       13.81755     
     38780   13.81755       158.5          158.5          158.5          35.02646       40.563137      29.933552      34.58269       13.81755     
     38800   13.81755       158.5          158.5          158.5          35.026452      40.563129      29.933548      34.58268       13.81755     
     38820   13.81755       158.5          158.5          158.5          35.026458      40.563126      29.93355       34.582698      13.81755     
     38840   13.81755       158.5          158.5          158.5          35.026451      40.563123      29.933544      34.582686      13.81755     
     38860   13.81755       158.5          158.5          158.5          35.026454      40.563125      29.933549      34.582687      13.81755     
     38880   13.81755       158.5          158.5          158.5          35.026451      40.563123      29.93355       34.58268       13.81755     
     38900   13.81755       158.5          158.5          158.5          35.02645       40.563121      29.933549      34.582682      13.81755     
     38920   13.81755       158.5          158.5          158.5          35.026451      40.563123      29.933553      34.582677      13.81755     
     38940   13.81755       158.5          158.5          158.5          35.026447      40.563119      29.933545      34.582679      13.81755     
     38960   13.81755       158.5          158.5          158.5          35.026441      40.563106      29.933545      34.582673      13.81755     
     38980   13.81755       158.5          158.5          158.5          35.026447      40.563116      29.933545      34.582681      13.81755     
     39000   13.81755       158.5          158.5          158.5          35.026458      40.563136      29.933542      34.582695      13.81755     
     39020   13.81755       158.5          158.5          158.5          35.026452      40.563124      29.933546      34.582685      13.81755     
     39040   13.81755       158.5          158.5          158.5          35.026443      40.563114      29.933542      34.582672      13.81755     
     39060   13.81755       158.5          158.5          158.5          35.026453      40.563117      29.933552      34.58269       13.81755     
     39080   13.81755       158.5          158.5          158.5          35.026452      40.563122      29.933549      34.582684      13.81755     
     39100   13.81755       158.5          158.5          158.5          35.026446      40.563116      29.933543      34.582679      13.81755     
     39120   13.81755       158.5          158.5          158.5          35.026452      40.563124      29.93355       34.582682      13.81755     
     39140   13.81755       158.5          158.5          158.5          35.026455      40.563128      29.933551      34.582685      13.81755     
     39160   13.81755       158.5          158.5          158.5          35.026455      40.563126      29.933551      34.582689      13.81755     
     39180   13.81755       158.5          158.5          158.5          35.026456      40.563128      29.933548      34.582692      13.81755     
     39200   13.81755       158.5          158.5          158.5          35.026453      40.563127      29.933547      34.582685      13.81755     
     39220   13.81755       158.5          158.5          158.5          35.026456      40.56313       29.933552      34.582688      13.81755     
     39240   13.81755       158.5          158.5          158.5          35.02645       40.563124      29.933546      34.58268       13.81755     
     39260   13.81755       158.5          158.5          158.5          35.026451      40.563123      29.933546      34.582682      13.81755     
     39280   13.81755       158.5          158.5          158.5          35.026454      40.563125      29.933549      34.582688      13.81755     
     39300   13.81755       158.5          158.5          158.5          35.026453      40.563123      29.93355       34.582686      13.81755     
     39320   13.81755       158.5          158.5          158.5          35.026453      40.563124      29.933548      34.582685      13.81755     
     39340   13.81755       158.5          158.5          158.5          35.026451      40.563127      29.933544      34.582682      13.81755     
     39360   13.81755       158.5          158.5          158.5          35.026454      40.56313       29.93355       34.582681      13.81755     
     39380   13.81755       158.5          158.5          158.5          35.026458      40.563131      29.933552      34.58269       13.81755     
     39400   13.81755       158.5          158.5          158.5          35.026451      40.563121      29.93355       34.582682      13.81755     
     39420   13.81755       158.5          158.5          158.5          35.026456      40.563128      29.933548      34.582691      13.81755     
     39440   13.81755       158.5          158.5          158.5          35.026454      40.563126      29.933549      34.582687      13.81755     
     39460   13.81755       158.5          158.5          158.5          35.026454      40.563127      29.933549      34.582686      13.81755     
     39480   13.81755       158.5          158.5          158.5          35.026455      40.563126      29.933552      34.582687      13.81755     
     39500   13.81755       158.5          158.5          158.5          35.026447      40.563114      29.933548      34.58268       13.81755     
     39520   13.81755       158.5          158.5          158.5          35.026452      40.563124      29.933552      34.58268       13.81755     
     39540   13.81755       158.5          158.5          158.5          35.026451      40.563123      29.933548      34.582682      13.81755     
     39560   13.81755       158.5          158.5          158.5          35.026441      40.563109      29.933542      34.582673      13.81755     
     39580   13.81755       158.5          158.5          158.5          35.026449      40.563131      29.93354       34.582677      13.81755     
     39600   13.81755       158.5          158.5          158.5          35.026472      40.563149      29.933572      34.582695      13.81755     
     39620   13.81755       158.5          158.5          158.5          35.026449      40.563125      29.933534      34.582687      13.81755     
     39640   13.81755       158.5          158.5          158.5          35.026444      40.563107      29.933545      34.582681      13.81755     
     39660   13.81755       158.5          158.5          158.5          35.026453      40.563129      29.933546      34.582685      13.81755     
     39680   13.81755       158.5          158.5          158.5          35.02645       40.563124      29.933548      34.582678      13.81755     
     39700   13.81755       158.5          158.5          158.5          35.026449      40.563114      29.933548      34.582684      13.81755     
     39720   13.81755       158.5          158.5          158.5          35.026452      40.56312       29.93355       34.582686      13.81755     
     39740   13.81755       158.5          158.5          158.5          35.026453      40.563128      29.933546      34.582684      13.81755     
     39760   13.81755       158.5          158.5          158.5          35.026458      40.56313       29.933554      34.58269       13.81755     
     39780   13.81755       158.5          158.5          158.5          35.026456      40.563126      29.93355       34.582692      13.81755     
     39800   13.81755       158.5          158.5          158.5          35.026452      40.563125      29.933547      34.582683      13.81755     
     39820   13.81755       158.5          158.5          158.5          35.026456      40.563129      29.933551      34.582687      13.81755     
     39840   13.81755       158.5          158.5          158.5          35.026452      40.563125      29.933548      34.582684      13.81755     
     39860   13.81755       158.5          158.5          158.5          35.026448      40.56312       29.933545      34.58268       13.81755     
     39880   13.81755       158.5          158.5          158.5          35.026454      40.563123      29.933551      34.582687      13.81755     
     39900   13.81755       158.5          158.5          158.5          35.026453      40.563121      29.93355       34.582687      13.81755     
     39920   13.81755       158.5          158.5          158.5          35.026453      40.563122      29.933551      34.582685      13.81755     
     39940   13.81755       158.5          158.5          158.5          35.026451      40.563123      29.933547      34.582682      13.81755     
     39960   13.81755       158.5          158.5          158.5          35.026451      40.563122      29.933548      34.582683      13.81755     
     39980   13.81755       158.5          158.5          158.5          35.026454      40.563126      29.93355       34.582686      13.81755     
     40000   13.81755       158.5          158.5          158.5          35.026453      40.563126      29.933549      34.582685      13.81755     
     40020   13.81755       158.5          158.5          158.5          35.026458      40.56313       29.93355       34.582693      13.81755     
     40040   13.81755       158.5          158.5          158.5          35.026454      40.563127      29.933549      34.582687      13.81755     
     40060   13.81755       158.5          158.5          158.5          35.026452      40.563123      29.933548      34.582683      13.81755     
     40080   13.81755       158.5          158.5          158.5          35.02645       40.563118      29.933545      34.582686      13.81755     
     40100   13.81755       158.5          158.5          158.5          35.026448      40.563119      29.933543      34.582683      13.81755     
     40120   13.81755       158.5          158.5          158.5          35.026452      40.563126      29.93355       34.58268       13.81755     
     40140   13.81755       158.5          158.5          158.5          35.026456      40.563124      29.933552      34.582691      13.81755     
     40160   13.81755       158.5          158.5          158.5          35.026447      40.563121      29.933544      34.582676      13.81755     
     40180   13.81755       158.5          158.5          158.5          35.026452      40.563127      29.933543      34.582686      13.81755     
     40200   13.81755       158.5          158.5          158.5          35.026464      40.563136      29.933557      34.582698      13.81755     
     40220   13.81755       158.5          158.5          158.5          35.026448      40.563119      29.933544      34.58268       13.81755     
     40240   13.81755       158.5          158.5          158.5          35.026445      40.563116      29.933544      34.582674      13.81755     
     40260   13.81755       158.5          158.5          158.5          35.026457      40.563131      29.933552      34.582689      13.81755     
     40280   13.81755       158.5          158.5          158.5          35.026451      40.563123      29.933549      34.582682      13.81755     
     40300   13.81755       158.5          158.5          158.5          35.026449      40.563119      29.933546      34.582682      13.81755     
     40320   13.81755       158.5          158.5          158.5          35.026453      40.563121      29.933547      34.582689      13.81755     
     40340   13.81755       158.5          158.5          158.5          35.026454      40.563128      29.933552      34.582682      13.81755     
     40360   13.81755       158.5          158.5          158.5          35.026454      40.563125      29.933551      34.582687      13.81755     
     40380   13.81755       158.5          158.5          158.5          35.026457      40.56313       29.933551      34.582691      13.81755     
     40400   13.81755       158.5          158.5          158.5          35.026453      40.563124      29.933549      34.582685      13.81755     
     40420   13.81755       158.5          158.5          158.5          35.026453      40.563124      29.93355       34.582685      13.81755     
     40440   13.81755       158.5          158.5          158.5          35.026453      40.563123      29.93355       34.582685      13.81755     
     40460   13.81755       158.5          158.5          158.5          35.026451      40.563123      29.933546      34.582684      13.81755     
     40480   13.81755       158.5          158.5          158.5          35.026453      40.563123      29.93355       34.582686      13.81755     
     40500   13.81755       158.5          158.5          158.5          35.026453      40.563122      29.93355       34.582686      13.81755     
     40520   13.81755       158.5          158.5          158.5          35.026453      40.563123      29.933549      34.582686      13.81755     
     40540   13.81755       158.5          158.5          158.5          35.02645       40.56312       29.933549      34.582683      13.81755     
     40560   13.81755       158.5          158.5          158.5          35.026452      40.563123      29.933549      34.582684      13.81755     
     40580   13.81755       158.5          158.5          158.5          35.026452      40.563123      29.93355       34.582685      13.81755     
     40600   13.81755       158.5          158.5          158.5          35.026452      40.563123      29.933548      34.582683      13.81755     
     40620   13.81755       158.5          158.5          158.5          35.026456      40.563127      29.933552      34.582689      13.81755     
     40640   13.81755       158.5          158.5          158.5          35.026456      40.563127      29.93355       34.582691      13.81755     
     40660   13.81755       158.5          158.5          158.5          35.026452      40.563127      29.933548      34.58268       13.81755     
     40680   13.81755       158.5          158.5          158.5          35.026451      40.563119      29.933546      34.582688      13.81755     
     40700   13.81755       158.5          158.5          158.5          35.026448      40.563117      29.933547      34.58268       13.81755     
     40720   13.81755       158.5          158.5          158.5          35.026453      40.56313       29.933547      34.582683      13.81755     
     40740   13.81755       158.5          158.5          158.5          35.026453      40.563125      29.93355       34.582684      13.81755     
     40760   13.81755       158.5          158.5          158.5          35.02645       40.56312       29.933548      34.582682      13.81755     
     40780   13.81755       158.5          158.5          158.5          35.026447      40.56312       29.933541      34.582681      13.81755     
     40800   13.81755       158.5          158.5          158.5          35.026473      40.563141      29.933563      34.582715      13.81755     
     40820   13.81755       158.5          158.5          158.5          35.026448      40.563123      29.933543      34.58268       13.81755     
     40840   13.81755       158.5          158.5          158.5          35.026448      40.563115      29.933549      34.582679      13.81755     
     40860   13.81755       158.5          158.5          158.5          35.026449      40.563121      29.933547      34.582679      13.81755     
     40880   13.81755       158.5          158.5          158.5          35.026452      40.563124      29.933548      34.582684      13.81755     
     40900   13.81755       158.5          158.5          158.5          35.026449      40.563118      29.933546      34.582684      13.81755     
     40920   13.81755       158.5          158.5          158.5          35.026452      40.563125      29.933545      34.582687      13.81755     
     40940   13.81755       158.5          158.5          158.5          35.026453      40.563125      29.933551      34.582681      13.81755     
     40960   13.81755       158.5          158.5          158.5          35.026456      40.563128      29.93355       34.58269       13.81755     
     40980   13.81755       158.5          158.5          158.5          35.026458      40.563131      29.933554      34.58269       13.81755     
     41000   13.81755       158.5          158.5          158.5          35.026453      40.563123      29.93355       34.582687      13.81755     
     41020   13.81755       158.5          158.5          158.5          35.026451      40.563121      29.93355       34.582684      13.81755     
     41040   13.81755       158.5          158.5          158.5          35.026453      40.563122      29.933548      34.582687      13.81755     
     41060   13.81755       158.5          158.5          158.5          35.026452      40.563123      29.933549      34.582683      13.81755     
     41080   13.81755       158.5          158.5          158.5          35.026452      40.563124      29.933548      34.582685      13.81755     
     41100   13.81755       158.5          158.5          158.5          35.026453      40.563122      29.933551      34.582686      13.81755     
     41120   13.81755       158.5          158.5          158.5          35.026452      40.563123      29.933549      34.582685      13.81755     
     41140   13.81755       158.5          158.5          158.5          35.026451      40.563121      29.933548      34.582682      13.81755     
     41160   13.81755       158.5          158.5          158.5          35.026453      40.563123      29.933549      34.582687      13.81755     
     41180   13.81755       158.5          158.5          158.5          35.026451      40.563122      29.933549      34.582683      13.81755     
     41200   13.81755       158.5          158.5          158.5          35.026452      40.563124      29.933547      34.582686      13.81755     
     41220   13.81755       158.5          158.5          158.5          35.026457      40.563129      29.933551      34.58269       13.81755     
     41240   13.81755       158.5          158.5          158.5          35.026454      40.563128      29.933549      34.582686      13.81755     
     41260   13.81755       158.5          158.5          158.5          35.026455      40.563128      29.933551      34.582685      13.81755     
     41280   13.81755       158.5          158.5          158.5          35.026448      40.563115      29.933547      34.582682      13.81755     
     41300   13.81755       158.5          158.5          158.5          35.026449      40.563118      29.933546      34.582684      13.81755     
     41320   13.81755       158.5          158.5          158.5          35.026454      40.563126      29.933551      34.582687      13.81755     
     41340   13.81755       158.5          158.5          158.5          35.026453      40.563125      29.933549      34.582684      13.81755     
     41360   13.81755       158.5          158.5          158.5          35.026447      40.563117      29.933543      34.58268       13.81755     
     41380   13.81755       158.5          158.5          158.5          35.02645       40.563125      29.933546      34.582681      13.81755     
     41400   13.81755       158.5          158.5          158.5          35.026458      40.563133      29.933561      34.58268       13.81755     
     41420   13.81755       158.5          158.5          158.5          35.026451      40.563128      29.933544      34.58268       13.81755     
     41440   13.81755       158.5          158.5          158.5          35.026452      40.563124      29.933547      34.582685      13.81755     
     41460   13.81755       158.5          158.5          158.5          35.026455      40.563129      29.93355       34.582686      13.81755     
     41480   13.81755       158.5          158.5          158.5          35.026451      40.563122      29.933548      34.582683      13.81755     
     41500   13.81755       158.5          158.5          158.5          35.026449      40.563117      29.933546      34.582684      13.81755     
     41520   13.81755       158.5          158.5          158.5          35.02645       40.56312       29.933545      34.582684      13.81755     
     41540   13.81755       158.5          158.5          158.5          35.026453      40.563124      29.933549      34.582685      13.81755     
     41560   13.81755       158.5          158.5          158.5          35.026455      40.563128      29.933549      34.582688      13.81755     
     41580   13.81755       158.5          158.5          158.5          35.026455      40.563126      29.93355       34.582688      13.81755     
     41600   13.81755       158.5          158.5          158.5          35.026454      40.563122      29.93355       34.582689      13.81755     
     41620   13.81755       158.5          158.5          158.5          35.026454      40.563125      29.93355       34.582686      13.81755     
     41640   13.81755       158.5          158.5          158.5          35.026452      40.563123      29.933549      34.582685      13.81755     
     41660   13.81755       158.5          158.5          158.5          35.026451      40.563122      29.933548      34.582684      13.81755     
     41680   13.81755       158.5          158.5          158.5          35.026453      40.563123      29.93355       34.582685      13.81755     
     41700   13.81755       158.5          158.5          158.5          35.026453      40.563122      29.933551      34.582685      13.81755     
     41720   13.81755       158.5          158.5          158.5          35.026453      40.563123      29.93355       34.582687      13.81755     
     41740   13.81755       158.5          158.5          158.5          35.026451      40.563121      29.933548      34.582684      13.81755     
     41760   13.81755       158.5          158.5          158.5          35.026452      40.563123      29.933549      34.582684      13.81755     
     41780   13.81755       158.5          158.5          158.5          35.026454      40.563126      29.93355       34.582686      13.81755     
     41800   13.81755       158.5          158.5          158.5          35.026452      40.563121      29.93355       34.582686      13.81755     
     41820   13.81755       158.5          158.5          158.5          35.026454      40.563125      29.933549      34.582688      13.81755     
     41840   13.81755       158.5          158.5          158.5          35.026455      40.563126      29.933551      34.58269       13.81755     
     41860   13.81755       158.5          158.5          158.5          35.026453      40.563127      29.933549      34.582685      13.81755     
     41880   13.81755       158.5          158.5          158.5          35.026454      40.563122      29.933551      34.582688      13.81755     
     41900   13.81755       158.5          158.5          158.5          35.02645       40.563119      29.933547      34.582685      13.81755     
     41920   13.81755       158.5          158.5          158.5          35.026453      40.563124      29.93355       34.582685      13.81755     
     41940   13.81755       158.5          158.5          158.5          35.026451      40.563126      29.933546      34.582682      13.81755     
     41960   13.81755       158.5          158.5          158.5          35.026446      40.563112      29.933544      34.582681      13.81755     
     41980   13.81755       158.5          158.5          158.5          35.026454      40.563127      29.933548      34.582688      13.81755     
     42000   13.81755       158.5          158.5          158.5          35.026453      40.563127      29.933556      34.582676      13.81755     
     42020   13.81755       158.5          158.5          158.5          35.026449      40.56312       29.933544      34.582684      13.81755     
     42040   13.81755       158.5          158.5          158.5          35.026448      40.563114      29.933546      34.582683      13.81755     
     42060   13.81755       158.5          158.5          158.5          35.026453      40.563127      29.933548      34.582685      13.81755     
     42080   13.81755       158.5          158.5          158.5          35.02645       40.56312       29.933547      34.582682      13.81755     
     42100   13.81755       158.5          158.5          158.5          35.026447      40.563116      29.933544      34.582681      13.81755     
     42120   13.81755       158.5          158.5          158.5          35.026452      40.563123      29.933548      34.582685      13.81755     
     42140   13.81755       158.5          158.5          158.5          35.026455      40.56313       29.93355       34.582687      13.81755     
     42160   13.81755       158.5          158.5          158.5          35.026455      40.563125      29.93355       34.582689      13.81755     
     42180   13.81755       158.5          158.5          158.5          35.026454      40.563127      29.933548      34.582688      13.81755     
     42200   13.81755       158.5          158.5          158.5          35.026451      40.563122      29.933547      34.582685      13.81755     
     42220   13.81755       158.5          158.5          158.5          35.026455      40.563125      29.933552      34.582687      13.81755     
     42240   13.81755       158.5          158.5          158.5          35.026452      40.563123      29.933549      34.582684      13.81755     
     42260   13.81755       158.5          158.5          158.5          35.026452      40.563121      29.93355       34.582685      13.81755     
     42280   13.81755       158.5          158.5          158.5          35.026454      40.563123      29.933552      34.582687      13.81755     
     42300   13.81755       158.5          158.5          158.5          35.026453      40.563122      29.933551      34.582686      13.81755     
     42320   13.81755       158.5          158.5          158.5          35.026452      40.563121      29.93355       34.582685      13.81755     
     42340   13.81755       158.5          158.5          158.5          35.026451      40.563122      29.933548      34.582684      13.81755     
     42360   13.81755       158.5          158.5          158.5          35.026452      40.563123      29.93355       34.582684      13.81755     
     42380   13.81755       158.5          158.5          158.5          35.026454      40.563125      29.93355       34.582686      13.81755     
     42400   13.81755       158.5          158.5          158.5          35.026452      40.563124      29.933548      34.582685      13.81755     
     42420   13.81755       158.5          158.5          158.5          35.026455      40.563125      29.93355       34.582688      13.81755     
     42440   13.81755       158.5          158.5          158.5          35.026454      40.563125      29.933549      34.582688      13.81755     
     42460   13.81755       158.5          158.5          158.5          35.026454      40.563126      29.933549      34.582686      13.81755     
     42480   13.81755       158.5          158.5          158.5          35.026453      40.563121      29.933552      34.582686      13.81755     
     42500   13.81755       158.5          158.5          158.5          35.02645       40.563117      29.933549      34.582684      13.81755     
     42520   13.81755       158.5          158.5          158.5          35.026451      40.563122      29.933549      34.582683      13.81755     
     42540   13.81755       158.5          158.5          158.5          35.026453      40.563125      29.933549      34.582684      13.81755     
     42560   13.81755       158.5          158.5          158.5          35.026449      40.563118      29.933545      34.582684      13.81755     
     42580   13.81755       158.5          158.5          158.5          35.026449      40.56312       29.933542      34.582684      13.81755     
     42600   13.81755       158.5          158.5          158.5          35.026457      40.563132      29.933558      34.582681      13.81755     
     42620   13.81755       158.5          158.5          158.5          35.026452      40.563122      29.933547      34.582686      13.81755     
     42640   13.81755       158.5          158.5          158.5          35.026451      40.563119      29.933548      34.582685      13.81755     
     42660   13.81755       158.5          158.5          158.5          35.026456      40.563129      29.933551      34.582687      13.81755     
     42680   13.81755       158.5          158.5          158.5          35.02645       40.563121      29.933547      34.582682      13.81755     
     42700   13.81755       158.5          158.5          158.5          35.026449      40.563116      29.933546      34.582685      13.81755     
     42720   13.81755       158.5          158.5          158.5          35.026454      40.563125      29.933551      34.582686      13.81755     
     42740   13.81755       158.5          158.5          158.5          35.026455      40.563128      29.933551      34.582685      13.81755     
     42760   13.81755       158.5          158.5          158.5          35.026455      40.563125      29.933551      34.58269       13.81755     
     42780   13.81755       158.5          158.5          158.5          35.026453      40.563124      29.933548      34.582687      13.81755     
     42800   13.81755       158.5          158.5          158.5          35.026452      40.563122      29.933549      34.582685      13.81755     
     42820   13.81755       158.5          158.5          158.5          35.026455      40.563126      29.933551      34.582686      13.81755     
     42840   13.81755       158.5          158.5          158.5          35.026453      40.563124      29.93355       34.582684      13.81755     
     42860   13.81755       158.5          158.5          158.5          35.026452      40.563123      29.933549      34.582685      13.81755     
     42880   13.81755       158.5          158.5          158.5          35.026452      40.563122      29.93355       34.582685      13.81755     
     42900   13.81755       158.5          158.5          158.5          35.026453      40.563122      29.93355       34.582686      13.81755     
     42920   13.81755       158.5          158.5          158.5          35.026452      40.563122      29.93355       34.582685      13.81755     
     42940   13.81755       158.5          158.5          158.5          35.026452      40.563123      29.933549      34.582684      13.81755     
     42960   13.81755       158.5          158.5          158.5          35.026453      40.563123      29.93355       34.582687      13.81755     
     42980   13.81755       158.5          158.5          158.5          35.026454      40.563124      29.93355       34.582686      13.81755     
     43000   13.81755       158.5          158.5          158.5          35.026452      40.563121      29.93355       34.582685      13.81755     
     43020   13.81755       158.5          158.5          158.5          35.026454      40.563125      29.93355       34.582687      13.81755     
     43040   13.81755       158.5          158.5          158.5          35.026454      40.563125      29.93355       34.582688      13.81755     
     43060   13.81755       158.5          158.5          158.5          35.026454      40.563125      29.933551      34.582685      13.81755     
     43080   13.81755       158.5          158.5          158.5          35.026454      40.563125      29.93355       34.582687      13.81755     
     43100   13.81755       158.5          158.5          158.5          35.026452      40.563122      29.933548      34.582685      13.81755     
     43120   13.81755       158.5          158.5          158.5          35.026453      40.563125      29.933549      34.582685      13.81755     
     43140   13.81755       158.5          158.5          158.5          35.02645       40.563121      29.933547      34.582681      13.81755     
     43160   13.81755       158.5          158.5          158.5          35.026448      40.563117      29.933546      34.582682      13.81755     
     43180   13.81755       158.5          158.5          158.5          35.026457      40.563129      29.933552      34.58269       13.81755     
     43200   13.81755       158.5          158.5          158.5          35.026456      40.563125      29.933555      34.582689      13.81755     
     43220   13.81755       158.5          158.5          158.5          35.026454      40.563126      29.933551      34.582686      13.81755     
     43240   13.81755       158.5          158.5          158.5          35.026446      40.563114      29.933544      34.58268       13.81755     
     43260   13.81755       158.5          158.5          158.5          35.026449      40.563119      29.933547      34.582682      13.81755     
     43280   13.81755       158.5          158.5          158.5          35.026455      40.563127      29.933552      34.582686      13.81755     
     43300   13.81755       158.5          158.5          158.5          35.026453      40.563125      29.933548      34.582685      13.81755     
     43320   13.81755       158.5          158.5          158.5          35.026456      40.563128      29.933551      34.582688      13.81755     
     43340   13.81755       158.5          158.5          158.5          35.026452      40.563125      29.933547      34.582684      13.81755     
     43360   13.81755       158.5          158.5          158.5          35.026453      40.563123      29.93355       34.582687      13.81755     
     43380   13.81755       158.5          158.5          158.5          35.026454      40.563124      29.93355       34.582687      13.81755     
     43400   13.81755       158.5          158.5          158.5          35.026452      40.563122      29.933549      34.582685      13.81755     
     43420   13.81755       158.5          158.5          158.5          35.026453      40.563122      29.933551      34.582685      13.81755     
     43440   13.81755       158.5          158.5          158.5          35.026454      40.563124      29.933551      34.582688      13.81755     
     43460   13.81755       158.5          158.5          158.5          35.026451      40.563122      29.933549      34.582684      13.81755     
     43480   13.81755       158.5          158.5          158.5          35.026453      40.563123      29.93355       34.582686      13.81755     
     43500   13.81755       158.5          158.5          158.5          35.026452      40.563122      29.93355       34.582685      13.81755     
     43520   13.81755       158.5          158.5          158.5          35.026453      40.563123      29.93355       34.582686      13.81755     
     43540   13.81755       158.5          158.5          158.5          35.026452      40.563122      29.933549      34.582684      13.81755     
     43560   13.81755       158.5          158.5          158.5          35.026454      40.563125      29.93355       34.582687      13.81755     
     43580   13.81755       158.5          158.5          158.5          35.026452      40.563123      29.93355       34.582685      13.81755     
     43600   13.81755       158.5          158.5          158.5          35.026453      40.563123      29.93355       34.582686      13.81755     
     43620   13.81755       158.5          158.5          158.5          35.026454      40.563125      29.933549      34.582687      13.81755     
     43640   13.81755       158.5          158.5          158.5          35.026455      40.563125      29.933551      34.582688      13.81755     
     43660   13.81755       158.5          158.5          158.5          35.026453      40.563125      29.93355       34.582684      13.81755     
     43680   13.81755       158.5          158.5          158.5          35.026454      40.563123      29.933551      34.582688      13.81755     
     43700   13.81755       158.5          158.5          158.5          35.026451      40.56312       29.93355       34.582683      13.81755     
     43720   13.81755       158.5          158.5          158.5          35.026451      40.563122      29.933548      34.582683      13.81755     
     43740   13.81755       158.5          158.5          158.5          35.026448      40.563116      29.933546      34.582682      13.81755     
     43760   13.81755       158.5          158.5          158.5          35.02645       40.56312       29.933546      34.582683      13.81755     
     43780   13.81755       158.5          158.5          158.5          35.026456      40.563127      29.933553      34.582689      13.81755     
     43800   13.81755       158.5          158.5          158.5          35.026457      40.563135      29.933553      34.582682      13.81755     
     43820   13.81755       158.5          158.5          158.5          35.026452      40.563124      29.933548      34.582685      13.81755     
     43840   13.81755       158.5          158.5          158.5          35.026452      40.563122      29.933549      34.582685      13.81755     
     43860   13.81755       158.5          158.5          158.5          35.026453      40.563121      29.933549      34.582688      13.81755     
     43880   13.81755       158.5          158.5          158.5          35.026452      40.563122      29.933549      34.582684      13.81755     
     43900   13.81755       158.5          158.5          158.5          35.02645       40.563118      29.933548      34.582683      13.81755     
     43920   13.81755       158.5          158.5          158.5          35.026453      40.563123      29.933549      34.582687      13.81755     
     43940   13.81755       158.5          158.5          158.5          35.026454      40.563126      29.93355       34.582686      13.81755     
     43960   13.81755       158.5          158.5          158.5          35.026452      40.563122      29.933548      34.582687      13.81755     
     43980   13.81755       158.5          158.5          158.5          35.026454      40.563124      29.93355       34.582687      13.81755     
     44000   13.81755       158.5          158.5          158.5          35.026453      40.563124      29.933549      34.582686      13.81755     
     44020   13.81755       158.5          158.5          158.5          35.026452      40.563122      29.933549      34.582685      13.81755     
     44040   13.81755       158.5          158.5          158.5          35.026453      40.563124      29.933549      34.582686      13.81755     
     44060   13.81755       158.5          158.5          158.5          35.026452      40.563122      29.933549      34.582685      13.81755     
     44080   13.81755       158.5          158.5          158.5          35.026454      40.563124      29.933551      34.582687      13.81755     
     44100   13.81755       158.5          158.5          158.5          35.026452      40.563122      29.93355       34.582685      13.81755     
     44120   13.81755       158.5          158.5          158.5          35.026452      40.563122      29.93355       34.582686      13.81755     
     44140   13.81755       158.5          158.5          158.5          35.026452      40.563123      29.933549      34.582685      13.81755     
     44160   13.81755       158.5          158.5          158.5          35.026452      40.563122      29.933549      34.582686      13.81755     
     44180   13.81755       158.5          158.5          158.5          35.026452      40.563123      29.93355       34.582685      13.81755     
     44200   13.81755       158.5          158.5          158.5          35.026452      40.563123      29.933549      34.582685      13.81755     
     44220   13.81755       158.5          158.5          158.5          35.026452      40.563123      29.933548      34.582686      13.81755     
     44240   13.81755       158.5          158.5          158.5          35.026455      40.563125      29.933549      34.58269       13.81755     
     44260   13.81755       158.5          158.5          158.5          35.026454      40.563125      29.933551      34.582685      13.81755     
     44280   13.81755       158.5          158.5          158.5          35.026452      40.563123      29.933548      34.582686      13.81755     
     44300   13.81755       158.5          158.5          158.5          35.026451      40.563121      29.933547      34.582686      13.81755     
     44320   13.81755       158.5          158.5          158.5          35.026451      40.563122      29.933548      34.582683      13.81755     
     44340   13.81755       158.5          158.5          158.5          35.026451      40.56312       29.93355       34.582684      13.81755     
     44360   13.81755       158.5          158.5          158.5          35.026451      40.56312       29.933549      34.582685      13.81755     
     44380   13.81755       158.5          158.5          158.5          35.026454      40.563126      29.93355       34.582686      13.81755     
     44400   13.81755       158.5          158.5          158.5          35.026455      40.563128      29.933551      34.582687      13.81755     
     44420   13.81755       158.5          158.5          158.5          35.026452      40.563122      29.93355       34.582685      13.81755     
     44440   13.81755       158.5          158.5          158.5          35.026452      40.563122      29.93355       34.582685      13.81755     
     44460   13.81755       158.5          158.5          158.5          35.026453      40.563122      29.933551      34.582685      13.81755     
     44480   13.81755       158.5          158.5          158.5          35.026451      40.563122      29.933549      34.582683      13.81755     
     44500   13.81755       158.5          158.5          158.5          35.02645       40.563117      29.933549      34.582685      13.81755     
     44520   13.81755       158.5          158.5          158.5          35.026452      40.563123      29.933549      34.582685      13.81755     
     44540   13.81755       158.5          158.5          158.5          35.026455      40.563126      29.933552      34.582687      13.81755     
     44560   13.81755       158.5          158.5          158.5          35.026455      40.563124      29.933551      34.582688      13.81755     
     44580   13.81755       158.5          158.5          158.5          35.026453      40.563124      29.933549      34.582686      13.81755     
     44600   13.81755       158.5          158.5          158.5          35.026452      40.563123      29.933548      34.582685      13.81755     
     44620   13.81755       158.5          158.5          158.5          35.026453      40.563124      29.93355       34.582685      13.81755     
     44640   13.81755       158.5          158.5          158.5          35.026453      40.563123      29.933549      34.582686      13.81755     
     44660   13.81755       158.5          158.5          158.5          35.026452      40.563122      29.933549      34.582684      13.81755     
     44680   13.81755       158.5          158.5          158.5          35.026453      40.563123      29.93355       34.582686      13.81755     
     44700   13.81755       158.5          158.5          158.5          35.026452      40.563122      29.93355       34.582686      13.81755     
     44720   13.81755       158.5          158.5          158.5          35.026453      40.563122      29.93355       34.582686      13.81755     
     44740   13.81755       158.5          158.5          158.5          35.026452      40.563123      29.93355       34.582685      13.81755     
     44760   13.81755       158.5          158.5          158.5          35.026453      40.563124      29.93355       34.582686      13.81755     
     44780   13.81755       158.5          158.5          158.5          35.026452      40.563123      29.933549      34.582685      13.81755     
     44800   13.81755       158.5          158.5          158.5          35.026453      40.563123      29.933549      34.582686      13.81755     
     44820   13.81755       158.5          158.5          158.5          35.026454      40.563124      29.93355       34.582687      13.81755     
     44840   13.81755       158.5          158.5          158.5          35.026454      40.563124      29.933551      34.582688      13.81755     
     44860   13.81755       158.5          158.5          158.5          35.026452      40.563123      29.933548      34.582685      13.81755     
     44880   13.81755       158.5          158.5          158.5          35.026453      40.563124      29.933549      34.582686      13.81755     
     44900   13.81755       158.5          158.5          158.5          35.02645       40.563118      29.933549      34.582683      13.81755     
     44920   13.81755       158.5          158.5          158.5          35.026452      40.563123      29.933549      34.582684      13.81755     
     44940   13.81755       158.5          158.5          158.5          35.026453      40.563121      29.933551      34.582686      13.81755     
     44960   13.81755       158.5          158.5          158.5          35.026449      40.563117      29.933548      34.582682      13.81755     
     44980   13.81755       158.5          158.5          158.5          35.026453      40.563124      29.93355       34.582684      13.81755     
     45000   13.81755       158.5          158.5          158.5          35.026457      40.563132      29.933554      34.582686      13.81755     
     45020   13.81755       158.5          158.5          158.5          35.026451      40.563121      29.933548      34.582683      13.81755     
     45040   13.81755       158.5          158.5          158.5          35.02645       40.563118      29.933549      34.582683      13.81755     
     45060   13.81755       158.5          158.5          158.5          35.026452      40.563121      29.93355       34.582686      13.81755     
     45080   13.81755       158.5          158.5          158.5          35.026452      40.563123      29.933549      34.582685      13.81755     
     45100   13.81755       158.5          158.5          158.5          35.026451      40.56312       29.93355       34.582684      13.81755     
     45120   13.81755       158.5          158.5          158.5          35.026453      40.563123      29.933549      34.582686      13.81755     
     45140   13.81755       158.5          158.5          158.5          35.026453      40.563123      29.93355       34.582685      13.81755     
     45160   13.81755       158.5          158.5          158.5          35.026453      40.563123      29.933549      34.582687      13.81755     
     45180   13.81755       158.5          158.5          158.5          35.026453      40.563124      29.93355       34.582687      13.81755     
     45200   13.81755       158.5          158.5          158.5          35.026453      40.563123      29.93355       34.582686      13.81755     
     45220   13.81755       158.5          158.5          158.5          35.026453      40.563123      29.93355       34.582685      13.81755     
     45240   13.81755       158.5          158.5          158.5          35.026453      40.563123      29.93355       34.582685      13.81755     
     45260   13.81755       158.5          158.5          158.5          35.026452      40.563122      29.933549      34.582685      13.81755     
     45280   13.81755       158.5          158.5          158.5          35.026453      40.563123      29.93355       34.582686      13.81755     
     45300   13.81755       158.5          158.5          158.5          35.026452      40.563122      29.93355       34.582686      13.81755     
     45320   13.81755       158.5          158.5          158.5          35.026453      40.563123      29.93355       34.582686      13.81755     
     45340   13.81755       158.5          158.5          158.5          35.026452      40.563122      29.933549      34.582685      13.81755     
     45360   13.81755       158.5          158.5          158.5          35.026452      40.563122      29.93355       34.582685      13.81755     
     45380   13.81755       158.5          158.5          158.5          35.026453      40.563123      29.93355       34.582684      13.81755     
     45400   13.81755       158.5          158.5          158.5          35.026453      40.563123      29.93355       34.582685      13.81755     
     45420   13.81755       158.5          158.5          158.5          35.026454      40.563125      29.93355       34.582687      13.81755     
     45440   13.81755       158.5          158.5          158.5          35.026454      40.563124      29.933549      34.582687      13.81755     
     45460   13.81755       158.5          158.5          158.5          35.026453      40.563123      29.93355       34.582685      13.81755     
     45480   13.81755       158.5          158.5          158.5          35.026453      40.563124      29.933549      34.582686      13.81755     
     45500   13.81755       158.5          158.5          158.5          35.026451      40.56312       29.933548      34.582685      13.81755     
     45520   13.81755       158.5          158.5          158.5          35.026452      40.563122      29.933549      34.582684      13.81755     
     45540   13.81755       158.5          158.5          158.5          35.026452      40.563122      29.93355       34.582685      13.81755     
     45560   13.81755       158.5          158.5          158.5          35.02645       40.563119      29.933547      34.582683      13.81755     
     45580   13.81755       158.5          158.5          158.5          35.026452      40.563122      29.933549      34.582685      13.81755     
     45600   13.81755       158.5          158.5          158.5          35.026455      40.56313       29.93355       34.582686      13.81755     
     45620   13.81755       158.5          158.5          158.5          35.026453      40.563123      29.93355       34.582685      13.81755     
     45640   13.81755       158.5          158.5          158.5          35.02645       40.563119      29.933548      34.582683      13.81755     
     45660   13.81755       158.5          158.5          158.5          35.026452      40.56312       29.93355       34.582686      13.81755     
     45680   13.81755       158.5          158.5          158.5          35.026452      40.563122      29.933548      34.582685      13.81755     
     45700   13.81755       158.5          158.5          158.5          35.026451      40.563119      29.933549      34.582685      13.81755     
     45720   13.81755       158.5          158.5          158.5          35.026453      40.563124      29.933549      34.582686      13.81755     
     45740   13.81755       158.5          158.5          158.5          35.026452      40.563123      29.933549      34.582685      13.81755     
     45760   13.81755       158.5          158.5          158.5          35.026454      40.563125      29.93355       34.582687      13.81755     
     45780   13.81755       158.5          158.5          158.5          35.026454      40.563125      29.93355       34.582688      13.81755     
     45800   13.81755       158.5          158.5          158.5          35.026453      40.563123      29.933549      34.582686      13.81755     
     45820   13.81755       158.5          158.5          158.5          35.026453      40.563123      29.93355       34.582686      13.81755     
     45840   13.81755       158.5          158.5          158.5          35.026453      40.563123      29.93355       34.582686      13.81755     
     45860   13.81755       158.5          158.5          158.5          35.026452      40.563122      29.933549      34.582685      13.81755     
     45880   13.81755       158.5          158.5          158.5          35.026453      40.563123      29.933549      34.582686      13.81755     
     45900   13.81755       158.5          158.5          158.5          35.026452      40.563122      29.93355       34.582686      13.81755     
     45920   13.81755       158.5          158.5          158.5          35.026453      40.563123      29.93355       34.582686      13.81755     
     45940   13.81755       158.5          158.5          158.5          35.026452      40.563122      29.93355       34.582685      13.81755     
     45960   13.81755       158.5          158.5          158.5          35.026453      40.563123      29.93355       34.582686      13.81755     
     45980   13.81755       158.5          158.5          158.5          35.026453      40.563123      29.93355       34.582686      13.81755     
     46000   13.81755       158.5          158.5          158.5          35.026453      40.563122      29.93355       34.582686      13.81755     
     46020   13.81755       158.5          158.5          158.5          35.026454      40.563124      29.93355       34.582687      13.81755     
     46040   13.81755       158.5          158.5          158.5          35.026453      40.563123      29.933549      34.582687      13.81755     
     46060   13.81755       158.5          158.5          158.5          35.026453      40.563123      29.93355       34.582686      13.81755     
     46080   13.81755       158.5          158.5          158.5          35.026453      40.563123      29.933549      34.582686      13.81755     
     46100   13.81755       158.5          158.5          158.5          35.026452      40.563121      29.93355       34.582685      13.81755     
     46120   13.81755       158.5          158.5          158.5          35.026452      40.563123      29.933549      34.582685      13.81755     
     46140   13.81755       158.5          158.5          158.5          35.026452      40.563122      29.933549      34.582685      13.81755     
     46160   13.81755       158.5          158.5          158.5          35.02645       40.563119      29.933548      34.582683      13.81755     
     46180   13.81755       158.5          158.5          158.5          35.026453      40.563124      29.93355       34.582687      13.81755     
     46200   13.81755       158.5          158.5          158.5          35.026452      40.563123      29.933549      34.582683      13.81755     
     46220   13.81755       158.5          158.5          158.5          35.026453      40.563124      29.93355       34.582685      13.81755     
     46240   13.81755       158.5          158.5          158.5          35.02645       40.56312       29.933548      34.582682      13.81755     
     46260   13.81755       158.5          158.5          158.5          35.026453      40.563123      29.93355       34.582686      13.81755     
     46280   13.81755       158.5          158.5          158.5          35.026453      40.563123      29.93355       34.582685      13.81755     
     46300   13.81755       158.5          158.5          158.5          35.026452      40.563122      29.933548      34.582685      13.81755     
     46320   13.81755       158.5          158.5          158.5          35.026452      40.563122      29.933549      34.582686      13.81755     
     46340   13.81755       158.5          158.5          158.5          35.026453      40.563124      29.93355       34.582686      13.81755     
     46360   13.81755       158.5          158.5          158.5          35.026453      40.563122      29.933549      34.582687      13.81755     
     46380   13.81755       158.5          158.5          158.5          35.026453      40.563124      29.933549      34.582687      13.81755     
     46400   13.81755       158.5          158.5          158.5          35.026452      40.563122      29.933549      34.582686      13.81755     
     46420   13.81755       158.5          158.5          158.5          35.026453      40.563123      29.93355       34.582686      13.81755     
     46440   13.81755       158.5          158.5          158.5          35.026452      40.563122      29.93355       34.582685      13.81755     
     46460   13.81755       158.5          158.5          158.5          35.026452      40.563123      29.933549      34.582685      13.81755     
     46480   13.81755       158.5          158.5          158.5          35.026453      40.563123      29.93355       34.582686      13.81755     
     46500   13.81755       158.5          158.5          158.5          35.026453      40.563122      29.93355       34.582686      13.81755     
     46520   13.81755       158.5          158.5          158.5          35.026453      40.563122      29.93355       34.582686      13.81755     
     46540   13.81755       158.5          158.5          158.5          35.026452      40.563122      29.933549      34.582685      13.81755     
     46560   13.81755       158.5          158.5          158.5          35.026452      40.563123      29.93355       34.582685      13.81755     
     46580   13.81755       158.5          158.5          158.5          35.026453      40.563123      29.93355       34.582686      13.81755     
     46600   13.81755       158.5          158.5          158.5          35.026453      40.563122      29.93355       34.582686      13.81755     
     46620   13.81755       158.5          158.5          158.5          35.026453      40.563123      29.933549      34.582686      13.81755     
     46640   13.81755       158.5          158.5          158.5          35.026453      40.563123      29.93355       34.582686      13.81755     
     46660   13.81755       158.5          158.5          158.5          35.026454      40.563123      29.93355       34.582687      13.81755     
     46680   13.81755       158.5          158.5          158.5          35.026452      40.563122      29.933549      34.582686      13.81755     
     46700   13.81755       158.5          158.5          158.5          35.026452      40.563121      29.93355       34.582685      13.81755     
     46720   13.81755       158.5          158.5          158.5          35.026453      40.563123      29.933549      34.582685      13.81755     
     46740   13.81755       158.5          158.5          158.5          35.026453      40.563122      29.93355       34.582686      13.81755     
     46760   13.81755       158.5          158.5          158.5          35.02645       40.56312       29.933547      34.582683      13.81755     
     46780   13.81755       158.5          158.5          158.5          35.026453      40.563124      29.933549      34.582685      13.81755     
     46800   13.81755       158.5          158.5          158.5          35.026453      40.563124      29.933549      34.582685      13.81755     
     46820   13.81755       158.5          158.5          158.5          35.026453      40.563124      29.93355       34.582686      13.81755     
     46840   13.81755       158.5          158.5          158.5          35.026451      40.56312       29.933549      34.582683      13.81755     
     46860   13.81755       158.5          158.5          158.5          35.026453      40.563123      29.93355       34.582686      13.81755     
     46880   13.81755       158.5          158.5          158.5          35.026452      40.563122      29.933549      34.582685      13.81755     
     46900   13.81755       158.5          158.5          158.5          35.026452      40.563121      29.93355       34.582685      13.81755     
     46920   13.81755       158.5          158.5          158.5          35.026452      40.563122      29.933549      34.582685      13.81755     
     46940   13.81755       158.5          158.5          158.5          35.026453      40.563124      29.93355       34.582686      13.81755     
     46960   13.81755       158.5          158.5          158.5          35.026453      40.563122      29.933549      34.582686      13.81755     
     46980   13.81755       158.5          158.5          158.5          35.026453      40.563123      29.933549      34.582686      13.81755     
     47000   13.81755       158.5          158.5          158.5          35.026452      40.563122      29.93355       34.582685      13.81755     
     47020   13.81755       158.5          158.5          158.5          35.026453      40.563123      29.93355       34.582686      13.81755     
     47040   13.81755       158.5          158.5          158.5          35.026452      40.563122      29.93355       34.582685      13.81755     
     47060   13.81755       158.5          158.5          158.5          35.026452      40.563122      29.93355       34.582685      13.81755     
     47080   13.81755       158.5          158.5          158.5          35.026452      40.563122      29.93355       34.582686      13.81755     
     47100   13.81755       158.5          158.5          158.5          35.026453      40.563122      29.93355       34.582686      13.81755     
     47120   13.81755       158.5          158.5          158.5          35.026453      40.563122      29.93355       34.582686      13.81755     
     47140   13.81755       158.5          158.5          158.5          35.026452      40.563122      29.933549      34.582685      13.81755     
     47160   13.81755       158.5          158.5          158.5          35.026453      40.563122      29.93355       34.582686      13.81755     
     47180   13.81755       158.5          158.5          158.5          35.026453      40.563123      29.933549      34.582686      13.81755     
     47200   13.81755       158.5          158.5          158.5          35.026453      40.563122      29.93355       34.582686      13.81755     
     47220   13.81755       158.5          158.5          158.5          35.026453      40.563123      29.933549      34.582686      13.81755     
     47240   13.81755       158.5          158.5          158.5          35.026453      40.563123      29.933549      34.582686      13.81755     
     47260   13.81755       158.5          158.5          158.5          35.026453      40.563123      29.93355       34.582686      13.81755     
     47280   13.81755       158.5          158.5          158.5          35.026452      40.563122      29.93355       34.582686      13.81755     
     47300   13.81755       158.5          158.5          158.5          35.026452      40.563121      29.93355       34.582685      13.81755     
     47320   13.81755       158.5          158.5          158.5          35.026453      40.563124      29.93355       34.582686      13.81755     
     47340   13.81755       158.5          158.5          158.5          35.026452      40.563121      29.933549      34.582685      13.81755     
     47360   13.81755       158.5          158.5          158.5          35.026451      40.56312       29.933547      34.582685      13.81755     
     47380   13.81755       158.5          158.5          158.5          35.026452      40.563122      29.933549      34.582684      13.81755     
     47400   13.81755       158.5          158.5          158.5          35.026458      40.563128      29.933554      34.582692      13.81755     
     47420   13.81755       158.5          158.5          158.5          35.026453      40.563124      29.93355       34.582685      13.81755     
     47440   13.81755       158.5          158.5          158.5          35.026452      40.563122      29.933548      34.582685      13.81755     
     47460   13.81755       158.5          158.5          158.5          35.026453      40.563122      29.93355       34.582686      13.81755     
     47480   13.81755       158.5          158.5          158.5          35.026453      40.563123      29.93355       34.582686      13.81755     
     47500   13.81755       158.5          158.5          158.5          35.026452      40.563121      29.933549      34.582685      13.81755     
     47520   13.81755       158.5          158.5          158.5          35.026453      40.563122      29.93355       34.582686      13.81755     
     47540   13.81755       158.5          158.5          158.5          35.026453      40.563123      29.93355       34.582686      13.81755     
     47560   13.81755       158.5          158.5          158.5          35.026453      40.563123      29.933549      34.582686      13.81755     
     47580   13.81755       158.5          158.5          158.5          35.026453      40.563124      29.93355       34.582686      13.81755     
     47600   13.81755       158.5          158.5          158.5          35.026453      40.563123      29.933549      34.582686      13.81755     
     47620   13.81755       158.5          158.5          158.5          35.026453      40.563122      29.93355       34.582686      13.81755     
     47640   13.81755       158.5          158.5          158.5          35.026453      40.563123      29.93355       34.582686      13.81755     
     47660   13.81755       158.5          158.5          158.5          35.026452      40.563122      29.93355       34.582685      13.81755     
     47680   13.81755       158.5          158.5          158.5          35.026453      40.563123      29.93355       34.582686      13.81755     
     47700   13.81755       158.5          158.5          158.5          35.026453      40.563122      29.93355       34.582686      13.81755     
     47717   13.81755       158.5          158.5          158.5          35.026453      40.563123      29.93355       34.582686      13.81755     
Loop time of 3.34708 on 1 procs for 47717 steps with 100 atoms

95.4% CPU use with 1 MPI tasks x no OpenMP threads

Minimization stats:
  Stopping criterion = energy tolerance
  Energy initial, next-to-last, final = 
      282.083610501037   13.8175498988879   13.8175498988879
  Force two-norm initial, final = 764.71232 6.8734483e-06
  Force max component initial, final = 186.59901 1.5245893e-06
  Final line search alpha, max atom move = 1 1.5245893e-06
  Iterations, force evaluations = 47717 95434

MPI task timing breakdown:
Section |  min time  |  avg time  |  max time  |%varavg| %total
---------------------------------------------------------------
Pair    | 1.547      | 1.547      | 1.547      |   0.0 | 46.22
Bond    | 1.4759     | 1.4759     | 1.4759     |   0.0 | 44.09
Neigh   | 0.0099734  | 0.0099734  | 0.0099734  |   0.0 |  0.30
Comm    | 0.012922   | 0.012922   | 0.012922   |   0.0 |  0.39
Output  | 0.11573    | 0.11573    | 0.11573    |   0.0 |  3.46
Modify  | 0          | 0          | 0          |   0.0 |  0.00
Other   |            | 0.1856     |            |       |  5.55

Nlocal:            100 ave         100 max         100 min
Histogram: 1 0 0 0 0 0 0 0 0 0
Nghost:              0 ave           0 max           0 min
Histogram: 1 0 0 0 0 0 0 0 0 0
Neighs:            641 ave         641 max         641 min
Histogram: 1 0 0 0 0 0 0 0 0 0
FullNghs:            0 ave           0 max           0 min
Histogram: 1 0 0 0 0 0 0 0 0 0

Total # of neighbors = 641
Ave neighs/atom = 6.41
Ave special neighs/atom = 5.88
Neighbor list builds = 165
Dangerous builds = 0

# Get the equilibrium distance of the harmonic bond (type 1)
variable eq_dist equal 1.0  # Replace with the actual equilibrium distance

# Continue with your simulation steps
thermo_style custom step temp
thermo 1000
timestep 1

# Specify the pair coefficients for your specific atom types
# For example, assuming you have three atom types, adjust as needed
pair_coeff * * 1.0 1.0 10.5
pair_coeff 3 3 2.0 0.5 10.5

# Specify the total number of timesteps
variable total_steps equal 10000  # Adjust as needed

# Loop over timesteps
label loop
  # Calculate distances at each timestep
  compute myDistances all pair lj/cut ${lj_sigma}  # Adjust the pair style accordingly
  compute myDistances all pair lj/cut 2  

  # Change atom of type 1 to type 2 if it's at a distance less than 2 from atom of type 2
  set type 1 type/subset 2 1 2304
Setting atom values ...
  1 settings made for type/subset

  # Change atom of type 2 to type 3 if it's at a distance less than 2 from atom of type 3
  set type 2 type/subset 3 1 2404
Setting atom values ...
  1 settings made for type/subset

  # Change atom of type 2 to type 1 if it's at a distance less than 2 from atom of type 1
  set type 2 type/subset 1 1 2604
Setting atom values ...
  1 settings made for type/subset

  # Change atom of type 3 to type 2 if it's at a distance less than 2 from atom of type 2
  set type 3 type/subset 2 1 2904
Setting atom values ...
  1 settings made for type/subset

  # Run a single timestep
  run 1
Generated 0 of 3 mixed pair_coeff terms from geometric mixing rule
Per MPI rank memory allocation (min/avg/max) = 9.279 | 9.279 | 9.279 Mbytes
   Step          Temp     
     47717   10339.073    
     47718   10010.047    
Loop time of 0.000123875 on 1 procs for 1 steps with 100 atoms

Performance: 697.477 ns/day, 0.034 hours/ns, 8072.654 timesteps/s, 807.265 katom-step/s
42.0% CPU use with 1 MPI tasks x no OpenMP threads

MPI task timing breakdown:
Section |  min time  |  avg time  |  max time  |%varavg| %total
---------------------------------------------------------------
Pair    | 1.3721e-05 | 1.3721e-05 | 1.3721e-05 |   0.0 | 11.08
Bond    | 1.7353e-05 | 1.7353e-05 | 1.7353e-05 |   0.0 | 14.01
Neigh   | 0          | 0          | 0          |   0.0 |  0.00
Comm    | 4.9e-07    | 4.9e-07    | 4.9e-07    |   0.0 |  0.40
Output  | 8.386e-06  | 8.386e-06  | 8.386e-06  |   0.0 |  6.77
Modify  | 7.9951e-05 | 7.9951e-05 | 7.9951e-05 |   0.0 | 64.54
Other   |            | 3.974e-06  |            |       |  3.21

Nlocal:            100 ave         100 max         100 min
Histogram: 1 0 0 0 0 0 0 0 0 0
Nghost:              0 ave           0 max           0 min
Histogram: 1 0 0 0 0 0 0 0 0 0
Neighs:            641 ave         641 max         641 min
Histogram: 1 0 0 0 0 0 0 0 0 0
FullNghs:            0 ave           0 max           0 min
Histogram: 1 0 0 0 0 0 0 0 0 0

Total # of neighbors = 641
Ave neighs/atom = 6.41
Ave special neighs/atom = 5.88
Neighbor list builds = 0
Dangerous builds = 0

  # Increment timestep counter
  variable current_step equal ${current_step} + 1
ERROR on proc 0: Substitution for illegal variable current_step (src/src/input.cpp:651)
Last command:   variable current_step equal ${current_step} + 1
