read_data	InitialFile.txt
Reading data file ...
  orthogonal box = (0 0 0) to (158.5 158.5 158.5)
  1 by 1 by 1 MPI processor grid
WARNING: Atom style in data file atomic differs from currently defined atom style molecular (src/src/read_data.cpp:621)
  reading atoms ...
  100 atoms
  scanning bonds ...
  1 = max bonds/atom
  scanning angles ...
  1 = max angles/atom
  scanning dihedrals ...
  1 = max dihedrals/atom
  reading bonds ...
  99 bonds
  reading angles ...
  98 angles
  reading dihedrals ...
  97 dihedrals
Finding 1-2 1-3 1-4 neighbors ...
  special bond factors lj:    0        0        0       
  special bond factors coul:  0        0        0       
     2 = max # of 1-2 neighbors
     2 = max # of 1-3 neighbors
     4 = max # of 1-4 neighbors
     6 = max # of special neighbors
  special bonds CPU = 0.014 seconds
  read_data CPU = 0.036 seconds

# Dreiding potential information
neighbor	0.4 bin
neigh_modify	every 10 one 10000

bond_style      harmonic
bond_coeff	1 350 1.53
bond_coeff	2 700 1.53

angle_style     harmonic
angle_coeff	1 60 109.5
angle_coeff	2 120 109.5

dihedral_style	multi/harmonic
dihedral_coeff	1 1.73 -4.49 0.776 6.99 0.0
dihedral_coeff	2 1.73 -4.49 0.776 6.99 0.0

pair_style	lj/cut 10.5


pair_coeff	* * 1.0 1.0 10.5
pair_coeff	3 3 2.0 2.0 10.5

compute csym all centro/atom fcc
compute peratom all pe/atom



#####################################################
# Equilibration (Langevin dynamics at 300 K)

velocity 	all create 300.0 1231
fix		1 all nve/limit 0.05
fix		2 all langevin 300.0 300.0 10.0 904297
thermo_style	custom step temp
thermo          10000
timestep	1
run		100000
Generated 0 of 3 mixed pair_coeff terms from geometric mixing rule
Neighbor list info ...
  update: every = 10 steps, delay = 0 steps, check = yes
  max neighbors/atom: 10000, page size: 100000
  master list distance cutoff = 10.9
  ghost atom cutoff = 10.9
  binsize = 5.45, bins = 30 30 30
  2 neighbor lists, perpetual/occasional/extra = 1 1 0
  (1) pair lj/cut, perpetual
      attributes: half, newton on
      pair build: half/bin/newton
      stencil: half/bin/3d
      bin: standard
  (2) compute centro/atom, occasional
      attributes: full, newton on
      pair build: full/bin
      stencil: full/bin/3d
      bin: standard
Per MPI rank memory allocation (min/avg/max) = 8.15 | 8.15 | 8.15 Mbytes
   Step          Temp     
         0   300          
     10000   290.80665    
     20000   269.97327    
     30000   285.31297    
     40000   317.97625    
     50000   331.32515    
     60000   294.7216     
     70000   360.09699    
     80000   293.39662    
     90000   281.9562     
    100000   304.22587    
Loop time of 3.51925 on 1 procs for 100000 steps with 100 atoms

Performance: 2455.066 ns/day, 0.010 hours/ns, 28415.113 timesteps/s, 2.842 Matom-step/s
97.6% CPU use with 1 MPI tasks x no OpenMP threads

MPI task timing breakdown:
Section |  min time  |  avg time  |  max time  |%varavg| %total
---------------------------------------------------------------
Pair    | 0.82501    | 0.82501    | 0.82501    |   0.0 | 23.44
Bond    | 1.8943     | 1.8943     | 1.8943     |   0.0 | 53.83
Neigh   | 0.27784    | 0.27784    | 0.27784    |   0.0 |  7.89
Comm    | 0.024018   | 0.024018   | 0.024018   |   0.0 |  0.68
Output  | 0.00027023 | 0.00027023 | 0.00027023 |   0.0 |  0.01
Modify  | 0.45135    | 0.45135    | 0.45135    |   0.0 | 12.83
Other   |            | 0.0465     |            |       |  1.32

Nlocal:            100 ave         100 max         100 min
Histogram: 1 0 0 0 0 0 0 0 0 0
Nghost:              0 ave           0 max           0 min
Histogram: 1 0 0 0 0 0 0 0 0 0
Neighs:            494 ave         494 max         494 min
Histogram: 1 0 0 0 0 0 0 0 0 0
FullNghs:            0 ave           0 max           0 min
Histogram: 1 0 0 0 0 0 0 0 0 0

Total # of neighbors = 494
Ave neighs/atom = 4.94
Ave special neighs/atom = 5.88
Neighbor list builds = 3892
Dangerous builds = 51
unfix 1
unfix 2
write_restart 	restart.${simname}.dreiding1
write_restart 	restart.InitialFile.dreiding1
System init for write_restart ...
Generated 0 of 3 mixed pair_coeff terms from geometric mixing rule


#####################################################
# Define Settings
compute eng all pe/atom
compute eatoms all reduce sum c_eng

#####################################################
# Minimization

dump mydmp all atom 100 dump.lammpstrj

reset_timestep 0
fix 1 all nvt temp 300.0 300.0 100.0
thermo 20
thermo_style custom step pe lx ly lz press pxx pyy pzz c_eatoms
min_style cg
minimize 1e-25 1e-25 500000 1000000
Switching to 'neigh_modify every 1 delay 0 check yes' setting during minimization
Generated 0 of 3 mixed pair_coeff terms from geometric mixing rule
Per MPI rank memory allocation (min/avg/max) = 9.275 | 9.275 | 9.275 Mbytes
   Step         PotEng           Lx             Ly             Lz           Press           Pxx            Pyy            Pzz          c_eatoms   
         0   87.470589      158.5          158.5          158.5         -2.6326008     -2.2998223     -2.9757459     -2.6222342      87.470589    
        20   11.101917      158.5          158.5          158.5          1.5948428      1.3900456      1.7688407      1.6256421      11.101917    
        40   7.5119087      158.5          158.5          158.5          1.6022836      1.6127063      1.6301127      1.5640318      7.5119087    
        60   6.0403854      158.5          158.5          158.5          1.5949161      1.6783961      1.5875112      1.5188411      6.0403854    
        80   5.3215153      158.5          158.5          158.5          1.5855421      1.5048214      1.694935       1.5568698      5.3215153    
       100   4.8347375      158.5          158.5          158.5          1.5369493      1.5021716      1.631443       1.4772332      4.8347375    
       120   4.5063251      158.5          158.5          158.5          1.4841513      1.4958593      1.5576663      1.3989283      4.5063251    
       140   4.0523951      158.5          158.5          158.5          1.2908167      1.229085       1.395692       1.247673       4.0523951    
       160   3.7425522      158.5          158.5          158.5          1.0862475      1.0851452      1.1136893      1.0599079      3.7425522    
       180   3.482068       158.5          158.5          158.5          1.1029615      1.055547       1.2213355      1.0320019      3.482068     
       200   3.2921654      158.5          158.5          158.5          1.0967679      1.0530063      1.1764105      1.0608868      3.2921654    
       220   3.1357739      158.5          158.5          158.5          1.2355639      1.1967405      1.3247698      1.1851814      3.1357739    
       240   3.012744       158.5          158.5          158.5          1.2300615      1.2117693      1.2924743      1.185941       3.012744     
       260   2.9392022      158.5          158.5          158.5          1.2360921      1.2696696      1.2675845      1.1710223      2.9392022    
       280   2.8717561      158.5          158.5          158.5          1.1532299      1.180026       1.2033039      1.0763599      2.8717561    
       300   2.8227969      158.5          158.5          158.5          1.097395       1.0824499      1.1735139      1.0362211      2.8227969    
       320   2.800196       158.5          158.5          158.5          1.150469       1.1270986      1.2516046      1.0727039      2.800196     
       340   2.764801       158.5          158.5          158.5          1.1785816      1.1677749      1.2368518      1.1311181      2.764801     
       360   2.7284005      158.5          158.5          158.5          1.1699603      1.1616382      1.2301297      1.1181131      2.7284005    
       380   2.6648022      158.5          158.5          158.5          1.1147518      1.1667832      1.1235074      1.0539647      2.6648022    
       400   2.6038816      158.5          158.5          158.5          1.0822743      1.0806982      1.1393475      1.0267772      2.6038816    
       420   2.54206        158.5          158.5          158.5          1.1125085      1.0904562      1.1872838      1.0597857      2.54206      
       440   2.4808062      158.5          158.5          158.5          1.1493419      1.1194699      1.2301212      1.0984347      2.4808062    
       460   2.4142941      158.5          158.5          158.5          1.1640059      1.136651       1.2614766      1.0938901      2.4142941    
       480   2.3517604      158.5          158.5          158.5          1.0806541      1.0760716      1.1457283      1.0201623      2.3517604    
       500   2.3046449      158.5          158.5          158.5          1.0407437      1.0173239      1.1119532      0.99295386     2.3046449    
       520   2.2689836      158.5          158.5          158.5          1.0104306      0.98846294     1.1010191      0.94180968     2.2689836    
       540   2.2402995      158.5          158.5          158.5          0.97865803     0.9601507      1.0587492      0.91707417     2.2402995    
       560   2.2154494      158.5          158.5          158.5          0.98192728     0.96530935     1.0506849      0.9297876      2.2154494    
       580   2.2042907      158.5          158.5          158.5          1.0064439      0.99094804     1.0834487      0.94493493     2.2042907    
       600   2.1849903      158.5          158.5          158.5          1.0692424      1.0458031      1.1507385      1.0111857      2.1849903    
       620   2.1788045      158.5          158.5          158.5          1.0547896      1.0372549      1.1226585      1.0044554      2.1788045    
       640   2.1722385      158.5          158.5          158.5          1.0256255      1.0089991      1.0935735      0.97430371     2.1722385    
       660   2.1620912      158.5          158.5          158.5          1.0301863      1.0170341      1.1053988      0.96812598     2.1620912    
       680   2.1474785      158.5          158.5          158.5          1.0582886      1.043969       1.1334092      0.99748767     2.1474785    
       700   2.1141775      158.5          158.5          158.5          1.0822375      1.0272007      1.1934095      1.0261024      2.1141775    
       720   2.0794954      158.5          158.5          158.5          1.0928376      1.0741262      1.1800933      1.0242933      2.0794954    
       740   2.0612327      158.5          158.5          158.5          1.0699255      1.060344       1.1380058      1.0114268      2.0612327    
       760   2.0502014      158.5          158.5          158.5          1.0583246      1.0450623      1.1237308      1.0061806      2.0502014    
       780   2.0375864      158.5          158.5          158.5          1.0549021      1.0317756      1.1384294      0.99450128     2.0375864    
       800   2.0165139      158.5          158.5          158.5          1.042103       1.0163903      1.1387353      0.97118336     2.0165139    
       820   2.0017304      158.5          158.5          158.5          1.0544967      1.0319895      1.1312566      1.0002441      2.0017304    
       840   1.9935874      158.5          158.5          158.5          1.0631191      1.0444702      1.1339283      1.0109587      1.9935874    
       860   1.9872068      158.5          158.5          158.5          1.0678341      1.0565321      1.1325167      1.0144536      1.9872068    
       880   1.9824991      158.5          158.5          158.5          1.0479526      1.0312522      1.1159194      0.99668617     1.9824991    
       900   1.9792222      158.5          158.5          158.5          1.031144       1.0192035      1.0958783      0.97835032     1.9792222    
       920   1.9785219      158.5          158.5          158.5          1.0305795      1.0188869      1.0968967      0.97595481     1.9785219    
       940   1.976927       158.5          158.5          158.5          1.0380707      1.0214801      1.1063182      0.98641384     1.976927     
       960   1.9751581      158.5          158.5          158.5          1.0365622      1.0218958      1.1037382      0.98405251     1.9751581    
       980   1.9737576      158.5          158.5          158.5          1.0353233      1.0204056      1.1018427      0.98372143     1.9737576    
      1000   1.9725735      158.5          158.5          158.5          1.03659        1.0266856      1.0996564      0.98342804     1.9725735    
      1020   1.9707381      158.5          158.5          158.5          1.036105       1.0272974      1.0993138      0.98170369     1.9707381    
      1040   1.9666783      158.5          158.5          158.5          1.0417356      1.0388939      1.1008851      0.9854277      1.9666783    
      1060   1.9627493      158.5          158.5          158.5          1.0381327      1.0297278      1.1017266      0.98294376     1.9627493    
      1080   1.96149        158.5          158.5          158.5          1.0373932      1.0294528      1.0994292      0.98329763     1.96149      
      1100   1.9606914      158.5          158.5          158.5          1.0398905      1.0310773      1.1021424      0.98645181     1.9606914    
      1120   1.9591453      158.5          158.5          158.5          1.0428395      1.0321262      1.1058048      0.99058752     1.9591453    
      1140   1.9581037      158.5          158.5          158.5          1.0458119      1.0312384      1.1130299      0.99316731     1.9581037    
      1160   1.957235       158.5          158.5          158.5          1.0419933      1.0323136      1.1046597      0.98900654     1.957235     
      1180   1.9565631      158.5          158.5          158.5          1.0384609      1.0279755      1.1026469      0.98476033     1.9565631    
      1200   1.9561159      158.5          158.5          158.5          1.0359359      1.0238383      1.1020184      0.98195095     1.9561159    
      1220   1.9558519      158.5          158.5          158.5          1.032551       1.0203284      1.0984324      0.97889226     1.9558519    
      1240   1.9549155      158.5          158.5          158.5          1.0337008      1.0207571      1.1004367      0.97990862     1.9549155    
      1260   1.9505795      158.5          158.5          158.5          1.0200547      1.0000277      1.0955257      0.96461078     1.9505795    
      1280   1.9492612      158.5          158.5          158.5          1.0263209      1.0133238      1.09381        0.97182878     1.9492612    
      1300   1.9482683      158.5          158.5          158.5          1.034994       1.024653       1.1008332      0.97949582     1.9482683    
      1320   1.9478138      158.5          158.5          158.5          1.0364401      1.0248109      1.1032109      0.98129842     1.9478138    
      1340   1.9469662      158.5          158.5          158.5          1.0336095      1.0215681      1.0987887      0.98047165     1.9469662    
      1360   1.9456749      158.5          158.5          158.5          1.020142       1.0067417      1.0848188      0.96886554     1.9456749    
      1380   1.9441975      158.5          158.5          158.5          1.0205568      1.00859        1.0837629      0.96931749     1.9441975    
      1400   1.9424616      158.5          158.5          158.5          1.0364979      1.0237426      1.1041285      0.98162258     1.9424616    
      1420   1.9390517      158.5          158.5          158.5          1.0490086      1.0354776      1.115369       0.99617919     1.9390517    
      1440   1.9368196      158.5          158.5          158.5          1.0530781      1.0437654      1.1164505      0.99901838     1.9368196    
      1460   1.9350999      158.5          158.5          158.5          1.0448689      1.0317666      1.1131692      0.98967087     1.9350999    
      1480   1.9333899      158.5          158.5          158.5          1.035442       1.0253537      1.0977068      0.98326541     1.9333899    
      1500   1.932245       158.5          158.5          158.5          1.0304069      1.0185168      1.0950631      0.97764089     1.932245     
      1520   1.931972       158.5          158.5          158.5          1.0306991      1.0189763      1.0951618      0.97795906     1.931972     
      1540   1.9317297      158.5          158.5          158.5          1.0333754      1.0217069      1.0984581      0.97996103     1.9317297    
      1560   1.9316009      158.5          158.5          158.5          1.0340465      1.0215419      1.1001199      0.98047762     1.9316009    
      1580   1.9313599      158.5          158.5          158.5          1.0355583      1.0249879      1.1004713      0.9812159      1.9313599    
      1600   1.9309637      158.5          158.5          158.5          1.0312094      1.0195039      1.0970882      0.97703603     1.9309637    
      1620   1.9306587      158.5          158.5          158.5          1.032654       1.0212379      1.0970369      0.97968725     1.9306587    
      1640   1.9304116      158.5          158.5          158.5          1.0324614      1.0211122      1.0974353      0.9788366      1.9304116    
      1660   1.9300931      158.5          158.5          158.5          1.030113       1.0179355      1.0955431      0.97686047     1.9300931    
      1680   1.9297219      158.5          158.5          158.5          1.03322        1.0212509      1.0984456      0.97996342     1.9297219    
      1700   1.9290179      158.5          158.5          158.5          1.0261571      1.0134114      1.0937991      0.97126081     1.9290179    
      1720   1.9281592      158.5          158.5          158.5          1.0200128      1.0100145      1.0840218      0.96600208     1.9281592    
      1740   1.9272563      158.5          158.5          158.5          1.0250053      1.0171074      1.088158       0.96975037     1.9272563    
      1760   1.9258127      158.5          158.5          158.5          1.0115672      1.0006585      1.0781637      0.95587951     1.9258127    
      1780   1.9247365      158.5          158.5          158.5          1.0083964      0.99664559     1.0741699      0.95437363     1.9247365    
      1800   1.9239431      158.5          158.5          158.5          1.0082378      0.99726485     1.0721712      0.95527741     1.9239431    
      1820   1.9236908      158.5          158.5          158.5          1.0112268      1.0004169      1.0747558      0.95850767     1.9236908    
      1840   1.9234738      158.5          158.5          158.5          1.0150234      1.0035666      1.079839       0.96166453     1.9234738    
      1860   1.9233853      158.5          158.5          158.5          1.0180732      1.0076607      1.0823727      0.96418634     1.9233853    
      1880   1.923121       158.5          158.5          158.5          1.0243961      1.01308        1.0894436      0.97066471     1.923121     
      1900   1.9229454      158.5          158.5          158.5          1.0284822      1.0173723      1.0933135      0.97476074     1.9229454    
      1920   1.9226658      158.5          158.5          158.5          1.0344599      1.0228959      1.0993961      0.98108759     1.9226658    
      1940   1.9225915      158.5          158.5          158.5          1.0353351      1.0232189      1.1004585      0.982328       1.9225915    
      1960   1.9223987      158.5          158.5          158.5          1.0376731      1.028829       1.0992987      0.98489169     1.9223987    
      1980   1.922097       158.5          158.5          158.5          1.0367812      1.0254046      1.1014276      0.98351134     1.922097     
      2000   1.9219704      158.5          158.5          158.5          1.0371389      1.0255735      1.1021815      0.98366176     1.9219704    
      2020   1.9218905      158.5          158.5          158.5          1.0359686      1.0241377      1.1012352      0.98253298     1.9218905    
      2040   1.9217705      158.5          158.5          158.5          1.0348047      1.02352        1.0994407      0.98145336     1.9217705    
      2060   1.9217009      158.5          158.5          158.5          1.0336204      1.0219614      1.0988641      0.98003582     1.9217009    
      2080   1.9215984      158.5          158.5          158.5          1.032579       1.0210531      1.0978948      0.97878912     1.9215984    
      2100   1.9215181      158.5          158.5          158.5          1.031165       1.0195405      1.0961982      0.97775633     1.9215181    
      2120   1.9214885      158.5          158.5          158.5          1.0305348      1.0190457      1.0954468      0.97711176     1.9214885    
      2140   1.9214471      158.5          158.5          158.5          1.0300191      1.0182074      1.0950989      0.97675094     1.9214471    
      2160   1.9213508      158.5          158.5          158.5          1.0307151      1.0199545      1.0944604      0.97773027     1.9213508    
      2180   1.9211374      158.5          158.5          158.5          1.0316043      1.0199919      1.0965324      0.97828869     1.9211374    
      2200   1.9209751      158.5          158.5          158.5          1.0337294      1.0219523      1.0986425      0.98059353     1.9209751    
      2220   1.9206353      158.5          158.5          158.5          1.0377375      1.0270542      1.1011868      0.98497145     1.9206353    
      2240   1.9201799      158.5          158.5          158.5          1.0430652      1.0307456      1.1082199      0.99023002     1.9201799    
      2260   1.9196329      158.5          158.5          158.5          1.0423122      1.032784       1.1053015      0.98885112     1.9196329    
      2280   1.9189473      158.5          158.5          158.5          1.0391488      1.0286027      1.1025003      0.98634343     1.9189473    
      2300   1.9185634      158.5          158.5          158.5          1.0333023      1.0197354      1.0995553      0.98061635     1.9185634    
      2320   1.918179       158.5          158.5          158.5          1.0263365      1.0146582      1.0911871      0.97316418     1.918179     
      2340   1.9179239      158.5          158.5          158.5          1.021269       1.0096338      1.0858008      0.96837243     1.9179239    
      2360   1.9177063      158.5          158.5          158.5          1.0214108      1.0085498      1.0885065      0.96717627     1.9177063    
      2380   1.9175474      158.5          158.5          158.5          1.0219838      1.0104763      1.087938       0.96753702     1.9175474    
      2400   1.9173761      158.5          158.5          158.5          1.0231166      1.0124222      1.0876133      0.96931443     1.9173761    
      2420   1.9172968      158.5          158.5          158.5          1.023857       1.0129661      1.0878292      0.97077553     1.9172968    
      2440   1.917219       158.5          158.5          158.5          1.0254462      1.0140738      1.090828       0.97143663     1.917219     
      2460   1.9171118      158.5          158.5          158.5          1.0286288      1.0170707      1.0932084      0.9756075      1.9171118    
      2480   1.9170654      158.5          158.5          158.5          1.029267       1.017351       1.0943823      0.97606758     1.9170654    
      2500   1.9170185      158.5          158.5          158.5          1.0299126      1.0189073      1.0944612      0.97636926     1.9170185    
      2520   1.9169501      158.5          158.5          158.5          1.0298879      1.0183205      1.094921       0.97642236     1.9169501    
      2540   1.9167188      158.5          158.5          158.5          1.0270644      1.0162168      1.0915405      0.97343603     1.9167188    
      2560   1.9165664      158.5          158.5          158.5          1.0271014      1.0155534      1.0924455      0.9733053      1.9165664    
      2580   1.9163836      158.5          158.5          158.5          1.0290802      1.0169118      1.0947628      0.97556611     1.9163836    
      2600   1.9162535      158.5          158.5          158.5          1.031401       1.0199155      1.0961765      0.97811114     1.9162535    
      2620   1.9162053      158.5          158.5          158.5          1.0319118      1.0203333      1.0967392      0.9786629      1.9162053    
      2640   1.9161691      158.5          158.5          158.5          1.032059       1.0211469      1.0962381      0.97879192     1.9161691    
      2660   1.9161485      158.5          158.5          158.5          1.0326322      1.0215394      1.0970522      0.97930504     1.9161485    
      2680   1.9161223      158.5          158.5          158.5          1.0324198      1.0209337      1.0974194      0.97890624     1.9161223    
      2700   1.9160674      158.5          158.5          158.5          1.0305629      1.0190903      1.0954744      0.97712414     1.9160674    
      2720   1.9160487      158.5          158.5          158.5          1.0306066      1.0192344      1.0954061      0.97717935     1.9160487    
      2740   1.9160358      158.5          158.5          158.5          1.0310714      1.0196772      1.0957315      0.97780542     1.9160358    
      2760   1.9160114      158.5          158.5          158.5          1.0309984      1.020194       1.0948316      0.97796963     1.9160114    
      2780   1.9159839      158.5          158.5          158.5          1.0311784      1.0196284      1.0963442      0.9775626      1.9159839    
      2800   1.9159514      158.5          158.5          158.5          1.031405       1.019992       1.0961018      0.97812104     1.9159514    
      2820   1.9159133      158.5          158.5          158.5          1.030551       1.0191926      1.0949739      0.97748654     1.9159133    
      2840   1.9158621      158.5          158.5          158.5          1.0305192      1.0184882      1.0957382      0.9773313      1.9158621    
      2860   1.9158201      158.5          158.5          158.5          1.0302695      1.0187072      1.0947503      0.97735095     1.9158201    
      2880   1.9157307      158.5          158.5          158.5          1.0320715      1.02126        1.0962837      0.97867064     1.9157307    
      2900   1.9155921      158.5          158.5          158.5          1.0351686      1.0237022      1.1006838      0.98111976     1.9155921    
      2920   1.9153255      158.5          158.5          158.5          1.0351746      1.0202683      1.1045935      0.98066189     1.9153255    
      2940   1.9148903      158.5          158.5          158.5          1.0339186      1.0271215      1.0940902      0.98054403     1.9148903    
      2960   1.9144591      158.5          158.5          158.5          1.0289962      1.0160021      1.0970602      0.97392623     1.9144591    
      2980   1.9142267      158.5          158.5          158.5          1.025677       1.0155117      1.0892171      0.97230232     1.9142267    
      3000   1.9140819      158.5          158.5          158.5          1.0246062      1.0127498      1.0902874      0.97078129     1.9140819    
      3020   1.9140154      158.5          158.5          158.5          1.0247108      1.0131136      1.0900571      0.97096164     1.9140154    
      3040   1.9139618      158.5          158.5          158.5          1.0251881      1.0128249      1.0911252      0.97161422     1.9139618    
      3060   1.9138418      158.5          158.5          158.5          1.0281275      1.0178058      1.0923176      0.97425907     1.9138418    
      3080   1.9138058      158.5          158.5          158.5          1.0281629      1.01714        1.092611       0.97473785     1.9138058    
      3100   1.9137212      158.5          158.5          158.5          1.0301721      1.0187293      1.0946308      0.9771561      1.9137212    
      3120   1.9136328      158.5          158.5          158.5          1.0302431      1.018612       1.0951435      0.97697385     1.9136328    
      3140   1.9135673      158.5          158.5          158.5          1.0317181      1.0195331      1.097704       0.97791728     1.9135673    
      3160   1.9134901      158.5          158.5          158.5          1.0317431      1.0219736      1.0940025      0.97925314     1.9134901    
      3180   1.9134515      158.5          158.5          158.5          1.032233       1.0204238      1.0977207      0.97855447     1.9134515    
      3200   1.9134227      158.5          158.5          158.5          1.0320597      1.0217015      1.0955228      0.97895468     1.9134227    
      3220   1.9133828      158.5          158.5          158.5          1.030676       1.0180667      1.0966632      0.97729817     1.9133828    
      3240   1.9133129      158.5          158.5          158.5          1.0294535      1.0185718      1.0939557      0.97583306     1.9133129    
      3260   1.9132768      158.5          158.5          158.5          1.0290471      1.0174184      1.0942945      0.97542832     1.9132768    
      3280   1.9132474      158.5          158.5          158.5          1.0293714      1.0175084      1.0948997      0.97570613     1.9132474    
      3300   1.9132099      158.5          158.5          158.5          1.030744       1.0192954      1.0954991      0.97743757     1.9132099    
      3320   1.9131967      158.5          158.5          158.5          1.0309996      1.0195445      1.0958968      0.97755764     1.9131967    
      3340   1.9131859      158.5          158.5          158.5          1.0302443      1.0190459      1.0949198      0.97676716     1.9131859    
      3360   1.91317        158.5          158.5          158.5          1.0286632      1.0180277      1.0923838      0.97557806     1.91317      
      3380   1.913118       158.5          158.5          158.5          1.0274795      1.0162624      1.091415       0.97476121     1.913118     
      3400   1.9130587      158.5          158.5          158.5          1.0290391      1.0176173      1.0940001      0.97549988     1.9130587    
      3420   1.9129968      158.5          158.5          158.5          1.0326271      1.0214013      1.0972773      0.97920274     1.9129968    
      3440   1.9129756      158.5          158.5          158.5          1.0321867      1.0206178      1.0973171      0.97862529     1.9129756    
      3460   1.9129463      158.5          158.5          158.5          1.0313465      1.0197449      1.0961445      0.97815019     1.9129463    
      3480   1.9129273      158.5          158.5          158.5          1.0311338      1.0197757      1.0959417      0.97768391     1.9129273    
      3500   1.9128932      158.5          158.5          158.5          1.0311851      1.0195251      1.0962401      0.97779002     1.9128932    
      3520   1.9128441      158.5          158.5          158.5          1.0313959      1.0195681      1.0973179      0.97730169     1.9128441    
      3540   1.912803       158.5          158.5          158.5          1.028676       1.0176156      1.093355       0.97505734     1.912803     
      3560   1.912769       158.5          158.5          158.5          1.0278309      1.0165462      1.0927121      0.97423429     1.912769     
      3580   1.9127361      158.5          158.5          158.5          1.0273087      1.0155639      1.0921594      0.97420302     1.9127361    
      3600   1.9126928      158.5          158.5          158.5          1.0290565      1.017754       1.0936291      0.97578619     1.9126928    
      3620   1.9126766      158.5          158.5          158.5          1.0289463      1.0176688      1.0935578      0.97561234     1.9126766    
      3640   1.9126717      158.5          158.5          158.5          1.0293856      1.0181709      1.093923       0.97606285     1.9126717    
      3660   1.9126654      158.5          158.5          158.5          1.0309108      1.0190836      1.0962191      0.97742956     1.9126654    
      3680   1.912657       158.5          158.5          158.5          1.0326283      1.021218       1.0975357      0.97913107     1.912657     
      3700   1.9126398      158.5          158.5          158.5          1.0341944      1.022255       1.0997113      0.98061688     1.9126398    
      3720   1.9126249      158.5          158.5          158.5          1.0341693      1.0229213      1.0988105      0.9807762      1.9126249    
      3740   1.912605       158.5          158.5          158.5          1.0340223      1.0223436      1.0989252      0.9807982      1.912605     
      3760   1.9125654      158.5          158.5          158.5          1.0347443      1.0222686      1.1000454      0.98191893     1.9125654    
      3780   1.9124732      158.5          158.5          158.5          1.0353922      1.0232084      1.1008615      0.98210666     1.9124732    
      3800   1.9123824      158.5          158.5          158.5          1.036614       1.0235833      1.1036339      0.98262485     1.9123824    
      3820   1.912216       158.5          158.5          158.5          1.0333793      1.020188       1.1004812      0.97946878     1.912216     
      3840   1.9121155      158.5          158.5          158.5          1.032154       1.0203178      1.0975018      0.97864233     1.9121155    
      3860   1.9120243      158.5          158.5          158.5          1.0321103      1.0203211      1.0975768      0.97843317     1.9120243    
      3880   1.911958       158.5          158.5          158.5          1.0303969      1.0190135      1.09527        0.97690717     1.911958     
      3900   1.9118962      158.5          158.5          158.5          1.0287856      1.0173886      1.0937396      0.97522861     1.9118962    
      3920   1.9118611      158.5          158.5          158.5          1.0291279      1.0176979      1.0938786      0.97580737     1.9118611    
      3940   1.9118342      158.5          158.5          158.5          1.0291688      1.0178156      1.0936865      0.97600437     1.9118342    
      3960   1.9118017      158.5          158.5          158.5          1.0300982      1.0186956      1.0949373      0.9766619      1.9118017    
      3980   1.9117695      158.5          158.5          158.5          1.0302668      1.0186119      1.0955426      0.976646       1.9117695    
      4000   1.9117371      158.5          158.5          158.5          1.0306414      1.0191832      1.0954197      0.97732111     1.9117371    
      4020   1.9117222      158.5          158.5          158.5          1.0302244      1.0185973      1.0950388      0.97703709     1.9117222    
      4040   1.911702       158.5          158.5          158.5          1.0310329      1.019085       1.0965992      0.97741455     1.911702     
      4060   1.9116769      158.5          158.5          158.5          1.0308088      1.0190275      1.0962797      0.97711931     1.9116769    
      4080   1.9116534      158.5          158.5          158.5          1.0306315      1.0195906      1.0949216      0.97738218     1.9116534    
      4100   1.9116168      158.5          158.5          158.5          1.0299558      1.0183655      1.0949526      0.97654942     1.9116168    
      4120   1.911591       158.5          158.5          158.5          1.030353       1.0192711      1.0949379      0.97684991     1.911591     
      4140   1.9115811      158.5          158.5          158.5          1.0303778      1.0192142      1.0947248      0.97719443     1.9115811    
      4160   1.9115713      158.5          158.5          158.5          1.0300924      1.0188154      1.0947598      0.97670211     1.9115713    
      4180   1.9115646      158.5          158.5          158.5          1.0303947      1.0192389      1.0949422      0.97700306     1.9115646    
      4200   1.9115533      158.5          158.5          158.5          1.0310342      1.0195655      1.0958983      0.97763871     1.9115533    
      4220   1.91155        158.5          158.5          158.5          1.0308565      1.0193324      1.095789       0.97744809     1.91155      
      4240   1.9115463      158.5          158.5          158.5          1.0304738      1.0190792      1.095178       0.97716432     1.9115463    
      4260   1.9115411      158.5          158.5          158.5          1.030498       1.0191901      1.0951887      0.97711518     1.9115411    
      4280   1.911534       158.5          158.5          158.5          1.0307675      1.0196604      1.0952069      0.97743506     1.911534     
      4300   1.9115157      158.5          158.5          158.5          1.0308127      1.0194264      1.0956118      0.97739998     1.9115157    
      4320   1.9114878      158.5          158.5          158.5          1.0303761      1.0189383      1.0952324      0.97695754     1.9114878    
      4340   1.9114572      158.5          158.5          158.5          1.0307307      1.0197446      1.095087       0.97736045     1.9114572    
      4360   1.911432       158.5          158.5          158.5          1.0307256      1.0190979      1.0954142      0.97766481     1.911432     
      4380   1.9114137      158.5          158.5          158.5          1.0309041      1.0193764      1.0959733      0.97736251     1.9114137    
      4400   1.9114065      158.5          158.5          158.5          1.0309399      1.0196252      1.0955266      0.97766793     1.9114065    
      4420   1.9113914      158.5          158.5          158.5          1.0309791      1.0194269      1.095925       0.97758538     1.9113914    
      4440   1.9113737      158.5          158.5          158.5          1.0307482      1.0192846      1.0955086      0.97745142     1.9113737    
      4460   1.9113626      158.5          158.5          158.5          1.0314031      1.0197097      1.096492       0.97800745     1.9113626    
      4480   1.9113402      158.5          158.5          158.5          1.0323081      1.0200977      1.0981214      0.97870519     1.9113402    
      4500   1.9112943      158.5          158.5          158.5          1.0325761      1.0211088      1.0978378      0.97878167     1.9112943    
      4520   1.9112747      158.5          158.5          158.5          1.0319587      1.0204605      1.0969705      0.97844507     1.9112747    
      4540   1.9112618      158.5          158.5          158.5          1.0311788      1.0197049      1.0959989      0.97783267     1.9112618    
      4560   1.9112531      158.5          158.5          158.5          1.0307645      1.0193688      1.0955034      0.97742122     1.9112531    
      4580   1.9112449      158.5          158.5          158.5          1.0312968      1.019849       1.0961043      0.97793728     1.9112449    
      4600   1.9112317      158.5          158.5          158.5          1.030827       1.0192763      1.0957098      0.97749489     1.9112317    
      4620   1.9112153      158.5          158.5          158.5          1.0303546      1.0187748      1.0953065      0.97698243     1.9112153    
      4640   1.9111965      158.5          158.5          158.5          1.029656       1.0181267      1.0945218      0.97631956     1.9111965    
      4660   1.9111787      158.5          158.5          158.5          1.0299212      1.0185726      1.0948777      0.9763133      1.9111787    
      4680   1.911171       158.5          158.5          158.5          1.0299242      1.0185817      1.0947257      0.97646534     1.911171     
      4700   1.9111616      158.5          158.5          158.5          1.0303443      1.0189482      1.0952961      0.97678858     1.9111616    
      4720   1.9111539      158.5          158.5          158.5          1.0305367      1.019363       1.0950681      0.97717894     1.9111539    
      4740   1.9111469      158.5          158.5          158.5          1.0307749      1.0194235      1.0953649      0.9775363      1.9111469    
      4760   1.9111405      158.5          158.5          158.5          1.0315179      1.0203338      1.0960558      0.97816403     1.9111405    
      4780   1.9111345      158.5          158.5          158.5          1.0313986      1.020027       1.0961372      0.97803145     1.9111345    
      4800   1.9111203      158.5          158.5          158.5          1.0304186      1.0191212      1.0948985      0.97723611     1.9111203    
      4820   1.9111144      158.5          158.5          158.5          1.0308465      1.0193286      1.0957966      0.97741415     1.9111144    
      4840   1.9111113      158.5          158.5          158.5          1.0311956      1.0198296      1.0959586      0.97779869     1.9111113    
      4860   1.9111089      158.5          158.5          158.5          1.0309199      1.0197351      1.095518       0.97750661     1.9111089    
      4880   1.911105       158.5          158.5          158.5          1.0303419      1.0190425      1.0949771      0.97700601     1.911105     
      4900   1.9111         158.5          158.5          158.5          1.0304479      1.0192238      1.0950715      0.97704837     1.9111       
      4920   1.9110929      158.5          158.5          158.5          1.0300757      1.0188013      1.0948399      0.97658591     1.9110929    
      4940   1.9110855      158.5          158.5          158.5          1.0297265      1.0182932      1.0944485      0.97643764     1.9110855    
      4960   1.9110583      158.5          158.5          158.5          1.0301427      1.0185907      1.0951531      0.97668434     1.9110583    
      4980   1.9110107      158.5          158.5          158.5          1.0305713      1.0188182      1.0954541      0.97744165     1.9110107    
      5000   1.9109564      158.5          158.5          158.5          1.0317396      1.0206049      1.0963236      0.97829034     1.9109564    
      5020   1.9109009      158.5          158.5          158.5          1.0328281      1.0213468      1.0981753      0.97896217     1.9109009    
      5040   1.9108406      158.5          158.5          158.5          1.0315682      1.0205663      1.0962258      0.97791236     1.9108406    
      5060   1.910798       158.5          158.5          158.5          1.0313591      1.0203717      1.0951486      0.978557       1.910798     
      5080   1.91077        158.5          158.5          158.5          1.0311106      1.0199564      1.0955072      0.97786831     1.91077      
      5100   1.9107124      158.5          158.5          158.5          1.0316494      1.0200609      1.0965503      0.978337       1.9107124    
      5120   1.9106977      158.5          158.5          158.5          1.0314827      1.0202262      1.0964036      0.9778184      1.9106977    
      5140   1.9106832      158.5          158.5          158.5          1.0305584      1.0195443      1.0947027      0.97742816     1.9106832    
      5160   1.9106678      158.5          158.5          158.5          1.0309746      1.0195467      1.0957653      0.97761184     1.9106678    
      5180   1.9106554      158.5          158.5          158.5          1.0320072      1.020956       1.0965555      0.9785102      1.9106554    
      5200   1.9106271      158.5          158.5          158.5          1.032342       1.0208507      1.0974236      0.97875172     1.9106271    
      5220   1.9105966      158.5          158.5          158.5          1.0314467      1.0202828      1.0960536      0.97800373     1.9105966    
      5240   1.9105704      158.5          158.5          158.5          1.0309248      1.0198408      1.0954879      0.97744563     1.9105704    
      5260   1.910562       158.5          158.5          158.5          1.0312667      1.0199818      1.0959622      0.97785589     1.910562     
      5280   1.9105544      158.5          158.5          158.5          1.0312077      1.0198501      1.0959911      0.97778182     1.9105544    
      5300   1.9105407      158.5          158.5          158.5          1.0317588      1.0204988      1.0962995      0.97847821     1.9105407    
      5320   1.9105239      158.5          158.5          158.5          1.0311577      1.0199713      1.0955225      0.97797922     1.9105239    
      5340   1.9105153      158.5          158.5          158.5          1.0312534      1.0200898      1.0955287      0.97814155     1.9105153    
      5360   1.910509       158.5          158.5          158.5          1.0313886      1.0202658      1.0957331      0.97816677     1.910509     
      5380   1.9105038      158.5          158.5          158.5          1.0309381      1.0197251      1.0954545      0.97763483     1.9105038    
      5400   1.9105002      158.5          158.5          158.5          1.0307442      1.0193358      1.0955815      0.97731536     1.9105002    
      5420   1.9104986      158.5          158.5          158.5          1.0306766      1.019245       1.0955498      0.97723485     1.9104986    
      5440   1.910497       158.5          158.5          158.5          1.0308691      1.01955        1.0955647      0.97749253     1.910497     
      5460   1.910495       158.5          158.5          158.5          1.0308798      1.0195912      1.0954463      0.97760192     1.910495     
      5480   1.9104914      158.5          158.5          158.5          1.0306761      1.0194696      1.0951843      0.97737444     1.9104914    
      5500   1.9104848      158.5          158.5          158.5          1.0307796      1.0194658      1.0953537      0.97751923     1.9104848    
      5520   1.9104776      158.5          158.5          158.5          1.0304377      1.019161       1.0952416      0.97691044     1.9104776    
      5540   1.9104678      158.5          158.5          158.5          1.0303423      1.019188       1.0952705      0.97656828     1.9104678    
      5560   1.9104348      158.5          158.5          158.5          1.0293032      1.0182772      1.0938101      0.97582222     1.9104348    
      5580   1.9103985      158.5          158.5          158.5          1.0313771      1.0203843      1.095405       0.97834206     1.9103985    
      5600   1.9103654      158.5          158.5          158.5          1.0326986      1.0217924      1.0971896      0.97911374     1.9103654    
      5620   1.910336       158.5          158.5          158.5          1.0332448      1.0220865      1.0976483      0.97999973     1.910336     
      5640   1.9103168      158.5          158.5          158.5          1.0321795      1.0209488      1.0969634      0.97862623     1.9103168    
      5660   1.9103046      158.5          158.5          158.5          1.0312881      1.0201511      1.0956515      0.97806185     1.9103046    
      5680   1.9102882      158.5          158.5          158.5          1.0315582      1.0203947      1.0959012      0.97837868     1.9102882    
      5700   1.9102695      158.5          158.5          158.5          1.0312979      1.0202643      1.09564        0.97798939     1.9102695    
      5720   1.9102521      158.5          158.5          158.5          1.0306686      1.019179       1.095564       0.9772627      1.9102521    
      5740   1.9102399      158.5          158.5          158.5          1.0301089      1.0187818      1.0947573      0.97678763     1.9102399    
      5760   1.9102327      158.5          158.5          158.5          1.0305127      1.0191222      1.0952159      0.97719988     1.9102327    
      5780   1.9102252      158.5          158.5          158.5          1.0309185      1.0194601      1.0960142      0.97728121     1.9102252    
      5800   1.9102179      158.5          158.5          158.5          1.0301293      1.0188173      1.094752       0.97681848     1.9102179    
      5820   1.9102113      158.5          158.5          158.5          1.029705       1.0184609      1.0943905      0.97626367     1.9102113    
      5840   1.9102057      158.5          158.5          158.5          1.0301611      1.0187794      1.0950373      0.97666656     1.9102057    
      5860   1.9101993      158.5          158.5          158.5          1.0306539      1.0196547      1.0950195      0.97728734     1.9101993    
      5880   1.9101904      158.5          158.5          158.5          1.030916       1.0197466      1.0954976      0.97750375     1.9101904    
      5900   1.9101806      158.5          158.5          158.5          1.0303982      1.0193474      1.0947819      0.97706513     1.9101806    
      5920   1.9101761      158.5          158.5          158.5          1.0306691      1.0193819      1.0952247      0.97740064     1.9101761    
      5940   1.9101726      158.5          158.5          158.5          1.030833       1.0197532      1.0951879      0.97755777     1.9101726    
      5960   1.9101693      158.5          158.5          158.5          1.0310248      1.0197643      1.0956807      0.97762934     1.9101693    
      5980   1.9101663      158.5          158.5          158.5          1.030437       1.0190798      1.0951539      0.97707723     1.9101663    
      6000   1.9101637      158.5          158.5          158.5          1.0301589      1.0187881      1.0949388      0.97674973     1.9101637    
      6020   1.9101613      158.5          158.5          158.5          1.0305835      1.0192393      1.0953888      0.97712246     1.9101613    
      6040   1.9101595      158.5          158.5          158.5          1.0307165      1.0193109      1.0956428      0.97719567     1.9101595    
      6060   1.910158       158.5          158.5          158.5          1.0305034      1.0191349      1.0953698      0.97700536     1.910158     
      6080   1.9101561      158.5          158.5          158.5          1.0303441      1.01887        1.0951921      0.97697024     1.9101561    
      6100   1.910148       158.5          158.5          158.5          1.0306215      1.0193312      1.095371       0.9771623      1.910148     
      6120   1.9101408      158.5          158.5          158.5          1.030965       1.0196055      1.0957638      0.97752583     1.9101408    
      6140   1.9101362      158.5          158.5          158.5          1.0306652      1.0193419      1.0954027      0.97725087     1.9101362    
      6160   1.9101339      158.5          158.5          158.5          1.0305269      1.0190948      1.095418       0.97706811     1.9101339    
      6180   1.9101306      158.5          158.5          158.5          1.0303156      1.0189696      1.0950158      0.97696134     1.9101306    
      6200   1.9101261      158.5          158.5          158.5          1.0304825      1.0191471      1.0951753      0.97712521     1.9101261    
      6220   1.910118       158.5          158.5          158.5          1.030886       1.0195456      1.0958418      0.97727052     1.910118     
      6240   1.9101106      158.5          158.5          158.5          1.0304755      1.0189872      1.0954355      0.9770039      1.9101106    
      6260   1.9101033      158.5          158.5          158.5          1.0302339      1.0190497      1.094792       0.97686001     1.9101033    
      6280   1.9100912      158.5          158.5          158.5          1.0296647      1.0179375      1.0951021      0.97595461     1.9100912    
      6300   1.9100776      158.5          158.5          158.5          1.0302344      1.0190432      1.0948787      0.97678141     1.9100776    
      6320   1.9100708      158.5          158.5          158.5          1.030611       1.0191965      1.0956948      0.97694161     1.9100708    
      6340   1.9100678      158.5          158.5          158.5          1.0307324      1.0193615      1.0955225      0.97731318     1.9100678    
      6360   1.9100661      158.5          158.5          158.5          1.0307111      1.0194082      1.0954266      0.97729842     1.9100661    
      6380   1.9100652      158.5          158.5          158.5          1.0308267      1.0195185      1.0955175      0.97744422     1.9100652    
      6400   1.910064       158.5          158.5          158.5          1.0309589      1.0196486      1.0957061      0.97752198     1.910064     
      6420   1.9100602      158.5          158.5          158.5          1.0306693      1.0193692      1.0955585      0.97708023     1.9100602    
      6440   1.9100422      158.5          158.5          158.5          1.0306124      1.0193274      1.0954688      0.97704088     1.9100422    
      6460   1.9100152      158.5          158.5          158.5          1.0308357      1.019876       1.0950677      0.97756333     1.9100152    
      6480   1.9099914      158.5          158.5          158.5          1.0319099      1.0205029      1.0968572      0.97836948     1.9099914    
      6500   1.9099757      158.5          158.5          158.5          1.0324693      1.0212067      1.097148       0.97905307     1.9099757    
      6520   1.9099683      158.5          158.5          158.5          1.0322799      1.020888       1.097156       0.97879579     1.9099683    
      6540   1.9099596      158.5          158.5          158.5          1.0313299      1.0199216      1.096269       0.97779927     1.9099596    
      6560   1.9099476      158.5          158.5          158.5          1.029862       1.0186756      1.094654       0.97625655     1.9099476    
      6580   1.9099331      158.5          158.5          158.5          1.0297472      1.0184903      1.0943474      0.97640389     1.9099331    
      6600   1.9099236      158.5          158.5          158.5          1.0297773      1.0185216      1.0944816      0.97632859     1.9099236    
      6620   1.9099195      158.5          158.5          158.5          1.0295333      1.0181016      1.0944973      0.97600094     1.9099195    
      6640   1.9099115      158.5          158.5          158.5          1.0295528      1.0180502      1.0943599      0.97624825     1.9099115    
      6660   1.9099018      158.5          158.5          158.5          1.0300936      1.0185387      1.0950269      0.97671499     1.9099018    
      6680   1.909895       158.5          158.5          158.5          1.0310565      1.0196444      1.095878       0.97764729     1.909895     
      6700   1.9098856      158.5          158.5          158.5          1.0314592      1.0199684      1.0963547      0.97805449     1.9098856    
      6720   1.9098717      158.5          158.5          158.5          1.0316203      1.0206569      1.0958601      0.97834398     1.9098717    
      6740   1.9098632      158.5          158.5          158.5          1.0312266      1.0200052      1.0957013      0.97797318     1.9098632    
      6760   1.9098579      158.5          158.5          158.5          1.0314511      1.0199917      1.0963855      0.97797612     1.9098579    
      6780   1.9098546      158.5          158.5          158.5          1.0310768      1.0196542      1.0959211      0.97765508     1.9098546    
      6800   1.9098502      158.5          158.5          158.5          1.0308583      1.0193515      1.0958378      0.9773857      1.9098502    
      6820   1.9098455      158.5          158.5          158.5          1.0302334      1.0188234      1.095091       0.97678587     1.9098455    
      6840   1.9098403      158.5          158.5          158.5          1.0299851      1.0185735      1.0947665      0.9766152      1.9098403    
      6860   1.9098313      158.5          158.5          158.5          1.0298611      1.0187234      1.0945223      0.97633742     1.9098313    
      6880   1.9098247      158.5          158.5          158.5          1.0294944      1.0180206      1.094441       0.97602151     1.9098247    
      6900   1.9098181      158.5          158.5          158.5          1.0292026      1.0177632      1.0940964      0.97574806     1.9098181    
      6920   1.9098151      158.5          158.5          158.5          1.0291308      1.0179447      1.0937225      0.97572531     1.9098151    
      6940   1.9098124      158.5          158.5          158.5          1.0295577      1.0181567      1.0944676      0.97604878     1.9098124    
      6960   1.9098108      158.5          158.5          158.5          1.0296387      1.018322       1.0943803      0.97621389     1.9098108    
      6980   1.9098086      158.5          158.5          158.5          1.0304052      1.0191059      1.0951022      0.97700751     1.9098086    
      7000   1.9098071      158.5          158.5          158.5          1.0308264      1.0194442      1.0956108      0.97742432     1.9098071    
      7020   1.9098056      158.5          158.5          158.5          1.0313965      1.020076       1.0961614      0.97795218     1.9098056    
      7040   1.909804       158.5          158.5          158.5          1.0314079      1.0201235      1.0960425      0.97805756     1.909804     
      7060   1.9098         158.5          158.5          158.5          1.0312837      1.0200352      1.0958321      0.97798372     1.9098       
      7080   1.9097901      158.5          158.5          158.5          1.031388       1.0202409      1.0957322      0.97819088     1.9097901    
      7100   1.9097831      158.5          158.5          158.5          1.0319203      1.0208425      1.0962875      0.97863107     1.9097831    
      7120   1.9097732      158.5          158.5          158.5          1.0325812      1.0214066      1.0974045      0.9789324      1.9097732    
      7140   1.9097669      158.5          158.5          158.5          1.0320438      1.0206694      1.0968469      0.97861509     1.9097669    
      7160   1.909763       158.5          158.5          158.5          1.0315723      1.0201287      1.0964832      0.97810485     1.909763     
      7180   1.9097591      158.5          158.5          158.5          1.0309922      1.0197398      1.0955357      0.97770104     1.9097591    
      7200   1.9097562      158.5          158.5          158.5          1.0308208      1.0195504      1.0954916      0.97742034     1.9097562    
      7220   1.9097548      158.5          158.5          158.5          1.0307011      1.0193635      1.0954533      0.97728656     1.9097548    
      7240   1.9097534      158.5          158.5          158.5          1.0308745      1.019484       1.0956397      0.97749958     1.9097534    
      7260   1.9097524      158.5          158.5          158.5          1.0309408      1.0196441      1.0957606      0.97741774     1.9097524    
      7280   1.9097514      158.5          158.5          158.5          1.0310506      1.0196301      1.0960148      0.97750683     1.9097514    
      7300   1.9097496      158.5          158.5          158.5          1.0302908      1.0190455      1.094798       0.97702908     1.9097496    
      7320   1.9097453      158.5          158.5          158.5          1.0300879      1.0188118      1.0947857      0.97666614     1.9097453    
      7340   1.9097398      158.5          158.5          158.5          1.0304787      1.0190932      1.0953874      0.97695541     1.9097398    
      7360   1.9097355      158.5          158.5          158.5          1.0309371      1.0197178      1.0956722      0.97742127     1.9097355    
      7380   1.9097306      158.5          158.5          158.5          1.0304266      1.018935       1.0952786      0.97706619     1.9097306    
      7400   1.9097245      158.5          158.5          158.5          1.030186       1.018845       1.0950051      0.97670776     1.9097245    
      7420   1.9097175      158.5          158.5          158.5          1.0301734      1.0188426      1.0950095      0.97666809     1.9097175    
      7440   1.9097117      158.5          158.5          158.5          1.0303366      1.0192513      1.0947922      0.97696622     1.9097117    
      7460   1.9097074      158.5          158.5          158.5          1.0304181      1.0190761      1.0951347      0.97704353     1.9097074    
      7480   1.9097022      158.5          158.5          158.5          1.0301582      1.0189072      1.094614       0.97695349     1.9097022    
      7500   1.9096958      158.5          158.5          158.5          1.03053        1.0192203      1.0950449      0.97732489     1.9096958    
      7520   1.9096928      158.5          158.5          158.5          1.0303132      1.0188947      1.0951741      0.97687068     1.9096928    
      7540   1.9096913      158.5          158.5          158.5          1.0304879      1.0191168      1.0953261      0.97702081     1.9096913    
      7560   1.90969        158.5          158.5          158.5          1.0302758      1.019043       1.0949577      0.97682655     1.90969      
      7580   1.9096878      158.5          158.5          158.5          1.0302302      1.0187259      1.0953107      0.9766541      1.9096878    
      7600   1.9096854      158.5          158.5          158.5          1.030474       1.0189448      1.0954144      0.97706272     1.9096854    
      7620   1.9096822      158.5          158.5          158.5          1.0310862      1.0196718      1.0960145      0.97757239     1.9096822    
      7640   1.9096794      158.5          158.5          158.5          1.0312923      1.0199177      1.0961971      0.97776203     1.9096794    
      7660   1.9096763      158.5          158.5          158.5          1.0308929      1.0193636      1.0960199      0.97729516     1.9096763    
      7680   1.9096721      158.5          158.5          158.5          1.0302957      1.0188777      1.0951517      0.97685769     1.9096721    
      7700   1.9096701      158.5          158.5          158.5          1.0305967      1.0192073      1.0954303      0.97715255     1.9096701    
      7720   1.9096685      158.5          158.5          158.5          1.0310033      1.019539       1.0959534      0.97751756     1.9096685    
      7740   1.9096673      158.5          158.5          158.5          1.0310512      1.0196447      1.0959359      0.97757284     1.9096673    
      7760   1.909666       158.5          158.5          158.5          1.0307526      1.0194216      1.0955006      0.97733558     1.909666     
      7780   1.9096638      158.5          158.5          158.5          1.0304922      1.0190938      1.0952931      0.97708967     1.9096638    
      7800   1.909662       158.5          158.5          158.5          1.0304891      1.0191376      1.0952749      0.97705483     1.909662     
      7820   1.9096612      158.5          158.5          158.5          1.030397       1.0190387      1.0951118      0.97704043     1.9096612    
      7840   1.90966        158.5          158.5          158.5          1.0305895      1.0192519      1.095333       0.97718372     1.90966      
      7860   1.9096591      158.5          158.5          158.5          1.0306772      1.0193017      1.095516       0.97721391     1.9096591    
      7880   1.909658       158.5          158.5          158.5          1.030771       1.0195585      1.0954124      0.97734217     1.909658     
      7900   1.9096566      158.5          158.5          158.5          1.030533       1.0191803      1.0953085      0.97711034     1.9096566    
      7920   1.9096545      158.5          158.5          158.5          1.0308519      1.0195329      1.0955659      0.97745702     1.9096545    
      7940   1.9096518      158.5          158.5          158.5          1.0314099      1.0199744      1.0963544      0.97790092     1.9096518    
      7960   1.9096494      158.5          158.5          158.5          1.0316501      1.0201803      1.0966494      0.97812059     1.9096494    
      7980   1.9096424      158.5          158.5          158.5          1.0311201      1.0195645      1.0962324      0.97756335     1.9096424    
      8000   1.9096372      158.5          158.5          158.5          1.0304433      1.0186756      1.0956839      0.97697045     1.9096372    
      8020   1.9096331      158.5          158.5          158.5          1.0300898      1.0187351      1.0948541      0.97668029     1.9096331    
      8040   1.9096294      158.5          158.5          158.5          1.0305247      1.0192121      1.0952707      0.97709122     1.9096294    
      8060   1.909627       158.5          158.5          158.5          1.030658       1.0194074      1.0953907      0.97717594     1.909627     
      8080   1.9096239      158.5          158.5          158.5          1.0308458      1.0195549      1.0954894      0.97749325     1.9096239    
      8100   1.9096203      158.5          158.5          158.5          1.0308446      1.0193325      1.0958047      0.9773966      1.9096203    
      8120   1.909619       158.5          158.5          158.5          1.0307638      1.0193728      1.0955905      0.97732824     1.909619     
      8140   1.9096177      158.5          158.5          158.5          1.0305358      1.0191328      1.095488       0.97698663     1.9096177    
      8160   1.9096171      158.5          158.5          158.5          1.0302825      1.0189179      1.0950632      0.97686643     1.9096171    
      8180   1.9096162      158.5          158.5          158.5          1.0301702      1.0186896      1.0950871      0.97673385     1.9096162    
      8200   1.9096144      158.5          158.5          158.5          1.0308051      1.0194426      1.0956164      0.97735621     1.9096144    
      8220   1.9096121      158.5          158.5          158.5          1.0313913      1.0200258      1.0962588      0.97788931     1.9096121    
      8240   1.9096087      158.5          158.5          158.5          1.0315923      1.0203242      1.096304       0.9781486      1.9096087    
      8260   1.9096057      158.5          158.5          158.5          1.0316373      1.0202447      1.0964073      0.97825976     1.9096057    
      8280   1.9096003      158.5          158.5          158.5          1.0318456      1.0205693      1.0965986      0.97836891     1.9096003    
      8300   1.9095969      158.5          158.5          158.5          1.0314885      1.0203311      1.0960132      0.97812124     1.9095969    
      8320   1.9095929      158.5          158.5          158.5          1.0308313      1.0194747      1.0956233      0.9773958      1.9095929    
      8340   1.9095896      158.5          158.5          158.5          1.0303375      1.0191067      1.0950581      0.97684784     1.9095896    
      8360   1.9095851      158.5          158.5          158.5          1.0302019      1.0187943      1.095148       0.9766634      1.9095851    
      8380   1.9095778      158.5          158.5          158.5          1.0290124      1.0177817      1.0936585      0.97559697     1.9095778    
      8400   1.9095688      158.5          158.5          158.5          1.0281766      1.0168547      1.0928424      0.97483263     1.9095688    
      8420   1.9095637      158.5          158.5          158.5          1.0290999      1.017574       1.094142       0.97558374     1.9095637    
      8440   1.9095579      158.5          158.5          158.5          1.0301814      1.0188726      1.0950454      0.97662615     1.9095579    
      8460   1.9095538      158.5          158.5          158.5          1.0301991      1.018954       1.0948269      0.97681643     1.9095538    
      8480   1.909551       158.5          158.5          158.5          1.0302683      1.0187467      1.0951954      0.97686279     1.909551     
      8500   1.9095486      158.5          158.5          158.5          1.0305819      1.0193302      1.0952326      0.97718277     1.9095486    
      8520   1.9095458      158.5          158.5          158.5          1.0315396      1.0202646      1.0963084      0.97804574     1.9095458    
      8540   1.9095431      158.5          158.5          158.5          1.0317764      1.0204308      1.0965063      0.97839213     1.9095431    
      8560   1.909541       158.5          158.5          158.5          1.0316594      1.0202266      1.0965083      0.97824323     1.909541     
      8580   1.9095382      158.5          158.5          158.5          1.031433       1.0197658      1.096616       0.97791705     1.9095382    
      8600   1.9095355      158.5          158.5          158.5          1.0313423      1.0199109      1.0962828      0.97783315     1.9095355    
      8620   1.9095337      158.5          158.5          158.5          1.0310717      1.0194568      1.0962706      0.97748774     1.9095337    
      8640   1.9095323      158.5          158.5          158.5          1.0306405      1.0192362      1.095518       0.97716726     1.9095323    
      8660   1.9095316      158.5          158.5          158.5          1.0304942      1.019199       1.0952181      0.97706558     1.9095316    
      8680   1.9095306      158.5          158.5          158.5          1.030552       1.019395       1.0951032      0.97715787     1.9095306    
      8700   1.9095296      158.5          158.5          158.5          1.0308684      1.0195052      1.0957097      0.97739035     1.9095296    
      8720   1.909529       158.5          158.5          158.5          1.0306999      1.0191879      1.0957221      0.97718972     1.909529     
      8740   1.9095284      158.5          158.5          158.5          1.030361       1.0190106      1.0950964      0.97697589     1.9095284    
      8760   1.9095279      158.5          158.5          158.5          1.030339       1.0189905      1.0951083      0.97691823     1.9095279    
      8780   1.9095265      158.5          158.5          158.5          1.0305942      1.0192919      1.0952998      0.97719098     1.9095265    
      8800   1.9095243      158.5          158.5          158.5          1.031214       1.019706       1.0961828      0.97775323     1.9095243    
      8820   1.909519       158.5          158.5          158.5          1.0318914      1.0206024      1.0966254      0.97844652     1.909519     
      8840   1.9095137      158.5          158.5          158.5          1.0325796      1.02135        1.0971039      0.97928491     1.9095137    
      8860   1.9095065      158.5          158.5          158.5          1.0327648      1.0214688      1.0975628      0.97926265     1.9095065    
      8880   1.9094953      158.5          158.5          158.5          1.0321057      1.0207932      1.0968646      0.97865934     1.9094953    
      8900   1.9094837      158.5          158.5          158.5          1.0319991      1.0207241      1.0965593      0.97871373     1.9094837    
      8920   1.9094717      158.5          158.5          158.5          1.03193        1.0207002      1.096619       0.97847081     1.9094717    
      8940   1.9094589      158.5          158.5          158.5          1.0311852      1.0198316      1.0962301      0.97749392     1.9094589    
      8960   1.9094449      158.5          158.5          158.5          1.0289055      1.0179543      1.0932858      0.97547646     1.9094449    
      8980   1.9094363      158.5          158.5          158.5          1.0285941      1.0172762      1.0933246      0.97518142     1.9094363    
      9000   1.9094243      158.5          158.5          158.5          1.0292186      1.0177728      1.0940685      0.97581455     1.9094243    
      9020   1.9094186      158.5          158.5          158.5          1.0294078      1.018107       1.0941228      0.97599362     1.9094186    
      9040   1.909414       158.5          158.5          158.5          1.0296999      1.0181664      1.0947333      0.97619993     1.909414     
      9060   1.9094073      158.5          158.5          158.5          1.030634       1.019218       1.0955854      0.97709868     1.9094073    
      9080   1.9094005      158.5          158.5          158.5          1.0310797      1.0195717      1.0960203      0.97764726     1.9094005    
      9100   1.9093955      158.5          158.5          158.5          1.0318286      1.0207177      1.0963208      0.97844732     1.9093955    
      9120   1.9093912      158.5          158.5          158.5          1.0320149      1.020695       1.0969013      0.97844857     1.9093912    
      9140   1.909387       158.5          158.5          158.5          1.0317723      1.0203276      1.0967473      0.97824187     1.909387     
      9160   1.9093847      158.5          158.5          158.5          1.0316404      1.02032        1.0963408      0.97826036     1.9093847    
      9180   1.9093826      158.5          158.5          158.5          1.0313184      1.0199802      1.0960994      0.97787566     1.9093826    
      9200   1.9093813      158.5          158.5          158.5          1.0313365      1.019993       1.0961218      0.97789459     1.9093813    
      9220   1.9093797      158.5          158.5          158.5          1.0309044      1.0196271      1.0955756      0.97751029     1.9093797    
      9240   1.9093779      158.5          158.5          158.5          1.0302426      1.018854       1.0950309      0.97684296     1.9093779    
      9260   1.909377       158.5          158.5          158.5          1.0299931      1.0185275      1.0948779      0.97657398     1.909377     
      9280   1.9093762      158.5          158.5          158.5          1.030188       1.0188064      1.0950664      0.97669114     1.9093762    
      9300   1.9093751      158.5          158.5          158.5          1.0305309      1.0191948      1.0953334      0.97706445     1.9093751    
      9320   1.9093745      158.5          158.5          158.5          1.0302802      1.018987       1.0949563      0.97689745     1.9093745    
      9340   1.9093741      158.5          158.5          158.5          1.0302126      1.0188267      1.0950309      0.97678025     1.9093741    
      9360   1.9093735      158.5          158.5          158.5          1.0305095      1.0192135      1.0952337      0.97708144     1.9093735    
      9380   1.9093727      158.5          158.5          158.5          1.03097        1.0196498      1.0957634      0.97749671     1.9093727    
      9400   1.9093719      158.5          158.5          158.5          1.0311426      1.0198122      1.0959103      0.97770516     1.9093719    
      9420   1.9093711      158.5          158.5          158.5          1.0312024      1.0199031      1.0958763      0.97782787     1.9093711    
      9440   1.9093699      158.5          158.5          158.5          1.0314989      1.0201897      1.0962523      0.97805466     1.9093699    
      9460   1.9093667      158.5          158.5          158.5          1.0325047      1.0211737      1.0973827      0.97895779     1.9093667    
      9480   1.9093606      158.5          158.5          158.5          1.0322436      1.0208253      1.0971167      0.97878869     1.9093606    
      9500   1.9093552      158.5          158.5          158.5          1.0316543      1.0202683      1.0965076      0.97818705     1.9093552    
      9520   1.9093515      158.5          158.5          158.5          1.0311678      1.0198423      1.0959283      0.97773292     1.9093515    
      9540   1.9093491      158.5          158.5          158.5          1.030913       1.0195282      1.0957546      0.97745628     1.9093491    
      9560   1.9093466      158.5          158.5          158.5          1.0304734      1.0191341      1.0952396      0.97704658     1.9093466    
      9580   1.9093449      158.5          158.5          158.5          1.0301533      1.0187982      1.0948974      0.97676432     1.9093449    
      9600   1.9093423      158.5          158.5          158.5          1.0297465      1.018474       1.0943904      0.97637522     1.9093423    
      9620   1.9093416      158.5          158.5          158.5          1.0299867      1.0186664      1.0947189      0.97657471     1.9093416    
      9640   1.9093408      158.5          158.5          158.5          1.0302247      1.0189053      1.0950098      0.97675895     1.9093408    
      9660   1.9093401      158.5          158.5          158.5          1.0305544      1.0192653      1.0952799      0.9771181      1.9093401    
      9680   1.9093395      158.5          158.5          158.5          1.0306572      1.0193091      1.0954514      0.97721102     1.9093395    
      9700   1.9093388      158.5          158.5          158.5          1.0309036      1.0195594      1.095672       0.97747952     1.9093388    
      9720   1.9093383      158.5          158.5          158.5          1.0309462      1.0196248      1.0957225      0.97749123     1.9093383    
      9740   1.9093371      158.5          158.5          158.5          1.031239       1.0199245      1.0959574      0.97783506     1.9093371    
      9760   1.9093357      158.5          158.5          158.5          1.0310214      1.0197229      1.0957713      0.97756986     1.9093357    
      9780   1.9093333      158.5          158.5          158.5          1.0313882      1.0200788      1.096278       0.97780794     1.9093333    
      9800   1.9093292      158.5          158.5          158.5          1.0315805      1.0203961      1.0962166      0.97812882     1.9093292    
      9820   1.9093214      158.5          158.5          158.5          1.0316526      1.020397       1.0962405      0.97832015     1.9093214    
      9840   1.9093142      158.5          158.5          158.5          1.0310396      1.0197526      1.0957325      0.9776339      1.9093142    
      9860   1.909309       158.5          158.5          158.5          1.0303599      1.0191233      1.0948776      0.9770787      1.909309     
      9880   1.9093066      158.5          158.5          158.5          1.0305483      1.0191277      1.095382       0.9771353      1.9093066    
      9900   1.9093043      158.5          158.5          158.5          1.0310315      1.0196764      1.0958527      0.97756531     1.9093043    
      9920   1.909302       158.5          158.5          158.5          1.0307856      1.0193075      1.0958287      0.97722046     1.909302     
      9940   1.9092992      158.5          158.5          158.5          1.0303014      1.0188695      1.095151       0.97688354     1.9092992    
      9960   1.9092931      158.5          158.5          158.5          1.0304321      1.0187524      1.0956619      0.97688201     1.9092931    
      9980   1.9092855      158.5          158.5          158.5          1.030759       1.0193661      1.0955811      0.97732985     1.9092855    
     10000   1.9092807      158.5          158.5          158.5          1.0306873      1.0193213      1.0954711      0.97726942     1.9092807    
     10020   1.9092774      158.5          158.5          158.5          1.0307844      1.0194615      1.0956384      0.97725335     1.9092774    
     10040   1.909276       158.5          158.5          158.5          1.03095        1.0195748      1.0958249      0.97745024     1.909276     
     10060   1.9092748      158.5          158.5          158.5          1.0309028      1.0194961      1.0957953      0.97741694     1.9092748    
     10080   1.9092734      158.5          158.5          158.5          1.03109        1.0197023      1.0959565      0.97761106     1.9092734    
     10100   1.9092728      158.5          158.5          158.5          1.030891       1.019512       1.0956758      0.97748522     1.9092728    
     10120   1.9092719      158.5          158.5          158.5          1.0307899      1.0194156      1.0956138      0.9773403      1.9092719    
     10140   1.9092712      158.5          158.5          158.5          1.0305392      1.0190817      1.0954318      0.97710407     1.9092712    
     10160   1.9092704      158.5          158.5          158.5          1.0305473      1.0191972      1.0953633      0.97708135     1.9092704    
     10180   1.9092698      158.5          158.5          158.5          1.03041        1.0190764      1.0951661      0.97698764     1.9092698    
     10200   1.9092692      158.5          158.5          158.5          1.0302972      1.0189389      1.0950564      0.97689636     1.9092692    
     10220   1.9092688      158.5          158.5          158.5          1.0303616      1.0190259      1.0951325      0.9769265      1.9092688    
     10240   1.9092684      158.5          158.5          158.5          1.0305574      1.0192316      1.0953436      0.97709697     1.9092684    
     10260   1.9092681      158.5          158.5          158.5          1.0306973      1.019366       1.0954946      0.97723144     1.9092681    
     10280   1.9092676      158.5          158.5          158.5          1.0308692      1.0194738      1.0957435      0.9773902      1.9092676    
     10300   1.9092668      158.5          158.5          158.5          1.0311633      1.0197661      1.0960643      0.97765961     1.9092668    
     10320   1.9092657      158.5          158.5          158.5          1.0312349      1.0198357      1.0961204      0.97774851     1.9092657    
     10340   1.9092636      158.5          158.5          158.5          1.031314       1.0199832      1.0961219      0.97783699     1.9092636    
     10360   1.9092601      158.5          158.5          158.5          1.0310594      1.0196559      1.0959269      0.97759542     1.9092601    
     10380   1.9092579      158.5          158.5          158.5          1.0315319      1.0201009      1.0963663      0.97812838     1.9092579    
     10400   1.9092545      158.5          158.5          158.5          1.0316896      1.0202971      1.0964456      0.97832606     1.9092545    
     10420   1.9092494      158.5          158.5          158.5          1.0315603      1.0199876      1.0966453      0.97804802     1.9092494    
     10440   1.9092431      158.5          158.5          158.5          1.0306026      1.0192081      1.0954956      0.97710421     1.9092431    
     10460   1.9092378      158.5          158.5          158.5          1.0299766      1.0185961      1.094668       0.97666579     1.9092378    
     10480   1.9092348      158.5          158.5          158.5          1.0303991      1.0189806      1.0953714      0.97684524     1.9092348    
     10500   1.9092329      158.5          158.5          158.5          1.0306801      1.0193943      1.0953911      0.97725502     1.9092329    
     10520   1.9092309      158.5          158.5          158.5          1.0305149      1.019189       1.0952875      0.97706806     1.9092309    
     10540   1.9092274      158.5          158.5          158.5          1.030133       1.0187391      1.095009       0.97665091     1.9092274    
     10560   1.9092223      158.5          158.5          158.5          1.030281       1.0189848      1.0949296      0.97692842     1.9092223    
     10580   1.9092179      158.5          158.5          158.5          1.0306419      1.0194048      1.0953056      0.97721526     1.9092179    
     10600   1.9092151      158.5          158.5          158.5          1.0306817      1.0193666      1.0953852      0.97729323     1.9092151    
     10620   1.9092118      158.5          158.5          158.5          1.0305431      1.0190203      1.0955955      0.97701356     1.9092118    
     10640   1.9092084      158.5          158.5          158.5          1.0305647      1.0192782      1.0953409      0.97707504     1.9092084    
     10660   1.9092061      158.5          158.5          158.5          1.0306827      1.0192351      1.0955892      0.97722382     1.9092061    
     10680   1.9092044      158.5          158.5          158.5          1.0309539      1.0196355      1.0957363      0.97748976     1.9092044    
     10700   1.9092023      158.5          158.5          158.5          1.0307485      1.0194522      1.0954813      0.97731192     1.9092023    
     10720   1.9092005      158.5          158.5          158.5          1.0305467      1.0192362      1.0952565      0.97714734     1.9092005    
     10740   1.9092         158.5          158.5          158.5          1.0305641      1.0192755      1.0952806      0.97713612     1.9092       
     10760   1.9091994      158.5          158.5          158.5          1.030522       1.0192143      1.095245       0.97710655     1.9091994    
     10780   1.9091986      158.5          158.5          158.5          1.0305512      1.0192017      1.0953213      0.97713039     1.9091986    
     10800   1.9091972      158.5          158.5          158.5          1.0308262      1.0194415      1.0957028      0.97733438     1.9091972    
     10820   1.9091964      158.5          158.5          158.5          1.030717       1.0193053      1.0955954      0.97725014     1.9091964    
     10840   1.909196       158.5          158.5          158.5          1.0306206      1.0192803      1.0953952      0.97718646     1.909196     
     10860   1.9091958      158.5          158.5          158.5          1.0305319      1.0191978      1.095301       0.97709707     1.9091958    
     10880   1.9091955      158.5          158.5          158.5          1.03066        1.0193338      1.095417       0.9772292      1.9091955    
     10900   1.9091941      158.5          158.5          158.5          1.0309012      1.0195063      1.0957892      0.97740808     1.9091941    
     10920   1.9091915      158.5          158.5          158.5          1.0306627      1.0191334      1.0956482      0.97720653     1.9091915    
     10940   1.9091888      158.5          158.5          158.5          1.0302788      1.0188956      1.0950893      0.97685156     1.9091888    
     10960   1.9091856      158.5          158.5          158.5          1.0303123      1.0189259      1.095183       0.97682791     1.9091856    
     10980   1.9091828      158.5          158.5          158.5          1.0306839      1.0193229      1.0955568      0.97717202     1.9091828    
     11000   1.9091815      158.5          158.5          158.5          1.03098        1.0196189      1.0957794      0.97754178     1.9091815    
     11020   1.9091808      158.5          158.5          158.5          1.0310091      1.0196436      1.095849       0.97753454     1.9091808    
     11040   1.9091798      158.5          158.5          158.5          1.0308099      1.0194361      1.0956343      0.97735934     1.9091798    
     11060   1.9091788      158.5          158.5          158.5          1.0307066      1.019308       1.0955853      0.9772264      1.9091788    
     11080   1.909178       158.5          158.5          158.5          1.0306261      1.0192679      1.0954445      0.97716588     1.909178     
     11100   1.9091775      158.5          158.5          158.5          1.0305834      1.0192087      1.0954182      0.97712329     1.9091775    
     11120   1.9091774      158.5          158.5          158.5          1.0305223      1.0191598      1.095324       0.97708317     1.9091774    
     11140   1.9091771      158.5          158.5          158.5          1.0306607      1.0192912      1.0954573      0.97723374     1.9091771    
     11160   1.9091766      158.5          158.5          158.5          1.0308964      1.0195719      1.0956614      0.9774559      1.9091766    
     11180   1.9091759      158.5          158.5          158.5          1.0311987      1.0198543      1.0959822      0.97775958     1.9091759    
     11200   1.9091746      158.5          158.5          158.5          1.0309511      1.0196344      1.0956866      0.97753234     1.9091746    
     11220   1.9091717      158.5          158.5          158.5          1.0308525      1.0194783      1.0957085      0.97737083     1.9091717    
     11240   1.9091675      158.5          158.5          158.5          1.0305338      1.0191667      1.0952573      0.97717743     1.9091675    
     11260   1.9091652      158.5          158.5          158.5          1.0305764      1.0192047      1.0953814      0.97714304     1.9091652    
     11280   1.9091638      158.5          158.5          158.5          1.0308829      1.0195883      1.0956145      0.977446       1.9091638    
     11300   1.9091624      158.5          158.5          158.5          1.0308165      1.019546       1.0954767      0.97742696     1.9091624    
     11320   1.9091603      158.5          158.5          158.5          1.0304028      1.0189501      1.0953254      0.97693279     1.9091603    
     11340   1.9091591      158.5          158.5          158.5          1.030296       1.0188856      1.0951618      0.97684063     1.9091591    
     11360   1.9091582      158.5          158.5          158.5          1.0305194      1.0191607      1.0953788      0.97701872     1.9091582    
     11380   1.9091571      158.5          158.5          158.5          1.0306476      1.019142       1.0956675      0.9771331      1.9091571    
     11400   1.9091556      158.5          158.5          158.5          1.0308067      1.0193773      1.0957056      0.97733734     1.9091556    
     11420   1.9091549      158.5          158.5          158.5          1.0306578      1.0192995      1.0954476      0.97722638     1.9091549    
     11440   1.9091545      158.5          158.5          158.5          1.0304536      1.0191104      1.0952394      0.9770109      1.9091545    
     11460   1.9091541      158.5          158.5          158.5          1.030422       1.0190438      1.0952293      0.976993       1.9091541    
     11480   1.9091535      158.5          158.5          158.5          1.0305894      1.0192732      1.0953816      0.9771135      1.9091535    
     11500   1.9091528      158.5          158.5          158.5          1.030851       1.0194534      1.095671       0.97742855     1.9091528    
     11520   1.9091518      158.5          158.5          158.5          1.0307961      1.0193958      1.0956897      0.97730283     1.9091518    
     11540   1.9091501      158.5          158.5          158.5          1.0306895      1.0193983      1.0954222      0.977248       1.9091501    
     11560   1.9091483      158.5          158.5          158.5          1.0308069      1.0196299      1.09538        0.9774107      1.9091483    
     11580   1.9091466      158.5          158.5          158.5          1.0310122      1.019959       1.0954699      0.97760769     1.9091466    
     11600   1.9091452      158.5          158.5          158.5          1.0312572      1.0198333      1.0961533      0.977785       1.9091452    
     11620   1.9091441      158.5          158.5          158.5          1.0312042      1.0198063      1.0960873      0.97771898     1.9091441    
     11640   1.9091434      158.5          158.5          158.5          1.0309713      1.0196584      1.095746       0.97750964     1.9091434    
     11660   1.9091429      158.5          158.5          158.5          1.0306725      1.0192544      1.0955288      0.97723439     1.9091429    
     11680   1.9091426      158.5          158.5          158.5          1.0305302      1.0192488      1.0952029      0.97713897     1.9091426    
     11700   1.9091424      158.5          158.5          158.5          1.0305419      1.0192216      1.0952929      0.97711104     1.9091424    
     11720   1.9091422      158.5          158.5          158.5          1.0305486      1.0192164      1.0953146      0.97711481     1.9091422    
     11740   1.909142       158.5          158.5          158.5          1.0305603      1.0192498      1.0952725      0.97715864     1.909142     
     11760   1.9091416      158.5          158.5          158.5          1.0309412      1.0195827      1.0957675      0.97747336     1.9091416    
     11780   1.9091411      158.5          158.5          158.5          1.0311035      1.0197049      1.0959606      0.97764494     1.9091411    
     11800   1.9091399      158.5          158.5          158.5          1.0309751      1.019667       1.0957169      0.97754148     1.9091399    
     11820   1.9091369      158.5          158.5          158.5          1.0305229      1.0192719      1.0952276      0.97706914     1.9091369    
     11840   1.9091343      158.5          158.5          158.5          1.0303374      1.0190289      1.0950462      0.97693723     1.9091343    
     11860   1.9091327      158.5          158.5          158.5          1.0306195      1.0192952      1.095401       0.97716223     1.9091327    
     11880   1.9091319      158.5          158.5          158.5          1.0309039      1.0195436      1.0957231      0.97744494     1.9091319    
     11900   1.9091303      158.5          158.5          158.5          1.0310345      1.0197428      1.0957148      0.97764585     1.9091303    
     11920   1.9091275      158.5          158.5          158.5          1.0309676      1.0195569      1.0958218      0.97752412     1.9091275    
     11940   1.9091236      158.5          158.5          158.5          1.0307479      1.0193926      1.0955937      0.9772573      1.9091236    
     11960   1.9091185      158.5          158.5          158.5          1.0307033      1.0190894      1.0958659      0.97715454     1.9091185    
     11980   1.9091129      158.5          158.5          158.5          1.0307814      1.0193684      1.095639       0.97733663     1.9091129    
     12000   1.9091064      158.5          158.5          158.5          1.0307556      1.0194742      1.0954798      0.97731282     1.9091064    
     12020   1.9091039      158.5          158.5          158.5          1.0308611      1.0193463      1.0959037      0.97733322     1.9091039    
     12040   1.9091013      158.5          158.5          158.5          1.0305091      1.0191234      1.0953134      0.97709037     1.9091013    
     12060   1.9091002      158.5          158.5          158.5          1.0305252      1.0191942      1.0952727      0.97710883     1.9091002    
     12080   1.9090992      158.5          158.5          158.5          1.0308717      1.0195558      1.0956583      0.97740099     1.9090992    
     12100   1.9090988      158.5          158.5          158.5          1.030841       1.0195143      1.0956093      0.97739952     1.9090988    
     12120   1.9090986      158.5          158.5          158.5          1.0307369      1.0193349      1.0955948      0.97728089     1.9090986    
     12140   1.9090982      158.5          158.5          158.5          1.0305166      1.0191498      1.0953556      0.97704431     1.9090982    
     12160   1.9090975      158.5          158.5          158.5          1.0303255      1.0190307      1.09504        0.97690577     1.9090975    
     12180   1.9090967      158.5          158.5          158.5          1.0304201      1.0190892      1.0952124      0.97695886     1.9090967    
     12200   1.9090959      158.5          158.5          158.5          1.0305409      1.0191226      1.0954263      0.97707377     1.9090959    
     12220   1.9090954      158.5          158.5          158.5          1.0305012      1.019153       1.0952871      0.97706349     1.9090954    
     12240   1.9090949      158.5          158.5          158.5          1.0304591      1.0191677      1.0951648      0.97704486     1.9090949    
     12260   1.9090944      158.5          158.5          158.5          1.0304827      1.0191395      1.0952627      0.97704573     1.9090944    
     12280   1.9090941      158.5          158.5          158.5          1.0305379      1.0192063      1.0952916      0.97711571     1.9090941    
     12300   1.9090934      158.5          158.5          158.5          1.0306667      1.0193103      1.0954966      0.97719343     1.9090934    
     12320   1.9090933      158.5          158.5          158.5          1.0306105      1.0193079      1.0953433      0.97718019     1.9090933    
     12340   1.9090931      158.5          158.5          158.5          1.0306645      1.0193136      1.0954334      0.97724661     1.9090931    
     12360   1.9090929      158.5          158.5          158.5          1.030762       1.0194437      1.0955227      0.97731971     1.9090929    
     12380   1.9090925      158.5          158.5          158.5          1.030927       1.0195647      1.0957465      0.97746994     1.9090925    
     12400   1.9090918      158.5          158.5          158.5          1.030907       1.0195631      1.0957709      0.97738695     1.9090918    
     12420   1.9090908      158.5          158.5          158.5          1.0302347      1.0189707      1.0949034      0.97682992     1.9090908    
     12440   1.9090896      158.5          158.5          158.5          1.0299337      1.018615       1.0946589      0.97652729     1.9090896    
     12460   1.9090879      158.5          158.5          158.5          1.0298521      1.0184795      1.0946419      0.97643499     1.9090879    
     12480   1.9090867      158.5          158.5          158.5          1.0301956      1.0188538      1.0949499      0.97678324     1.9090867    
     12500   1.9090849      158.5          158.5          158.5          1.0303257      1.0188111      1.0953614      0.97680456     1.9090849    
     12520   1.9090832      158.5          158.5          158.5          1.0305087      1.019135       1.0954069      0.97698417     1.9090832    
     12540   1.9090811      158.5          158.5          158.5          1.0307324      1.0193426      1.0955721      0.97728254     1.9090811    
     12560   1.9090796      158.5          158.5          158.5          1.0309502      1.0195204      1.0958769      0.97745341     1.9090796    
     12580   1.9090782      158.5          158.5          158.5          1.0313437      1.0199577      1.0962151      0.97785823     1.9090782    
     12600   1.9090751      158.5          158.5          158.5          1.0312551      1.0198578      1.0962223      0.97768508     1.9090751    
     12620   1.9090738      158.5          158.5          158.5          1.0310282      1.0195631      1.0959721      0.97754939     1.9090738    
     12640   1.9090731      158.5          158.5          158.5          1.0308249      1.0194815      1.0956266      0.97736678     1.9090731    
     12660   1.9090726      158.5          158.5          158.5          1.0308498      1.0195461      1.0955667      0.9774364      1.9090726    
     12680   1.909072       158.5          158.5          158.5          1.0307886      1.0194907      1.0955279      0.97734739     1.909072     
     12700   1.9090715      158.5          158.5          158.5          1.0308954      1.0195597      1.0957175      0.97740904     1.9090715    
     12720   1.9090709      158.5          158.5          158.5          1.0306214      1.019243       1.0954218      0.97719948     1.9090709    
     12740   1.9090705      158.5          158.5          158.5          1.0303366      1.0190092      1.0950998      0.97690084     1.9090705    
     12760   1.9090701      158.5          158.5          158.5          1.0301445      1.0188483      1.0948675      0.97671767     1.9090701    
     12780   1.9090696      158.5          158.5          158.5          1.0300609      1.0187911      1.0947335      0.9766581      1.9090696    
     12800   1.9090687      158.5          158.5          158.5          1.030442       1.0191955      1.0951123      0.97701824     1.9090687    
     12820   1.909068       158.5          158.5          158.5          1.0307492      1.019415       1.0955168      0.97731594     1.909068     
     12840   1.9090676      158.5          158.5          158.5          1.0307875      1.019442       1.0955774      0.97734318     1.9090676    
     12860   1.9090673      158.5          158.5          158.5          1.0307681      1.0194154      1.0955826      0.97730625     1.9090673    
     12880   1.9090671      158.5          158.5          158.5          1.0306767      1.0192985      1.0955074      0.97722414     1.9090671    
     12900   1.9090665      158.5          158.5          158.5          1.0306879      1.0192967      1.0955323      0.97723468     1.9090665    
     12920   1.909066       158.5          158.5          158.5          1.0306355      1.0192008      1.0955171      0.97718859     1.909066     
     12940   1.9090658      158.5          158.5          158.5          1.0307033      1.0193441      1.0955067      0.97725913     1.9090658    
     12960   1.9090655      158.5          158.5          158.5          1.0307898      1.0194461      1.0955904      0.9773327      1.9090655    
     12980   1.9090653      158.5          158.5          158.5          1.0307826      1.0194263      1.0955843      0.97733731     1.9090653    
     13000   1.9090647      158.5          158.5          158.5          1.0306706      1.0192724      1.0955472      0.97719221     1.9090647    
     13020   1.9090641      158.5          158.5          158.5          1.0305051      1.0191558      1.0953173      0.97704215     1.9090641    
     13040   1.9090634      158.5          158.5          158.5          1.0302816      1.0189833      1.0949991      0.97686233     1.9090634    
     13060   1.9090628      158.5          158.5          158.5          1.0302814      1.0189626      1.0950573      0.97682436     1.9090628    
     13080   1.9090624      158.5          158.5          158.5          1.0304386      1.0190672      1.095265       0.97698367     1.9090624    
     13100   1.9090619      158.5          158.5          158.5          1.0304356      1.0190467      1.0952921      0.97696796     1.9090619    
     13120   1.9090614      158.5          158.5          158.5          1.0303865      1.0189877      1.0952367      0.97693523     1.9090614    
     13140   1.9090605      158.5          158.5          158.5          1.0305665      1.0192364      1.0953518      0.97711127     1.9090605    
     13160   1.9090599      158.5          158.5          158.5          1.0308182      1.0194108      1.0956638      0.97738008     1.9090599    
     13180   1.9090593      158.5          158.5          158.5          1.0311242      1.019749       1.0960039      0.97761988     1.9090593    
     13200   1.9090574      158.5          158.5          158.5          1.031226       1.019786       1.0961929      0.97769922     1.9090574    
     13220   1.9090566      158.5          158.5          158.5          1.0310671      1.0197284      1.0958479      0.97762494     1.9090566    
     13240   1.9090563      158.5          158.5          158.5          1.0308955      1.0195589      1.095668       0.97745949     1.9090563    
     13260   1.9090559      158.5          158.5          158.5          1.0307019      1.0193646      1.0954906      0.97725048     1.9090559    
     13280   1.9090556      158.5          158.5          158.5          1.0305627      1.0192223      1.0953368      0.97712908     1.9090556    
     13300   1.9090553      158.5          158.5          158.5          1.030577       1.0192254      1.095395       0.97711057     1.9090553    
     13320   1.9090547      158.5          158.5          158.5          1.0304025      1.019026       1.095241       0.97694051     1.9090547    
     13340   1.9090543      158.5          158.5          158.5          1.0301958      1.0188498      1.0949941      0.97674344     1.9090543    
     13360   1.9090539      158.5          158.5          158.5          1.0301827      1.0188716      1.0949128      0.97676372     1.9090539    
     13380   1.9090534      158.5          158.5          158.5          1.030254       1.0188779      1.0950726      0.97681147     1.9090534    
     13400   1.9090529      158.5          158.5          158.5          1.0308048      1.0194256      1.0956265      0.97736246     1.9090529    
     13420   1.9090524      158.5          158.5          158.5          1.0309435      1.0196007      1.0957516      0.97747837     1.9090524    
     13440   1.909052       158.5          158.5          158.5          1.0308469      1.0194595      1.0956695      0.97741176     1.909052     
     13460   1.9090516      158.5          158.5          158.5          1.0307266      1.019405       1.0954918      0.97728308     1.9090516    
     13480   1.9090513      158.5          158.5          158.5          1.0307456      1.0194021      1.0955387      0.97729593     1.9090513    
     13500   1.9090509      158.5          158.5          158.5          1.030802       1.0194902      1.0955505      0.97736541     1.9090509    
     13520   1.9090504      158.5          158.5          158.5          1.0307556      1.0194619      1.0954829      0.97732204     1.9090504    
     13540   1.90905        158.5          158.5          158.5          1.0307154      1.019324       1.0955358      0.97728638     1.90905      
     13560   1.9090497      158.5          158.5          158.5          1.0309203      1.0195815      1.09569        0.97748948     1.9090497    
     13580   1.9090494      158.5          158.5          158.5          1.0309035      1.0195593      1.0956893      0.9774618      1.9090494    
     13600   1.9090491      158.5          158.5          158.5          1.0306339      1.0192827      1.0954412      0.97717777     1.9090491    
     13620   1.9090488      158.5          158.5          158.5          1.0302264      1.0188539      1.0950477      0.97677761     1.9090488    
     13640   1.9090484      158.5          158.5          158.5          1.0301488      1.0188401      1.0948805      0.97672571     1.9090484    
     13660   1.909048       158.5          158.5          158.5          1.0303232      1.0189577      1.0951269      0.97688503     1.909048     
     13680   1.9090475      158.5          158.5          158.5          1.0303392      1.018992       1.0950992      0.97692632     1.9090475    
     13700   1.9090467      158.5          158.5          158.5          1.0302933      1.0189325      1.0951276      0.97681994     1.9090467    
     13720   1.9090458      158.5          158.5          158.5          1.0304259      1.0190631      1.0951601      0.97705438     1.9090458    
     13740   1.9090452      158.5          158.5          158.5          1.0304687      1.0191249      1.0952773      0.97700404     1.9090452    
     13760   1.9090446      158.5          158.5          158.5          1.0307898      1.0194226      1.0956315      0.97731535     1.9090446    
     13780   1.9090443      158.5          158.5          158.5          1.030846       1.0194891      1.095684       0.97736498     1.9090443    
     13800   1.9090437      158.5          158.5          158.5          1.0308079      1.019408       1.0956815      0.97733422     1.9090437    
     13820   1.9090433      158.5          158.5          158.5          1.0308162      1.019515       1.0955454      0.9773884      1.9090433    
     13840   1.909043       158.5          158.5          158.5          1.0307441      1.0193565      1.0955744      0.97730153     1.909043     
     13860   1.9090423      158.5          158.5          158.5          1.030607       1.0192869      1.0954072      0.97712677     1.9090423    
     13880   1.9090417      158.5          158.5          158.5          1.0304573      1.0191137      1.0952398      0.97701832     1.9090417    
     13900   1.909041       158.5          158.5          158.5          1.0305279      1.0191447      1.0953542      0.97708493     1.909041     
     13920   1.9090404      158.5          158.5          158.5          1.0306685      1.0192977      1.0955076      0.97720036     1.9090404    
     13940   1.9090401      158.5          158.5          158.5          1.0304785      1.0191127      1.0952931      0.97702964     1.9090401    
     13960   1.9090398      158.5          158.5          158.5          1.0304626      1.0191015      1.0952495      0.97703675     1.9090398    
     13980   1.9090394      158.5          158.5          158.5          1.0305495      1.0192238      1.0953548      0.97707007     1.9090394    
     14000   1.909039       158.5          158.5          158.5          1.0307851      1.0194252      1.0955971      0.97733317     1.909039     
     14020   1.9090387      158.5          158.5          158.5          1.0309643      1.0196087      1.0957709      0.97751332     1.9090387    
     14040   1.9090383      158.5          158.5          158.5          1.0308959      1.0195111      1.0957491      0.97742746     1.9090383    
     14060   1.9090378      158.5          158.5          158.5          1.0307495      1.0193585      1.095567       0.97732317     1.9090378    
     14080   1.9090374      158.5          158.5          158.5          1.0307739      1.0194372      1.0955697      0.97731475     1.9090374    
     14100   1.9090369      158.5          158.5          158.5          1.0308196      1.0194577      1.0956423      0.9773589      1.9090369    
     14120   1.9090367      158.5          158.5          158.5          1.0307255      1.0193751      1.0955049      0.97729669     1.9090367    
     14140   1.9090365      158.5          158.5          158.5          1.0307037      1.0194075      1.0954003      0.97730314     1.9090365    
     14160   1.9090361      158.5          158.5          158.5          1.0308411      1.0194432      1.095692       0.97738813     1.9090361    
     14180   1.9090357      158.5          158.5          158.5          1.0308319      1.0194592      1.0956382      0.97739833     1.9090357    
     14200   1.9090353      158.5          158.5          158.5          1.0305512      1.0192252      1.095288       0.97714028     1.9090353    
     14220   1.9090349      158.5          158.5          158.5          1.03026        1.0189116      1.0950618      0.97680651     1.9090349    
     14240   1.9090344      158.5          158.5          158.5          1.0300521      1.018689       1.0948565      0.97661078     1.9090344    
     14260   1.909034       158.5          158.5          158.5          1.0302166      1.0188834      1.0949762      0.97679028     1.909034     
     14280   1.9090337      158.5          158.5          158.5          1.0304835      1.0191186      1.09531        0.97702191     1.9090337    
     14300   1.9090333      158.5          158.5          158.5          1.0304623      1.0190443      1.095356       0.97698652     1.9090333    
     14320   1.9090328      158.5          158.5          158.5          1.0304778      1.0191951      1.0951446      0.97709377     1.9090328    
     14340   1.9090325      158.5          158.5          158.5          1.0305383      1.0192896      1.0952053      0.97712009     1.9090325    
     14360   1.9090322      158.5          158.5          158.5          1.030821       1.0194414      1.0956726      0.97734888     1.9090322    
     14380   1.9090316      158.5          158.5          158.5          1.0310669      1.0197826      1.0957978      0.97762018     1.9090316    
     14400   1.9090312      158.5          158.5          158.5          1.0310382      1.0196995      1.0958488      0.97756623     1.9090312    
     14420   1.9090309      158.5          158.5          158.5          1.0310216      1.0196529      1.0958565      0.9775556      1.9090309    
     14440   1.9090304      158.5          158.5          158.5          1.0307678      1.0194606      1.095523       0.97731991     1.9090304    
     14460   1.90903        158.5          158.5          158.5          1.0303688      1.0190308      1.0951458      0.97692979     1.90903      
     14480   1.9090297      158.5          158.5          158.5          1.0302567      1.0189846      1.0949171      0.9768685      1.9090297    
     14500   1.9090292      158.5          158.5          158.5          1.0304028      1.0190684      1.0951761      0.9769638      1.9090292    
     14520   1.9090287      158.5          158.5          158.5          1.0304568      1.0191216      1.0952501      0.97699866     1.9090287    
     14540   1.9090283      158.5          158.5          158.5          1.0303606      1.0190641      1.0951127      0.97690499     1.9090283    
     14560   1.909028       158.5          158.5          158.5          1.0303258      1.0190142      1.0950788      0.97688433     1.909028     
     14580   1.9090276      158.5          158.5          158.5          1.0305887      1.0193033      1.0952997      0.97716325     1.9090276    
     14600   1.9090273      158.5          158.5          158.5          1.0307844      1.0194647      1.0955376      0.9773511      1.9090273    
     14620   1.9090269      158.5          158.5          158.5          1.0309161      1.0196128      1.095666       0.97746937     1.9090269    
     14640   1.9090267      158.5          158.5          158.5          1.0308089      1.019444       1.0956296      0.97735305     1.9090267    
     14660   1.9090265      158.5          158.5          158.5          1.0307425      1.0194292      1.0954996      0.97729868     1.9090265    
     14680   1.9090262      158.5          158.5          158.5          1.0307008      1.0193796      1.0954609      0.97726183     1.9090262    
     14700   1.9090258      158.5          158.5          158.5          1.030736       1.0194275      1.0954923      0.97728811     1.9090258    
     14720   1.9090255      158.5          158.5          158.5          1.0306186      1.019307       1.0953875      0.9771614      1.9090255    
     14740   1.9090254      158.5          158.5          158.5          1.0306825      1.0193318      1.0954707      0.97724517     1.9090254    
     14760   1.9090252      158.5          158.5          158.5          1.0307231      1.0193753      1.0955139      0.97728007     1.9090252    
     14780   1.9090251      158.5          158.5          158.5          1.0308458      1.01951        1.0956096      0.97741764     1.9090251    
     14800   1.9090248      158.5          158.5          158.5          1.0306567      1.0192966      1.0954778      0.97719564     1.9090248    
     14820   1.9090243      158.5          158.5          158.5          1.0304179      1.0190877      1.0952075      0.97695855     1.9090243    
     14840   1.9090235      158.5          158.5          158.5          1.0301351      1.0188463      1.0948495      0.97670964     1.9090235    
     14860   1.9090228      158.5          158.5          158.5          1.0304019      1.019047       1.0952021      0.97695676     1.9090228    
     14880   1.9090219      158.5          158.5          158.5          1.0303806      1.0190155      1.0951822      0.97694391     1.9090219    
     14900   1.9090208      158.5          158.5          158.5          1.0301886      1.0188466      1.0949737      0.97674545     1.9090208    
     14920   1.9090198      158.5          158.5          158.5          1.0301046      1.01864        1.0950213      0.97665242     1.9090198    
     14940   1.9090181      158.5          158.5          158.5          1.030547       1.0191922      1.0953759      0.97707302     1.9090181    
     14960   1.9090163      158.5          158.5          158.5          1.0310951      1.0198045      1.0958029      0.97767775     1.9090163    
     14980   1.9090152      158.5          158.5          158.5          1.0314676      1.0201179      1.0962794      0.97800557     1.9090152    
     15000   1.9090131      158.5          158.5          158.5          1.0313493      1.0200069      1.0962039      0.97783694     1.9090131    
     15020   1.9090112      158.5          158.5          158.5          1.0315038      1.0200754      1.0964186      0.9780175      1.9090112    
     15040   1.90901        158.5          158.5          158.5          1.0311686      1.0198325      1.095945       0.97772823     1.90901      
     15060   1.9090086      158.5          158.5          158.5          1.0306799      1.0194122      1.0953798      0.97724757     1.9090086    
     15080   1.9090078      158.5          158.5          158.5          1.0303894      1.0190359      1.0952102      0.97692195     1.9090078    
     15100   1.9090072      158.5          158.5          158.5          1.0303828      1.0190038      1.0952113      0.97693329     1.9090072    
     15120   1.9090065      158.5          158.5          158.5          1.0304051      1.0190431      1.0952296      0.97694262     1.9090065    
     15140   1.9090059      158.5          158.5          158.5          1.030422       1.0190793      1.0952582      0.97692839     1.9090059    
     15160   1.9090056      158.5          158.5          158.5          1.0303308      1.0190302      1.0950581      0.97690397     1.9090056    
     15180   1.9090051      158.5          158.5          158.5          1.0303371      1.0189747      1.0951634      0.97687306     1.9090051    
     15200   1.9090045      158.5          158.5          158.5          1.0305336      1.0191858      1.0953196      0.97709548     1.9090045    
     15220   1.9090041      158.5          158.5          158.5          1.0307353      1.0194259      1.0955048      0.9772751      1.9090041    
     15240   1.9090038      158.5          158.5          158.5          1.0307662      1.019405       1.0955987      0.97729478     1.9090038    
     15260   1.9090036      158.5          158.5          158.5          1.0305774      1.0192116      1.0953846      0.97713601     1.9090036    
     15280   1.9090035      158.5          158.5          158.5          1.030507       1.0191878      1.0952526      0.9770805      1.9090035    
     15300   1.9090034      158.5          158.5          158.5          1.0305881      1.0192368      1.0953745      0.97715296     1.9090034    
     15320   1.9090033      158.5          158.5          158.5          1.030641       1.0192917      1.0954314      0.9772         1.9090033    
     15340   1.9090031      158.5          158.5          158.5          1.030845       1.0195521      1.0955736      0.97740935     1.9090031    
     15360   1.9090028      158.5          158.5          158.5          1.0309641      1.0196053      1.0957783      0.97750877     1.9090028    
     15380   1.9090024      158.5          158.5          158.5          1.0307628      1.0193975      1.0955814      0.97730955     1.9090024    
     15400   1.9090017      158.5          158.5          158.5          1.03051        1.0191228      1.0953027      0.97710458     1.9090017    
     15420   1.9090011      158.5          158.5          158.5          1.0305884      1.0192493      1.0953704      0.97714563     1.9090011    
     15440   1.9090008      158.5          158.5          158.5          1.0305815      1.0192105      1.0954057      0.97712822     1.9090008    
     15460   1.9090005      158.5          158.5          158.5          1.0306386      1.0193098      1.0954155      0.97719061     1.9090005    
     15480   1.9090003      158.5          158.5          158.5          1.0304652      1.0191284      1.0952499      0.97701726     1.9090003    
     15500   1.9089998      158.5          158.5          158.5          1.0303932      1.0190701      1.0951337      0.97697591     1.9089998    
     15520   1.9089982      158.5          158.5          158.5          1.0302941      1.0190099      1.0949285      0.97694385     1.9089982    
     15540   1.9089927      158.5          158.5          158.5          1.0308026      1.0193063      1.0956466      0.97745507     1.9089927    
     15560   1.9089867      158.5          158.5          158.5          1.0309832      1.0196446      1.0957295      0.97757551     1.9089867    
     15580   1.9089847      158.5          158.5          158.5          1.0312301      1.0198857      1.0960439      0.97776063     1.9089847    
     15600   1.9089839      158.5          158.5          158.5          1.0310933      1.0197765      1.0958593      0.97764417     1.9089839    
     15620   1.9089836      158.5          158.5          158.5          1.0311567      1.0197639      1.0959965      0.97770964     1.9089836    
     15640   1.9089829      158.5          158.5          158.5          1.0308508      1.0194838      1.0956434      0.9774252      1.9089829    
     15660   1.9089823      158.5          158.5          158.5          1.0307123      1.019342       1.0955325      0.9772623      1.9089823    
     15680   1.908982       158.5          158.5          158.5          1.0306113      1.0192381      1.0954371      0.97715877     1.908982     
     15700   1.9089818      158.5          158.5          158.5          1.03055        1.0191999      1.095335       0.97711507     1.9089818    
     15720   1.9089813      158.5          158.5          158.5          1.0305317      1.0191872      1.0953133      0.97709462     1.9089813    
     15740   1.9089808      158.5          158.5          158.5          1.0306637      1.0193415      1.0954439      0.97720568     1.9089808    
     15760   1.9089804      158.5          158.5          158.5          1.030489       1.0191512      1.0952799      0.97703592     1.9089804    
     15780   1.9089802      158.5          158.5          158.5          1.0304076      1.0190744      1.0951805      0.97696801     1.9089802    
     15800   1.9089801      158.5          158.5          158.5          1.0303993      1.0190714      1.0951716      0.97695478     1.9089801    
     15820   1.90898        158.5          158.5          158.5          1.0305362      1.0192043      1.0953         0.97710428     1.90898      
     15840   1.9089799      158.5          158.5          158.5          1.030816       1.0194576      1.0956425      0.97734776     1.9089799    
     15860   1.9089797      158.5          158.5          158.5          1.031003       1.0196153      1.0958721      0.97752155     1.9089797    
     15880   1.9089791      158.5          158.5          158.5          1.0311955      1.0198536      1.0959681      0.97776466     1.9089791    
     15900   1.9089785      158.5          158.5          158.5          1.0312766      1.0199195      1.0960536      0.97785674     1.9089785    
     15920   1.9089779      158.5          158.5          158.5          1.0312297      1.0198756      1.0960859      0.97772763     1.9089779    
     15940   1.9089774      158.5          158.5          158.5          1.0310862      1.0197144      1.0959241      0.97762008     1.9089774    
     15960   1.9089771      158.5          158.5          158.5          1.0306963      1.0193825      1.095447       0.97725934     1.9089771    
     15980   1.9089769      158.5          158.5          158.5          1.0303741      1.0190586      1.0950975      0.97696605     1.9089769    
     16000   1.9089767      158.5          158.5          158.5          1.0303769      1.0190614      1.0951153      0.97695402     1.9089767    
     16020   1.9089764      158.5          158.5          158.5          1.0304242      1.0190959      1.0951943      0.97698226     1.9089764    
     16040   1.9089761      158.5          158.5          158.5          1.030547       1.0191739      1.0953538      0.97711327     1.9089761    
     16060   1.9089758      158.5          158.5          158.5          1.0304433      1.019127       1.0952104      0.97699249     1.9089758    
     16080   1.9089757      158.5          158.5          158.5          1.0304248      1.0190649      1.0952206      0.97698885     1.9089757    
     16100   1.9089754      158.5          158.5          158.5          1.0303914      1.0190662      1.095142       0.97696594     1.9089754    
     16120   1.9089749      158.5          158.5          158.5          1.0305586      1.019229       1.095328       0.97711885     1.9089749    
     16140   1.9089746      158.5          158.5          158.5          1.0306115      1.0193091      1.0953586      0.97716677     1.9089746    
     16160   1.9089745      158.5          158.5          158.5          1.0307409      1.0194159      1.0955017      0.97730516     1.9089745    
     16180   1.9089743      158.5          158.5          158.5          1.0309068      1.0195222      1.0957389      0.97745925     1.9089743    
     16200   1.9089741      158.5          158.5          158.5          1.0309799      1.0196403      1.0957564      0.97754299     1.9089741    
     16220   1.9089739      158.5          158.5          158.5          1.0309275      1.0195544      1.0957608      0.97746725     1.9089739    
     16240   1.9089737      158.5          158.5          158.5          1.0307448      1.0193539      1.0955846      0.97729601     1.9089737    
     16260   1.9089735      158.5          158.5          158.5          1.0306092      1.0192236      1.0954692      0.9771347      1.9089735    
     16280   1.908973       158.5          158.5          158.5          1.030437       1.0191135      1.0951749      0.97702261     1.908973     
     16300   1.9089727      158.5          158.5          158.5          1.0304933      1.0191659      1.0952741      0.97703987     1.9089727    
     16320   1.9089725      158.5          158.5          158.5          1.0304886      1.0191032      1.095343       0.97701953     1.9089725    
     16340   1.9089722      158.5          158.5          158.5          1.0306767      1.0193133      1.0954862      0.97723049     1.9089722    
     16360   1.908972       158.5          158.5          158.5          1.0306103      1.0192892      1.0953735      0.97716815     1.908972     
     16380   1.9089718      158.5          158.5          158.5          1.0305733      1.0192374      1.0953501      0.97713235     1.9089718    
     16400   1.9089715      158.5          158.5          158.5          1.0305155      1.0191529      1.0953075      0.97708615     1.9089715    
     16420   1.9089713      158.5          158.5          158.5          1.0305322      1.0191814      1.0953264      0.97708867     1.9089713    
     16440   1.9089712      158.5          158.5          158.5          1.0306894      1.0193633      1.0954764      0.97722838     1.9089712    
     16460   1.9089709      158.5          158.5          158.5          1.0307822      1.0194499      1.0955962      0.97730047     1.9089709    
     16480   1.9089704      158.5          158.5          158.5          1.0308097      1.0194789      1.0955763      0.97737384     1.9089704    
     16500   1.9089698      158.5          158.5          158.5          1.0307733      1.01941        1.0955927      0.97731725     1.9089698    
     16520   1.9089695      158.5          158.5          158.5          1.0308457      1.0194987      1.0956391      0.97739914     1.9089695    
     16540   1.9089692      158.5          158.5          158.5          1.0308192      1.0194671      1.0956172      0.9773735      1.9089692    
     16560   1.9089691      158.5          158.5          158.5          1.0307347      1.0193836      1.0955195      0.9773009      1.9089691    
     16580   1.9089688      158.5          158.5          158.5          1.030364       1.0190372      1.0951165      0.9769385      1.9089688    
     16600   1.9089684      158.5          158.5          158.5          1.0302252      1.018851       1.0950668      0.97675773     1.9089684    
     16620   1.9089682      158.5          158.5          158.5          1.030389       1.0190613      1.0951585      0.97694707     1.9089682    
     16640   1.9089679      158.5          158.5          158.5          1.030503       1.0192115      1.0952396      0.97705779     1.9089679    
     16660   1.9089676      158.5          158.5          158.5          1.0306471      1.0193704      1.0953315      0.97723923     1.9089676    
     16680   1.9089672      158.5          158.5          158.5          1.030663       1.0193366      1.0954383      0.97721407     1.9089672    
     16700   1.9089671      158.5          158.5          158.5          1.030736       1.019405       1.0955262      0.97727685     1.9089671    
     16720   1.9089668      158.5          158.5          158.5          1.0307148      1.0193946      1.0954484      0.97730153     1.9089668    
     16740   1.9089666      158.5          158.5          158.5          1.0307384      1.0193776      1.095547       0.97729073     1.9089666    
     16760   1.9089664      158.5          158.5          158.5          1.0307834      1.0194622      1.0955495      0.97733858     1.9089664    
     16780   1.9089662      158.5          158.5          158.5          1.0308434      1.0194904      1.0956763      0.97736359     1.9089662    
     16800   1.9089658      158.5          158.5          158.5          1.0308688      1.0195358      1.0956289      0.97744182     1.9089658    
     16820   1.9089653      158.5          158.5          158.5          1.0307815      1.0194312      1.095563       0.97735036     1.9089653    
     16840   1.908965       158.5          158.5          158.5          1.0306997      1.0193244      1.0955235      0.97725113     1.908965     
     16860   1.9089648      158.5          158.5          158.5          1.0307517      1.0194273      1.0955297      0.97729816     1.9089648    
     16880   1.9089645      158.5          158.5          158.5          1.0307795      1.0194271      1.0955862      0.97732529     1.9089645    
     16900   1.9089643      158.5          158.5          158.5          1.0307324      1.01941        1.0955051      0.97728209     1.9089643    
     16920   1.908964       158.5          158.5          158.5          1.0306379      1.0192558      1.0954804      0.97717758     1.908964     
     16940   1.9089637      158.5          158.5          158.5          1.0305912      1.0192477      1.0953401      0.97718569     1.9089637    
     16960   1.9089634      158.5          158.5          158.5          1.0304642      1.0191209      1.095261       0.97701068     1.9089634    
     16980   1.9089632      158.5          158.5          158.5          1.0303748      1.0190757      1.0951207      0.97692789     1.9089632    
     17000   1.908963       158.5          158.5          158.5          1.0303216      1.0190291      1.095046       0.97688961     1.908963     
     17020   1.9089628      158.5          158.5          158.5          1.0304764      1.0191535      1.0952248      0.97705084     1.9089628    
     17040   1.9089625      158.5          158.5          158.5          1.0307168      1.0192963      1.095605       0.97724898     1.9089625    
     17060   1.9089624      158.5          158.5          158.5          1.0307819      1.0194432      1.0955821      0.97732053     1.9089624    
     17080   1.9089622      158.5          158.5          158.5          1.0307434      1.0194313      1.0954985      0.97730025     1.9089622    
     17100   1.9089621      158.5          158.5          158.5          1.0306625      1.0193149      1.0954341      0.97723842     1.9089621    
     17120   1.908962       158.5          158.5          158.5          1.0307703      1.0194468      1.095532       0.97733203     1.908962     
     17140   1.9089619      158.5          158.5          158.5          1.0308029      1.0194604      1.0955917      0.97735648     1.9089619    
     17160   1.9089617      158.5          158.5          158.5          1.0306347      1.0192976      1.0953896      0.97721689     1.9089617    
     17180   1.9089615      158.5          158.5          158.5          1.0303697      1.0190319      1.0951446      0.97693269     1.9089615    
     17200   1.9089613      158.5          158.5          158.5          1.0302652      1.0189691      1.0949984      0.97682813     1.9089613    
     17220   1.9089611      158.5          158.5          158.5          1.0303953      1.0190746      1.095145       0.97696621     1.9089611    
     17240   1.9089607      158.5          158.5          158.5          1.030507       1.0191596      1.0952905      0.97707081     1.9089607    
     17260   1.9089604      158.5          158.5          158.5          1.0306129      1.0192621      1.0953844      0.97719222     1.9089604    
     17280   1.90896        158.5          158.5          158.5          1.030581       1.019204       1.0954092      0.97713        1.90896      
     17300   1.9089597      158.5          158.5          158.5          1.0306826      1.0193667      1.0954395      0.9772416      1.9089597    
     17320   1.9089593      158.5          158.5          158.5          1.0307343      1.0193881      1.0955481      0.97726674     1.9089593    
     17340   1.9089589      158.5          158.5          158.5          1.030746       1.0193692      1.0955847      0.97728402     1.9089589    
     17360   1.9089584      158.5          158.5          158.5          1.0309064      1.0196166      1.0956232      0.97747937     1.9089584    
     17380   1.908958       158.5          158.5          158.5          1.0308823      1.0195493      1.0956653      0.9774323      1.908958     
     17400   1.9089568      158.5          158.5          158.5          1.0309103      1.0193952      1.0958574      0.97747825     1.9089568    
     17420   1.908956       158.5          158.5          158.5          1.0308618      1.0194959      1.0956661      0.97742337     1.908956     
     17440   1.9089556      158.5          158.5          158.5          1.0309179      1.0195119      1.0957953      0.97744655     1.9089556    
     17460   1.9089551      158.5          158.5          158.5          1.0308087      1.0194791      1.0956038      0.9773431      1.9089551    
     17480   1.9089548      158.5          158.5          158.5          1.030773       1.019346       1.0956668      0.97730632     1.9089548    
     17500   1.9089545      158.5          158.5          158.5          1.0307185      1.019394       1.0954698      0.97729162     1.9089545    
     17520   1.9089542      158.5          158.5          158.5          1.0305886      1.0191814      1.0954664      0.97711811     1.9089542    
     17540   1.9089539      158.5          158.5          158.5          1.0305361      1.0192133      1.095284       0.97711106     1.9089539    
     17560   1.9089536      158.5          158.5          158.5          1.0305359      1.0191675      1.0953645      0.97707582     1.9089536    
     17580   1.9089532      158.5          158.5          158.5          1.0304124      1.0190592      1.0952116      0.97696632     1.9089532    
     17600   1.908953       158.5          158.5          158.5          1.030338       1.0190161      1.0950964      0.97690163     1.908953     
     17620   1.9089528      158.5          158.5          158.5          1.0303534      1.0189935      1.0951502      0.97691644     1.9089528    
     17640   1.9089527      158.5          158.5          158.5          1.0305621      1.0192383      1.0953132      0.97713475     1.9089527    
     17660   1.9089525      158.5          158.5          158.5          1.0306989      1.0193974      1.0954355      0.97726379     1.9089525    
     17680   1.9089524      158.5          158.5          158.5          1.0307448      1.0194188      1.0955183      0.97729735     1.9089524    
     17700   1.9089523      158.5          158.5          158.5          1.030686       1.019362       1.0954522      0.97724386     1.9089523    
     17720   1.9089523      158.5          158.5          158.5          1.0307832      1.019447       1.0955656      0.97733689     1.9089523    
     17740   1.9089522      158.5          158.5          158.5          1.0307235      1.0193947      1.0955085      0.9772673      1.9089522    
     17760   1.908952       158.5          158.5          158.5          1.0305633      1.0192396      1.0953287      0.97712156     1.908952     
     17780   1.9089518      158.5          158.5          158.5          1.0303283      1.0189731      1.0951276      0.9768843      1.9089518    
     17800   1.9089516      158.5          158.5          158.5          1.030374       1.0190306      1.095141       0.97695034     1.9089516    
     17820   1.9089513      158.5          158.5          158.5          1.0305067      1.0192053      1.0952796      0.97703527     1.9089513    
     17840   1.9089509      158.5          158.5          158.5          1.030589       1.0191944      1.0954503      0.97712235     1.9089509    
     17860   1.9089506      158.5          158.5          158.5          1.0305716      1.0192918      1.095257       0.97716593     1.9089506    
     17880   1.9089503      158.5          158.5          158.5          1.0305564      1.0192212      1.0953324      0.97711572     1.9089503    
     17900   1.9089499      158.5          158.5          158.5          1.0306319      1.0192336      1.0955081      0.97715396     1.9089499    
     17920   1.9089495      158.5          158.5          158.5          1.0307923      1.0194919      1.0955369      0.97734805     1.9089495    
     17940   1.908949       158.5          158.5          158.5          1.0309483      1.0195287      1.0958624      0.97745381     1.908949     
     17960   1.9089486      158.5          158.5          158.5          1.030943       1.0196213      1.0957004      0.97750723     1.9089486    
     17980   1.908948       158.5          158.5          158.5          1.0310231      1.0196673      1.0958751      0.97752687     1.908948     
     18000   1.9089447      158.5          158.5          158.5          1.0306381      1.0195         1.0952447      0.97716969     1.9089447    
     18020   1.9089424      158.5          158.5          158.5          1.0308984      1.0195142      1.095725       0.97745602     1.9089424    
     18040   1.9089417      158.5          158.5          158.5          1.0309351      1.0195614      1.0957886      0.97745524     1.9089417    
     18060   1.9089411      158.5          158.5          158.5          1.0310503      1.0196832      1.0958758      0.97759187     1.9089411    
     18080   1.9089406      158.5          158.5          158.5          1.0308538      1.0194511      1.0957117      0.97739867     1.9089406    
     18100   1.9089401      158.5          158.5          158.5          1.0306186      1.0192842      1.0954028      0.97716897     1.9089401    
     18120   1.9089399      158.5          158.5          158.5          1.0305697      1.0192593      1.0953349      0.97711482     1.9089399    
     18140   1.9089395      158.5          158.5          158.5          1.0304325      1.0191069      1.0951843      0.97700617     1.9089395    
     18160   1.9089392      158.5          158.5          158.5          1.030499       1.0191721      1.095256       0.97706879     1.9089392    
     18180   1.9089389      158.5          158.5          158.5          1.0306151      1.019265       1.0954253      0.97715484     1.9089389    
     18200   1.9089387      158.5          158.5          158.5          1.0305548      1.0192163      1.0953391      0.97710902     1.9089387    
     18220   1.9089384      158.5          158.5          158.5          1.0304814      1.0191398      1.0952635      0.97704094     1.9089384    
     18240   1.9089382      158.5          158.5          158.5          1.0305361      1.0191866      1.0953335      0.97708811     1.9089382    
     18260   1.9089381      158.5          158.5          158.5          1.0306616      1.0193291      1.0954565      0.97719904     1.9089381    
     18280   1.908938       158.5          158.5          158.5          1.0307031      1.0193518      1.0954985      0.977259       1.908938     
     18300   1.908938       158.5          158.5          158.5          1.0306624      1.0193311      1.0954321      0.977224       1.908938     
     18320   1.908938       158.5          158.5          158.5          1.0307275      1.019396       1.0955093      0.97727723     1.908938     
     18340   1.9089379      158.5          158.5          158.5          1.0307149      1.0193398      1.0955643      0.97724064     1.9089379    
     18360   1.9089378      158.5          158.5          158.5          1.0305715      1.019236       1.095346       0.97713253     1.9089378    
     18380   1.9089376      158.5          158.5          158.5          1.0304739      1.0191212      1.0952618      0.97703861     1.9089376    
     18400   1.9089372      158.5          158.5          158.5          1.0305278      1.0192156      1.0952915      0.97707647     1.9089372    
     18420   1.9089368      158.5          158.5          158.5          1.0305457      1.0192047      1.0953347      0.97709757     1.9089368    
     18440   1.9089362      158.5          158.5          158.5          1.0302741      1.0189605      1.0950274      0.97683431     1.9089362    
     18460   1.9089355      158.5          158.5          158.5          1.0301136      1.018747       1.0948823      0.97671152     1.9089355    
     18480   1.9089347      158.5          158.5          158.5          1.030301       1.0190074      1.0950022      0.97689331     1.9089347    
     18500   1.9089341      158.5          158.5          158.5          1.0306309      1.019308       1.095417       0.9771676      1.9089341    
     18520   1.908933       158.5          158.5          158.5          1.0310116      1.0197003      1.0958032      0.97753126     1.908933     
     18540   1.9089321      158.5          158.5          158.5          1.0311589      1.0198508      1.0959685      0.97765752     1.9089321    
     18560   1.9089311      158.5          158.5          158.5          1.031022       1.0197229      1.095757       0.97758608     1.9089311    
     18580   1.9089302      158.5          158.5          158.5          1.0308712      1.0195498      1.0956551      0.97740872     1.9089302    
     18600   1.9089271      158.5          158.5          158.5          1.0308846      1.0196089      1.095703       0.97734184     1.9089271    
     18620   1.9089256      158.5          158.5          158.5          1.0309469      1.0195031      1.0958804      0.97745713     1.9089256    
     18640   1.908925       158.5          158.5          158.5          1.0309121      1.0195445      1.0957487      0.97744319     1.908925     
     18660   1.9089245      158.5          158.5          158.5          1.0308999      1.0195352      1.095754       0.97741048     1.9089245    
     18680   1.9089241      158.5          158.5          158.5          1.0308236      1.0194416      1.0956854      0.97734381     1.9089241    
     18700   1.9089237      158.5          158.5          158.5          1.0307304      1.0193868      1.0955197      0.97728468     1.9089237    
     18720   1.9089234      158.5          158.5          158.5          1.0305499      1.019168       1.0953553      0.97712624     1.9089234    
     18740   1.9089231      158.5          158.5          158.5          1.0303975      1.0190053      1.0952364      0.97695085     1.9089231    
     18760   1.9089228      158.5          158.5          158.5          1.0304652      1.0191083      1.0952736      0.97701358     1.9089228    
     18780   1.9089225      158.5          158.5          158.5          1.0305376      1.0191737      1.0953561      0.97708304     1.9089225    
     18800   1.9089223      158.5          158.5          158.5          1.030552       1.0192254      1.0953265      0.97710424     1.9089223    
     18820   1.9089221      158.5          158.5          158.5          1.0304931      1.0191473      1.0952907      0.97704152     1.9089221    
     18840   1.908922       158.5          158.5          158.5          1.030502       1.019158       1.0952629      0.97708503     1.908922     
     18860   1.9089219      158.5          158.5          158.5          1.0306055      1.0192589      1.0954086      0.97714907     1.9089219    
     18880   1.9089218      158.5          158.5          158.5          1.0307114      1.0193634      1.0955124      0.97725841     1.9089218    
     18900   1.9089218      158.5          158.5          158.5          1.0307277      1.0193837      1.0955174      0.97728197     1.9089218    
     18920   1.9089217      158.5          158.5          158.5          1.0306967      1.01936        1.0954779      0.97725201     1.9089217    
     18940   1.9089217      158.5          158.5          158.5          1.030626       1.0192644      1.0954509      0.97716253     1.9089217    
     18960   1.9089216      158.5          158.5          158.5          1.0304854      1.0191562      1.0952404      0.97705969     1.9089216    
     18980   1.9089214      158.5          158.5          158.5          1.0304883      1.0191473      1.0952775      0.9770401      1.9089214    
     19000   1.9089213      158.5          158.5          158.5          1.0305381      1.0192458      1.0952808      0.97708758     1.9089213    
     19020   1.908921       158.5          158.5          158.5          1.0304804      1.0190826      1.0953131      0.97704538     1.908921     
     19040   1.9089205      158.5          158.5          158.5          1.0303411      1.0190057      1.0951101      0.97690744     1.9089205    
     19060   1.9089198      158.5          158.5          158.5          1.0302978      1.0189036      1.0951177      0.976872       1.9089198    
     19080   1.9089191      158.5          158.5          158.5          1.0304575      1.0191158      1.0952202      0.97703643     1.9089191    
     19100   1.9089183      158.5          158.5          158.5          1.0307094      1.0193311      1.0955527      0.97724456     1.9089183    
     19120   1.9089173      158.5          158.5          158.5          1.0308555      1.0194405      1.0957719      0.97735399     1.9089173    
     19140   1.9089165      158.5          158.5          158.5          1.0309404      1.0195389      1.0958275      0.97745483     1.9089165    
     19160   1.9089157      158.5          158.5          158.5          1.0309134      1.0195542      1.0957427      0.97744343     1.9089157    
     19180   1.908915       158.5          158.5          158.5          1.0309783      1.0196871      1.0957479      0.97749992     1.908915     
     19200   1.9089137      158.5          158.5          158.5          1.0308436      1.0195264      1.0956246      0.97737991     1.9089137    
     19220   1.9089127      158.5          158.5          158.5          1.0308478      1.0193935      1.0957611      0.97738875     1.9089127    
     19240   1.9089122      158.5          158.5          158.5          1.0308509      1.0194818      1.0956702      0.97740057     1.9089122    
     19260   1.9089117      158.5          158.5          158.5          1.0308489      1.019553       1.0956391      0.97735471     1.9089117    
     19280   1.9089112      158.5          158.5          158.5          1.0307994      1.019445       1.0956252      0.97732793     1.9089112    
     19300   1.9089108      158.5          158.5          158.5          1.0306899      1.0192737      1.0955755      0.97722051     1.9089108    
     19320   1.9089104      158.5          158.5          158.5          1.0304139      1.0189817      1.0952997      0.97696032     1.9089104    
     19340   1.90891        158.5          158.5          158.5          1.0304145      1.0191044      1.0951416      0.97699764     1.90891      
     19360   1.9089096      158.5          158.5          158.5          1.0304527      1.0191042      1.09524        0.97701393     1.9089096    
     19380   1.9089094      158.5          158.5          158.5          1.0305746      1.0192346      1.0953627      0.97712645     1.9089094    
     19400   1.9089092      158.5          158.5          158.5          1.0304855      1.01918        1.095225       0.9770515      1.9089092    
     19420   1.9089091      158.5          158.5          158.5          1.0304728      1.0191455      1.0952344      0.97703859     1.9089091    
     19440   1.908909       158.5          158.5          158.5          1.0305161      1.019169       1.0953136      0.97706576     1.908909     
     19460   1.9089089      158.5          158.5          158.5          1.03064        1.0193449      1.0953859      0.97718942     1.9089089    
     19480   1.9089089      158.5          158.5          158.5          1.0307211      1.019383       1.0955031      0.9772773      1.9089089    
     19500   1.9089088      158.5          158.5          158.5          1.0307124      1.0193692      1.0955088      0.97725909     1.9089088    
     19520   1.9089088      158.5          158.5          158.5          1.0307164      1.0193685      1.0955059      0.97727493     1.9089088    
     19540   1.9089088      158.5          158.5          158.5          1.0306161      1.0193175      1.0953615      0.97716938     1.9089088    
     19560   1.9089087      158.5          158.5          158.5          1.030523       1.01918        1.0953029      0.97708618     1.9089087    
     19580   1.9089086      158.5          158.5          158.5          1.0304773      1.0191279      1.0952602      0.97704398     1.9089086    
     19600   1.9089085      158.5          158.5          158.5          1.0305265      1.0192334      1.0952487      0.97709719     1.9089085    
     19620   1.9089082      158.5          158.5          158.5          1.0306233      1.0193098      1.0953811      0.97717913     1.9089082    
     19640   1.9089079      158.5          158.5          158.5          1.0304456      1.0191136      1.0952199      0.97700336     1.9089079    
     19660   1.9089072      158.5          158.5          158.5          1.0303358      1.0190203      1.0950252      0.97696204     1.9089072    
     19680   1.9089065      158.5          158.5          158.5          1.030447       1.0191351      1.0951704      0.97703569     1.9089065    
     19700   1.9089056      158.5          158.5          158.5          1.0307471      1.0194453      1.0954645      0.9773314      1.9089056    
     19720   1.9089045      158.5          158.5          158.5          1.0310695      1.0198815      1.095728       0.97759909     1.9089045    
     19740   1.9089035      158.5          158.5          158.5          1.0310967      1.0198181      1.0958285      0.97764345     1.9089035    
     19760   1.9089026      158.5          158.5          158.5          1.0310538      1.0197113      1.0959037      0.9775465      1.9089026    
     19780   1.9089019      158.5          158.5          158.5          1.0309771      1.019659       1.0957488      0.97752356     1.9089019    
     19800   1.9089011      158.5          158.5          158.5          1.0309676      1.0196396      1.0957441      0.97751905     1.9089011    
     19820   1.9089005      158.5          158.5          158.5          1.0309145      1.0196783      1.0956204      0.97744466     1.9089005    
     19840   1.9088998      158.5          158.5          158.5          1.0308374      1.019468       1.0956473      0.97739694     1.9088998    
     19860   1.9088991      158.5          158.5          158.5          1.0309128      1.019613       1.0957092      0.9774161      1.9088991    
     19880   1.9088984      158.5          158.5          158.5          1.0305337      1.0192011      1.095282       0.97711814     1.9088984    
     19900   1.9088978      158.5          158.5          158.5          1.0305369      1.0192231      1.0952716      0.97711585     1.9088978    
     19920   1.9088974      158.5          158.5          158.5          1.0304384      1.0191047      1.0952284      0.97698201     1.9088974    
     19940   1.908897       158.5          158.5          158.5          1.0306165      1.0193038      1.0953692      0.97717652     1.908897     
     19960   1.9088968      158.5          158.5          158.5          1.0306262      1.019271       1.095421       0.97718654     1.9088968    
     19980   1.9088965      158.5          158.5          158.5          1.0306126      1.0192903      1.0953822      0.97716538     1.9088965    
     20000   1.9088964      158.5          158.5          158.5          1.0305487      1.019241       1.0953012      0.97710384     1.9088964    
     20020   1.9088963      158.5          158.5          158.5          1.0305684      1.0192229      1.0953649      0.97711749     1.9088963    
     20040   1.9088962      158.5          158.5          158.5          1.0306063      1.0192683      1.0953781      0.97717263     1.9088962    
     20060   1.9088962      158.5          158.5          158.5          1.0306832      1.0193359      1.0954837      0.97722995     1.9088962    
     20080   1.9088962      158.5          158.5          158.5          1.0306945      1.0193646      1.0954642      0.97725482     1.9088962    
     20100   1.9088961      158.5          158.5          158.5          1.0307083      1.019352       1.0955222      0.97725066     1.9088961    
     20120   1.9088961      158.5          158.5          158.5          1.0307048      1.0193671      1.0954784      0.97726901     1.9088961    
     20140   1.9088961      158.5          158.5          158.5          1.0306655      1.0193186      1.0954612      0.97721664     1.9088961    
     20160   1.908896       158.5          158.5          158.5          1.030599       1.0192758      1.0953692      0.97715203     1.908896     
     20180   1.908896       158.5          158.5          158.5          1.0305102      1.0191673      1.0952944      0.97706894     1.908896     
     20200   1.9088958      158.5          158.5          158.5          1.0305594      1.0192532      1.0953007      0.97712424     1.9088958    
     20220   1.9088957      158.5          158.5          158.5          1.0305822      1.0192622      1.0953742      0.97711009     1.9088957    
     20240   1.9088953      158.5          158.5          158.5          1.0304308      1.0190622      1.0952317      0.97699858     1.9088953    
     20260   1.9088946      158.5          158.5          158.5          1.0302687      1.0189292      1.0950076      0.97686925     1.9088946    
     20280   1.9088939      158.5          158.5          158.5          1.0301402      1.0188701      1.0947822      0.97676831     1.9088939    
     20300   1.9088927      158.5          158.5          158.5          1.0303759      1.0190828      1.0951238      0.97692099     1.9088927    
     20320   1.9088913      158.5          158.5          158.5          1.0305108      1.0191127      1.0953938      0.97702585     1.9088913    
     20340   1.9088895      158.5          158.5          158.5          1.0306517      1.0192509      1.0955443      0.97716        1.9088895    
     20360   1.908888       158.5          158.5          158.5          1.0308547      1.0195375      1.0955674      0.97745919     1.908888     
     20380   1.9088866      158.5          158.5          158.5          1.0310346      1.0197238      1.0957998      0.97758032     1.9088866    
     20400   1.9088862      158.5          158.5          158.5          1.030936       1.0195877      1.0957406      0.97747961     1.9088862    
     20420   1.908886       158.5          158.5          158.5          1.0309045      1.0195904      1.0956563      0.97746696     1.908886     
     20440   1.9088857      158.5          158.5          158.5          1.0307159      1.0194418      1.0954168      0.97728904     1.9088857    
     20460   1.9088855      158.5          158.5          158.5          1.0307185      1.0193853      1.0955006      0.97726976     1.9088855    
     20480   1.9088853      158.5          158.5          158.5          1.0306889      1.0193538      1.0954735      0.97723939     1.9088853    
     20500   1.908885       158.5          158.5          158.5          1.0306204      1.0192787      1.0954146      0.97716774     1.908885     
     20520   1.9088849      158.5          158.5          158.5          1.0305383      1.0192039      1.0952993      0.97711165     1.9088849    
     20540   1.9088848      158.5          158.5          158.5          1.0305844      1.0192672      1.0953383      0.97714789     1.9088848    
     20560   1.9088847      158.5          158.5          158.5          1.0306028      1.0192728      1.0953802      0.97715538     1.9088847    
     20580   1.9088847      158.5          158.5          158.5          1.0306143      1.0192713      1.0954039      0.97716766     1.9088847    
     20600   1.9088847      158.5          158.5          158.5          1.0306027      1.0192607      1.095393       0.97715429     1.9088847    
     20620   1.9088846      158.5          158.5          158.5          1.0306044      1.0192664      1.0953876      0.97715938     1.9088846    
     20640   1.9088846      158.5          158.5          158.5          1.0306492      1.0193152      1.0954311      0.97720134     1.9088846    
     20660   1.9088845      158.5          158.5          158.5          1.0307584      1.0194213      1.0955437      0.97731019     1.9088845    
     20680   1.9088845      158.5          158.5          158.5          1.0307559      1.0194457      1.0955106      0.9773114      1.9088845    
     20700   1.9088841      158.5          158.5          158.5          1.0307171      1.0193951      1.0954783      0.9772778      1.9088841    
     20720   1.9088839      158.5          158.5          158.5          1.0307451      1.0194038      1.0955326      0.97729886     1.9088839    
     20740   1.9088838      158.5          158.5          158.5          1.0307575      1.0193985      1.0955774      0.97729655     1.9088838    
     20760   1.9088837      158.5          158.5          158.5          1.0306757      1.0193254      1.0954742      0.9772275      1.9088837    
     20780   1.9088837      158.5          158.5          158.5          1.0305944      1.019264       1.0953633      0.97715585     1.9088837    
     20800   1.9088837      158.5          158.5          158.5          1.0305782      1.0192424      1.0953684      0.97712381     1.9088837    
     20820   1.9088836      158.5          158.5          158.5          1.0305727      1.019242       1.0953535      0.97712268     1.9088836    
     20840   1.9088835      158.5          158.5          158.5          1.0305362      1.019209       1.0953143      0.97708531     1.9088835    
     20860   1.9088834      158.5          158.5          158.5          1.0305308      1.0191847      1.0953113      0.97709632     1.9088834    
     20880   1.9088834      158.5          158.5          158.5          1.0305865      1.0192543      1.0953563      0.97714883     1.9088834    
     20900   1.9088833      158.5          158.5          158.5          1.0306961      1.019361       1.0954739      0.97725348     1.9088833    
     20920   1.9088832      158.5          158.5          158.5          1.0307332      1.0193946      1.0955188      0.97728629     1.9088832    
     20940   1.9088831      158.5          158.5          158.5          1.0307019      1.0193905      1.0954419      0.97727316     1.9088831    
     20960   1.908883       158.5          158.5          158.5          1.0307789      1.0194484      1.0955402      0.97734823     1.908883     
     20980   1.9088829      158.5          158.5          158.5          1.0308676      1.0195357      1.0956621      0.97740496     1.9088829    
     21000   1.9088827      158.5          158.5          158.5          1.0308666      1.0195532      1.0956171      0.97742954     1.9088827    
     21020   1.9088825      158.5          158.5          158.5          1.0308337      1.0195125      1.0955985      0.97739015     1.9088825    
     21040   1.9088824      158.5          158.5          158.5          1.0308324      1.0194708      1.0956463      0.97738022     1.9088824    
     21060   1.9088823      158.5          158.5          158.5          1.0307929      1.0194532      1.095577       0.9773484      1.9088823    
     21080   1.9088822      158.5          158.5          158.5          1.0307468      1.0194069      1.0955359      0.97729754     1.9088822    
     21100   1.9088821      158.5          158.5          158.5          1.0306339      1.0193085      1.0954027      0.97719035     1.9088821    
     21120   1.908882       158.5          158.5          158.5          1.0305756      1.0192232      1.0953724      0.97713118     1.908882     
     21140   1.908882       158.5          158.5          158.5          1.0305634      1.0192116      1.0953658      0.9771128      1.908882     
     21160   1.9088819      158.5          158.5          158.5          1.0305568      1.0192161      1.0953306      0.97712373     1.9088819    
     21180   1.9088818      158.5          158.5          158.5          1.0306074      1.0192656      1.0953916      0.97716514     1.9088818    
     21200   1.9088818      158.5          158.5          158.5          1.0305861      1.0192525      1.095369       0.97713664     1.9088818    
     21220   1.9088817      158.5          158.5          158.5          1.030579       1.0192545      1.0953496      0.977133       1.9088817    
     21240   1.9088817      158.5          158.5          158.5          1.0306389      1.0193039      1.0954276      0.97718521     1.9088817    
     21260   1.9088816      158.5          158.5          158.5          1.0306887      1.0193408      1.0954836      0.97724191     1.9088816    
     21280   1.9088816      158.5          158.5          158.5          1.0306831      1.0193492      1.0954745      0.97722568     1.9088816    
     21300   1.9088814      158.5          158.5          158.5          1.0306713      1.0193556      1.0954122      0.97724621     1.9088814    
     21320   1.9088813      158.5          158.5          158.5          1.0307238      1.0193838      1.095532       0.9772555      1.9088813    
     21340   1.9088813      158.5          158.5          158.5          1.0306886      1.0193524      1.0954752      0.97723828     1.9088813    
     21360   1.9088812      158.5          158.5          158.5          1.0306482      1.0193063      1.0954373      0.97720111     1.9088812    
     21380   1.9088812      158.5          158.5          158.5          1.030569       1.0192189      1.0953612      0.97712701     1.9088812    
     21400   1.9088811      158.5          158.5          158.5          1.0305729      1.0192244      1.0953678      0.97712643     1.9088811    
     21420   1.9088811      158.5          158.5          158.5          1.0305983      1.019251       1.0953956      0.97714837     1.9088811    
     21440   1.908881       158.5          158.5          158.5          1.0305848      1.0192482      1.0953859      0.97712037     1.908881     
     21460   1.9088809      158.5          158.5          158.5          1.0305403      1.019196       1.0953278      0.97709702     1.9088809    
     21480   1.9088809      158.5          158.5          158.5          1.0305581      1.0192204      1.0953271      0.97712688     1.9088809    
     21500   1.9088808      158.5          158.5          158.5          1.0306389      1.0192983      1.0954138      0.97720473     1.9088808    
     21520   1.9088807      158.5          158.5          158.5          1.0307853      1.0194588      1.095568       0.97732916     1.9088807    
     21540   1.9088806      158.5          158.5          158.5          1.0308473      1.0195124      1.0956488      0.97738062     1.9088806    
     21560   1.9088805      158.5          158.5          158.5          1.0308569      1.0195186      1.0956436      0.97740845     1.9088805    
     21580   1.9088804      158.5          158.5          158.5          1.0307887      1.0194679      1.0955456      0.97735245     1.9088804    
     21600   1.9088801      158.5          158.5          158.5          1.0307192      1.0193971      1.095479       0.97728159     1.9088801    
     21620   1.9088799      158.5          158.5          158.5          1.0307559      1.0194011      1.0955613      0.97730529     1.9088799    
     21640   1.9088798      158.5          158.5          158.5          1.0308426      1.0195213      1.0956134      0.97739306     1.9088798    
     21660   1.9088797      158.5          158.5          158.5          1.0308272      1.019471       1.0956449      0.97736575     1.9088797    
     21680   1.9088797      158.5          158.5          158.5          1.0307496      1.0193739      1.0955623      0.97731255     1.9088797    
     21700   1.9088796      158.5          158.5          158.5          1.0306723      1.0193284      1.095457       0.97723152     1.9088796    
     21720   1.9088795      158.5          158.5          158.5          1.0305846      1.019256       1.0953546      0.97714333     1.9088795    
     21740   1.9088795      158.5          158.5          158.5          1.0305797      1.0192358      1.0953722      0.97713095     1.9088795    
     21760   1.9088794      158.5          158.5          158.5          1.030534       1.0191934      1.0953195      0.97708919     1.9088794    
     21780   1.9088794      158.5          158.5          158.5          1.0305768      1.019225       1.0953689      0.97713643     1.9088794    
     21800   1.9088793      158.5          158.5          158.5          1.0305905      1.0192662      1.0953585      0.97714687     1.9088793    
     21820   1.9088793      158.5          158.5          158.5          1.0305734      1.0192239      1.0953747      0.97712155     1.9088793    
     21840   1.9088792      158.5          158.5          158.5          1.0306397      1.0192968      1.0954158      0.97720657     1.9088792    
     21860   1.9088792      158.5          158.5          158.5          1.0307095      1.0193598      1.0955077      0.97726113     1.9088792    
     21880   1.9088791      158.5          158.5          158.5          1.0307655      1.0193933      1.0956005      0.97730287     1.9088791    
     21900   1.908879       158.5          158.5          158.5          1.0306967      1.0193501      1.0955153      0.97722461     1.908879     
     21920   1.908879       158.5          158.5          158.5          1.0307274      1.0193822      1.0955127      0.97728715     1.908879     
     21940   1.9088789      158.5          158.5          158.5          1.0306872      1.0193328      1.0954916      0.97723732     1.9088789    
     21960   1.9088789      158.5          158.5          158.5          1.0306599      1.0193219      1.0954397      0.97721805     1.9088789    
     21980   1.9088788      158.5          158.5          158.5          1.0305716      1.0192262      1.0953605      0.97712826     1.9088788    
     22000   1.9088788      158.5          158.5          158.5          1.0305922      1.0192599      1.0953718      0.97714489     1.9088788    
     22020   1.9088787      158.5          158.5          158.5          1.030596       1.0192316      1.0954083      0.97714805     1.9088787    
     22040   1.9088787      158.5          158.5          158.5          1.0305594      1.019216       1.0953496      0.97711266     1.9088787    
     22060   1.9088786      158.5          158.5          158.5          1.030546       1.019192       1.0953373      0.97710881     1.9088786    
     22080   1.9088786      158.5          158.5          158.5          1.0305561      1.0192151      1.0953458      0.97710739     1.9088786    
     22100   1.9088785      158.5          158.5          158.5          1.0306477      1.0193068      1.0954341      0.9772021      1.9088785    
     22120   1.9088784      158.5          158.5          158.5          1.0307534      1.0193915      1.0955621      0.97730654     1.9088784    
     22140   1.9088784      158.5          158.5          158.5          1.030831       1.0194858      1.0956404      0.97736673     1.9088784    
     22160   1.9088783      158.5          158.5          158.5          1.0308317      1.019471       1.0956381      0.97738615     1.9088783    
     22180   1.9088782      158.5          158.5          158.5          1.0308092      1.0194595      1.0956046      0.97736352     1.9088782    
     22200   1.908878       158.5          158.5          158.5          1.0307664      1.0194172      1.09557        0.97731217     1.908878     
     22220   1.9088779      158.5          158.5          158.5          1.0307992      1.0194969      1.0955533      0.9773474      1.9088779    
     22240   1.9088778      158.5          158.5          158.5          1.0308187      1.0194684      1.0956134      0.97737431     1.9088778    
     22260   1.9088777      158.5          158.5          158.5          1.0307905      1.019439       1.0955889      0.97734364     1.9088777    
     22280   1.9088776      158.5          158.5          158.5          1.0307549      1.0193909      1.0955709      0.97730303     1.9088776    
     22300   1.9088776      158.5          158.5          158.5          1.030646       1.0192826      1.0954559      0.97719965     1.9088776    
     22320   1.9088775      158.5          158.5          158.5          1.0305738      1.0192138      1.0953807      0.97712688     1.9088775    
     22340   1.9088775      158.5          158.5          158.5          1.030566       1.0192203      1.0953541      0.97712338     1.9088775    
     22360   1.9088774      158.5          158.5          158.5          1.0305715      1.019238       1.0953471      0.97712946     1.9088774    
     22380   1.9088774      158.5          158.5          158.5          1.0305647      1.0192176      1.0953516      0.97712473     1.9088774    
     22400   1.9088773      158.5          158.5          158.5          1.030573       1.0192289      1.0953684      0.97712175     1.9088773    
     22420   1.9088773      158.5          158.5          158.5          1.0305719      1.0192277      1.0953607      0.97712728     1.9088773    
     22440   1.9088772      158.5          158.5          158.5          1.0306628      1.0193346      1.0954344      0.9772193      1.9088772    
     22460   1.9088772      158.5          158.5          158.5          1.0307097      1.0193604      1.0955112      0.97725754     1.9088772    
     22480   1.9088771      158.5          158.5          158.5          1.030731       1.0193912      1.0955205      0.97728134     1.9088771    
     22500   1.9088771      158.5          158.5          158.5          1.0306834      1.019334       1.0954812      0.97723493     1.9088771    
     22520   1.908877       158.5          158.5          158.5          1.0307315      1.0193982      1.0955094      0.97728711     1.908877     
     22540   1.9088769      158.5          158.5          158.5          1.0306967      1.0193411      1.095502       0.97724718     1.9088769    
     22560   1.9088769      158.5          158.5          158.5          1.0306591      1.0193067      1.0954603      0.97721033     1.9088769    
     22580   1.9088769      158.5          158.5          158.5          1.0305847      1.0192403      1.0953732      0.97714063     1.9088769    
     22600   1.9088768      158.5          158.5          158.5          1.030599       1.0192588      1.0953887      0.97714939     1.9088768    
     22620   1.9088768      158.5          158.5          158.5          1.0305996      1.0192748      1.0953623      0.97716182     1.9088768    
     22640   1.9088767      158.5          158.5          158.5          1.0305727      1.0192338      1.0953583      0.97712607     1.9088767    
     22660   1.9088767      158.5          158.5          158.5          1.0305558      1.0192148      1.095335       0.97711767     1.9088767    
     22680   1.9088766      158.5          158.5          158.5          1.0305572      1.0192192      1.0953303      0.97712209     1.9088766    
     22700   1.9088766      158.5          158.5          158.5          1.0306403      1.0192917      1.0954394      0.97718993     1.9088766    
     22720   1.9088765      158.5          158.5          158.5          1.0307607      1.0194217      1.0955403      0.97731997     1.9088765    
     22740   1.9088764      158.5          158.5          158.5          1.0308066      1.0194592      1.0956138      0.9773468      1.9088764    
     22760   1.9088763      158.5          158.5          158.5          1.030817       1.0194961      1.0955741      0.97738089     1.9088763    
     22780   1.9088762      158.5          158.5          158.5          1.0307902      1.0194497      1.0955676      0.97735332     1.9088762    
     22800   1.908876       158.5          158.5          158.5          1.0307424      1.0193896      1.0955611      0.97727667     1.908876     
     22820   1.9088759      158.5          158.5          158.5          1.030766       1.0194291      1.0955503      0.97731865     1.9088759    
     22840   1.9088758      158.5          158.5          158.5          1.0308         1.0194823      1.0955652      0.9773526      1.9088758    
     22860   1.9088757      158.5          158.5          158.5          1.0307931      1.0194574      1.0955884      0.97733352     1.9088757    
     22880   1.9088756      158.5          158.5          158.5          1.0307517      1.0194297      1.0955084      0.97731708     1.9088756    
     22900   1.9088756      158.5          158.5          158.5          1.0307001      1.0193696      1.0954642      0.97726644     1.9088756    
     22920   1.9088755      158.5          158.5          158.5          1.03058        1.0192527      1.0953473      0.9771401      1.9088755    
     22940   1.9088755      158.5          158.5          158.5          1.0305699      1.0192342      1.0953523      0.97712335     1.9088755    
     22960   1.9088754      158.5          158.5          158.5          1.0305535      1.0192104      1.0953466      0.9771036      1.9088754    
     22980   1.9088754      158.5          158.5          158.5          1.0305664      1.0192386      1.0953257      0.97713487     1.9088754    
     23000   1.9088753      158.5          158.5          158.5          1.0305737      1.0192136      1.0953834      0.97712414     1.9088753    
     23020   1.9088753      158.5          158.5          158.5          1.0305937      1.0192599      1.0953793      0.97714206     1.9088753    
     23040   1.9088753      158.5          158.5          158.5          1.0306396      1.0193066      1.0954118      0.97720027     1.9088753    
     23060   1.9088752      158.5          158.5          158.5          1.0307132      1.0193883      1.0954859      0.97726539     1.9088752    
     23080   1.9088752      158.5          158.5          158.5          1.0307425      1.0193982      1.0955327      0.97729668     1.9088752    
     23100   1.9088751      158.5          158.5          158.5          1.0307167      1.0193593      1.0955182      0.97727245     1.9088751    
     23120   1.908875       158.5          158.5          158.5          1.0307277      1.01939        1.0955165      0.97727648     1.908875     
     23140   1.908875       158.5          158.5          158.5          1.0306741      1.0193395      1.0954577      0.9772251      1.908875     
     23160   1.908875       158.5          158.5          158.5          1.0306188      1.0192776      1.0953943      0.97718464     1.908875     
     23180   1.9088749      158.5          158.5          158.5          1.030596       1.0192418      1.0954087      0.97713763     1.9088749    
     23200   1.9088749      158.5          158.5          158.5          1.0306129      1.0192753      1.0954025      0.97716075     1.9088749    
     23220   1.9088748      158.5          158.5          158.5          1.0305909      1.0192458      1.0953664      0.97716061     1.9088748    
     23240   1.9088748      158.5          158.5          158.5          1.0305482      1.0192014      1.0953452      0.97709809     1.9088748    
     23260   1.9088747      158.5          158.5          158.5          1.0305447      1.0192163      1.0953184      0.97709952     1.9088747    
     23280   1.9088747      158.5          158.5          158.5          1.0305622      1.0191996      1.0953619      0.97712496     1.9088747    
     23300   1.9088746      158.5          158.5          158.5          1.0306631      1.0193235      1.0954428      0.97722309     1.9088746    
     23320   1.9088746      158.5          158.5          158.5          1.0307588      1.0193921      1.0955765      0.97730793     1.9088746    
     23340   1.9088745      158.5          158.5          158.5          1.0308138      1.0194556      1.0956368      0.97734892     1.9088745    
     23360   1.9088744      158.5          158.5          158.5          1.0308032      1.0194574      1.0955966      0.97735562     1.9088744    
     23380   1.9088743      158.5          158.5          158.5          1.0307808      1.0194387      1.0955675      0.9773363      1.9088743    
     23400   1.9088741      158.5          158.5          158.5          1.0307641      1.0194139      1.0955392      0.97733917     1.9088741    
     23420   1.908874       158.5          158.5          158.5          1.0307549      1.0194158      1.0955384      0.97731054     1.908874     
     23440   1.9088739      158.5          158.5          158.5          1.0307547      1.0194219      1.0955348      0.97730738     1.9088739    
     23460   1.9088738      158.5          158.5          158.5          1.0308137      1.0194591      1.0956315      0.97735045     1.9088738    
     23480   1.9088737      158.5          158.5          158.5          1.0307764      1.0194239      1.0955805      0.97732485     1.9088737    
     23500   1.9088736      158.5          158.5          158.5          1.0306935      1.0193525      1.0954707      0.97725736     1.9088736    
     23520   1.9088736      158.5          158.5          158.5          1.0305782      1.0192325      1.0953623      0.97713972     1.9088736    
     23540   1.9088735      158.5          158.5          158.5          1.0305554      1.0192206      1.0953352      0.97711055     1.9088735    
     23560   1.9088735      158.5          158.5          158.5          1.0305329      1.0192074      1.0953062      0.97708508     1.9088735    
     23580   1.9088735      158.5          158.5          158.5          1.0305921      1.0192432      1.095383       0.97715015     1.9088735    
     23600   1.9088734      158.5          158.5          158.5          1.0306049      1.0192569      1.0954034      0.97715446     1.9088734    
     23620   1.9088734      158.5          158.5          158.5          1.0305812      1.0192437      1.095368       0.977132       1.9088734    
     23640   1.9088733      158.5          158.5          158.5          1.0306251      1.0192799      1.0953995      0.977196       1.9088733    
     23660   1.9088733      158.5          158.5          158.5          1.030668       1.0193236      1.095454       0.97722632     1.9088733    
     23680   1.9088733      158.5          158.5          158.5          1.0307223      1.0193759      1.0955151      0.977276       1.9088733    
     23700   1.9088732      158.5          158.5          158.5          1.0307116      1.0193706      1.0955118      0.97725237     1.9088732    
     23720   1.9088732      158.5          158.5          158.5          1.0307043      1.0193683      1.0954879      0.97725681     1.9088732    
     23740   1.9088731      158.5          158.5          158.5          1.0306563      1.0193127      1.0954482      0.97720787     1.9088731    
     23760   1.9088731      158.5          158.5          158.5          1.030626       1.0192856      1.0954087      0.97718352     1.9088731    
     23780   1.908873       158.5          158.5          158.5          1.0305798      1.0192429      1.0953583      0.97713828     1.908873     
     23800   1.908873       158.5          158.5          158.5          1.0305993      1.0192658      1.0953752      0.97715707     1.908873     
     23820   1.908873       158.5          158.5          158.5          1.0306147      1.0192857      1.0953895      0.97716884     1.908873     
     23840   1.9088729      158.5          158.5          158.5          1.0305615      1.0192277      1.0953286      0.97712809     1.9088729    
     23860   1.9088729      158.5          158.5          158.5          1.0305501      1.0192071      1.095337       0.97710629     1.9088729    
     23880   1.9088728      158.5          158.5          158.5          1.030572       1.0192398      1.0953415      0.9771345      1.9088728    
     23900   1.9088728      158.5          158.5          158.5          1.0306618      1.019323       1.095434       0.97722853     1.9088728    
     23920   1.9088727      158.5          158.5          158.5          1.0307575      1.0194188      1.0955433      0.97731029     1.9088727    
     23940   1.9088727      158.5          158.5          158.5          1.0308353      1.0195041      1.0956127      0.97738899     1.9088727    
     23960   1.9088726      158.5          158.5          158.5          1.0308041      1.019486       1.0955744      0.97735193     1.9088726    
     23980   1.9088725      158.5          158.5          158.5          1.0307759      1.0194443      1.0955564      0.97732699     1.9088725    
     24000   1.9088724      158.5          158.5          158.5          1.0307406      1.0194207      1.0955032      0.97729779     1.9088724    
     24020   1.9088723      158.5          158.5          158.5          1.0307595      1.0194259      1.0955406      0.97731197     1.9088723    
     24040   1.9088722      158.5          158.5          158.5          1.0307811      1.019419       1.0955808      0.97734342     1.9088722    
     24060   1.9088722      158.5          158.5          158.5          1.0307399      1.0194199      1.0955048      0.97729491     1.9088722    
     24080   1.9088721      158.5          158.5          158.5          1.0307575      1.0194282      1.09553        0.97731424     1.9088721    
     24100   1.908872       158.5          158.5          158.5          1.0306524      1.0192968      1.0954587      0.97720156     1.908872     
     24120   1.908872       158.5          158.5          158.5          1.0305815      1.0192462      1.0953525      0.97714581     1.908872     
     24140   1.908872       158.5          158.5          158.5          1.0305603      1.0192168      1.0953413      0.97712281     1.908872     
     24160   1.9088719      158.5          158.5          158.5          1.0305699      1.0192045      1.0953865      0.9771188      1.9088719    
     24180   1.9088719      158.5          158.5          158.5          1.0305892      1.0192503      1.0953725      0.97714473     1.9088719    
     24200   1.9088718      158.5          158.5          158.5          1.0305771      1.0192341      1.0953699      0.97712735     1.9088718    
     24220   1.9088718      158.5          158.5          158.5          1.030592       1.0192463      1.0953901      0.97713969     1.9088718    
     24240   1.9088718      158.5          158.5          158.5          1.0306426      1.0193098      1.0954156      0.97720254     1.9088718    
     24260   1.9088717      158.5          158.5          158.5          1.0306996      1.0193682      1.0954745      0.97725611     1.9088717    
     24280   1.9088717      158.5          158.5          158.5          1.0307276      1.0193934      1.0955104      0.97727909     1.9088717    
     24300   1.9088716      158.5          158.5          158.5          1.0306858      1.0193593      1.0954593      0.97723886     1.9088716    
     24320   1.9088716      158.5          158.5          158.5          1.0307154      1.019378       1.0955011      0.97726701     1.9088716    
     24340   1.9088715      158.5          158.5          158.5          1.0306723      1.0193206      1.0954642      0.97723211     1.9088715    
     24360   1.9088715      158.5          158.5          158.5          1.0306272      1.0192876      1.095404       0.9771899      1.9088715    
     24380   1.9088714      158.5          158.5          158.5          1.0306102      1.019274       1.0954022      0.97715435     1.9088714    
     24400   1.9088714      158.5          158.5          158.5          1.0305918      1.0192513      1.0953877      0.97713648     1.9088714    
     24420   1.9088714      158.5          158.5          158.5          1.030593       1.019256       1.0953705      0.9771526      1.9088714    
     24440   1.9088713      158.5          158.5          158.5          1.0305761      1.0192241      1.0953809      0.97712332     1.9088713    
     24460   1.9088713      158.5          158.5          158.5          1.0305744      1.0192379      1.0953562      0.97712901     1.9088713    
     24480   1.9088712      158.5          158.5          158.5          1.030565       1.0192104      1.0953615      0.97712305     1.9088712    
     24500   1.9088712      158.5          158.5          158.5          1.0306411      1.0193079      1.0954201      0.97719522     1.9088712    
     24520   1.9088712      158.5          158.5          158.5          1.0307127      1.0193653      1.0955023      0.9772705      1.9088712    
     24540   1.9088711      158.5          158.5          158.5          1.0307783      1.0194279      1.0955799      0.9773272      1.9088711    
     24560   1.908871       158.5          158.5          158.5          1.0308168      1.0194661      1.0956194      0.97736482     1.908871     
     24580   1.908871       158.5          158.5          158.5          1.0307663      1.0194159      1.0955593      0.97732368     1.908871     
     24600   1.9088709      158.5          158.5          158.5          1.0307612      1.0194127      1.0955644      0.97730664     1.9088709    
     24620   1.9088708      158.5          158.5          158.5          1.030754       1.0194029      1.0955475      0.97731152     1.9088708    
     24640   1.9088707      158.5          158.5          158.5          1.0307877      1.0194872      1.095533       0.97734291     1.9088707    
     24660   1.9088706      158.5          158.5          158.5          1.0307699      1.0194454      1.0955279      0.97733628     1.9088706    
     24680   1.9088706      158.5          158.5          158.5          1.0307152      1.0193789      1.0954941      0.97727267     1.9088706    
     24700   1.9088705      158.5          158.5          158.5          1.0306121      1.0192701      1.095398       0.97716835     1.9088705    
     24720   1.9088705      158.5          158.5          158.5          1.0305825      1.019234       1.0953784      0.97713504     1.9088705    
     24740   1.9088705      158.5          158.5          158.5          1.0305762      1.0192361      1.095363       0.97712945     1.9088705    
     24760   1.9088704      158.5          158.5          158.5          1.0305944      1.0192649      1.0953658      0.97715249     1.9088704    
     24780   1.9088704      158.5          158.5          158.5          1.0305861      1.0192379      1.0953864      0.97713386     1.9088704    
     24800   1.9088704      158.5          158.5          158.5          1.0305613      1.0192117      1.0953591      0.97711316     1.9088704    
     24820   1.9088703      158.5          158.5          158.5          1.0305957      1.0192452      1.0954009      0.97714112     1.9088703    
     24840   1.9088703      158.5          158.5          158.5          1.0306394      1.0193057      1.0954119      0.97720066     1.9088703    
     24860   1.9088703      158.5          158.5          158.5          1.0306796      1.0193349      1.0954744      0.97722934     1.9088703    
     24880   1.9088702      158.5          158.5          158.5          1.0307147      1.0193758      1.0955014      0.97726695     1.9088702    
     24900   1.9088702      158.5          158.5          158.5          1.0306887      1.0193496      1.0954852      0.97723146     1.9088702    
     24920   1.9088701      158.5          158.5          158.5          1.0307142      1.0193779      1.095502       0.97726259     1.9088701    
     24940   1.9088701      158.5          158.5          158.5          1.0306851      1.0193426      1.0954839      0.97722871     1.9088701    
     24960   1.90887        158.5          158.5          158.5          1.0306302      1.0192877      1.095408       0.97719477     1.90887      
     24980   1.90887        158.5          158.5          158.5          1.0305995      1.0192579      1.0953947      0.97714595     1.90887      
     25000   1.90887        158.5          158.5          158.5          1.0305877      1.0192537      1.0953721      0.97713735     1.90887      
     25020   1.9088699      158.5          158.5          158.5          1.0305966      1.0192528      1.0953761      0.97716081     1.9088699    
     25040   1.9088699      158.5          158.5          158.5          1.0305869      1.0192553      1.0953636      0.97714176     1.9088699    
     25060   1.9088698      158.5          158.5          158.5          1.0305606      1.0192244      1.0953408      0.97711646     1.9088698    
     25080   1.9088698      158.5          158.5          158.5          1.0305801      1.0192466      1.0953559      0.97713792     1.9088698    
     25100   1.9088698      158.5          158.5          158.5          1.0306335      1.0193014      1.095404       0.97719529     1.9088698    
     25120   1.9088697      158.5          158.5          158.5          1.03073        1.0193914      1.0955241      0.97727449     1.9088697    
     25140   1.9088697      158.5          158.5          158.5          1.0307652      1.0194188      1.0955547      0.97732195     1.9088697    
     25160   1.9088696      158.5          158.5          158.5          1.0307988      1.0194719      1.0955687      0.97735562     1.9088696    
     25180   1.9088695      158.5          158.5          158.5          1.0307625      1.0194396      1.0955467      0.97730133     1.9088695    
     25200   1.9088694      158.5          158.5          158.5          1.0307691      1.0194258      1.0955708      0.9773107      1.9088694    
     25220   1.9088694      158.5          158.5          158.5          1.0307639      1.0194277      1.0955481      0.97731586     1.9088694    
     25240   1.9088693      158.5          158.5          158.5          1.0307318      1.0193852      1.095517       0.97729323     1.9088693    
     25260   1.9088692      158.5          158.5          158.5          1.0307677      1.0194346      1.0955476      0.97732082     1.9088692    
     25280   1.9088692      158.5          158.5          158.5          1.0306893      1.0193463      1.0954685      0.9772532      1.9088692    
     25300   1.9088692      158.5          158.5          158.5          1.030624       1.0192947      1.0953966      0.97718077     1.9088692    
     25320   1.9088691      158.5          158.5          158.5          1.0305754      1.0192261      1.0953602      0.97714005     1.9088691    
     25340   1.9088691      158.5          158.5          158.5          1.0305827      1.0192486      1.0953638      0.97713567     1.9088691    
     25360   1.9088691      158.5          158.5          158.5          1.0306008      1.019265       1.0953828      0.97715453     1.9088691    
     25380   1.908869       158.5          158.5          158.5          1.0305931      1.0192586      1.0953646      0.97715625     1.908869     
     25400   1.908869       158.5          158.5          158.5          1.0305867      1.01926        1.0953691      0.97713117     1.908869     
     25420   1.9088689      158.5          158.5          158.5          1.0305887      1.0192499      1.0953692      0.97714696     1.9088689    
     25440   1.9088689      158.5          158.5          158.5          1.0306383      1.0193047      1.0954136      0.97719668     1.9088689    
     25460   1.9088689      158.5          158.5          158.5          1.030676       1.0193377      1.0954649      0.97722544     1.9088689    
     25480   1.9088688      158.5          158.5          158.5          1.0307251      1.0193881      1.0955093      0.97727781     1.9088688    
     25500   1.9088688      158.5          158.5          158.5          1.030681       1.0193455      1.0954654      0.97723219     1.9088688    
     25520   1.9088687      158.5          158.5          158.5          1.0307205      1.0193832      1.0955145      0.97726373     1.9088687    
     25540   1.9088687      158.5          158.5          158.5          1.0306683      1.0193431      1.0954376      0.97722439     1.9088687    
     25560   1.9088686      158.5          158.5          158.5          1.0306315      1.0192951      1.0954047      0.97719465     1.9088686    
     25580   1.9088686      158.5          158.5          158.5          1.0305747      1.0192198      1.0953746      0.97712962     1.9088686    
     25600   1.9088686      158.5          158.5          158.5          1.0305848      1.0192543      1.0953689      0.97713131     1.9088686    
     25620   1.9088685      158.5          158.5          158.5          1.0306055      1.0192532      1.0954003      0.97716306     1.9088685    
     25640   1.9088685      158.5          158.5          158.5          1.0306039      1.0192568      1.0953935      0.97716126     1.9088685    
     25660   1.9088685      158.5          158.5          158.5          1.0305858      1.019251       1.0953702      0.97713617     1.9088685    
     25680   1.9088684      158.5          158.5          158.5          1.0305808      1.0192437      1.095361       0.97713767     1.9088684    
     25700   1.9088684      158.5          158.5          158.5          1.0306202      1.019309       1.0953576      0.97719394     1.9088684    
     25720   1.9088684      158.5          158.5          158.5          1.0307245      1.0193826      1.0955098      0.97728106     1.9088684    
     25740   1.9088683      158.5          158.5          158.5          1.0307764      1.0194414      1.095566       0.9773217      1.9088683    
     25760   1.9088683      158.5          158.5          158.5          1.0307579      1.0194303      1.0955342      0.97730936     1.9088683    
     25780   1.9088682      158.5          158.5          158.5          1.0307723      1.0194341      1.0955584      0.97732422     1.9088682    
     25800   1.9088681      158.5          158.5          158.5          1.0307655      1.0194131      1.0955757      0.97730771     1.9088681    
     25820   1.908868       158.5          158.5          158.5          1.030749       1.0194077      1.0955295      0.97730979     1.908868     
     25840   1.908868       158.5          158.5          158.5          1.0307605      1.019417       1.0955581      0.97730637     1.908868     
     25860   1.9088679      158.5          158.5          158.5          1.0307376      1.0194091      1.0955007      0.97730305     1.9088679    
     25880   1.9088679      158.5          158.5          158.5          1.0306955      1.0193696      1.0954636      0.9772534      1.9088679    
     25900   1.9088678      158.5          158.5          158.5          1.0306213      1.0192833      1.0954011      0.97717957     1.9088678    
     25920   1.9088678      158.5          158.5          158.5          1.0305962      1.0192605      1.0953732      0.97715481     1.9088678    
     25940   1.9088678      158.5          158.5          158.5          1.0305948      1.0192422      1.0953966      0.9771456      1.9088678    
     25960   1.9088677      158.5          158.5          158.5          1.0306021      1.0192678      1.0953815      0.97715701     1.9088677    
     25980   1.9088677      158.5          158.5          158.5          1.0305793      1.0192516      1.0953331      0.97715315     1.9088677    
     26000   1.9088677      158.5          158.5          158.5          1.0305661      1.0192311      1.0953479      0.97711941     1.9088677    
     26020   1.9088676      158.5          158.5          158.5          1.0306011      1.0192633      1.095392       0.97714809     1.9088676    
     26040   1.9088676      158.5          158.5          158.5          1.0306333      1.0192967      1.0954085      0.97719469     1.9088676    
     26060   1.9088675      158.5          158.5          158.5          1.0306889      1.019362       1.0954563      0.97724847     1.9088675    
     26080   1.9088675      158.5          158.5          158.5          1.0307193      1.0193999      1.0954836      0.97727446     1.9088675    
     26100   1.9088674      158.5          158.5          158.5          1.0306321      1.0193191      1.0953874      0.97718963     1.9088674    
     26120   1.9088673      158.5          158.5          158.5          1.0306958      1.0193512      1.0954841      0.97725191     1.9088673    
     26140   1.9088672      158.5          158.5          158.5          1.0307003      1.0193614      1.0954881      0.97725151     1.9088672    
     26160   1.9088672      158.5          158.5          158.5          1.0306384      1.0192903      1.0954295      0.9771955      1.9088672    
     26180   1.9088672      158.5          158.5          158.5          1.0305971      1.0192572      1.095387       0.97714714     1.9088672    
     26200   1.9088671      158.5          158.5          158.5          1.0305878      1.0192561      1.0953725      0.9771348      1.9088671    
     26220   1.9088671      158.5          158.5          158.5          1.0306106      1.0192655      1.0953961      0.97717017     1.9088671    
     26240   1.9088671      158.5          158.5          158.5          1.0305725      1.0192159      1.0953689      0.97713265     1.9088671    
     26260   1.908867       158.5          158.5          158.5          1.0305998      1.0192599      1.095382       0.97715744     1.908867     
     26280   1.908867       158.5          158.5          158.5          1.0305813      1.0192448      1.0953584      0.97714087     1.908867     
     26300   1.908867       158.5          158.5          158.5          1.0306203      1.0192649      1.0954231      0.97717292     1.908867     
     26320   1.9088669      158.5          158.5          158.5          1.0307202      1.0193792      1.0955124      0.97726921     1.9088669    
     26340   1.9088669      158.5          158.5          158.5          1.0307553      1.0194093      1.0955459      0.97731067     1.9088669    
     26360   1.9088668      158.5          158.5          158.5          1.0307773      1.0194409      1.0955742      0.97731685     1.9088668    
     26380   1.9088668      158.5          158.5          158.5          1.0307779      1.0194248      1.0955905      0.97731838     1.9088668    
     26400   1.9088667      158.5          158.5          158.5          1.0307476      1.0194011      1.0955463      0.97729529     1.9088667    
     26420   1.9088666      158.5          158.5          158.5          1.0307568      1.0194207      1.0955419      0.97730787     1.9088666    
     26440   1.9088666      158.5          158.5          158.5          1.0307403      1.0193905      1.0955369      0.97729332     1.9088666    
     26460   1.9088665      158.5          158.5          158.5          1.0307621      1.0194296      1.0955364      0.97732033     1.9088665    
     26480   1.9088665      158.5          158.5          158.5          1.0306947      1.0193449      1.0954948      0.97724429     1.9088665    
     26500   1.9088665      158.5          158.5          158.5          1.0306238      1.0193035      1.095379       0.97718875     1.9088665    
     26520   1.9088664      158.5          158.5          158.5          1.0305761      1.0192348      1.0953603      0.97713311     1.9088664    
     26540   1.9088664      158.5          158.5          158.5          1.0306057      1.0192809      1.0953697      0.9771666      1.9088664    
     26560   1.9088664      158.5          158.5          158.5          1.030587       1.019239       1.0953807      0.97714143     1.9088664    
     26580   1.9088663      158.5          158.5          158.5          1.030615       1.019287       1.095389       0.97716909     1.9088663    
     26600   1.9088663      158.5          158.5          158.5          1.030578       1.0192346      1.0953725      0.97712678     1.9088663    
     26620   1.9088663      158.5          158.5          158.5          1.0305942      1.019263       1.0953642      0.9771553      1.9088663    
     26640   1.9088662      158.5          158.5          158.5          1.0306372      1.0192938      1.0954163      0.97720145     1.9088662    
     26660   1.9088662      158.5          158.5          158.5          1.0306855      1.0193371      1.0954781      0.97724137     1.9088662    
     26680   1.9088662      158.5          158.5          158.5          1.0307079      1.019359       1.0955077      0.97725688     1.9088662    
     26700   1.9088661      158.5          158.5          158.5          1.0306695      1.0193467      1.0954392      0.97722251     1.9088661    
     26720   1.908866       158.5          158.5          158.5          1.030703       1.0193574      1.0954883      0.97726328     1.908866     
     26740   1.908866       158.5          158.5          158.5          1.0306801      1.0193407      1.0954699      0.97722966     1.908866     
     26760   1.908866       158.5          158.5          158.5          1.0306256      1.0193079      1.0953762      0.97719275     1.908866     
     26780   1.9088659      158.5          158.5          158.5          1.0305939      1.019248       1.0953939      0.97713981     1.9088659    
     26800   1.9088659      158.5          158.5          158.5          1.0305792      1.0192557      1.0953484      0.97713358     1.9088659    
     26820   1.9088659      158.5          158.5          158.5          1.0306063      1.0192567      1.0953982      0.97716412     1.9088659    
     26840   1.9088658      158.5          158.5          158.5          1.0306051      1.0192789      1.0953704      0.97716597     1.9088658    
     26860   1.9088658      158.5          158.5          158.5          1.0306098      1.0192746      1.0953911      0.97716373     1.9088658    
     26880   1.9088658      158.5          158.5          158.5          1.0305754      1.019228       1.0953688      0.97712952     1.9088658    
     26900   1.9088657      158.5          158.5          158.5          1.0306289      1.0192879      1.0954116      0.9771872      1.9088657    
     26920   1.9088657      158.5          158.5          158.5          1.0306889      1.0193615      1.0954571      0.97724816     1.9088657    
     26940   1.9088657      158.5          158.5          158.5          1.0307628      1.0194142      1.0955516      0.97732246     1.9088657    
     26960   1.9088656      158.5          158.5          158.5          1.0307446      1.0194094      1.0955279      0.97729653     1.9088656    
     26980   1.9088656      158.5          158.5          158.5          1.030759       1.0194261      1.0955399      0.97731094     1.9088656    
     27000   1.9088655      158.5          158.5          158.5          1.0307338      1.0194001      1.0955043      0.97729684     1.9088655    
     27020   1.9088655      158.5          158.5          158.5          1.0307412      1.0193992      1.0955366      0.97728778     1.9088655    
     27040   1.9088654      158.5          158.5          158.5          1.03076        1.0194012      1.0955685      0.97731018     1.9088654    
     27060   1.9088654      158.5          158.5          158.5          1.0307205      1.0193739      1.0955163      0.9772713      1.9088654    
     27080   1.9088653      158.5          158.5          158.5          1.0306833      1.0193417      1.0954656      0.97724259     1.9088653    
     27100   1.9088653      158.5          158.5          158.5          1.0306323      1.0192973      1.0954162      0.97718351     1.9088653    
     27120   1.9088653      158.5          158.5          158.5          1.0306031      1.0192641      1.0953948      0.97715021     1.9088653    
     27140   1.9088652      158.5          158.5          158.5          1.0306047      1.0192713      1.0953853      0.97715756     1.9088652    
     27160   1.9088652      158.5          158.5          158.5          1.0306216      1.0192797      1.0954176      0.97716752     1.9088652    
     27180   1.9088652      158.5          158.5          158.5          1.0306006      1.0192557      1.0953921      0.97715401     1.9088652    
     27200   1.9088651      158.5          158.5          158.5          1.0305817      1.0192436      1.0953667      0.97713476     1.9088651    
     27220   1.9088651      158.5          158.5          158.5          1.030612       1.0192677      1.0954008      0.97716746     1.9088651    
     27240   1.9088651      158.5          158.5          158.5          1.0306651      1.0193123      1.0954763      0.97720664     1.9088651    
     27260   1.908865       158.5          158.5          158.5          1.0306867      1.0193426      1.0954891      0.97722851     1.908865     
     27280   1.908865       158.5          158.5          158.5          1.0307181      1.0193605      1.0955225      0.97727116     1.908865     
     27300   1.9088648      158.5          158.5          158.5          1.0306739      1.0193118      1.0954542      0.97725562     1.9088648    
     27320   1.9088647      158.5          158.5          158.5          1.0306725      1.0193224      1.0954669      0.97722815     1.9088647    
     27340   1.9088646      158.5          158.5          158.5          1.0306741      1.0193237      1.0954801      0.97721845     1.9088646    
     27360   1.9088646      158.5          158.5          158.5          1.0306297      1.0192852      1.0954225      0.97718152     1.9088646    
     27380   1.9088645      158.5          158.5          158.5          1.0305995      1.0192771      1.095356       0.97716537     1.9088645    
     27400   1.9088645      158.5          158.5          158.5          1.0305966      1.0192551      1.0953938      0.97714089     1.9088645    
     27420   1.9088645      158.5          158.5          158.5          1.0306066      1.0192574      1.0954021      0.97716034     1.9088645    
     27440   1.9088644      158.5          158.5          158.5          1.0306057      1.0192857      1.0953648      0.97716653     1.9088644    
     27460   1.9088644      158.5          158.5          158.5          1.0306017      1.0192613      1.0953906      0.97715328     1.9088644    
     27480   1.9088644      158.5          158.5          158.5          1.0305975      1.0192552      1.0953848      0.97715259     1.9088644    
     27500   1.9088644      158.5          158.5          158.5          1.0306234      1.019296       1.0953879      0.97718628     1.9088644    
     27520   1.9088643      158.5          158.5          158.5          1.0306887      1.0193492      1.0954811      0.97723582     1.9088643    
     27540   1.9088643      158.5          158.5          158.5          1.0307384      1.0194146      1.0955078      0.97729285     1.9088643    
     27560   1.9088643      158.5          158.5          158.5          1.0307468      1.0194142      1.0955344      0.97729191     1.9088643    
     27580   1.9088642      158.5          158.5          158.5          1.0306992      1.0193576      1.0954871      0.97725295     1.9088642    
     27600   1.9088642      158.5          158.5          158.5          1.0306984      1.019362       1.0954739      0.97725921     1.9088642    
     27620   1.9088641      158.5          158.5          158.5          1.0306845      1.0193559      1.0954626      0.97723511     1.9088641    
     27640   1.9088641      158.5          158.5          158.5          1.0307219      1.0193783      1.0955122      0.97727519     1.9088641    
     27660   1.908864       158.5          158.5          158.5          1.0307267      1.0194065      1.0954932      0.97728053     1.908864     
     27680   1.908864       158.5          158.5          158.5          1.0306959      1.0193591      1.0954709      0.97725758     1.908864     
     27700   1.908864       158.5          158.5          158.5          1.0306302      1.0192911      1.0954081      0.97719119     1.908864     
     27720   1.908864       158.5          158.5          158.5          1.0305896      1.0192593      1.0953565      0.9771529      1.908864     
     27740   1.9088639      158.5          158.5          158.5          1.0306178      1.0192792      1.0954005      0.97717379     1.9088639    
     27760   1.9088639      158.5          158.5          158.5          1.0305959      1.0192451      1.0953868      0.97715573     1.9088639    
     27780   1.9088639      158.5          158.5          158.5          1.0306022      1.0192551      1.0953947      0.97715685     1.9088639    
     27800   1.9088638      158.5          158.5          158.5          1.030593       1.0192516      1.0953909      0.97713642     1.9088638    
     27820   1.9088638      158.5          158.5          158.5          1.0305896      1.0192462      1.0953705      0.97715203     1.9088638    
     27840   1.9088638      158.5          158.5          158.5          1.0306353      1.0192966      1.0954204      0.97718893     1.9088638    
     27860   1.9088637      158.5          158.5          158.5          1.0306888      1.0193535      1.0954761      0.97723681     1.9088637    
     27880   1.9088637      158.5          158.5          158.5          1.0306792      1.0193299      1.0954705      0.97723716     1.9088637    
     27900   1.9088635      158.5          158.5          158.5          1.0306717      1.019358       1.0954252      0.97723178     1.9088635    
     27920   1.9088633      158.5          158.5          158.5          1.0306368      1.0193         1.0954183      0.97719208     1.9088633    
     27940   1.9088633      158.5          158.5          158.5          1.0306567      1.0193286      1.095434       0.97720753     1.9088633    
     27960   1.9088633      158.5          158.5          158.5          1.0306219      1.0192828      1.0954073      0.97717552     1.9088633    
     27980   1.9088632      158.5          158.5          158.5          1.0306315      1.0192903      1.09542        0.97718406     1.9088632    
     28000   1.9088632      158.5          158.5          158.5          1.0306118      1.0192538      1.0954182      0.97716321     1.9088632    
     28020   1.9088632      158.5          158.5          158.5          1.0306204      1.0192837      1.0954083      0.97716924     1.9088632    
     28040   1.9088631      158.5          158.5          158.5          1.0306063      1.0192696      1.0953923      0.97715709     1.9088631    
     28060   1.9088631      158.5          158.5          158.5          1.030605       1.0192721      1.0953827      0.97716021     1.9088631    
     28080   1.9088631      158.5          158.5          158.5          1.0306031      1.0192793      1.0953735      0.97715649     1.9088631    
     28100   1.9088631      158.5          158.5          158.5          1.0306204      1.0192886      1.095391       0.97718153     1.9088631    
     28120   1.908863       158.5          158.5          158.5          1.0306925      1.0193471      1.0954787      0.9772516      1.908863     
     28140   1.908863       158.5          158.5          158.5          1.0307297      1.0193844      1.0955259      0.97727886     1.908863     
     28160   1.908863       158.5          158.5          158.5          1.0307544      1.0194136      1.0955451      0.9773045      1.908863     
     28180   1.9088629      158.5          158.5          158.5          1.0306766      1.0193414      1.0954577      0.97723064     1.9088629    
     28200   1.9088629      158.5          158.5          158.5          1.0306529      1.0193141      1.0954264      0.97721837     1.9088629    
     28220   1.9088629      158.5          158.5          158.5          1.0306963      1.0193616      1.0954853      0.9772422      1.9088629    
     28240   1.9088628      158.5          158.5          158.5          1.0307581      1.0194058      1.0955645      0.97730405     1.9088628    
     28260   1.9088628      158.5          158.5          158.5          1.0306965      1.0193498      1.0954831      0.97725664     1.9088628    
     28280   1.9088628      158.5          158.5          158.5          1.0306763      1.0193325      1.0954626      0.97723376     1.9088628    
     28300   1.9088627      158.5          158.5          158.5          1.0306523      1.0193139      1.0954355      0.97720747     1.9088627    
     28320   1.9088627      158.5          158.5          158.5          1.0306096      1.0192821      1.095376       0.97717059     1.9088627    
     28340   1.9088627      158.5          158.5          158.5          1.0306026      1.0192798      1.095366       0.97716196     1.9088627    
     28360   1.9088627      158.5          158.5          158.5          1.0306061      1.0192708      1.095386       0.97716159     1.9088627    
     28380   1.9088626      158.5          158.5          158.5          1.0306323      1.0193046      1.0954025      0.97718984     1.9088626    
     28400   1.9088626      158.5          158.5          158.5          1.0306316      1.0192887      1.0954349      0.97717133     1.9088626    
     28420   1.9088626      158.5          158.5          158.5          1.0306162      1.019277       1.0953978      0.97717392     1.9088626    
     28440   1.9088625      158.5          158.5          158.5          1.0306397      1.0193111      1.09541        0.97719804     1.9088625    
     28460   1.9088625      158.5          158.5          158.5          1.0306907      1.0193478      1.0954837      0.97724057     1.9088625    
     28480   1.9088625      158.5          158.5          158.5          1.0306893      1.0193603      1.09547        0.9772376      1.9088625    
     28500   1.9088623      158.5          158.5          158.5          1.0305723      1.0192545      1.0953107      0.97715158     1.9088623    
     28520   1.9088622      158.5          158.5          158.5          1.0306271      1.019276       1.095433       0.97717227     1.9088622    
     28540   1.9088622      158.5          158.5          158.5          1.0306513      1.019315       1.0954261      0.97721276     1.9088622    
     28560   1.9088621      158.5          158.5          158.5          1.0306314      1.019285       1.095422       0.97718706     1.9088621    
     28580   1.9088621      158.5          158.5          158.5          1.0306132      1.0192851      1.095385       0.97716946     1.9088621    
     28600   1.9088621      158.5          158.5          158.5          1.0306184      1.0192586      1.0954351      0.97716146     1.9088621    
     28620   1.9088621      158.5          158.5          158.5          1.0306473      1.0193118      1.0954274      0.97720262     1.9088621    
     28640   1.908862       158.5          158.5          158.5          1.0306309      1.0192859      1.095422       0.97718477     1.908862     
     28660   1.908862       158.5          158.5          158.5          1.0306053      1.0192652      1.095386       0.97716466     1.908862     
     28680   1.908862       158.5          158.5          158.5          1.0306105      1.019276       1.0953881      0.97716726     1.908862     
     28700   1.908862       158.5          158.5          158.5          1.0306401      1.0192842      1.0954384      0.97719768     1.908862     
     28720   1.9088619      158.5          158.5          158.5          1.0306898      1.0193551      1.0954729      0.97724138     1.9088619    
     28740   1.9088619      158.5          158.5          158.5          1.0307164      1.0193711      1.0955076      0.97727043     1.9088619    
     28760   1.9088619      158.5          158.5          158.5          1.0307171      1.0193786      1.0955002      0.97727241     1.9088619    
     28780   1.9088618      158.5          158.5          158.5          1.0307202      1.0193815      1.0954985      0.9772805      1.9088618    
     28800   1.9088618      158.5          158.5          158.5          1.030674       1.0193362      1.0954637      0.97722216     1.9088618    
     28820   1.9088618      158.5          158.5          158.5          1.0306627      1.0193159      1.0954506      0.97722154     1.9088618    
     28840   1.9088617      158.5          158.5          158.5          1.0306766      1.0193417      1.0954536      0.97723439     1.9088617    
     28860   1.9088617      158.5          158.5          158.5          1.0307006      1.0193583      1.0954917      0.97725172     1.9088617    
     28880   1.9088617      158.5          158.5          158.5          1.0306883      1.0193531      1.0954713      0.97724051     1.9088617    
     28900   1.9088617      158.5          158.5          158.5          1.0306303      1.0192899      1.0954104      0.97719059     1.9088617    
     28920   1.9088616      158.5          158.5          158.5          1.0306072      1.0192802      1.0953631      0.97717834     1.9088616    
     28940   1.9088616      158.5          158.5          158.5          1.0306452      1.0193046      1.0954377      0.97719326     1.9088616    
     28960   1.9088616      158.5          158.5          158.5          1.0306454      1.0193008      1.0954253      0.97721012     1.9088616    
     28980   1.9088616      158.5          158.5          158.5          1.0306457      1.0193067      1.0954272      0.97720318     1.9088616    
     29000   1.9088615      158.5          158.5          158.5          1.0306086      1.0192669      1.0953969      0.97716198     1.9088615    
     29020   1.9088615      158.5          158.5          158.5          1.0306002      1.0192606      1.0953853      0.97715454     1.9088615    
     29040   1.9088615      158.5          158.5          158.5          1.0306344      1.019309       1.0954047      0.97718937     1.9088615    
     29060   1.9088614      158.5          158.5          158.5          1.0306944      1.0193582      1.0954842      0.97724097     1.9088614    
     29080   1.9088614      158.5          158.5          158.5          1.0306816      1.0193333      1.0954739      0.97723769     1.9088614    
     29100   1.9088613      158.5          158.5          158.5          1.0306393      1.0193085      1.0954049      0.97720465     1.9088613    
     29120   1.9088612      158.5          158.5          158.5          1.0306538      1.0193017      1.095453       0.97720676     1.9088612    
     29140   1.9088612      158.5          158.5          158.5          1.0306702      1.019343       1.0954525      0.97721513     1.9088612    
     29160   1.9088612      158.5          158.5          158.5          1.0306133      1.0192747      1.0953939      0.9771713      1.9088612    
     29180   1.9088612      158.5          158.5          158.5          1.0305827      1.0192452      1.095357       0.97714604     1.9088612    
     29200   1.9088611      158.5          158.5          158.5          1.030605       1.0192656      1.0953978      0.97715156     1.9088611    
     29220   1.9088611      158.5          158.5          158.5          1.0306477      1.0193098      1.0954292      0.97720413     1.9088611    
     29240   1.9088611      158.5          158.5          158.5          1.0306412      1.0193043      1.0954178      0.97720148     1.9088611    
     29260   1.9088611      158.5          158.5          158.5          1.0306323      1.0192914      1.0954183      0.97718713     1.9088611    
     29280   1.908861       158.5          158.5          158.5          1.0306249      1.0192867      1.0953958      0.97719206     1.908861     
     29300   1.908861       158.5          158.5          158.5          1.03066        1.0193404      1.0954213      0.97721843     1.908861     
     29320   1.908861       158.5          158.5          158.5          1.0307019      1.0193801      1.0954639      0.97726159     1.908861     
     29340   1.908861       158.5          158.5          158.5          1.0306982      1.0193668      1.0954712      0.97725652     1.908861     
     29360   1.9088609      158.5          158.5          158.5          1.0307055      1.019368       1.0954931      0.97725532     1.9088609    
     29380   1.9088609      158.5          158.5          158.5          1.0306795      1.0193362      1.0954759      0.97722646     1.9088609    
     29400   1.9088609      158.5          158.5          158.5          1.0306649      1.0193238      1.0954557      0.97721512     1.9088609    
     29420   1.9088608      158.5          158.5          158.5          1.0306663      1.0193266      1.0954469      0.97722552     1.9088608    
     29440   1.9088608      158.5          158.5          158.5          1.0306757      1.0193501      1.0954449      0.97723197     1.9088608    
     29460   1.9088608      158.5          158.5          158.5          1.0306935      1.0193651      1.0954666      0.97724872     1.9088608    
     29480   1.9088608      158.5          158.5          158.5          1.0306888      1.0193563      1.0954677      0.97724241     1.9088608    
     29500   1.9088607      158.5          158.5          158.5          1.0306362      1.0193025      1.0954048      0.9772013      1.9088607    
     29520   1.9088607      158.5          158.5          158.5          1.0306221      1.0192905      1.0953905      0.97718514     1.9088607    
     29540   1.9088607      158.5          158.5          158.5          1.0306485      1.0193071      1.0954424      0.9771961      1.9088607    
     29560   1.9088607      158.5          158.5          158.5          1.0306421      1.0193045      1.0954177      0.97720401     1.9088607    
     29580   1.9088606      158.5          158.5          158.5          1.0306349      1.019291       1.0954175      0.97719644     1.9088606    
     29600   1.9088606      158.5          158.5          158.5          1.0306045      1.0192643      1.0953881      0.97716108     1.9088606    
     29620   1.9088606      158.5          158.5          158.5          1.0306033      1.0192747      1.0953717      0.97716345     1.9088606    
     29640   1.9088606      158.5          158.5          158.5          1.0306383      1.0193009      1.0954235      0.97719055     1.9088606    
     29660   1.9088605      158.5          158.5          158.5          1.0306874      1.0193311      1.0954889      0.9772423      1.9088605    
     29680   1.9088605      158.5          158.5          158.5          1.0306361      1.0193026      1.0954106      0.97719524     1.9088605    
     29700   1.9088603      158.5          158.5          158.5          1.0305994      1.019254       1.0954097      0.97713465     1.9088603    
     29720   1.9088602      158.5          158.5          158.5          1.0306102      1.0192815      1.0953821      0.97716708     1.9088602    
     29740   1.9088601      158.5          158.5          158.5          1.030648       1.019308       1.0954309      0.97720499     1.9088601    
     29760   1.9088601      158.5          158.5          158.5          1.0306101      1.0192828      1.0953843      0.97716323     1.9088601    
     29780   1.9088601      158.5          158.5          158.5          1.030592       1.0192509      1.09538        0.97714509     1.9088601    
     29800   1.9088601      158.5          158.5          158.5          1.0306163      1.0192818      1.0953985      0.97716869     1.9088601    
     29820   1.90886        158.5          158.5          158.5          1.0306458      1.0193073      1.0954326      0.97719761     1.90886      
     29840   1.90886        158.5          158.5          158.5          1.0306632      1.0193277      1.0954489      0.97721306     1.90886      
     29860   1.90886        158.5          158.5          158.5          1.0306584      1.0193306      1.0954318      0.97721284     1.90886      
     29880   1.90886        158.5          158.5          158.5          1.0306426      1.0193004      1.0954256      0.97720183     1.90886      
     29900   1.9088599      158.5          158.5          158.5          1.0306946      1.0193518      1.0954798      0.97725227     1.9088599    
     29920   1.9088599      158.5          158.5          158.5          1.0306925      1.0193528      1.0954785      0.97724608     1.9088599    
     29940   1.9088599      158.5          158.5          158.5          1.0306983      1.0193536      1.0954957      0.9772455      1.9088599    
     29960   1.9088599      158.5          158.5          158.5          1.0306756      1.0193231      1.0954773      0.9772263      1.9088599    
     29980   1.9088598      158.5          158.5          158.5          1.0306548      1.0193068      1.0954546      0.97720298     1.9088598    
     30000   1.9088598      158.5          158.5          158.5          1.0306325      1.0192904      1.0954251      0.97718218     1.9088598    
     30020   1.9088598      158.5          158.5          158.5          1.0306393      1.0192949      1.0954288      0.9771941      1.9088598    
     30040   1.9088598      158.5          158.5          158.5          1.0306687      1.0193315      1.0954497      0.97722491     1.9088598    
     30060   1.9088597      158.5          158.5          158.5          1.0307069      1.0193836      1.0954784      0.97725867     1.9088597    
     30080   1.9088597      158.5          158.5          158.5          1.0306935      1.01936        1.0954718      0.97724875     1.9088597    
     30100   1.9088597      158.5          158.5          158.5          1.0306514      1.0193084      1.0954269      0.97721894     1.9088597    
     30120   1.9088597      158.5          158.5          158.5          1.0306201      1.019299       1.0953754      0.97718607     1.9088597    
     30140   1.9088596      158.5          158.5          158.5          1.0306546      1.0193209      1.0954343      0.97720868     1.9088596    
     30160   1.9088596      158.5          158.5          158.5          1.0306871      1.0193373      1.0954905      0.97723346     1.9088596    
     30180   1.9088596      158.5          158.5          158.5          1.0306455      1.0193143      1.0954159      0.97720623     1.9088596    
     30200   1.9088596      158.5          158.5          158.5          1.0306154      1.0192712      1.0953965      0.97717828     1.9088596    
     30220   1.9088596      158.5          158.5          158.5          1.0306032      1.0192776      1.0953702      0.97716204     1.9088596    
     30240   1.9088595      158.5          158.5          158.5          1.0306248      1.0192892      1.0954105      0.9771747      1.9088595    
     30260   1.9088595      158.5          158.5          158.5          1.0306541      1.0193366      1.0954146      0.97721121     1.9088595    
     30280   1.9088595      158.5          158.5          158.5          1.0306397      1.0193151      1.0954144      0.97718963     1.9088595    
     30300   1.9088594      158.5          158.5          158.5          1.0306008      1.0192835      1.0953715      0.9771473      1.9088594    
     30320   1.9088593      158.5          158.5          158.5          1.0306428      1.0192852      1.0954533      0.97718972     1.9088593    
     30340   1.9088593      158.5          158.5          158.5          1.0306439      1.0193064      1.0954347      0.97719056     1.9088593    
     30360   1.9088592      158.5          158.5          158.5          1.0306034      1.0192652      1.0953876      0.97715753     1.9088592    
     30380   1.9088592      158.5          158.5          158.5          1.0305868      1.0192433      1.0953735      0.97714372     1.9088592    
     30400   1.9088592      158.5          158.5          158.5          1.030631       1.0192884      1.095421       0.97718361     1.9088592    
     30420   1.9088592      158.5          158.5          158.5          1.030658       1.0193259      1.0954383      0.97720979     1.9088592    
     30440   1.9088591      158.5          158.5          158.5          1.0306815      1.0193337      1.0954819      0.97722905     1.9088591    
     30460   1.9088591      158.5          158.5          158.5          1.0306599      1.0193214      1.0954407      0.97721765     1.9088591    
     30480   1.9088591      158.5          158.5          158.5          1.0306472      1.0192961      1.0954379      0.97720754     1.9088591    
     30500   1.9088591      158.5          158.5          158.5          1.0306929      1.0193452      1.095479       0.97725458     1.9088591    
     30520   1.9088591      158.5          158.5          158.5          1.0306974      1.0193552      1.0954891      0.97724802     1.9088591    
     30540   1.908859       158.5          158.5          158.5          1.0306826      1.0193405      1.0954676      0.97723978     1.908859     
     30560   1.908859       158.5          158.5          158.5          1.0306622      1.0193201      1.0954454      0.977221       1.908859     
     30580   1.908859       158.5          158.5          158.5          1.0306358      1.0192952      1.0954295      0.9771826      1.908859     
     30600   1.908859       158.5          158.5          158.5          1.0306167      1.0192772      1.0954099      0.97716294     1.908859     
     30620   1.9088589      158.5          158.5          158.5          1.0306319      1.0192943      1.095418       0.97718352     1.9088589    
     30640   1.9088589      158.5          158.5          158.5          1.0306612      1.0193124      1.0954595      0.97721185     1.9088589    
     30660   1.9088589      158.5          158.5          158.5          1.0306882      1.0193496      1.0954773      0.97723774     1.9088589    
     30680   1.9088589      158.5          158.5          158.5          1.0306941      1.0193575      1.0954778      0.97724696     1.9088589    
     30700   1.9088588      158.5          158.5          158.5          1.0306736      1.0193201      1.0954633      0.97723757     1.9088588    
     30720   1.9088588      158.5          158.5          158.5          1.0306421      1.0193121      1.095409       0.97720514     1.9088588    
     30740   1.9088588      158.5          158.5          158.5          1.0306495      1.0192902      1.0954575      0.97720081     1.9088588    
     30760   1.9088588      158.5          158.5          158.5          1.0306685      1.0193304      1.0954524      0.97722268     1.9088588    
     30780   1.9088588      158.5          158.5          158.5          1.0306534      1.0193137      1.0954348      0.97721169     1.9088588    
     30800   1.9088587      158.5          158.5          158.5          1.0306473      1.019329       1.0954101      0.97720279     1.9088587    
     30820   1.9088587      158.5          158.5          158.5          1.0306006      1.0192574      1.0953921      0.97715235     1.9088587    
     30840   1.9088587      158.5          158.5          158.5          1.0306148      1.0192679      1.0954085      0.97716794     1.9088587    
     30860   1.9088587      158.5          158.5          158.5          1.0306212      1.0192903      1.0953961      0.97717712     1.9088587    
     30880   1.9088586      158.5          158.5          158.5          1.0306514      1.0193001      1.0954651      0.97718908     1.9088586    
     30900   1.9088586      158.5          158.5          158.5          1.0306394      1.0193004      1.0954215      0.97719622     1.9088586    
     30920   1.9088586      158.5          158.5          158.5          1.0306216      1.0192896      1.0953959      0.97717936     1.9088586    
     30940   1.9088585      158.5          158.5          158.5          1.0306209      1.019276       1.0954155      0.97717125     1.9088585    
     30960   1.9088585      158.5          158.5          158.5          1.0306092      1.0192745      1.0953882      0.97716505     1.9088585    
     30980   1.9088585      158.5          158.5          158.5          1.0306051      1.0192693      1.0953911      0.9771548      1.9088585    
     31000   1.9088585      158.5          158.5          158.5          1.0306395      1.0192911      1.0954367      0.97719071     1.9088585    
     31020   1.9088584      158.5          158.5          158.5          1.0306646      1.0193298      1.0954363      0.9772276      1.9088584    
     31040   1.9088584      158.5          158.5          158.5          1.0306747      1.0193399      1.095454       0.97723018     1.9088584    
     31060   1.9088584      158.5          158.5          158.5          1.0306601      1.0193207      1.0954468      0.97721289     1.9088584    
     31080   1.9088584      158.5          158.5          158.5          1.030673       1.019337       1.095449       0.97723309     1.9088584    
     31100   1.9088584      158.5          158.5          158.5          1.0306869      1.0193505      1.0954662      0.97724393     1.9088584    
     31120   1.9088583      158.5          158.5          158.5          1.0307074      1.0193662      1.0954938      0.97726222     1.9088583    
     31140   1.9088583      158.5          158.5          158.5          1.0306988      1.0193495      1.0955025      0.97724433     1.9088583    
     31160   1.9088583      158.5          158.5          158.5          1.0306436      1.0193038      1.0954332      0.97719389     1.9088583    
     31180   1.9088583      158.5          158.5          158.5          1.0306169      1.0192784      1.0954021      0.97717019     1.9088583    
     31200   1.9088582      158.5          158.5          158.5          1.0306448      1.0192977      1.0954684      0.9771682      1.9088582    
     31220   1.9088581      158.5          158.5          158.5          1.0306076      1.0192619      1.0953987      0.97716231     1.9088581    
     31240   1.9088581      158.5          158.5          158.5          1.0306119      1.0192674      1.095392       0.9771764      1.9088581    
     31260   1.9088581      158.5          158.5          158.5          1.0306606      1.0193175      1.0954526      0.97721183     1.9088581    
     31280   1.9088581      158.5          158.5          158.5          1.0307054      1.0193645      1.0955048      0.97724668     1.9088581    
     31300   1.908858       158.5          158.5          158.5          1.0306962      1.0193496      1.0954858      0.9772531      1.908858     
     31320   1.908858       158.5          158.5          158.5          1.0306618      1.0193293      1.0954288      0.97722723     1.908858     
     31340   1.908858       158.5          158.5          158.5          1.0306671      1.0193296      1.0954442      0.97722748     1.908858     
     31360   1.908858       158.5          158.5          158.5          1.0307111      1.0193746      1.0954929      0.97726577     1.908858     
     31380   1.9088579      158.5          158.5          158.5          1.0306874      1.0193551      1.0954593      0.97724783     1.9088579    
     31400   1.9088579      158.5          158.5          158.5          1.0306359      1.0192965      1.0954248      0.9771864      1.9088579    
     31420   1.9088579      158.5          158.5          158.5          1.0306101      1.019267       1.0954037      0.97715954     1.9088579    
     31440   1.9088579      158.5          158.5          158.5          1.0305943      1.0192557      1.0953725      0.97715457     1.9088579    
     31460   1.9088579      158.5          158.5          158.5          1.0306224      1.019281       1.0954137      0.97717248     1.9088579    
     31480   1.9088579      158.5          158.5          158.5          1.0306487      1.0192995      1.0954515      0.97719525     1.9088579    
     31500   1.9088578      158.5          158.5          158.5          1.0306314      1.0192905      1.0954157      0.97718796     1.9088578    
     31520   1.9088578      158.5          158.5          158.5          1.0306375      1.0193008      1.0954195      0.97719217     1.9088578    
     31540   1.9088578      158.5          158.5          158.5          1.0306318      1.019297       1.0954155      0.97718284     1.9088578    
     31560   1.9088578      158.5          158.5          158.5          1.0305834      1.0192384      1.0953721      0.97713972     1.9088578    
     31580   1.9088578      158.5          158.5          158.5          1.0306004      1.019261       1.0953796      0.97716056     1.9088578    
     31600   1.9088577      158.5          158.5          158.5          1.030663       1.0193159      1.0954574      0.97721583     1.9088577    
     31620   1.9088577      158.5          158.5          158.5          1.0307166      1.0193816      1.0955051      0.97726309     1.9088577    
     31640   1.9088577      158.5          158.5          158.5          1.0306984      1.0193578      1.0954835      0.97725387     1.9088577    
     31660   1.9088577      158.5          158.5          158.5          1.0306697      1.0193344      1.0954396      0.97723511     1.9088577    
     31680   1.9088576      158.5          158.5          158.5          1.030674       1.0193228      1.0954738      0.97722551     1.9088576    
     31700   1.9088576      158.5          158.5          158.5          1.0307053      1.0193662      1.0954943      0.97725542     1.9088576    
     31720   1.9088576      158.5          158.5          158.5          1.0306921      1.0193474      1.0954829      0.97724607     1.9088576    
     31740   1.9088576      158.5          158.5          158.5          1.03064        1.0193091      1.0954176      0.97719322     1.9088576    
     31760   1.9088576      158.5          158.5          158.5          1.0306141      1.019283       1.095389       0.97717039     1.9088576    
     31780   1.9088575      158.5          158.5          158.5          1.0306117      1.0192779      1.0953864      0.97717093     1.9088575    
     31800   1.9088575      158.5          158.5          158.5          1.0306664      1.0193114      1.095489       0.97719871     1.9088575    
     31820   1.9088574      158.5          158.5          158.5          1.030607       1.0192544      1.095414       0.97715267     1.9088574    
     31840   1.9088574      158.5          158.5          158.5          1.0305995      1.0192565      1.0953916      0.97715025     1.9088574    
     31860   1.9088573      158.5          158.5          158.5          1.0306234      1.0192882      1.0954057      0.97717638     1.9088573    
     31880   1.9088573      158.5          158.5          158.5          1.0306689      1.0193233      1.095458       0.97722551     1.9088573    
     31900   1.9088573      158.5          158.5          158.5          1.0306624      1.0193301      1.0954299      0.9772274      1.9088573    
     31920   1.9088573      158.5          158.5          158.5          1.0306761      1.0193369      1.0954581      0.97723323     1.9088573    
     31940   1.9088573      158.5          158.5          158.5          1.0306851      1.0193681      1.0954341      0.9772532      1.9088573    
     31960   1.9088572      158.5          158.5          158.5          1.030696       1.019353       1.0954874      0.9772476      1.9088572    
     31980   1.9088572      158.5          158.5          158.5          1.0307277      1.0193793      1.0955284      0.97727552     1.9088572    
     32000   1.9088572      158.5          158.5          158.5          1.0306736      1.0193226      1.0954688      0.97722948     1.9088572    
     32020   1.9088572      158.5          158.5          158.5          1.030631       1.0192771      1.0954318      0.97718412     1.9088572    
     32040   1.9088572      158.5          158.5          158.5          1.030598       1.0192506      1.0953911      0.97715246     1.9088572    
     32060   1.9088571      158.5          158.5          158.5          1.0306072      1.0192686      1.0953901      0.97716282     1.9088571    
     32080   1.9088571      158.5          158.5          158.5          1.0306177      1.019294       1.0953885      0.97717053     1.9088571    
     32100   1.9088571      158.5          158.5          158.5          1.0306255      1.0192837      1.0954124      0.97718028     1.9088571    
     32120   1.9088571      158.5          158.5          158.5          1.0306248      1.0192835      1.0954079      0.97718289     1.9088571    
     32140   1.9088571      158.5          158.5          158.5          1.030617       1.0192897      1.0953891      0.97717214     1.9088571    
     32160   1.9088571      158.5          158.5          158.5          1.0306042      1.0192692      1.0953746      0.97716896     1.9088571    
     32180   1.908857       158.5          158.5          158.5          1.0306287      1.0193013      1.095395       0.97718966     1.908857     
     32200   1.908857       158.5          158.5          158.5          1.0306913      1.0193473      1.0954801      0.97724647     1.908857     
     32220   1.908857       158.5          158.5          158.5          1.0307132      1.0193726      1.0955051      0.97726203     1.908857     
     32240   1.908857       158.5          158.5          158.5          1.0306965      1.0193498      1.0954881      0.97725156     1.908857     
     32260   1.9088569      158.5          158.5          158.5          1.0306738      1.019338       1.0954522      0.97723131     1.9088569    
     32280   1.9088569      158.5          158.5          158.5          1.0306688      1.0193441      1.0954313      0.97723116     1.9088569    
     32300   1.9088569      158.5          158.5          158.5          1.0306953      1.0193507      1.0954874      0.97724767     1.9088569    
     32320   1.9088569      158.5          158.5          158.5          1.0306272      1.0192852      1.0954147      0.97718156     1.9088569    
     32340   1.9088569      158.5          158.5          158.5          1.0306085      1.0192685      1.0953947      0.97716219     1.9088569    
     32360   1.9088569      158.5          158.5          158.5          1.0306047      1.0192632      1.0953971      0.97715368     1.9088569    
     32380   1.9088568      158.5          158.5          158.5          1.0306367      1.0192913      1.0954358      0.97718286     1.9088568    
     32400   1.9088565      158.5          158.5          158.5          1.0306613      1.0193253      1.095454       0.97720461     1.9088565    
     32420   1.9088562      158.5          158.5          158.5          1.0306234      1.0192883      1.0953967      0.97718526     1.9088562    
     32440   1.9088562      158.5          158.5          158.5          1.0305805      1.0192263      1.0953751      0.97714009     1.9088562    
     32460   1.9088561      158.5          158.5          158.5          1.0305798      1.0192466      1.0953567      0.97713593     1.9088561    
     32480   1.9088561      158.5          158.5          158.5          1.0306051      1.0192645      1.0953945      0.97715642     1.9088561    
     32500   1.9088561      158.5          158.5          158.5          1.0306539      1.019309       1.095444       0.97720868     1.9088561    
     32520   1.9088561      158.5          158.5          158.5          1.0306869      1.0193439      1.0954743      0.97724239     1.9088561    
     32540   1.9088561      158.5          158.5          158.5          1.0307141      1.0193722      1.0955021      0.97726793     1.9088561    
     32560   1.9088561      158.5          158.5          158.5          1.0307099      1.0193622      1.0955065      0.97726104     1.9088561    
     32580   1.908856       158.5          158.5          158.5          1.0307213      1.0193747      1.0955088      0.97728038     1.908856     
     32600   1.908856       158.5          158.5          158.5          1.0306735      1.0193311      1.095465       0.9772243      1.908856     
     32620   1.908856       158.5          158.5          158.5          1.0306528      1.0193096      1.0954396      0.97720929     1.908856     
     32640   1.908856       158.5          158.5          158.5          1.0306478      1.0193123      1.0954246      0.97720639     1.908856     
     32660   1.908856       158.5          158.5          158.5          1.0306421      1.0192985      1.0954309      0.97719703     1.908856     
     32680   1.908856       158.5          158.5          158.5          1.0306343      1.0193025      1.0954055      0.97719487     1.908856     
     32700   1.9088559      158.5          158.5          158.5          1.0306005      1.0192573      1.0953904      0.97715364     1.9088559    
     32720   1.9088559      158.5          158.5          158.5          1.0306211      1.0192801      1.0954023      0.97718095     1.9088559    
     32740   1.9088559      158.5          158.5          158.5          1.030637       1.0192986      1.0954234      0.97718899     1.9088559    
     32760   1.9088559      158.5          158.5          158.5          1.0306544      1.0193105      1.0954469      0.977206       1.9088559    
     32780   1.9088559      158.5          158.5          158.5          1.030646       1.0193074      1.0954279      0.9772028      1.9088559    
     32800   1.9088559      158.5          158.5          158.5          1.0306588      1.0193285      1.0954357      0.97721234     1.9088559    
     32820   1.9088558      158.5          158.5          158.5          1.0306842      1.0193524      1.0954706      0.97722976     1.9088558    
     32840   1.9088558      158.5          158.5          158.5          1.0307028      1.0193652      1.0954874      0.97725584     1.9088558    
     32860   1.9088558      158.5          158.5          158.5          1.0307305      1.019382       1.0955262      0.97728334     1.9088558    
     32880   1.9088558      158.5          158.5          158.5          1.0307176      1.0193636      1.0955299      0.97725934     1.9088558    
     32900   1.9088558      158.5          158.5          158.5          1.0306813      1.0193357      1.0954746      0.97723364     1.9088558    
     32920   1.9088557      158.5          158.5          158.5          1.03059        1.0192468      1.0953869      0.97713622     1.9088557    
     32940   1.9088557      158.5          158.5          158.5          1.0305676      1.0192214      1.0953591      0.97712249     1.9088557    
     32960   1.9088557      158.5          158.5          158.5          1.0305955      1.0192443      1.0953976      0.9771445      1.9088557    
     32980   1.9088557      158.5          158.5          158.5          1.0306457      1.0192961      1.0954577      0.97718337     1.9088557    
     33000   1.9088555      158.5          158.5          158.5          1.0306589      1.0192986      1.0954819      0.97719624     1.9088555    
     33020   1.9088555      158.5          158.5          158.5          1.0306556      1.0192778      1.0954984      0.97719047     1.9088555    
     33040   1.9088554      158.5          158.5          158.5          1.0306008      1.0192603      1.0953842      0.97715793     1.9088554    
     33060   1.9088554      158.5          158.5          158.5          1.030605       1.0192648      1.0953871      0.97716302     1.9088554    
     33080   1.9088554      158.5          158.5          158.5          1.0306024      1.0192695      1.0953821      0.97715565     1.9088554    
     33100   1.9088554      158.5          158.5          158.5          1.0306602      1.0193237      1.0954449      0.97721205     1.9088554    
     33120   1.9088554      158.5          158.5          158.5          1.0307106      1.019362       1.0955047      0.97726494     1.9088554    
     33140   1.9088553      158.5          158.5          158.5          1.0307299      1.0193901      1.0955101      0.97728944     1.9088553    
     33160   1.9088553      158.5          158.5          158.5          1.0306953      1.0193611      1.0954731      0.97725172     1.9088553    
     33180   1.9088553      158.5          158.5          158.5          1.030691       1.0193451      1.0954821      0.9772456      1.9088553    
     33200   1.9088553      158.5          158.5          158.5          1.0306748      1.0193336      1.0954654      0.9772255      1.9088553    
     33220   1.9088553      158.5          158.5          158.5          1.0306642      1.019341       1.0954355      0.97721625     1.9088553    
     33240   1.9088552      158.5          158.5          158.5          1.0306382      1.0192999      1.0954129      0.97720177     1.9088552    
     33260   1.9088552      158.5          158.5          158.5          1.0306328      1.0193025      1.0954065      0.97718952     1.9088552    
     33280   1.9088552      158.5          158.5          158.5          1.0306245      1.0192885      1.0954127      0.97717251     1.9088552    
     33300   1.9088552      158.5          158.5          158.5          1.0306119      1.0192765      1.0953916      0.97716754     1.9088552    
     33320   1.9088552      158.5          158.5          158.5          1.0306162      1.0192755      1.0954027      0.97717037     1.9088552    
     33340   1.9088552      158.5          158.5          158.5          1.0306336      1.0192945      1.0954161      0.97719006     1.9088552    
     33360   1.9088552      158.5          158.5          158.5          1.030639       1.0192959      1.0954235      0.9771976      1.9088552    
     33380   1.9088552      158.5          158.5          158.5          1.0306652      1.0193262      1.0954481      0.97722132     1.9088552    
     33400   1.9088551      158.5          158.5          158.5          1.0306714      1.0193267      1.0954606      0.97722684     1.9088551    
     33420   1.9088551      158.5          158.5          158.5          1.0306721      1.01933        1.0954561      0.97723017     1.9088551    
     33440   1.9088551      158.5          158.5          158.5          1.0307103      1.0193635      1.0955028      0.97726448     1.9088551    
     33460   1.9088551      158.5          158.5          158.5          1.0307419      1.0194128      1.0955246      0.97728827     1.9088551    
     33480   1.9088551      158.5          158.5          158.5          1.0307082      1.0193698      1.0954992      0.97725557     1.9088551    
     33500   1.908855       158.5          158.5          158.5          1.0306634      1.0193239      1.0954436      0.97722273     1.908855     
     33520   1.908855       158.5          158.5          158.5          1.0306226      1.0192775      1.0954185      0.97717189     1.908855     
     33540   1.908855       158.5          158.5          158.5          1.0306256      1.0192937      1.0954074      0.97717584     1.908855     
     33560   1.908855       158.5          158.5          158.5          1.0305952      1.0192624      1.0953694      0.97715378     1.908855     
     33580   1.9088549      158.5          158.5          158.5          1.0305745      1.0192448      1.0953555      0.97712321     1.9088549    
     33600   1.9088548      158.5          158.5          158.5          1.0305551      1.0191989      1.0953654      0.97710114     1.9088548    
     33620   1.9088548      158.5          158.5          158.5          1.0305564      1.0192185      1.0953549      0.97709586     1.9088548    
     33640   1.9088547      158.5          158.5          158.5          1.0305668      1.0192307      1.0953443      0.9771253      1.9088547    
     33660   1.9088547      158.5          158.5          158.5          1.0305979      1.0192686      1.0953748      0.97715032     1.9088547    
     33680   1.9088547      158.5          158.5          158.5          1.0306326      1.019292       1.0954206      0.97718514     1.9088547    
     33700   1.9088547      158.5          158.5          158.5          1.0306695      1.0193288      1.0954532      0.9772265      1.9088547    
     33720   1.9088546      158.5          158.5          158.5          1.0307025      1.0193724      1.095477       0.97725804     1.9088546    
     33740   1.9088546      158.5          158.5          158.5          1.0307271      1.0193856      1.0955202      0.97727567     1.9088546    
     33760   1.9088546      158.5          158.5          158.5          1.0307         1.0193636      1.0954771      0.97725922     1.9088546    
     33780   1.9088546      158.5          158.5          158.5          1.0306737      1.019339       1.0954522      0.97722997     1.9088546    
     33800   1.9088546      158.5          158.5          158.5          1.0306733      1.0193228      1.0954702      0.97722682     1.9088546    
     33820   1.9088546      158.5          158.5          158.5          1.0306676      1.0193328      1.0954521      0.97721802     1.9088546    
     33840   1.9088545      158.5          158.5          158.5          1.0306602      1.0193165      1.0954453      0.97721869     1.9088545    
     33860   1.9088545      158.5          158.5          158.5          1.0306501      1.0193115      1.0954366      0.97720213     1.9088545    
     33880   1.9088545      158.5          158.5          158.5          1.0306205      1.0192815      1.0954079      0.97717199     1.9088545    
     33900   1.9088545      158.5          158.5          158.5          1.0306162      1.019279       1.0953959      0.97717364     1.9088545    
     33920   1.9088545      158.5          158.5          158.5          1.030618       1.0192823      1.0954014      0.97717038     1.9088545    
     33940   1.9088545      158.5          158.5          158.5          1.0306468      1.0193155      1.0954257      0.97719935     1.9088545    
     33960   1.9088545      158.5          158.5          158.5          1.0306514      1.0193029      1.095437       0.97721421     1.9088545    
     33980   1.9088545      158.5          158.5          158.5          1.0306522      1.0193066      1.0954334      0.97721667     1.9088545    
     34000   1.9088545      158.5          158.5          158.5          1.0306729      1.0193363      1.0954568      0.97722571     1.9088545    
     34020   1.9088544      158.5          158.5          158.5          1.0306966      1.019365       1.0954748      0.97724991     1.9088544    
     34040   1.9088544      158.5          158.5          158.5          1.0307157      1.0193659      1.0955124      0.97726887     1.9088544    
     34060   1.9088544      158.5          158.5          158.5          1.0307106      1.0193703      1.0954902      0.97727116     1.9088544    
     34080   1.9088544      158.5          158.5          158.5          1.030698       1.0193603      1.0954818      0.97725177     1.9088544    
     34100   1.9088544      158.5          158.5          158.5          1.030682       1.0193578      1.0954499      0.97723836     1.9088544    
     34120   1.9088543      158.5          158.5          158.5          1.0306206      1.0192868      1.0953943      0.97718082     1.9088543    
     34140   1.9088543      158.5          158.5          158.5          1.0305697      1.0192331      1.0953382      0.9771377      1.9088543    
     34160   1.9088543      158.5          158.5          158.5          1.030579       1.0192386      1.0953667      0.97713167     1.9088543    
     34180   1.9088542      158.5          158.5          158.5          1.0306198      1.0192877      1.0954059      0.97716583     1.9088542    
     34200   1.9088541      158.5          158.5          158.5          1.0305715      1.0192333      1.095367       0.97711426     1.9088541    
     34220   1.908854       158.5          158.5          158.5          1.0305732      1.01922        1.0953808      0.9771189      1.908854     
     34240   1.908854       158.5          158.5          158.5          1.0305766      1.0192358      1.0953637      0.97713031     1.908854     
     34260   1.9088539      158.5          158.5          158.5          1.0305961      1.0192632      1.095368       0.97715714     1.9088539    
     34280   1.9088539      158.5          158.5          158.5          1.0306283      1.0192919      1.0954099      0.97718308     1.9088539    
     34300   1.9088539      158.5          158.5          158.5          1.0306689      1.0193237      1.0954635      0.97721929     1.9088539    
     34320   1.9088539      158.5          158.5          158.5          1.030712       1.0193783      1.0954995      0.97725829     1.9088539    
     34340   1.9088539      158.5          158.5          158.5          1.0307291      1.0193921      1.0955134      0.97728171     1.9088539    
     34360   1.9088539      158.5          158.5          158.5          1.0307026      1.0193702      1.0954708      0.97726679     1.9088539    
     34380   1.9088538      158.5          158.5          158.5          1.0306679      1.0193319      1.0954485      0.97722346     1.9088538    
     34400   1.9088538      158.5          158.5          158.5          1.0306644      1.0193279      1.0954477      0.97721776     1.9088538    
     34420   1.9088538      158.5          158.5          158.5          1.0306769      1.0193386      1.0954612      0.97723086     1.9088538    
     34440   1.9088538      158.5          158.5          158.5          1.0306802      1.0193431      1.0954592      0.97723841     1.9088538    
     34460   1.9088538      158.5          158.5          158.5          1.0306445      1.0193075      1.0954276      0.97719843     1.9088538    
     34480   1.9088538      158.5          158.5          158.5          1.0306132      1.0192787      1.0953907      0.97717002     1.9088538    
     34500   1.9088538      158.5          158.5          158.5          1.0306101      1.0192739      1.0953901      0.97716617     1.9088538    
     34520   1.9088538      158.5          158.5          158.5          1.0306323      1.0192955      1.0954165      0.9771848      1.9088538    
     34540   1.9088538      158.5          158.5          158.5          1.0306567      1.0193163      1.0954461      0.97720757     1.9088538    
     34560   1.9088537      158.5          158.5          158.5          1.0306672      1.0193186      1.0954588      0.97722426     1.9088537    
     34580   1.9088537      158.5          158.5          158.5          1.0306553      1.0193144      1.0954426      0.97720893     1.9088537    
     34600   1.9088537      158.5          158.5          158.5          1.0306681      1.019329       1.0954514      0.97722402     1.9088537    
     34620   1.9088537      158.5          158.5          158.5          1.0307013      1.0193565      1.0954884      0.97725899     1.9088537    
     34640   1.9088537      158.5          158.5          158.5          1.0307042      1.0193732      1.0954781      0.97726117     1.9088537    
     34660   1.9088537      158.5          158.5          158.5          1.0307209      1.0193797      1.0955111      0.97727196     1.9088537    
     34680   1.9088536      158.5          158.5          158.5          1.0306888      1.0193449      1.0954762      0.97724545     1.9088536    
     34700   1.9088536      158.5          158.5          158.5          1.0306602      1.0193179      1.0954564      0.9772062      1.9088536    
     34720   1.9088536      158.5          158.5          158.5          1.0306258      1.019282       1.095418       0.97717744     1.9088536    
     34740   1.9088536      158.5          158.5          158.5          1.0305899      1.0192537      1.0953629      0.97715319     1.9088536    
     34760   1.9088536      158.5          158.5          158.5          1.0305594      1.0192195      1.0953422      0.97711653     1.9088536    
     34780   1.9088535      158.5          158.5          158.5          1.0305726      1.0192356      1.0953642      0.97711791     1.9088535    
     34800   1.9088534      158.5          158.5          158.5          1.0305423      1.0191974      1.0953349      0.97709453     1.9088534    
     34820   1.9088533      158.5          158.5          158.5          1.0305473      1.0191855      1.0953614      0.97709496     1.9088533    
     34840   1.9088533      158.5          158.5          158.5          1.0305723      1.0192389      1.0953486      0.97712947     1.9088533    
     34860   1.9088532      158.5          158.5          158.5          1.0306071      1.0192687      1.0953941      0.97715865     1.9088532    
     34880   1.9088532      158.5          158.5          158.5          1.030627       1.0192892      1.0954117      0.97718009     1.9088532    
     34900   1.9088532      158.5          158.5          158.5          1.0306571      1.019325       1.0954375      0.97720875     1.9088532    
     34920   1.9088532      158.5          158.5          158.5          1.0306973      1.0193637      1.0954744      0.97725376     1.9088532    
     34940   1.9088532      158.5          158.5          158.5          1.0307243      1.0193807      1.0955176      0.97727452     1.9088532    
     34960   1.9088532      158.5          158.5          158.5          1.0307027      1.0193737      1.0954701      0.97726423     1.9088532    
     34980   1.9088531      158.5          158.5          158.5          1.0306718      1.0193369      1.095453       0.9772254      1.9088531    
     35000   1.9088531      158.5          158.5          158.5          1.0306747      1.0193351      1.0954622      0.97722693     1.9088531    
     35020   1.9088531      158.5          158.5          158.5          1.0306764      1.0193456      1.0954484      0.97723512     1.9088531    
     35040   1.9088531      158.5          158.5          158.5          1.030658       1.0193204      1.0954337      0.97721992     1.9088531    
     35060   1.9088531      158.5          158.5          158.5          1.0306439      1.01931        1.0954283      0.97719349     1.9088531    
     35080   1.9088531      158.5          158.5          158.5          1.0306345      1.0193025      1.0954105      0.97719043     1.9088531    
     35100   1.9088531      158.5          158.5          158.5          1.0306231      1.0192847      1.0954064      0.97717804     1.9088531    
     35120   1.9088531      158.5          158.5          158.5          1.0306332      1.0192981      1.0954114      0.97719006     1.9088531    
     35140   1.9088531      158.5          158.5          158.5          1.0306355      1.0193015      1.0954123      0.97719254     1.9088531    
     35160   1.9088531      158.5          158.5          158.5          1.0306666      1.0193307      1.0954437      0.97722537     1.9088531    
     35180   1.908853       158.5          158.5          158.5          1.0306739      1.0193402      1.0954523      0.97722917     1.908853     
     35200   1.908853       158.5          158.5          158.5          1.0306627      1.0193285      1.095443       0.97721663     1.908853     
     35220   1.908853       158.5          158.5          158.5          1.0306832      1.0193577      1.0954472      0.97724462     1.908853     
     35240   1.908853       158.5          158.5          158.5          1.0306942      1.0193673      1.0954577      0.97725756     1.908853     
     35260   1.908853       158.5          158.5          158.5          1.0307164      1.0193766      1.095506       0.97726656     1.908853     
     35280   1.908853       158.5          158.5          158.5          1.0306799      1.0193266      1.0954776      0.97723544     1.908853     
     35300   1.908853       158.5          158.5          158.5          1.0306415      1.0193043      1.0954213      0.97719882     1.908853     
     35320   1.9088529      158.5          158.5          158.5          1.0306286      1.0192949      1.0954118      0.97717914     1.9088529    
     35340   1.9088529      158.5          158.5          158.5          1.0305946      1.0192637      1.0953737      0.97714629     1.9088529    
     35360   1.9088529      158.5          158.5          158.5          1.0305744      1.0192392      1.0953573      0.97712673     1.9088529    
     35380   1.9088528      158.5          158.5          158.5          1.0305502      1.0192165      1.095333       0.97710111     1.9088528    
     35400   1.9088527      158.5          158.5          158.5          1.0305986      1.019278       1.0953704      0.97714748     1.9088527    
     35420   1.9088526      158.5          158.5          158.5          1.0305762      1.0192288      1.0953793      0.97712058     1.9088526    
     35440   1.9088526      158.5          158.5          158.5          1.0305869      1.0192484      1.0953612      0.97715103     1.9088526    
     35460   1.9088526      158.5          158.5          158.5          1.0305962      1.0192594      1.0953789      0.97715024     1.9088526    
     35480   1.9088526      158.5          158.5          158.5          1.0306337      1.0192933      1.0954173      0.97719057     1.9088526    
     35500   1.9088526      158.5          158.5          158.5          1.0306649      1.0193325      1.0954435      0.97721887     1.9088526    
     35520   1.9088525      158.5          158.5          158.5          1.030697       1.0193567      1.0954887      0.9772455      1.9088525    
     35540   1.9088525      158.5          158.5          158.5          1.0307198      1.0193783      1.0955052      0.97727579     1.9088525    
     35560   1.9088525      158.5          158.5          158.5          1.0306914      1.0193407      1.0954855      0.97724802     1.9088525    
     35580   1.9088525      158.5          158.5          158.5          1.0306657      1.019328       1.0954508      0.97721826     1.9088525    
     35600   1.9088525      158.5          158.5          158.5          1.030674       1.0193278      1.0954672      0.97722694     1.9088525    
     35620   1.9088525      158.5          158.5          158.5          1.030671       1.0193311      1.0954582      0.97722384     1.9088525    
     35640   1.9088525      158.5          158.5          158.5          1.0306658      1.0193315      1.0954413      0.97722465     1.9088525    
     35660   1.9088525      158.5          158.5          158.5          1.0306507      1.0193152      1.0954332      0.97720368     1.9088525    
     35680   1.9088524      158.5          158.5          158.5          1.0306295      1.0192886      1.0954148      0.9771849      1.9088524    
     35700   1.9088524      158.5          158.5          158.5          1.030625       1.0192851      1.0954081      0.9771817      1.9088524    
     35720   1.9088524      158.5          158.5          158.5          1.030627       1.0192887      1.0954167      0.9771756      1.9088524    
     35740   1.9088524      158.5          158.5          158.5          1.0306437      1.0193076      1.0954264      0.97719692     1.9088524    
     35760   1.9088524      158.5          158.5          158.5          1.0306596      1.0193057      1.095462       0.97721095     1.9088524    
     35780   1.9088524      158.5          158.5          158.5          1.0306749      1.0193353      1.0954603      0.97722904     1.9088524    
     35800   1.9088524      158.5          158.5          158.5          1.0306642      1.0193233      1.0954517      0.97721763     1.9088524    
     35820   1.9088524      158.5          158.5          158.5          1.030671       1.0193341      1.0954539      0.97722502     1.9088524    
     35840   1.9088524      158.5          158.5          158.5          1.0306874      1.0193366      1.0954828      0.97724273     1.9088524    
     35860   1.9088524      158.5          158.5          158.5          1.0307172      1.0193787      1.095501       0.97727177     1.9088524    
     35880   1.9088523      158.5          158.5          158.5          1.0306919      1.0193546      1.0954707      0.97725046     1.9088523    
     35900   1.9088523      158.5          158.5          158.5          1.0306533      1.019323       1.0954301      0.97720663     1.9088523    
     35920   1.9088523      158.5          158.5          158.5          1.030612       1.0192671      1.0954045      0.97716439     1.9088523    
     35940   1.9088523      158.5          158.5          158.5          1.0305848      1.0192358      1.0953668      0.97715163     1.9088523    
     35960   1.9088523      158.5          158.5          158.5          1.0305889      1.0192535      1.0953756      0.97713756     1.9088523    
     35980   1.9088522      158.5          158.5          158.5          1.0305962      1.0192542      1.0954045      0.97713002     1.9088522    
     36000   1.9088521      158.5          158.5          158.5          1.0305495      1.0192259      1.095304       0.97711862     1.9088521    
     36020   1.908852       158.5          158.5          158.5          1.030577       1.0192303      1.0953708      0.97713005     1.908852     
     36040   1.908852       158.5          158.5          158.5          1.0305636      1.0192336      1.095332       0.97712511     1.908852     
     36060   1.9088519      158.5          158.5          158.5          1.0305956      1.0192602      1.0953783      0.97714831     1.9088519    
     36080   1.9088519      158.5          158.5          158.5          1.0306102      1.0192685      1.0954022      0.97715976     1.9088519    
     36100   1.9088519      158.5          158.5          158.5          1.030632       1.0192989      1.0954045      0.97719272     1.9088519    
     36120   1.9088519      158.5          158.5          158.5          1.0306843      1.019345       1.0954661      0.97724172     1.9088519    
     36140   1.9088519      158.5          158.5          158.5          1.0307124      1.0193779      1.0954984      0.97726097     1.9088519    
     36160   1.9088519      158.5          158.5          158.5          1.0306908      1.019361       1.0954635      0.97724778     1.9088519    
     36180   1.9088518      158.5          158.5          158.5          1.0306751      1.019332       1.0954581      0.97723511     1.9088518    
     36200   1.9088518      158.5          158.5          158.5          1.0306658      1.0193312      1.0954398      0.97722658     1.9088518    
     36220   1.9088518      158.5          158.5          158.5          1.0306834      1.0193451      1.0954654      0.97723978     1.9088518    
     36240   1.9088518      158.5          158.5          158.5          1.030665       1.0193221      1.0954535      0.97721934     1.9088518    
     36260   1.9088518      158.5          158.5          158.5          1.0306433      1.0193074      1.0954244      0.97719805     1.9088518    
     36280   1.9088518      158.5          158.5          158.5          1.0306325      1.0192966      1.0954189      0.97718188     1.9088518    
     36300   1.9088518      158.5          158.5          158.5          1.0306332      1.0192931      1.0954162      0.97719046     1.9088518    
     36320   1.9088518      158.5          158.5          158.5          1.0306216      1.0192817      1.0954091      0.97717394     1.9088518    
     36340   1.9088518      158.5          158.5          158.5          1.0306327      1.019296       1.0954115      0.97719063     1.9088518    
     36360   1.9088518      158.5          158.5          158.5          1.0306682      1.0193244      1.0954609      0.97721949     1.9088518    
     36380   1.9088518      158.5          158.5          158.5          1.0306821      1.0193434      1.0954649      0.97723788     1.9088518    
     36400   1.9088518      158.5          158.5          158.5          1.030664       1.0193269      1.0954428      0.97722226     1.9088518    
     36420   1.9088517      158.5          158.5          158.5          1.0306635      1.0193265      1.0954433      0.97722079     1.9088517    
     36440   1.9088517      158.5          158.5          158.5          1.0306879      1.0193483      1.0954727      0.97724289     1.9088517    
     36460   1.9088517      158.5          158.5          158.5          1.0307162      1.0193775      1.0955019      0.97726935     1.9088517    
     36480   1.9088517      158.5          158.5          158.5          1.0306921      1.0193599      1.095466       0.97725025     1.9088517    
     36500   1.9088517      158.5          158.5          158.5          1.0306363      1.0192965      1.0954188      0.97719371     1.9088517    
     36520   1.9088517      158.5          158.5          158.5          1.0306237      1.0192885      1.0954024      0.97718019     1.9088517    
     36540   1.9088517      158.5          158.5          158.5          1.030614       1.0192748      1.0953993      0.97716775     1.9088517    
     36560   1.9088516      158.5          158.5          158.5          1.0305599      1.0192126      1.0953539      0.97711327     1.9088516    
     36580   1.9088516      158.5          158.5          158.5          1.0305757      1.0192269      1.095379       0.9771212      1.9088516    
     36600   1.9088515      158.5          158.5          158.5          1.0305711      1.0192296      1.0953721      0.97711147     1.9088515    
     36620   1.9088514      158.5          158.5          158.5          1.0305968      1.0192573      1.0953902      0.97714293     1.9088514    
     36640   1.9088514      158.5          158.5          158.5          1.0305872      1.0192455      1.0953821      0.97713395     1.9088514    
     36660   1.9088514      158.5          158.5          158.5          1.0306062      1.019261       1.0954025      0.97715507     1.9088514    
     36680   1.9088513      158.5          158.5          158.5          1.0306158      1.0192765      1.0954039      0.97716711     1.9088513    
     36700   1.9088513      158.5          158.5          158.5          1.0306466      1.0192986      1.0954415      0.97719988     1.9088513    
     36720   1.9088513      158.5          158.5          158.5          1.0306865      1.0193409      1.0954772      0.97724151     1.9088513    
     36740   1.9088513      158.5          158.5          158.5          1.030705       1.0193622      1.0954925      0.97726027     1.9088513    
     36760   1.9088513      158.5          158.5          158.5          1.0306721      1.0193372      1.09545        0.97722913     1.9088513    
     36780   1.9088513      158.5          158.5          158.5          1.0306661      1.0193225      1.0954558      0.97721989     1.9088513    
     36800   1.9088513      158.5          158.5          158.5          1.0306675      1.0193251      1.095459       0.97721855     1.9088513    
     36820   1.9088513      158.5          158.5          158.5          1.0306671      1.0193268      1.0954497      0.9772247      1.9088513    
     36840   1.9088513      158.5          158.5          158.5          1.0306574      1.0193219      1.0954381      0.97721208     1.9088513    
     36860   1.9088513      158.5          158.5          158.5          1.0306523      1.0193079      1.0954428      0.97720612     1.9088513    
     36880   1.9088512      158.5          158.5          158.5          1.03063        1.0192892      1.0954167      0.97718416     1.9088512    
     36900   1.9088512      158.5          158.5          158.5          1.0306252      1.0192868      1.0954097      0.97717903     1.9088512    
     36920   1.9088512      158.5          158.5          158.5          1.0306378      1.0193002      1.0954221      0.97719099     1.9088512    
     36940   1.9088512      158.5          158.5          158.5          1.030646       1.0193101      1.0954278      0.9772001      1.9088512    
     36960   1.9088512      158.5          158.5          158.5          1.03067        1.0193387      1.0954471      0.97722405     1.9088512    
     36980   1.9088512      158.5          158.5          158.5          1.0306692      1.0193287      1.0954594      0.97721946     1.9088512    
     37000   1.9088512      158.5          158.5          158.5          1.0306657      1.0193284      1.0954503      0.97721824     1.9088512    
     37020   1.9088512      158.5          158.5          158.5          1.0306756      1.019336       1.0954565      0.97723427     1.9088512    
     37040   1.9088512      158.5          158.5          158.5          1.0306866      1.0193571      1.0954537      0.97724903     1.9088512    
     37060   1.9088512      158.5          158.5          158.5          1.0307102      1.0193648      1.0954986      0.97726713     1.9088512    
     37080   1.9088512      158.5          158.5          158.5          1.0307058      1.0193693      1.0954872      0.97726083     1.9088512    
     37100   1.9088511      158.5          158.5          158.5          1.0306475      1.0192982      1.095446       0.97719829     1.9088511    
     37120   1.9088511      158.5          158.5          158.5          1.0306133      1.0192729      1.0953949      0.97717216     1.9088511    
     37140   1.9088511      158.5          158.5          158.5          1.0306007      1.019272       1.0953714      0.97715852     1.9088511    
     37160   1.9088511      158.5          158.5          158.5          1.0305949      1.0192364      1.0954007      0.97714746     1.9088511    
     37180   1.908851       158.5          158.5          158.5          1.0306233      1.0192699      1.0954428      0.97715713     1.908851     
     37200   1.908851       158.5          158.5          158.5          1.030547       1.0192235      1.095334       0.97708359     1.908851     
     37220   1.9088509      158.5          158.5          158.5          1.030572       1.0192232      1.095369       0.97712385     1.9088509    
     37240   1.9088508      158.5          158.5          158.5          1.0305685      1.0192293      1.0953568      0.97711935     1.9088508    
     37260   1.9088508      158.5          158.5          158.5          1.0306099      1.0192619      1.0954011      0.97716674     1.9088508    
     37280   1.9088508      158.5          158.5          158.5          1.0306192      1.0192804      1.0954061      0.9771711      1.9088508    
     37300   1.9088508      158.5          158.5          158.5          1.0306411      1.0193126      1.0954139      0.97719695     1.9088508    
     37320   1.9088507      158.5          158.5          158.5          1.030705       1.0193623      1.0954948      0.9772579      1.9088507    
     37340   1.9088507      158.5          158.5          158.5          1.030715       1.0193726      1.0955044      0.97726786     1.9088507    
     37360   1.9088507      158.5          158.5          158.5          1.0306852      1.0193443      1.0954696      0.97724149     1.9088507    
     37380   1.9088507      158.5          158.5          158.5          1.0306819      1.0193421      1.0954656      0.97723801     1.9088507    
     37400   1.9088507      158.5          158.5          158.5          1.0306768      1.0193358      1.0954665      0.97722802     1.9088507    
     37420   1.9088507      158.5          158.5          158.5          1.0306698      1.0193227      1.0954592      0.97722732     1.9088507    
     37440   1.9088507      158.5          158.5          158.5          1.0306583      1.0193188      1.0954392      0.97721697     1.9088507    
     37460   1.9088507      158.5          158.5          158.5          1.0306433      1.0192997      1.0954328      0.97719738     1.9088507    
     37480   1.9088507      158.5          158.5          158.5          1.0306385      1.0192978      1.0954284      0.9771893      1.9088507    
     37500   1.9088507      158.5          158.5          158.5          1.0306337      1.0192941      1.0954182      0.9771888      1.9088507    
     37520   1.9088507      158.5          158.5          158.5          1.0306324      1.0192911      1.0954191      0.97718709     1.9088507    
     37540   1.9088507      158.5          158.5          158.5          1.0306398      1.0193024      1.0954215      0.97719551     1.9088507    
     37560   1.9088506      158.5          158.5          158.5          1.0306479      1.0193062      1.0954313      0.9772063      1.9088506    
     37580   1.9088506      158.5          158.5          158.5          1.030681       1.0193436      1.0954652      0.9772341      1.9088506    
     37600   1.9088506      158.5          158.5          158.5          1.0306748      1.0193331      1.0954631      0.97722825     1.9088506    
     37620   1.9088506      158.5          158.5          158.5          1.0306816      1.0193477      1.0954557      0.97724145     1.9088506    
     37640   1.9088506      158.5          158.5          158.5          1.0306906      1.0193512      1.095477       0.97724348     1.9088506    
     37660   1.9088506      158.5          158.5          158.5          1.0307158      1.0193703      1.095511       0.97726601     1.9088506    
     37680   1.9088506      158.5          158.5          158.5          1.0306834      1.0193311      1.0954812      0.97723804     1.9088506    
     37700   1.9088506      158.5          158.5          158.5          1.0306476      1.0193032      1.0954338      0.97720573     1.9088506    
     37720   1.9088505      158.5          158.5          158.5          1.0306281      1.0192828      1.0954216      0.97717981     1.9088505    
     37740   1.9088505      158.5          158.5          158.5          1.0306178      1.0192838      1.0953955      0.9771741      1.9088505    
     37760   1.9088505      158.5          158.5          158.5          1.0305581      1.0192247      1.0953367      0.97711301     1.9088505    
     37780   1.9088505      158.5          158.5          158.5          1.0305847      1.019231       1.0953965      0.97712673     1.9088505    
     37800   1.9088504      158.5          158.5          158.5          1.0305607      1.0191984      1.0953748      0.97710876     1.9088504    
     37820   1.9088503      158.5          158.5          158.5          1.0305973      1.0192584      1.0953897      0.97714392     1.9088503    
     37840   1.9088502      158.5          158.5          158.5          1.0305698      1.019233       1.095351       0.97712528     1.9088502    
     37860   1.9088502      158.5          158.5          158.5          1.030593       1.0192413      1.0953796      0.97715804     1.9088502    
     37880   1.9088502      158.5          158.5          158.5          1.0306234      1.0192802      1.095413       0.97717691     1.9088502    
     37900   1.9088502      158.5          158.5          158.5          1.0306624      1.0193278      1.0954438      0.97721569     1.9088502    
     37920   1.9088502      158.5          158.5          158.5          1.030702       1.0193559      1.0954923      0.9772579      1.9088502    
     37940   1.9088502      158.5          158.5          158.5          1.0307237      1.0193781      1.0955163      0.97727666     1.9088502    
     37960   1.9088501      158.5          158.5          158.5          1.0306816      1.0193342      1.0954714      0.97723933     1.9088501    
     37980   1.9088501      158.5          158.5          158.5          1.0306709      1.0193348      1.0954496      0.97722835     1.9088501    
     38000   1.9088501      158.5          158.5          158.5          1.030671       1.0193303      1.0954635      0.97721923     1.9088501    
     38020   1.9088501      158.5          158.5          158.5          1.0306772      1.0193385      1.0954627      0.97723048     1.9088501    
     38040   1.9088501      158.5          158.5          158.5          1.0306596      1.0193239      1.0954431      0.97721173     1.9088501    
     38060   1.9088501      158.5          158.5          158.5          1.0306428      1.0193027      1.0954258      0.97720002     1.9088501    
     38080   1.9088501      158.5          158.5          158.5          1.0306406      1.0193009      1.0954289      0.97719191     1.9088501    
     38100   1.9088501      158.5          158.5          158.5          1.0306363      1.0192973      1.09542        0.97719157     1.9088501    
     38120   1.9088501      158.5          158.5          158.5          1.030638       1.0192985      1.0954234      0.9771922      1.9088501    
     38140   1.9088501      158.5          158.5          158.5          1.0306395      1.0193041      1.0954188      0.97719567     1.9088501    
     38160   1.9088501      158.5          158.5          158.5          1.0306562      1.0193202      1.0954312      0.97721714     1.9088501    
     38180   1.9088501      158.5          158.5          158.5          1.0306804      1.0193414      1.0954658      0.97723398     1.9088501    
     38200   1.9088501      158.5          158.5          158.5          1.0306626      1.019319       1.0954504      0.97721844     1.9088501    
     38220   1.9088501      158.5          158.5          158.5          1.0306671      1.0193298      1.0954464      0.97722515     1.9088501    
     38240   1.90885        158.5          158.5          158.5          1.0307011      1.0193605      1.0954847      0.97725812     1.90885      
     38260   1.90885        158.5          158.5          158.5          1.0307289      1.019389       1.0955193      0.97727839     1.90885      
     38280   1.90885        158.5          158.5          158.5          1.0306837      1.0193383      1.0954753      0.97723761     1.90885      
     38300   1.90885        158.5          158.5          158.5          1.0306417      1.0193068      1.09542        0.97719822     1.90885      
     38320   1.90885        158.5          158.5          158.5          1.0306102      1.0192594      1.0954064      0.97716467     1.90885      
     38340   1.90885        158.5          158.5          158.5          1.0305966      1.0192543      1.0953843      0.97715127     1.90885      
     38360   1.9088499      158.5          158.5          158.5          1.0305908      1.0192427      1.095401       0.97712859     1.9088499    
     38380   1.9088499      158.5          158.5          158.5          1.030574       1.0192279      1.0953789      0.97711529     1.9088499    
     38400   1.9088497      158.5          158.5          158.5          1.0305193      1.0191819      1.0952994      0.9770766      1.9088497    
     38420   1.9088497      158.5          158.5          158.5          1.0305782      1.0192456      1.0953579      0.97713125     1.9088497    
     38440   1.9088496      158.5          158.5          158.5          1.0306002      1.01925        1.0954023      0.97714836     1.9088496    
     38460   1.9088496      158.5          158.5          158.5          1.0306118      1.0192712      1.0954049      0.97715924     1.9088496    
     38480   1.9088496      158.5          158.5          158.5          1.0306361      1.019292       1.0954288      0.97718752     1.9088496    
     38500   1.9088496      158.5          158.5          158.5          1.0306627      1.0193306      1.09544        0.97721757     1.9088496    
     38520   1.9088496      158.5          158.5          158.5          1.0306788      1.0193413      1.095464       0.97723119     1.9088496    
     38540   1.9088496      158.5          158.5          158.5          1.030721       1.0193827      1.0955094      0.97727074     1.9088496    
     38560   1.9088496      158.5          158.5          158.5          1.0307049      1.0193674      1.0954909      0.97725635     1.9088496    
     38580   1.9088496      158.5          158.5          158.5          1.0306694      1.0193357      1.0954467      0.97722583     1.9088496    
     38600   1.9088495      158.5          158.5          158.5          1.0306646      1.0193326      1.0954423      0.97721882     1.9088495    
     38620   1.9088495      158.5          158.5          158.5          1.0306608      1.0193228      1.0954428      0.97721667     1.9088495    
     38640   1.9088495      158.5          158.5          158.5          1.0306545      1.019321       1.0954341      0.97720844     1.9088495    
     38660   1.9088495      158.5          158.5          158.5          1.0306446      1.0193068      1.0954271      0.97719981     1.9088495    
     38680   1.9088495      158.5          158.5          158.5          1.0306268      1.0192903      1.0954058      0.9771841      1.9088495    
     38700   1.9088495      158.5          158.5          158.5          1.0306305      1.0192935      1.095411       0.97718705     1.9088495    
     38720   1.9088495      158.5          158.5          158.5          1.0306364      1.0192977      1.0954215      0.9771899      1.9088495    
     38740   1.9088495      158.5          158.5          158.5          1.0306468      1.0193096      1.0954314      0.97719946     1.9088495    
     38760   1.9088495      158.5          158.5          158.5          1.030656       1.0193233      1.0954295      0.97721506     1.9088495    
     38780   1.9088495      158.5          158.5          158.5          1.0306612      1.0193236      1.0954429      0.97721705     1.9088495    
     38800   1.9088495      158.5          158.5          158.5          1.0306727      1.0193372      1.0954519      0.97722897     1.9088495    
     38820   1.9088495      158.5          158.5          158.5          1.0306914      1.0193532      1.0954735      0.97724745     1.9088495    
     38840   1.9088495      158.5          158.5          158.5          1.0307121      1.0193618      1.0955144      0.97726005     1.9088495    
     38860   1.9088495      158.5          158.5          158.5          1.0307192      1.0193734      1.0955099      0.97727445     1.9088495    
     38880   1.9088495      158.5          158.5          158.5          1.0306884      1.0193525      1.0954662      0.9772466      1.9088495    
     38900   1.9088494      158.5          158.5          158.5          1.0306591      1.0193299      1.0954359      0.97721152     1.9088494    
     38920   1.9088494      158.5          158.5          158.5          1.0306298      1.0192937      1.095414       0.97718174     1.9088494    
     38940   1.9088494      158.5          158.5          158.5          1.0306121      1.0192708      1.0953983      0.97716725     1.9088494    
     38960   1.9088494      158.5          158.5          158.5          1.0305861      1.0192463      1.0953759      0.97713618     1.9088494    
     38980   1.9088494      158.5          158.5          158.5          1.0305899      1.019255       1.0953826      0.97713195     1.9088494    
     39000   1.9088493      158.5          158.5          158.5          1.0306101      1.0192749      1.0953803      0.97717521     1.9088493    
     39020   1.9088493      158.5          158.5          158.5          1.030613       1.0192745      1.0953954      0.97716897     1.9088493    
     39040   1.9088492      158.5          158.5          158.5          1.0306198      1.0192868      1.0954002      0.97717232     1.9088492    
     39060   1.9088492      158.5          158.5          158.5          1.0306194      1.0192925      1.0953928      0.97717303     1.9088492    
     39080   1.9088492      158.5          158.5          158.5          1.0306194      1.0192851      1.0954028      0.97717022     1.9088492    
     39100   1.9088492      158.5          158.5          158.5          1.0306522      1.0193252      1.09542        0.97721153     1.9088492    
     39120   1.9088492      158.5          158.5          158.5          1.0306968      1.0193635      1.0954745      0.97725237     1.9088492    
     39140   1.9088492      158.5          158.5          158.5          1.0306964      1.0193624      1.095478       0.97724873     1.9088492    
     39160   1.9088491      158.5          158.5          158.5          1.0306713      1.0193353      1.0954504      0.97722815     1.9088491    
     39180   1.9088491      158.5          158.5          158.5          1.0306489      1.0193141      1.095427       0.97720547     1.9088491    
     39200   1.9088491      158.5          158.5          158.5          1.0306604      1.0193227      1.0954441      0.97721457     1.9088491    
     39220   1.9088491      158.5          158.5          158.5          1.030671       1.0193336      1.0954536      0.97722587     1.9088491    
     39240   1.9088491      158.5          158.5          158.5          1.0306666      1.0193364      1.0954395      0.97722386     1.9088491    
     39260   1.9088491      158.5          158.5          158.5          1.0306506      1.0193141      1.0954328      0.97720487     1.9088491    
     39280   1.9088491      158.5          158.5          158.5          1.0306444      1.0193081      1.0954273      0.97719785     1.9088491    
     39300   1.9088491      158.5          158.5          158.5          1.0306414      1.0193046      1.0954208      0.97719882     1.9088491    
     39320   1.9088491      158.5          158.5          158.5          1.0306428      1.0193043      1.0954277      0.97719654     1.9088491    
     39340   1.9088491      158.5          158.5          158.5          1.0306482      1.0193098      1.0954345      0.97720031     1.9088491    
     39360   1.9088491      158.5          158.5          158.5          1.0306497      1.0193148      1.0954294      0.97720482     1.9088491    
     39380   1.9088491      158.5          158.5          158.5          1.0306551      1.0193216      1.0954352      0.97720852     1.9088491    
     39400   1.9088491      158.5          158.5          158.5          1.0306423      1.019297       1.0954378      0.97719223     1.9088491    
     39420   1.9088491      158.5          158.5          158.5          1.0306476      1.0193108      1.0954246      0.97720728     1.9088491    
     39440   1.9088491      158.5          158.5          158.5          1.0306875      1.0193447      1.0954769      0.97724093     1.9088491    
     39460   1.9088491      158.5          158.5          158.5          1.0307169      1.0193759      1.0955039      0.97727103     1.9088491    
     39480   1.9088491      158.5          158.5          158.5          1.0307141      1.019365       1.0955139      0.97726344     1.9088491    
     39500   1.908849       158.5          158.5          158.5          1.0306682      1.0193354      1.095442       0.97722739     1.908849     
     39520   1.908849       158.5          158.5          158.5          1.0306365      1.0192931      1.0954275      0.97718884     1.908849     
     39540   1.908849       158.5          158.5          158.5          1.0306181      1.0192781      1.0953975      0.9771787      1.908849     
     39560   1.908849       158.5          158.5          158.5          1.0306012      1.0192619      1.0953895      0.97715212     1.908849     
     39580   1.908849       158.5          158.5          158.5          1.0306039      1.0192573      1.095403       0.97715138     1.908849     
     39600   1.9088489      158.5          158.5          158.5          1.0305699      1.0192204      1.0953784      0.97711097     1.9088489    
     39620   1.9088489      158.5          158.5          158.5          1.0305825      1.0192429      1.0953741      0.97713055     1.9088489    
     39640   1.9088488      158.5          158.5          158.5          1.0305732      1.0192165      1.0953696      0.97713356     1.9088488    
     39660   1.9088488      158.5          158.5          158.5          1.0305883      1.0192558      1.0953539      0.97715514     1.9088488    
     39680   1.9088488      158.5          158.5          158.5          1.0306479      1.0193109      1.0954259      0.97720687     1.9088488    
     39700   1.9088488      158.5          158.5          158.5          1.0306899      1.019351       1.0954785      0.97724009     1.9088488    
     39720   1.9088488      158.5          158.5          158.5          1.0307001      1.019358       1.0954837      0.9772586      1.9088488    
     39740   1.9088487      158.5          158.5          158.5          1.0307032      1.0193603      1.0954896      0.97725961     1.9088487    
     39760   1.9088487      158.5          158.5          158.5          1.0306918      1.0193539      1.0954778      0.97724373     1.9088487    
     39780   1.9088487      158.5          158.5          158.5          1.0306621      1.0193233      1.0954422      0.97722087     1.9088487    
     39800   1.9088487      158.5          158.5          158.5          1.0306567      1.0193171      1.0954438      0.97720939     1.9088487    
     39820   1.9088487      158.5          158.5          158.5          1.0306496      1.0193087      1.0954343      0.97720571     1.9088487    
     39840   1.9088487      158.5          158.5          158.5          1.0306458      1.0193066      1.0954309      0.97720001     1.9088487    
     39860   1.9088487      158.5          158.5          158.5          1.0306419      1.0193         1.0954273      0.97719826     1.9088487    
     39880   1.9088487      158.5          158.5          158.5          1.0306404      1.0193018      1.0954249      0.97719462     1.9088487    
     39900   1.9088487      158.5          158.5          158.5          1.0306445      1.0193038      1.0954297      0.97719998     1.9088487    
     39920   1.9088487      158.5          158.5          158.5          1.0306421      1.0193053      1.0954236      0.97719743     1.9088487    
     39940   1.9088487      158.5          158.5          158.5          1.0306444      1.019307       1.0954263      0.9771998      1.9088487    
     39960   1.9088487      158.5          158.5          158.5          1.0306461      1.0193073      1.095427       0.97720403     1.9088487    
     39980   1.9088487      158.5          158.5          158.5          1.0306512      1.0193147      1.0954314      0.97720761     1.9088487    
     40000   1.9088487      158.5          158.5          158.5          1.0306651      1.0193286      1.0954483      0.97721837     1.9088487    
     40020   1.9088487      158.5          158.5          158.5          1.0306719      1.0193345      1.0954491      0.9772319      1.9088487    
     40040   1.9088487      158.5          158.5          158.5          1.0306929      1.0193431      1.0954916      0.97724394     1.9088487    
     40060   1.9088487      158.5          158.5          158.5          1.030716       1.0193826      1.0954922      0.97727324     1.9088487    
     40080   1.9088486      158.5          158.5          158.5          1.0307136      1.0193781      1.095494       0.97726882     1.9088486    
     40100   1.9088486      158.5          158.5          158.5          1.0306861      1.0193488      1.0954736      0.97723612     1.9088486    
     40120   1.9088486      158.5          158.5          158.5          1.0306269      1.0192897      1.0954037      0.97718732     1.9088486    
     40140   1.9088486      158.5          158.5          158.5          1.030592       1.0192514      1.0953803      0.97714437     1.9088486    
     40160   1.9088486      158.5          158.5          158.5          1.0305985      1.019261       1.0953915      0.97714287     1.9088486    
     40180   1.9088485      158.5          158.5          158.5          1.0305861      1.0192427      1.0953827      0.97713288     1.9088485    
     40200   1.9088485      158.5          158.5          158.5          1.030613       1.0192573      1.0954114      0.97717027     1.9088485    
     40220   1.9088484      158.5          158.5          158.5          1.0305994      1.0192628      1.0953898      0.97714569     1.9088484    
     40240   1.9088484      158.5          158.5          158.5          1.030614       1.0192727      1.0954122      0.97715731     1.9088484    
     40260   1.9088484      158.5          158.5          158.5          1.0306136      1.0192862      1.0953869      0.97716761     1.9088484    
     40280   1.9088484      158.5          158.5          158.5          1.0306269      1.0192864      1.0954176      0.97717662     1.9088484    
     40300   1.9088484      158.5          158.5          158.5          1.0306736      1.0193447      1.0954414      0.97723464     1.9088484    
     40320   1.9088483      158.5          158.5          158.5          1.0307152      1.0193765      1.0955024      0.97726673     1.9088483    
     40340   1.9088483      158.5          158.5          158.5          1.0307089      1.0193808      1.0954796      0.97726629     1.9088483    
     40360   1.9088483      158.5          158.5          158.5          1.0306782      1.0193471      1.0954543      0.97723312     1.9088483    
     40380   1.9088483      158.5          158.5          158.5          1.0306566      1.0193165      1.0954366      0.97721662     1.9088483    
     40400   1.9088483      158.5          158.5          158.5          1.0306527      1.0193237      1.0954246      0.97720981     1.9088483    
     40420   1.9088483      158.5          158.5          158.5          1.0306532      1.0193128      1.0954416      0.97720514     1.9088483    
     40440   1.9088483      158.5          158.5          158.5          1.03065        1.0193161      1.0954283      0.97720562     1.9088483    
     40460   1.9088483      158.5          158.5          158.5          1.0306465      1.019307       1.0954333      0.97719922     1.9088483    
     40480   1.9088483      158.5          158.5          158.5          1.0306445      1.019306       1.0954293      0.97719806     1.9088483    
     40500   1.9088483      158.5          158.5          158.5          1.030642       1.0193049      1.0954245      0.97719673     1.9088483    
     40520   1.9088483      158.5          158.5          158.5          1.0306446      1.0193061      1.0954281      0.97719962     1.9088483    
     40540   1.9088483      158.5          158.5          158.5          1.0306451      1.0193072      1.0954292      0.97719874     1.9088483    
     40560   1.9088483      158.5          158.5          158.5          1.0306542      1.0193142      1.0954417      0.97720655     1.9088483    
     40580   1.9088483      158.5          158.5          158.5          1.030658       1.0193196      1.0954433      0.97721122     1.9088483    
     40600   1.9088483      158.5          158.5          158.5          1.0306483      1.0193147      1.0954246      0.97720552     1.9088483    
     40620   1.9088483      158.5          158.5          158.5          1.030656       1.0193166      1.0954357      0.97721558     1.9088483    
     40640   1.9088483      158.5          158.5          158.5          1.0307326      1.0193955      1.0955165      0.97728584     1.9088483    
     40660   1.9088482      158.5          158.5          158.5          1.0307653      1.0194414      1.0955348      0.97731967     1.9088482    
     40680   1.9088482      158.5          158.5          158.5          1.0307464      1.0194188      1.0955126      0.97730768     1.9088482    
     40700   1.9088482      158.5          158.5          158.5          1.0307124      1.0193921      1.0954742      0.9772708      1.9088482    
     40720   1.9088481      158.5          158.5          158.5          1.0306525      1.0193237      1.0954194      0.97721447     1.9088481    
     40740   1.9088481      158.5          158.5          158.5          1.0306221      1.0192894      1.0953968      0.97718028     1.9088481    
     40760   1.908848       158.5          158.5          158.5          1.0306305      1.0192886      1.0954196      0.97718328     1.908848     
     40780   1.908848       158.5          158.5          158.5          1.0306096      1.0192722      1.0953881      0.97716851     1.908848     
     40800   1.908848       158.5          158.5          158.5          1.0306059      1.0192661      1.0953953      0.97715619     1.908848     
     40820   1.9088479      158.5          158.5          158.5          1.0306169      1.0192729      1.0954101      0.97716784     1.9088479    
     40840   1.9088479      158.5          158.5          158.5          1.030596       1.0192722      1.0953624      0.97715355     1.9088479    
     40860   1.9088479      158.5          158.5          158.5          1.0306309      1.0192907      1.0954129      0.97718906     1.9088479    
     40880   1.9088478      158.5          158.5          158.5          1.0306525      1.0193066      1.095441       0.97720997     1.9088478    
     40900   1.9088478      158.5          158.5          158.5          1.0307132      1.0193851      1.0954806      0.97727391     1.9088478    
     40920   1.9088478      158.5          158.5          158.5          1.0307352      1.019386       1.0955315      0.97728804     1.9088478    
     40940   1.9088478      158.5          158.5          158.5          1.0307194      1.0193753      1.0955105      0.97727233     1.9088478    
     40960   1.9088478      158.5          158.5          158.5          1.0306855      1.019358       1.095454       0.97724449     1.9088478    
     40980   1.9088477      158.5          158.5          158.5          1.030667       1.0193203      1.0954613      0.97721955     1.9088477    
     41000   1.9088477      158.5          158.5          158.5          1.03065        1.0193113      1.0954333      0.97720535     1.9088477    
     41020   1.9088477      158.5          158.5          158.5          1.0306553      1.0193152      1.0954424      0.97720822     1.9088477    
     41040   1.9088477      158.5          158.5          158.5          1.0306514      1.0193108      1.0954382      0.97720511     1.9088477    
     41060   1.9088477      158.5          158.5          158.5          1.0306461      1.0193073      1.0954311      0.97719999     1.9088477    
     41080   1.9088477      158.5          158.5          158.5          1.0306454      1.0193047      1.0954318      0.97719984     1.9088477    
     41100   1.9088477      158.5          158.5          158.5          1.0306438      1.0193045      1.0954291      0.97719774     1.9088477    
     41120   1.9088477      158.5          158.5          158.5          1.0306449      1.0193062      1.0954289      0.97719961     1.9088477    
     41140   1.9088477      158.5          158.5          158.5          1.0306463      1.0193076      1.09543        0.97720135     1.9088477    
     41160   1.9088477      158.5          158.5          158.5          1.0306508      1.0193125      1.0954371      0.97720285     1.9088477    
     41180   1.9088477      158.5          158.5          158.5          1.0306567      1.0193175      1.095443       0.97720941     1.9088477    
     41200   1.9088477      158.5          158.5          158.5          1.0306478      1.0193015      1.0954383      0.97720353     1.9088477    
     41220   1.9088477      158.5          158.5          158.5          1.0306682      1.0193288      1.0954533      0.97722268     1.9088477    
     41240   1.9088477      158.5          158.5          158.5          1.0306999      1.0193647      1.0954797      0.97725533     1.9088477    
     41260   1.9088477      158.5          158.5          158.5          1.0307547      1.0193963      1.0955653      0.97730253     1.9088477    
     41280   1.9088476      158.5          158.5          158.5          1.0307787      1.0194493      1.0955537      0.97733323     1.9088476    
     41300   1.9088476      158.5          158.5          158.5          1.0307693      1.0194631      1.0955287      0.97731607     1.9088476    
     41320   1.9088474      158.5          158.5          158.5          1.030657       1.0193093      1.0954514      0.97721017     1.9088474    
     41340   1.9088473      158.5          158.5          158.5          1.0306548      1.0192901      1.0954699      0.97720432     1.9088473    
     41360   1.9088471      158.5          158.5          158.5          1.0306012      1.019257       1.095389       0.97715756     1.9088471    
     41380   1.9088471      158.5          158.5          158.5          1.0306159      1.0192785      1.0954005      0.97716883     1.9088471    
     41400   1.9088471      158.5          158.5          158.5          1.030617       1.019275       1.0954055      0.97717045     1.9088471    
     41420   1.9088471      158.5          158.5          158.5          1.0306264      1.0192878      1.0954141      0.97717742     1.9088471    
     41440   1.9088471      158.5          158.5          158.5          1.0306311      1.019294       1.0954135      0.97718593     1.9088471    
     41460   1.9088471      158.5          158.5          158.5          1.0306327      1.0192951      1.0954154      0.9771875      1.9088471    
     41480   1.9088471      158.5          158.5          158.5          1.0306407      1.0193019      1.0954248      0.97719541     1.9088471    
     41500   1.9088471      158.5          158.5          158.5          1.0306504      1.0193107      1.0954364      0.97720412     1.9088471    
     41520   1.9088471      158.5          158.5          158.5          1.0306543      1.0193165      1.0954377      0.97720867     1.9088471    
     41540   1.9088471      158.5          158.5          158.5          1.0306537      1.0193153      1.0954377      0.9772082      1.9088471    
     41560   1.9088471      158.5          158.5          158.5          1.0306526      1.0193146      1.0954346      0.97720855     1.9088471    
     41580   1.9088471      158.5          158.5          158.5          1.0306535      1.0193154      1.0954345      0.97721049     1.9088471    
     41600   1.9088471      158.5          158.5          158.5          1.0306728      1.0193359      1.0954546      0.97722779     1.9088471    
     41620   1.908847       158.5          158.5          158.5          1.0306795      1.0193409      1.0954624      0.97723517     1.908847     
     41640   1.908847       158.5          158.5          158.5          1.0306759      1.0193383      1.0954588      0.97723069     1.908847     
     41660   1.908847       158.5          158.5          158.5          1.0306671      1.0193231      1.0954578      0.97722026     1.908847     
     41680   1.908847       158.5          158.5          158.5          1.030654       1.0193169      1.0954375      0.97720764     1.908847     
     41700   1.908847       158.5          158.5          158.5          1.0306498      1.0193152      1.0954322      0.97720198     1.908847     
     41720   1.908847       158.5          158.5          158.5          1.0306494      1.019311       1.0954354      0.97720196     1.908847     
     41740   1.908847       158.5          158.5          158.5          1.0306614      1.0193194      1.0954495      0.97721525     1.908847     
     41760   1.908847       158.5          158.5          158.5          1.0306767      1.0193353      1.0954667      0.97722816     1.908847     
     41780   1.908847       158.5          158.5          158.5          1.0306766      1.0193323      1.0954718      0.97722573     1.908847     
     41800   1.908847       158.5          158.5          158.5          1.030661       1.0193232      1.0954449      0.97721502     1.908847     
     41820   1.908847       158.5          158.5          158.5          1.0306497      1.0193109      1.0954317      0.97720665     1.908847     
     41840   1.908847       158.5          158.5          158.5          1.0306461      1.0193041      1.0954334      0.97720087     1.908847     
     41860   1.908847       158.5          158.5          158.5          1.0306507      1.0193126      1.0954355      0.97720417     1.908847     
     41880   1.908847       158.5          158.5          158.5          1.0306517      1.0193116      1.0954376      0.97720602     1.908847     
     41900   1.908847       158.5          158.5          158.5          1.0306416      1.0193033      1.0954248      0.97719661     1.908847     
     41920   1.908847       158.5          158.5          158.5          1.0306289      1.0192896      1.095414       0.9771832      1.908847     
     41940   1.908847       158.5          158.5          158.5          1.0306269      1.0192892      1.0954105      0.97718114     1.908847     
     41960   1.908847       158.5          158.5          158.5          1.0306342      1.0192955      1.0954191      0.97718813     1.908847     
     41980   1.908847       158.5          158.5          158.5          1.0306359      1.0192983      1.095419       0.97719027     1.908847     
     42000   1.908847       158.5          158.5          158.5          1.0306394      1.0193022      1.0954213      0.97719462     1.908847     
     42020   1.908847       158.5          158.5          158.5          1.0306416      1.0193029      1.095427       0.97719488     1.908847     
     42040   1.908847       158.5          158.5          158.5          1.0306449      1.0193085      1.0954273      0.97719895     1.908847     
     42060   1.908847       158.5          158.5          158.5          1.0306428      1.0193043      1.0954262      0.9771978      1.908847     
     42080   1.908847       158.5          158.5          158.5          1.0306438      1.0193052      1.0954269      0.97719928     1.908847     
     42100   1.908847       158.5          158.5          158.5          1.0306607      1.0193223      1.0954442      0.97721549     1.908847     
     42120   1.908847       158.5          158.5          158.5          1.0306656      1.0193268      1.0954504      0.97721956     1.908847     
     42140   1.908847       158.5          158.5          158.5          1.0306599      1.0193239      1.0954399      0.97721579     1.908847     
     42160   1.908847       158.5          158.5          158.5          1.0306528      1.0193139      1.0954366      0.97720786     1.908847     
     42180   1.908847       158.5          158.5          158.5          1.0306514      1.0193142      1.095434       0.97720585     1.908847     
     42200   1.908847       158.5          158.5          158.5          1.0306466      1.0193085      1.0954294      0.97720174     1.908847     
     42220   1.908847       158.5          158.5          158.5          1.0306484      1.0193107      1.095431       0.9772034      1.908847     
     42240   1.908847       158.5          158.5          158.5          1.0306425      1.019306       1.0954242      0.97719732     1.908847     
     42260   1.908847       158.5          158.5          158.5          1.03064        1.0193001      1.0954242      0.97719554     1.908847     
     42280   1.908847       158.5          158.5          158.5          1.0306342      1.019298       1.0954174      0.97718727     1.908847     
     42300   1.908847       158.5          158.5          158.5          1.0306279      1.019291       1.0954105      0.97718206     1.908847     
     42320   1.908847       158.5          158.5          158.5          1.030634       1.0192961      1.0954159      0.97718987     1.908847     
     42340   1.908847       158.5          158.5          158.5          1.0306452      1.0193064      1.0954292      0.97719997     1.908847     
     42360   1.908847       158.5          158.5          158.5          1.0306461      1.0193082      1.0954287      0.97720132     1.908847     
     42380   1.908847       158.5          158.5          158.5          1.0306459      1.0193076      1.0954297      0.97720058     1.908847     
     42400   1.908847       158.5          158.5          158.5          1.0306494      1.0193104      1.0954344      0.97720342     1.908847     
     42420   1.908847       158.5          158.5          158.5          1.0306532      1.0193143      1.0954371      0.97720814     1.908847     
     42440   1.908847       158.5          158.5          158.5          1.0306582      1.0193183      1.0954436      0.97721275     1.908847     
     42460   1.908847       158.5          158.5          158.5          1.0306615      1.0193216      1.0954476      0.97721516     1.908847     
     42480   1.908847       158.5          158.5          158.5          1.0306602      1.0193207      1.0954444      0.97721537     1.908847     
     42500   1.908847       158.5          158.5          158.5          1.0306522      1.019314       1.0954356      0.977207       1.908847     
     42520   1.908847       158.5          158.5          158.5          1.0306414      1.0193043      1.0954238      0.97719596     1.908847     
     42540   1.908847       158.5          158.5          158.5          1.0306413      1.0193058      1.0954225      0.97719577     1.908847     
     42560   1.908847       158.5          158.5          158.5          1.030643       1.019306       1.0954257      0.97719724     1.908847     
     42580   1.908847       158.5          158.5          158.5          1.0306462      1.0193098      1.0954275      0.9772011      1.908847     
     42600   1.908847       158.5          158.5          158.5          1.0306329      1.0192913      1.0954196      0.97718773     1.908847     
     42620   1.908847       158.5          158.5          158.5          1.0306408      1.0193021      1.0954244      0.9771959      1.908847     
     42640   1.908847       158.5          158.5          158.5          1.0306472      1.0193079      1.0954335      0.97720025     1.908847     
     42660   1.908847       158.5          158.5          158.5          1.0306461      1.0193051      1.0954335      0.97719965     1.908847     
     42680   1.908847       158.5          158.5          158.5          1.0306421      1.019306       1.0954232      0.97719706     1.908847     
     42700   1.908847       158.5          158.5          158.5          1.0306524      1.0193135      1.0954359      0.97720788     1.908847     
     42720   1.908847       158.5          158.5          158.5          1.0306602      1.0193213      1.0954449      0.97721448     1.908847     
     42740   1.908847       158.5          158.5          158.5          1.0306598      1.0193216      1.0954441      0.97721385     1.908847     
     42760   1.908847       158.5          158.5          158.5          1.0306583      1.0193194      1.0954424      0.9772132      1.908847     
     42780   1.908847       158.5          158.5          158.5          1.0306609      1.0193209      1.0954457      0.97721606     1.908847     
     42800   1.908847       158.5          158.5          158.5          1.0306557      1.0193161      1.0954418      0.97720925     1.908847     
     42820   1.908847       158.5          158.5          158.5          1.030647       1.0193086      1.0954299      0.97720258     1.908847     
     42840   1.908847       158.5          158.5          158.5          1.0306396      1.019301       1.0954233      0.97719439     1.908847     
     42860   1.908847       158.5          158.5          158.5          1.0306426      1.0193055      1.0954251      0.97719721     1.908847     
     42880   1.908847       158.5          158.5          158.5          1.0306439      1.0193036      1.0954326      0.97719547     1.908847     
     42900   1.908847       158.5          158.5          158.5          1.0306352      1.0192949      1.09542        0.97719064     1.908847     
     42920   1.908847       158.5          158.5          158.5          1.0306397      1.0192999      1.0954261      0.97719294     1.908847     
     42940   1.908847       158.5          158.5          158.5          1.0306422      1.0193032      1.0954273      0.9771961      1.908847     
     42960   1.908847       158.5          158.5          158.5          1.0306426      1.0193054      1.0954243      0.97719807     1.908847     
     42980   1.9088469      158.5          158.5          158.5          1.0306505      1.0193106      1.0954359      0.97720506     1.9088469    
     43000   1.9088469      158.5          158.5          158.5          1.0306584      1.0193202      1.0954426      0.97721227     1.9088469    
     43020   1.9088469      158.5          158.5          158.5          1.0306598      1.0193213      1.0954447      0.97721345     1.9088469    
     43040   1.9088469      158.5          158.5          158.5          1.0306553      1.0193176      1.0954377      0.97721066     1.9088469    
     43060   1.9088469      158.5          158.5          158.5          1.0306549      1.0193183      1.0954346      0.97721164     1.9088469    
     43080   1.9088469      158.5          158.5          158.5          1.0306564      1.0193189      1.0954388      0.97721158     1.9088469    
     43100   1.9088469      158.5          158.5          158.5          1.0306503      1.0193123      1.0954335      0.97720498     1.9088469    
     43120   1.9088469      158.5          158.5          158.5          1.0306469      1.0193084      1.0954306      0.97720174     1.9088469    
     43140   1.9088469      158.5          158.5          158.5          1.0306438      1.0193071      1.0954267      0.97719773     1.9088469    
     43160   1.9088469      158.5          158.5          158.5          1.0306452      1.019307       1.0954295      0.97719911     1.9088469    
     43180   1.9088469      158.5          158.5          158.5          1.0306429      1.0193036      1.0954284      0.97719679     1.9088469    
     43200   1.9088469      158.5          158.5          158.5          1.0306344      1.0192931      1.09542        0.97719016     1.9088469    
     43220   1.9088469      158.5          158.5          158.5          1.0306434      1.0193046      1.0954275      0.97719814     1.9088469    
     43240   1.9088469      158.5          158.5          158.5          1.0306467      1.0193069      1.0954334      0.97719973     1.9088469    
     43260   1.9088469      158.5          158.5          158.5          1.0306415      1.0193022      1.0954261      0.97719623     1.9088469    
     43280   1.9088469      158.5          158.5          158.5          1.030638       1.0193009      1.0954189      0.97719437     1.9088469    
     43300   1.9088469      158.5          158.5          158.5          1.0306536      1.0193154      1.0954378      0.97720773     1.9088469    
     43320   1.9088469      158.5          158.5          158.5          1.0306613      1.0193239      1.0954461      0.97721392     1.9088469    
     43340   1.9088469      158.5          158.5          158.5          1.0306546      1.0193158      1.0954381      0.97720991     1.9088469    
     43360   1.9088469      158.5          158.5          158.5          1.030653       1.0193148      1.0954365      0.97720788     1.9088469    
     43380   1.9088469      158.5          158.5          158.5          1.0306601      1.0193217      1.0954446      0.97721404     1.9088469    
     43400   1.9088469      158.5          158.5          158.5          1.0306603      1.0193228      1.0954435      0.97721471     1.9088469    
     43420   1.9088469      158.5          158.5          158.5          1.0306525      1.0193146      1.0954349      0.97720791     1.9088469    
     43440   1.9088469      158.5          158.5          158.5          1.0306448      1.0193066      1.0954281      0.97719986     1.9088469    
     43460   1.9088469      158.5          158.5          158.5          1.0306392      1.0193001      1.0954232      0.97719431     1.9088469    
     43480   1.9088469      158.5          158.5          158.5          1.0306369      1.0192966      1.0954236      0.97719039     1.9088469    
     43500   1.9088469      158.5          158.5          158.5          1.030633       1.0192949      1.0954156      0.97718847     1.9088469    
     43520   1.9088469      158.5          158.5          158.5          1.0306412      1.0193032      1.0954267      0.97719374     1.9088469    
     43540   1.9088469      158.5          158.5          158.5          1.0306414      1.019304       1.0954235      0.97719675     1.9088469    
     43560   1.9088469      158.5          158.5          158.5          1.0306436      1.0193047      1.0954261      0.97720003     1.9088469    
     43580   1.9088469      158.5          158.5          158.5          1.0306482      1.0193151      1.095424       0.97720534     1.9088469    
     43600   1.9088469      158.5          158.5          158.5          1.0306606      1.0193227      1.0954425      0.97721665     1.9088469    
     43620   1.9088469      158.5          158.5          158.5          1.0306581      1.0193188      1.0954429      0.97721253     1.9088469    
     43640   1.9088469      158.5          158.5          158.5          1.0306561      1.0193187      1.0954387      0.97721081     1.9088469    
     43660   1.9088469      158.5          158.5          158.5          1.030657       1.0193174      1.0954411      0.97721266     1.9088469    
     43680   1.9088469      158.5          158.5          158.5          1.0306562      1.0193188      1.0954398      0.97720989     1.9088469    
     43700   1.9088469      158.5          158.5          158.5          1.0306522      1.0193155      1.0954339      0.97720732     1.9088469    
     43720   1.9088469      158.5          158.5          158.5          1.0306424      1.0193051      1.0954239      0.97719813     1.9088469    
     43740   1.9088469      158.5          158.5          158.5          1.0306449      1.0193059      1.0954293      0.9771996      1.9088469    
     43760   1.9088469      158.5          158.5          158.5          1.0306457      1.019308       1.0954293      0.97719968     1.9088469    
     43780   1.9088469      158.5          158.5          158.5          1.030642       1.0193049      1.0954236      0.97719747     1.9088469    
     43800   1.9088469      158.5          158.5          158.5          1.0306322      1.019297       1.0954113      0.97718838     1.9088469    
     43820   1.9088469      158.5          158.5          158.5          1.0306427      1.0193035      1.0954277      0.97719686     1.9088469    
     43840   1.9088469      158.5          158.5          158.5          1.0306473      1.0193088      1.0954328      0.97720024     1.9088469    
     43860   1.9088469      158.5          158.5          158.5          1.0306455      1.0193068      1.0954299      0.97719971     1.9088469    
     43880   1.9088469      158.5          158.5          158.5          1.0306422      1.0193034      1.0954275      0.97719565     1.9088469    
     43900   1.9088469      158.5          158.5          158.5          1.0306542      1.0193143      1.0954402      0.97720807     1.9088469    
     43920   1.9088469      158.5          158.5          158.5          1.0306595      1.0193204      1.0954446      0.97721333     1.9088469    
     43940   1.9088469      158.5          158.5          158.5          1.0306576      1.0193198      1.0954394      0.97721359     1.9088469    
     43960   1.9088469      158.5          158.5          158.5          1.0306561      1.0193206      1.0954381      0.97720963     1.9088469    
     43980   1.9088469      158.5          158.5          158.5          1.0306572      1.0193189      1.0954411      0.97721165     1.9088469    
     44000   1.9088469      158.5          158.5          158.5          1.0306594      1.0193207      1.0954432      0.97721425     1.9088469    
     44020   1.9088469      158.5          158.5          158.5          1.0306512      1.0193141      1.0954328      0.97720656     1.9088469    
     44040   1.9088469      158.5          158.5          158.5          1.0306442      1.0193054      1.0954283      0.97719906     1.9088469    
     44060   1.9088469      158.5          158.5          158.5          1.0306413      1.0193049      1.0954238      0.97719521     1.9088469    
     44080   1.9088469      158.5          158.5          158.5          1.0306377      1.0192996      1.0954214      0.97719212     1.9088469    
     44100   1.9088469      158.5          158.5          158.5          1.030632       1.0192956      1.0954132      0.97718721     1.9088469    
     44120   1.9088469      158.5          158.5          158.5          1.0306392      1.0192995      1.0954251      0.97719289     1.9088469    
     44140   1.9088469      158.5          158.5          158.5          1.0306439      1.0193065      1.0954266      0.97719858     1.9088469    
     44160   1.9088469      158.5          158.5          158.5          1.0306478      1.0193084      1.0954327      0.97720224     1.9088469    
     44180   1.9088469      158.5          158.5          158.5          1.0306528      1.0193158      1.0954345      0.97720793     1.9088469    
     44200   1.9088469      158.5          158.5          158.5          1.0306599      1.0193213      1.0954435      0.97721506     1.9088469    
     44220   1.9088469      158.5          158.5          158.5          1.0306573      1.0193189      1.0954412      0.97721199     1.9088469    
     44240   1.9088469      158.5          158.5          158.5          1.030656       1.0193151      1.0954428      0.97721007     1.9088469    
     44260   1.9088469      158.5          158.5          158.5          1.0306543      1.0193164      1.0954359      0.9772105      1.9088469    
     44280   1.9088469      158.5          158.5          158.5          1.0306557      1.0193167      1.0954403      0.97721021     1.9088469    
     44300   1.9088469      158.5          158.5          158.5          1.0306501      1.0193117      1.0954323      0.97720617     1.9088469    
     44320   1.9088469      158.5          158.5          158.5          1.0306448      1.0193056      1.0954299      0.977199       1.9088469    
     44340   1.9088469      158.5          158.5          158.5          1.030646       1.0193069      1.095432       0.97719917     1.9088469    
     44360   1.9088469      158.5          158.5          158.5          1.0306473      1.0193079      1.0954325      0.97720162     1.9088469    
     44380   1.9088469      158.5          158.5          158.5          1.0306447      1.0193017      1.0954349      0.97719753     1.9088469    
     44400   1.9088469      158.5          158.5          158.5          1.0306323      1.0192945      1.0954157      0.97718655     1.9088469    
     44420   1.9088469      158.5          158.5          158.5          1.0306409      1.0193019      1.0954252      0.97719551     1.9088469    
     44440   1.9088469      158.5          158.5          158.5          1.0306484      1.0193098      1.0954341      0.9772013      1.9088469    
     44460   1.9088469      158.5          158.5          158.5          1.0306464      1.0193057      1.0954341      0.97719941     1.9088469    
     44480   1.9088469      158.5          158.5          158.5          1.0306437      1.0193052      1.0954281      0.97719775     1.9088469    
     44500   1.9088469      158.5          158.5          158.5          1.030654       1.0193166      1.0954354      0.97720989     1.9088469    
     44520   1.9088469      158.5          158.5          158.5          1.0306573      1.0193189      1.0954416      0.97721156     1.9088469    
     44540   1.9088469      158.5          158.5          158.5          1.0306574      1.0193177      1.0954422      0.97721215     1.9088469    
     44560   1.9088469      158.5          158.5          158.5          1.0306539      1.0193156      1.0954375      0.97720853     1.9088469    
     44580   1.9088469      158.5          158.5          158.5          1.0306535      1.0193131      1.0954391      0.97720835     1.9088469    
     44600   1.9088469      158.5          158.5          158.5          1.0306588      1.0193215      1.0954416      0.97721326     1.9088469    
     44620   1.9088469      158.5          158.5          158.5          1.030653       1.0193146      1.0954371      0.97720738     1.9088469    
     44640   1.9088469      158.5          158.5          158.5          1.0306464      1.0193079      1.0954293      0.97720205     1.9088469    
     44660   1.9088469      158.5          158.5          158.5          1.0306448      1.019306       1.0954306      0.97719793     1.9088469    
     44680   1.9088469      158.5          158.5          158.5          1.0306402      1.0193017      1.0954249      0.97719401     1.9088469    
     44700   1.9088469      158.5          158.5          158.5          1.0306312      1.0192923      1.0954157      0.97718563     1.9088469    
     44720   1.9088469      158.5          158.5          158.5          1.0306406      1.0193019      1.0954244      0.9771953      1.9088469    
     44740   1.9088469      158.5          158.5          158.5          1.0306448      1.019307       1.0954288      0.9771986      1.9088469    
     44760   1.9088469      158.5          158.5          158.5          1.0306512      1.019314       1.0954331      0.97720637     1.9088469    
     44780   1.9088469      158.5          158.5          158.5          1.0306546      1.0193157      1.0954398      0.97720815     1.9088469    
     44800   1.9088469      158.5          158.5          158.5          1.0306588      1.0193224      1.0954417      0.97721241     1.9088469    
     44820   1.9088469      158.5          158.5          158.5          1.0306566      1.0193182      1.0954398      0.97721185     1.9088469    
     44840   1.9088469      158.5          158.5          158.5          1.0306533      1.0193159      1.0954359      0.97720808     1.9088469    
     44860   1.9088469      158.5          158.5          158.5          1.0306565      1.0193185      1.0954395      0.97721151     1.9088469    
     44880   1.9088469      158.5          158.5          158.5          1.0306578      1.0193187      1.0954428      0.97721176     1.9088469    
     44900   1.9088469      158.5          158.5          158.5          1.0306516      1.0193133      1.0954352      0.97720616     1.9088469    
     44920   1.9088469      158.5          158.5          158.5          1.0306459      1.0193081      1.0954303      0.9771994      1.9088469    
     44940   1.9088469      158.5          158.5          158.5          1.0306489      1.0193099      1.0954348      0.97720187     1.9088469    
     44960   1.9088469      158.5          158.5          158.5          1.0306441      1.0193058      1.0954271      0.97719948     1.9088469    
     44980   1.9088469      158.5          158.5          158.5          1.0306391      1.0193004      1.0954242      0.97719254     1.9088469    
     45000   1.9088469      158.5          158.5          158.5          1.0306179      1.0192813      1.0953956      0.97717687     1.9088469    
     45020   1.9088469      158.5          158.5          158.5          1.0306313      1.019293       1.0954158      0.97718516     1.9088469    
     45040   1.9088469      158.5          158.5          158.5          1.0306447      1.0193061      1.09543        0.97719811     1.9088469    
     45060   1.9088469      158.5          158.5          158.5          1.0306489      1.019311       1.0954332      0.97720249     1.9088469    
     45080   1.9088469      158.5          158.5          158.5          1.0306487      1.0193095      1.0954338      0.97720273     1.9088469    
     45100   1.9088469      158.5          158.5          158.5          1.0306518      1.0193154      1.0954333      0.97720675     1.9088469    
     45120   1.9088469      158.5          158.5          158.5          1.0306599      1.019321       1.0954447      0.97721387     1.9088469    
     45140   1.9088469      158.5          158.5          158.5          1.0306566      1.019318       1.0954413      0.97721063     1.9088469    
     45160   1.9088469      158.5          158.5          158.5          1.030652       1.0193141      1.0954347      0.97720719     1.9088469    
     45180   1.9088469      158.5          158.5          158.5          1.0306526      1.0193161      1.0954341      0.97720761     1.9088469    
     45200   1.9088469      158.5          158.5          158.5          1.0306545      1.0193161      1.0954376      0.97720972     1.9088469    
     45220   1.9088469      158.5          158.5          158.5          1.0306536      1.0193146      1.095438       0.97720812     1.9088469    
     45240   1.9088469      158.5          158.5          158.5          1.0306521      1.0193138      1.0954341      0.97720849     1.9088469    
     45260   1.9088469      158.5          158.5          158.5          1.0306453      1.0193078      1.0954295      0.97719863     1.9088469    
     45280   1.9088469      158.5          158.5          158.5          1.0306409      1.0193021      1.0954262      0.97719422     1.9088469    
     45300   1.9088469      158.5          158.5          158.5          1.0306338      1.0192955      1.095418       0.97718785     1.9088469    
     45320   1.9088469      158.5          158.5          158.5          1.0306377      1.0192987      1.0954225      0.97719207     1.9088469    
     45340   1.9088469      158.5          158.5          158.5          1.0306465      1.0193087      1.0954296      0.97720124     1.9088469    
     45360   1.9088469      158.5          158.5          158.5          1.0306533      1.0193142      1.095437       0.97720871     1.9088469    
     45380   1.9088469      158.5          158.5          158.5          1.0306565      1.0193169      1.0954412      0.97721136     1.9088469    
     45400   1.9088469      158.5          158.5          158.5          1.0306559      1.0193161      1.0954425      0.977209       1.9088469    
     45420   1.9088469      158.5          158.5          158.5          1.0306549      1.0193173      1.0954382      0.9772093      1.9088469    
     45440   1.9088469      158.5          158.5          158.5          1.030652       1.0193145      1.0954354      0.97720631     1.9088469    
     45460   1.9088469      158.5          158.5          158.5          1.0306551      1.0193164      1.0954389      0.9772099      1.9088469    
     45480   1.9088468      158.5          158.5          158.5          1.0306554      1.0193184      1.0954383      0.97720936     1.9088468    
     45500   1.9088468      158.5          158.5          158.5          1.0306515      1.0193115      1.0954361      0.97720676     1.9088468    
     45520   1.9088468      158.5          158.5          158.5          1.0306498      1.0193102      1.0954358      0.97720345     1.9088468    
     45540   1.9088468      158.5          158.5          158.5          1.0306493      1.0193102      1.095435       0.97720274     1.9088468    
     45560   1.9088468      158.5          158.5          158.5          1.0306453      1.0193058      1.0954309      0.97719909     1.9088468    
     45580   1.9088468      158.5          158.5          158.5          1.030639       1.019302       1.0954219      0.97719305     1.9088468    
     45600   1.9088468      158.5          158.5          158.5          1.030623       1.0192832      1.0954041      0.97718164     1.9088468    
     45620   1.9088468      158.5          158.5          158.5          1.0306325      1.0192934      1.0954162      0.97718788     1.9088468    
     45640   1.9088468      158.5          158.5          158.5          1.0306423      1.0193055      1.0954243      0.97719709     1.9088468    
     45660   1.9088468      158.5          158.5          158.5          1.03065        1.0193129      1.0954328      0.97720431     1.9088468    
     45680   1.9088468      158.5          158.5          158.5          1.0306516      1.0193142      1.0954351      0.97720562     1.9088468    
     45700   1.9088468      158.5          158.5          158.5          1.0306542      1.019316       1.0954376      0.97720904     1.9088468    
     45720   1.9088468      158.5          158.5          158.5          1.0306577      1.0193186      1.0954422      0.9772122      1.9088468    
     45740   1.9088468      158.5          158.5          158.5          1.0306588      1.019322       1.0954413      0.97721321     1.9088468    
     45760   1.9088468      158.5          158.5          158.5          1.0306518      1.0193138      1.0954348      0.97720687     1.9088468    
     45780   1.9088468      158.5          158.5          158.5          1.0306533      1.0193151      1.0954362      0.97720864     1.9088468    
     45800   1.9088468      158.5          158.5          158.5          1.0306566      1.019321       1.0954377      0.97721113     1.9088468    
     45820   1.9088468      158.5          158.5          158.5          1.030655       1.019317       1.0954387      0.97720917     1.9088468    
     45840   1.9088468      158.5          158.5          158.5          1.03065        1.0193123      1.0954316      0.97720611     1.9088468    
     45860   1.9088468      158.5          158.5          158.5          1.0306446      1.0193068      1.0954279      0.97719901     1.9088468    
     45880   1.9088468      158.5          158.5          158.5          1.0306407      1.0193029      1.0954232      0.97719589     1.9088468    
     45900   1.9088468      158.5          158.5          158.5          1.0306375      1.0192995      1.0954215      0.97719155     1.9088468    
     45920   1.9088468      158.5          158.5          158.5          1.0306396      1.0193016      1.0954244      0.97719276     1.9088468    
     45940   1.9088468      158.5          158.5          158.5          1.0306438      1.0193057      1.0954262      0.97719947     1.9088468    
     45960   1.9088468      158.5          158.5          158.5          1.0306515      1.0193112      1.0954377      0.97720553     1.9088468    
     45980   1.9088468      158.5          158.5          158.5          1.0306567      1.0193181      1.09544        0.97721208     1.9088468    
     46000   1.9088468      158.5          158.5          158.5          1.0306566      1.0193183      1.095441       0.97721048     1.9088468    
     46020   1.9088468      158.5          158.5          158.5          1.0306534      1.0193149      1.0954377      0.97720765     1.9088468    
     46040   1.9088468      158.5          158.5          158.5          1.0306519      1.0193131      1.0954361      0.97720644     1.9088468    
     46060   1.9088468      158.5          158.5          158.5          1.0306514      1.0193111      1.0954376      0.9772056      1.9088468    
     46080   1.9088468      158.5          158.5          158.5          1.0306526      1.0193129      1.095439       0.9772058      1.9088468    
     46100   1.9088468      158.5          158.5          158.5          1.0306562      1.0193187      1.0954395      0.97721047     1.9088468    
     46120   1.9088468      158.5          158.5          158.5          1.0306543      1.0193159      1.0954393      0.97720775     1.9088468    
     46140   1.9088468      158.5          158.5          158.5          1.0306507      1.0193115      1.0954351      0.97720556     1.9088468    
     46160   1.9088468      158.5          158.5          158.5          1.0306389      1.0192986      1.0954255      0.97719267     1.9088468    
     46180   1.9088468      158.5          158.5          158.5          1.0306344      1.0192954      1.0954193      0.97718842     1.9088468    
     46200   1.9088468      158.5          158.5          158.5          1.0306313      1.0192923      1.0954156      0.97718599     1.9088468    
     46220   1.9088468      158.5          158.5          158.5          1.0306345      1.0192953      1.0954196      0.97718869     1.9088468    
     46240   1.9088468      158.5          158.5          158.5          1.0306358      1.0192975      1.095419       0.97719084     1.9088468    
     46260   1.9088468      158.5          158.5          158.5          1.0306423      1.0193059      1.0954236      0.97719727     1.9088468    
     46280   1.9088468      158.5          158.5          158.5          1.0306487      1.0193115      1.0954324      0.97720216     1.9088468    
     46300   1.9088468      158.5          158.5          158.5          1.0306568      1.0193203      1.0954379      0.97721211     1.9088468    
     46320   1.9088468      158.5          158.5          158.5          1.0306557      1.0193167      1.0954403      0.97721001     1.9088468    
     46340   1.9088468      158.5          158.5          158.5          1.0306582      1.0193209      1.0954402      0.97721361     1.9088468    
     46360   1.9088468      158.5          158.5          158.5          1.0306547      1.0193174      1.0954371      0.97720968     1.9088468    
     46380   1.9088468      158.5          158.5          158.5          1.0306493      1.0193117      1.0954317      0.97720435     1.9088468    
     46400   1.9088468      158.5          158.5          158.5          1.0306494      1.0193111      1.0954339      0.97720331     1.9088468    
     46420   1.9088468      158.5          158.5          158.5          1.0306519      1.0193135      1.0954353      0.97720698     1.9088468    
     46440   1.9088468      158.5          158.5          158.5          1.0306515      1.0193138      1.0954345      0.97720618     1.9088468    
     46460   1.9088468      158.5          158.5          158.5          1.0306465      1.0193099      1.0954275      0.97720203     1.9088468    
     46480   1.9088468      158.5          158.5          158.5          1.0306403      1.0193029      1.0954234      0.97719468     1.9088468    
     46500   1.9088468      158.5          158.5          158.5          1.0306383      1.0192996      1.0954227      0.97719245     1.9088468    
     46520   1.9088468      158.5          158.5          158.5          1.0306413      1.0193038      1.095425       0.97719495     1.9088468    
     46540   1.9088468      158.5          158.5          158.5          1.030646       1.019309       1.0954285      0.97720057     1.9088468    
     46560   1.9088468      158.5          158.5          158.5          1.0306548      1.0193161      1.0954392      0.97720916     1.9088468    
     46580   1.9088468      158.5          158.5          158.5          1.0306595      1.0193222      1.0954419      0.9772144      1.9088468    
     46600   1.9088468      158.5          158.5          158.5          1.030658       1.0193169      1.0954453      0.97721166     1.9088468    
     46620   1.9088468      158.5          158.5          158.5          1.0306503      1.0193122      1.0954341      0.97720461     1.9088468    
     46640   1.9088468      158.5          158.5          158.5          1.0306475      1.0193096      1.0954306      0.97720237     1.9088468    
     46660   1.9088468      158.5          158.5          158.5          1.0306526      1.0193148      1.0954358      0.97720719     1.9088468    
     46680   1.9088468      158.5          158.5          158.5          1.0306551      1.0193182      1.0954369      0.97721002     1.9088468    
     46700   1.9088468      158.5          158.5          158.5          1.0306552      1.0193161      1.0954405      0.97720922     1.9088468    
     46720   1.9088468      158.5          158.5          158.5          1.0306507      1.01931        1.0954387      0.97720349     1.9088468    
     46740   1.9088468      158.5          158.5          158.5          1.0306456      1.0193069      1.0954296      0.97720044     1.9088468    
     46760   1.9088468      158.5          158.5          158.5          1.030638       1.0193         1.0954221      0.97719186     1.9088468    
     46780   1.9088468      158.5          158.5          158.5          1.0306317      1.0192914      1.0954174      0.97718636     1.9088468    
     46800   1.9088468      158.5          158.5          158.5          1.0306331      1.0192984      1.0954125      0.97718831     1.9088468    
     46820   1.9088468      158.5          158.5          158.5          1.030635       1.019297       1.0954186      0.97718943     1.9088468    
     46840   1.9088468      158.5          158.5          158.5          1.0306364      1.0192998      1.0954186      0.97719082     1.9088468    
     46860   1.9088468      158.5          158.5          158.5          1.0306437      1.0193048      1.0954279      0.9771983      1.9088468    
     46880   1.9088468      158.5          158.5          158.5          1.030649       1.0193126      1.0954327      0.97720177     1.9088468    
     46900   1.9088468      158.5          158.5          158.5          1.030656       1.0193175      1.0954402      0.97721045     1.9088468    
     46920   1.9088468      158.5          158.5          158.5          1.0306586      1.0193203      1.0954425      0.97721281     1.9088468    
     46940   1.9088468      158.5          158.5          158.5          1.0306588      1.0193201      1.095443       0.97721327     1.9088468    
     46960   1.9088468      158.5          158.5          158.5          1.0306482      1.0193102      1.0954313      0.97720322     1.9088468    
     46980   1.9088468      158.5          158.5          158.5          1.0306494      1.0193116      1.0954325      0.97720397     1.9088468    
     47000   1.9088468      158.5          158.5          158.5          1.0306536      1.0193155      1.0954375      0.97720792     1.9088468    
     47020   1.9088468      158.5          158.5          158.5          1.0306562      1.0193173      1.0954404      0.97721083     1.9088468    
     47040   1.9088468      158.5          158.5          158.5          1.0306524      1.0193136      1.0954369      0.9772068      1.9088468    
     47060   1.9088468      158.5          158.5          158.5          1.0306426      1.0193021      1.0954283      0.97719747     1.9088468    
     47080   1.9088468      158.5          158.5          158.5          1.0306387      1.0193012      1.0954214      0.97719363     1.9088468    
     47100   1.9088468      158.5          158.5          158.5          1.0306381      1.0192996      1.0954222      0.97719257     1.9088468    
     47120   1.9088468      158.5          158.5          158.5          1.0306427      1.0193039      1.0954283      0.97719582     1.9088468    
     47140   1.9088468      158.5          158.5          158.5          1.0306475      1.0193118      1.0954302      0.97720055     1.9088468    
     47160   1.9088468      158.5          158.5          158.5          1.0306566      1.01932        1.0954375      0.9772122      1.9088468    
     47180   1.9088468      158.5          158.5          158.5          1.0306571      1.019318       1.0954417      0.97721168     1.9088468    
     47200   1.9088468      158.5          158.5          158.5          1.0306531      1.0193162      1.0954361      0.97720693     1.9088468    
     47220   1.9088468      158.5          158.5          158.5          1.030649       1.0193105      1.0954324      0.97720409     1.9088468    
     47240   1.9088468      158.5          158.5          158.5          1.0306493      1.0193107      1.0954327      0.97720443     1.9088468    
     47260   1.9088468      158.5          158.5          158.5          1.0306552      1.019318       1.0954381      0.97720945     1.9088468    
     47280   1.9088468      158.5          158.5          158.5          1.0306553      1.0193146      1.0954419      0.97720931     1.9088468    
     47300   1.9088468      158.5          158.5          158.5          1.0306511      1.019313       1.0954344      0.97720589     1.9088468    
     47320   1.9088468      158.5          158.5          158.5          1.0306481      1.019309       1.0954329      0.97720225     1.9088468    
     47340   1.9088468      158.5          158.5          158.5          1.0306467      1.0193076      1.095431       0.97720143     1.9088468    
     47360   1.9088468      158.5          158.5          158.5          1.0306406      1.0193043      1.0954216      0.97719586     1.9088468    
     47380   1.9088468      158.5          158.5          158.5          1.030638       1.0193011      1.0954208      0.97719217     1.9088468    
     47400   1.9088468      158.5          158.5          158.5          1.0306181      1.0192862      1.095389       0.9771789      1.9088468    
     47420   1.9088468      158.5          158.5          158.5          1.0306245      1.0192865      1.0954068      0.97718023     1.9088468    
     47440   1.9088468      158.5          158.5          158.5          1.0306357      1.0192991      1.0954171      0.97719099     1.9088468    
     47460   1.9088468      158.5          158.5          158.5          1.0306477      1.0193099      1.0954309      0.9772024      1.9088468    
     47480   1.9088468      158.5          158.5          158.5          1.03065        1.0193108      1.0954353      0.97720405     1.9088468    
     47500   1.9088468      158.5          158.5          158.5          1.0306555      1.0193183      1.095439       0.97720923     1.9088468    
     47520   1.9088468      158.5          158.5          158.5          1.0306527      1.0193156      1.0954349      0.97720772     1.9088468    
     47540   1.9088468      158.5          158.5          158.5          1.0306559      1.0193178      1.0954399      0.97720995     1.9088468    
     47560   1.9088468      158.5          158.5          158.5          1.0306539      1.0193163      1.0954361      0.97720933     1.9088468    
     47580   1.9088468      158.5          158.5          158.5          1.0306525      1.0193136      1.0954373      0.97720659     1.9088468    
     47600   1.9088468      158.5          158.5          158.5          1.0306503      1.0193103      1.0954351      0.97720544     1.9088468    
     47620   1.9088468      158.5          158.5          158.5          1.0306494      1.0193118      1.0954318      0.97720447     1.9088468    
     47640   1.9088468      158.5          158.5          158.5          1.0306515      1.0193132      1.095436       0.97720546     1.9088468    
     47660   1.9088468      158.5          158.5          158.5          1.0306514      1.0193117      1.0954387      0.97720374     1.9088468    
     47680   1.9088468      158.5          158.5          158.5          1.0306448      1.0193063      1.09543        0.97719794     1.9088468    
     47700   1.9088468      158.5          158.5          158.5          1.0306399      1.0193022      1.0954233      0.97719415     1.9088468    
     47720   1.9088468      158.5          158.5          158.5          1.0306424      1.0193047      1.0954261      0.97719642     1.9088468    
     47740   1.9088468      158.5          158.5          158.5          1.030646       1.0193065      1.095431       0.97720049     1.9088468    
     47760   1.9088468      158.5          158.5          158.5          1.0306524      1.0193136      1.0954363      0.97720728     1.9088468    
     47780   1.9088468      158.5          158.5          158.5          1.030657       1.0193171      1.095442       0.97721201     1.9088468    
     47800   1.9088468      158.5          158.5          158.5          1.0306563      1.0193208      1.0954369      0.97721126     1.9088468    
     47820   1.9088468      158.5          158.5          158.5          1.0306533      1.0193163      1.0954354      0.97720827     1.9088468    
     47840   1.9088468      158.5          158.5          158.5          1.030649       1.0193118      1.0954309      0.97720439     1.9088468    
     47860   1.9088468      158.5          158.5          158.5          1.0306511      1.0193145      1.0954341      0.97720483     1.9088468    
     47880   1.9088468      158.5          158.5          158.5          1.0306531      1.0193157      1.0954355      0.9772081      1.9088468    
     47900   1.9088468      158.5          158.5          158.5          1.0306535      1.0193155      1.0954384      0.97720669     1.9088468    
     47920   1.9088468      158.5          158.5          158.5          1.0306492      1.0193113      1.0954335      0.97720271     1.9088468    
     47940   1.9088468      158.5          158.5          158.5          1.0306474      1.019309       1.0954316      0.9772016      1.9088468    
     47960   1.9088468      158.5          158.5          158.5          1.0306352      1.0192974      1.0954178      0.97719034     1.9088468    
     47980   1.9088468      158.5          158.5          158.5          1.0306257      1.0192859      1.0954105      0.97718064     1.9088468    
     48000   1.9088468      158.5          158.5          158.5          1.0306172      1.0192868      1.0953917      0.97717304     1.9088468    
     48020   1.9088467      158.5          158.5          158.5          1.0306265      1.0192891      1.0954091      0.97718129     1.9088467    
     48040   1.9088467      158.5          158.5          158.5          1.0306397      1.0193034      1.095421       0.9771947      1.9088467    
     48060   1.9088467      158.5          158.5          158.5          1.0306444      1.0193058      1.0954284      0.97719896     1.9088467    
     48080   1.9088467      158.5          158.5          158.5          1.0306451      1.0193065      1.0954298      0.97719909     1.9088467    
     48100   1.9088467      158.5          158.5          158.5          1.0306529      1.0193141      1.0954371      0.97720739     1.9088467    
     48120   1.9088467      158.5          158.5          158.5          1.030657       1.0193179      1.0954424      0.97721054     1.9088467    
     48140   1.9088467      158.5          158.5          158.5          1.0306558      1.0193181      1.0954386      0.97721062     1.9088467    
     48160   1.9088467      158.5          158.5          158.5          1.0306461      1.019308       1.0954287      0.97720168     1.9088467    
     48180   1.9088467      158.5          158.5          158.5          1.0306461      1.0193079      1.0954279      0.97720257     1.9088467    
     48200   1.9088467      158.5          158.5          158.5          1.0306517      1.019315       1.0954339      0.97720609     1.9088467    
     48220   1.9088467      158.5          158.5          158.5          1.0306549      1.0193168      1.0954391      0.97720887     1.9088467    
     48240   1.9088467      158.5          158.5          158.5          1.0306519      1.0193129      1.0954361      0.97720676     1.9088467    
     48260   1.9088467      158.5          158.5          158.5          1.030647       1.0193095      1.0954295      0.97720212     1.9088467    
     48280   1.9088467      158.5          158.5          158.5          1.0306454      1.0193081      1.0954281      0.97720004     1.9088467    
     48300   1.9088467      158.5          158.5          158.5          1.0306426      1.0193042      1.0954269      0.97719659     1.9088467    
     48320   1.9088467      158.5          158.5          158.5          1.0306433      1.0193058      1.0954264      0.9771978      1.9088467    
     48340   1.9088467      158.5          158.5          158.5          1.0306458      1.0193072      1.0954304      0.97719991     1.9088467    
     48360   1.9088467      158.5          158.5          158.5          1.0306559      1.019317       1.0954392      0.9772117      1.9088467    
     48380   1.9088467      158.5          158.5          158.5          1.0306577      1.0193179      1.0954432      0.977212       1.9088467    
     48400   1.9088467      158.5          158.5          158.5          1.0306557      1.0193175      1.0954389      0.97721084     1.9088467    
     48420   1.9088467      158.5          158.5          158.5          1.0306482      1.0193105      1.0954316      0.97720247     1.9088467    
     48440   1.9088467      158.5          158.5          158.5          1.0306482      1.0193092      1.0954326      0.97720289     1.9088467    
     48460   1.9088467      158.5          158.5          158.5          1.0306532      1.0193147      1.0954376      0.97720727     1.9088467    
     48480   1.9088467      158.5          158.5          158.5          1.0306539      1.0193124      1.0954429      0.97720633     1.9088467    
     48500   1.9088467      158.5          158.5          158.5          1.0306505      1.0193124      1.0954344      0.97720479     1.9088467    
     48520   1.9088467      158.5          158.5          158.5          1.0306475      1.0193095      1.0954304      0.97720253     1.9088467    
     48540   1.9088467      158.5          158.5          158.5          1.0306435      1.0193049      1.0954279      0.97719775     1.9088467    
     48560   1.9088467      158.5          158.5          158.5          1.0306392      1.0193017      1.0954217      0.97719424     1.9088467    
     48580   1.9088467      158.5          158.5          158.5          1.0306307      1.0192904      1.0954165      0.97718513     1.9088467    
     48600   1.9088467      158.5          158.5          158.5          1.0306268      1.0192846      1.0954119      0.97718384     1.9088467    
     48620   1.9088467      158.5          158.5          158.5          1.0306285      1.019288       1.0954154      0.97718219     1.9088467    
     48640   1.9088467      158.5          158.5          158.5          1.0306352      1.0192995      1.095415       0.97719109     1.9088467    
     48660   1.9088467      158.5          158.5          158.5          1.0306453      1.0193053      1.0954309      0.97719973     1.9088467    
     48680   1.9088467      158.5          158.5          158.5          1.0306509      1.0193121      1.0954354      0.97720508     1.9088467    
     48700   1.9088467      158.5          158.5          158.5          1.0306533      1.0193146      1.0954383      0.97720691     1.9088467    
     48720   1.9088467      158.5          158.5          158.5          1.0306542      1.0193163      1.0954372      0.97720895     1.9088467    
     48740   1.9088467      158.5          158.5          158.5          1.0306503      1.0193128      1.0954321      0.97720604     1.9088467    
     48760   1.9088467      158.5          158.5          158.5          1.0306475      1.0193089      1.0954314      0.97720227     1.9088467    
     48780   1.9088467      158.5          158.5          158.5          1.0306468      1.0193085      1.095431       0.97720091     1.9088467    
     48800   1.9088467      158.5          158.5          158.5          1.0306471      1.0193094      1.0954293      0.97720253     1.9088467    
     48820   1.9088467      158.5          158.5          158.5          1.0306529      1.0193147      1.0954361      0.97720798     1.9088467    
     48840   1.9088467      158.5          158.5          158.5          1.0306564      1.0193169      1.0954417      0.97721077     1.9088467    
     48860   1.9088467      158.5          158.5          158.5          1.0306497      1.0193127      1.0954326      0.97720381     1.9088467    
     48880   1.9088467      158.5          158.5          158.5          1.0306414      1.0193032      1.0954248      0.97719624     1.9088467    
     48900   1.9088467      158.5          158.5          158.5          1.0306411      1.0193024      1.0954253      0.97719562     1.9088467    
     48920   1.9088467      158.5          158.5          158.5          1.0306442      1.0193056      1.0954284      0.97719866     1.9088467    
     48940   1.9088467      158.5          158.5          158.5          1.0306516      1.0193131      1.0954367      0.97720506     1.9088467    
     48960   1.9088467      158.5          158.5          158.5          1.0306559      1.0193193      1.0954378      0.97721071     1.9088467    
     48980   1.9088467      158.5          158.5          158.5          1.0306566      1.0193188      1.0954395      0.97721148     1.9088467    
     49000   1.9088467      158.5          158.5          158.5          1.0306557      1.019317       1.0954406      0.97720961     1.9088467    
     49020   1.9088467      158.5          158.5          158.5          1.0306516      1.0193135      1.0954351      0.97720618     1.9088467    
     49040   1.9088467      158.5          158.5          158.5          1.0306511      1.019313       1.0954347      0.9772056      1.9088467    
     49060   1.9088467      158.5          158.5          158.5          1.0306509      1.0193127      1.0954354      0.97720448     1.9088467    
     49080   1.9088467      158.5          158.5          158.5          1.0306541      1.0193169      1.0954367      0.97720874     1.9088467    
     49100   1.9088467      158.5          158.5          158.5          1.0306491      1.0193109      1.095433       0.97720349     1.9088467    
     49120   1.9088467      158.5          158.5          158.5          1.0306457      1.0193078      1.0954292      0.9772         1.9088467    
     49140   1.9088467      158.5          158.5          158.5          1.0306449      1.0193061      1.0954296      0.97719895     1.9088467    
     49160   1.9088467      158.5          158.5          158.5          1.0306436      1.0193042      1.0954299      0.97719685     1.9088467    
     49180   1.9088467      158.5          158.5          158.5          1.0306341      1.0192949      1.09542        0.97718742     1.9088467    
     49200   1.9088467      158.5          158.5          158.5          1.0306143      1.0192756      1.0954024      0.97716475     1.9088467    
     49220   1.9088467      158.5          158.5          158.5          1.0306213      1.0192838      1.0954029      0.97717729     1.9088467    
     49240   1.9088467      158.5          158.5          158.5          1.0306332      1.0192971      1.0954134      0.977189       1.9088467    
     49260   1.9088467      158.5          158.5          158.5          1.0306443      1.0193057      1.0954275      0.97719962     1.9088467    
     49280   1.9088467      158.5          158.5          158.5          1.0306484      1.0193102      1.0954318      0.97720311     1.9088467    
     49300   1.9088467      158.5          158.5          158.5          1.0306499      1.0193116      1.0954337      0.97720446     1.9088467    
     49320   1.9088467      158.5          158.5          158.5          1.0306529      1.0193146      1.0954369      0.97720715     1.9088467    
     49340   1.9088467      158.5          158.5          158.5          1.0306524      1.0193129      1.0954393      0.97720495     1.9088467    
     49360   1.9088467      158.5          158.5          158.5          1.0306501      1.0193113      1.0954335      0.97720549     1.9088467    
     49380   1.9088467      158.5          158.5          158.5          1.030651       1.0193126      1.0954353      0.97720513     1.9088467    
     49400   1.9088467      158.5          158.5          158.5          1.0306551      1.0193173      1.0954381      0.97720988     1.9088467    
     49420   1.9088467      158.5          158.5          158.5          1.0306548      1.0193164      1.0954377      0.97721025     1.9088467    
     49440   1.9088467      158.5          158.5          158.5          1.030651       1.0193153      1.0954309      0.97720666     1.9088467    
     49460   1.9088467      158.5          158.5          158.5          1.0306463      1.019308       1.0954312      0.97719966     1.9088467    
     49480   1.9088467      158.5          158.5          158.5          1.0306427      1.0193049      1.0954257      0.97719749     1.9088467    
     49500   1.9088467      158.5          158.5          158.5          1.030641       1.0193031      1.0954241      0.97719584     1.9088467    
     49520   1.9088467      158.5          158.5          158.5          1.0306434      1.0193057      1.0954268      0.97719769     1.9088467    
     49540   1.9088467      158.5          158.5          158.5          1.030648       1.0193109      1.0954305      0.9772025      1.9088467    
     49560   1.9088467      158.5          158.5          158.5          1.030655       1.0193164      1.0954396      0.97720902     1.9088467    
     49580   1.9088467      158.5          158.5          158.5          1.0306585      1.0193188      1.0954434      0.97721325     1.9088467    
     49600   1.9088467      158.5          158.5          158.5          1.0306576      1.0193186      1.0954429      0.97721141     1.9088467    
     49620   1.9088467      158.5          158.5          158.5          1.0306529      1.0193152      1.0954355      0.977208       1.9088467    
     49640   1.9088467      158.5          158.5          158.5          1.0306521      1.0193129      1.0954361      0.9772073      1.9088467    
     49660   1.9088467      158.5          158.5          158.5          1.0306511      1.0193132      1.0954347      0.97720541     1.9088467    
     49680   1.9088467      158.5          158.5          158.5          1.0306522      1.019313       1.0954368      0.97720676     1.9088467    
     49700   1.9088467      158.5          158.5          158.5          1.0306471      1.019309       1.0954313      0.9772011      1.9088467    
     49720   1.9088467      158.5          158.5          158.5          1.0306455      1.0193068      1.0954299      0.97719966     1.9088467    
     49740   1.9088467      158.5          158.5          158.5          1.0306448      1.019307       1.0954284      0.97719915     1.9088467    
     49760   1.9088467      158.5          158.5          158.5          1.0306394      1.0193012      1.0954225      0.97719451     1.9088467    
     49780   1.9088467      158.5          158.5          158.5          1.0306357      1.0192976      1.0954181      0.97719138     1.9088467    
     49800   1.9088467      158.5          158.5          158.5          1.030642       1.0193001      1.0954325      0.9771934      1.9088467    
     49820   1.9088467      158.5          158.5          158.5          1.0306431      1.0193019      1.0954289      0.97719856     1.9088467    
     49840   1.9088467      158.5          158.5          158.5          1.0306451      1.0193061      1.0954294      0.97719967     1.9088467    
     49860   1.9088467      158.5          158.5          158.5          1.0306447      1.0193063      1.0954282      0.97719961     1.9088467    
     49880   1.9088467      158.5          158.5          158.5          1.0306468      1.0193085      1.095431       0.97720086     1.9088467    
     49900   1.9088467      158.5          158.5          158.5          1.0306476      1.0193089      1.095432       0.97720196     1.9088467    
     49920   1.9088467      158.5          158.5          158.5          1.0306513      1.0193141      1.0954341      0.97720557     1.9088467    
     49940   1.9088467      158.5          158.5          158.5          1.0306483      1.0193111      1.0954306      0.97720319     1.9088467    
     49960   1.9088467      158.5          158.5          158.5          1.0306458      1.0193081      1.0954279      0.9772014      1.9088467    
     49980   1.9088467      158.5          158.5          158.5          1.0306486      1.0193105      1.0954313      0.97720397     1.9088467    
     50000   1.9088467      158.5          158.5          158.5          1.030657       1.0193183      1.0954412      0.97721148     1.9088467    
     50020   1.9088467      158.5          158.5          158.5          1.0306611      1.0193225      1.0954457      0.977215       1.9088467    
     50040   1.9088467      158.5          158.5          158.5          1.0306577      1.0193187      1.0954418      0.97721253     1.9088467    
     50060   1.9088467      158.5          158.5          158.5          1.0306514      1.0193123      1.0954364      0.97720538     1.9088467    
     50080   1.9088467      158.5          158.5          158.5          1.0306444      1.0193068      1.0954274      0.97719897     1.9088467    
     50100   1.9088467      158.5          158.5          158.5          1.0306426      1.0193041      1.0954264      0.9771973      1.9088467    
     50120   1.9088467      158.5          158.5          158.5          1.0306445      1.0193061      1.0954285      0.97719884     1.9088467    
     50140   1.9088467      158.5          158.5          158.5          1.0306489      1.0193098      1.0954333      0.97720355     1.9088467    
     50160   1.9088467      158.5          158.5          158.5          1.0306542      1.0193149      1.0954387      0.97720897     1.9088467    
     50180   1.9088467      158.5          158.5          158.5          1.0306552      1.0193168      1.0954389      0.97720989     1.9088467    
     50200   1.9088467      158.5          158.5          158.5          1.0306543      1.0193162      1.0954373      0.97720939     1.9088467    
     50220   1.9088467      158.5          158.5          158.5          1.0306482      1.0193103      1.0954308      0.97720357     1.9088467    
     50240   1.9088467      158.5          158.5          158.5          1.0306492      1.0193115      1.095432       0.97720424     1.9088467    
     50260   1.9088467      158.5          158.5          158.5          1.0306508      1.0193134      1.0954337      0.97720547     1.9088467    
     50280   1.9088467      158.5          158.5          158.5          1.0306545      1.019316       1.0954388      0.97720865     1.9088467    
     50300   1.9088467      158.5          158.5          158.5          1.0306513      1.019313       1.0954352      0.97720551     1.9088467    
     50320   1.9088467      158.5          158.5          158.5          1.0306503      1.0193115      1.0954356      0.97720378     1.9088467    
     50340   1.9088467      158.5          158.5          158.5          1.030644       1.0193068      1.0954263      0.97719898     1.9088467    
     50360   1.9088467      158.5          158.5          158.5          1.0306386      1.0193006      1.0954214      0.97719377     1.9088467    
     50380   1.9088467      158.5          158.5          158.5          1.0306288      1.019287       1.0954157      0.97718368     1.9088467    
     50400   1.9088467      158.5          158.5          158.5          1.0306222      1.0192829      1.0954105      0.97717313     1.9088467    
     50420   1.9088467      158.5          158.5          158.5          1.0306266      1.0192897      1.0954079      0.97718207     1.9088467    
     50440   1.9088467      158.5          158.5          158.5          1.030634       1.0192958      1.0954177      0.97718854     1.9088467    
     50460   1.9088467      158.5          158.5          158.5          1.0306408      1.0193033      1.0954228      0.97719641     1.9088467    
     50480   1.9088467      158.5          158.5          158.5          1.0306477      1.0193113      1.0954296      0.97720226     1.9088467    
     50500   1.9088467      158.5          158.5          158.5          1.0306518      1.0193149      1.0954341      0.97720633     1.9088467    
     50520   1.9088467      158.5          158.5          158.5          1.0306544      1.019317       1.0954369      0.97720925     1.9088467    
     50540   1.9088467      158.5          158.5          158.5          1.0306543      1.0193158      1.0954387      0.97720843     1.9088467    
     50560   1.9088467      158.5          158.5          158.5          1.0306514      1.0193138      1.0954336      0.97720667     1.9088467    
     50580   1.9088467      158.5          158.5          158.5          1.0306513      1.019313       1.0954346      0.97720642     1.9088467    
     50600   1.9088467      158.5          158.5          158.5          1.0306554      1.019319       1.095437       0.97721014     1.9088467    
     50620   1.9088467      158.5          158.5          158.5          1.0306553      1.019317       1.0954391      0.97720999     1.9088467    
     50640   1.9088467      158.5          158.5          158.5          1.030652       1.019314       1.0954347      0.97720716     1.9088467    
     50660   1.9088467      158.5          158.5          158.5          1.030647       1.0193096      1.0954295      0.97720197     1.9088467    
     50680   1.9088467      158.5          158.5          158.5          1.0306425      1.0193037      1.095427       0.97719689     1.9088467    
     50700   1.9088467      158.5          158.5          158.5          1.0306416      1.0193037      1.0954247      0.97719641     1.9088467    
     50720   1.9088467      158.5          158.5          158.5          1.0306434      1.0193052      1.0954271      0.97719803     1.9088467    
     50740   1.9088467      158.5          158.5          158.5          1.0306484      1.0193103      1.0954329      0.9772021      1.9088467    
     50760   1.9088467      158.5          158.5          158.5          1.030656       1.0193183      1.0954389      0.97721062     1.9088467    
     50780   1.9088467      158.5          158.5          158.5          1.0306584      1.0193204      1.0954415      0.97721327     1.9088467    
     50800   1.9088467      158.5          158.5          158.5          1.0306574      1.0193182      1.0954424      0.97721168     1.9088467    
     50820   1.9088467      158.5          158.5          158.5          1.0306521      1.0193123      1.0954383      0.97720589     1.9088467    
     50840   1.9088467      158.5          158.5          158.5          1.0306513      1.019312       1.095436       0.97720597     1.9088467    
     50860   1.9088467      158.5          158.5          158.5          1.030651       1.0193125      1.0954358      0.9772048      1.9088467    
     50880   1.9088467      158.5          158.5          158.5          1.030652       1.0193131      1.0954358      0.97720705     1.9088467    
     50900   1.9088467      158.5          158.5          158.5          1.0306497      1.0193113      1.0954349      0.97720285     1.9088467    
     50920   1.9088467      158.5          158.5          158.5          1.0306464      1.0193073      1.0954315      0.97720034     1.9088467    
     50940   1.9088467      158.5          158.5          158.5          1.0306427      1.0193041      1.0954264      0.97719745     1.9088467    
     50960   1.9088467      158.5          158.5          158.5          1.0306408      1.0193029      1.0954242      0.97719533     1.9088467    
     50980   1.9088467      158.5          158.5          158.5          1.0306364      1.0192966      1.0954219      0.97719078     1.9088467    
     51000   1.9088467      158.5          158.5          158.5          1.0306485      1.0193002      1.0954478      0.97719756     1.9088467    
     51020   1.9088467      158.5          158.5          158.5          1.0306401      1.0193016      1.0954238      0.97719487     1.9088467    
     51040   1.9088467      158.5          158.5          158.5          1.0306428      1.0193045      1.0954258      0.97719802     1.9088467    
     51060   1.9088466      158.5          158.5          158.5          1.0306432      1.0193056      1.095426       0.97719805     1.9088466    
     51080   1.9088466      158.5          158.5          158.5          1.0306466      1.019308       1.0954309      0.97720082     1.9088466    
     51100   1.9088466      158.5          158.5          158.5          1.0306479      1.019309       1.0954326      0.97720213     1.9088466    
     51120   1.9088466      158.5          158.5          158.5          1.0306526      1.0193141      1.0954363      0.97720756     1.9088466    
     51140   1.9088466      158.5          158.5          158.5          1.0306502      1.0193121      1.0954342      0.97720415     1.9088466    
     51160   1.9088466      158.5          158.5          158.5          1.0306489      1.0193116      1.0954309      0.97720428     1.9088466    
     51180   1.9088466      158.5          158.5          158.5          1.0306503      1.0193124      1.0954335      0.97720499     1.9088466    
     51200   1.9088466      158.5          158.5          158.5          1.0306572      1.0193192      1.095441       0.97721159     1.9088466    
     51220   1.9088466      158.5          158.5          158.5          1.0306608      1.0193229      1.0954445      0.97721482     1.9088466    
     51240   1.9088466      158.5          158.5          158.5          1.0306572      1.0193199      1.09544        0.97721172     1.9088466    
     51260   1.9088466      158.5          158.5          158.5          1.0306502      1.0193126      1.0954333      0.97720474     1.9088466    
     51280   1.9088466      158.5          158.5          158.5          1.0306444      1.0193064      1.0954275      0.97719914     1.9088466    
     51300   1.9088466      158.5          158.5          158.5          1.0306424      1.0193042      1.0954259      0.97719712     1.9088466    
     51320   1.9088466      158.5          158.5          158.5          1.0306445      1.0193064      1.0954279      0.97719927     1.9088466    
     51340   1.9088466      158.5          158.5          158.5          1.0306492      1.0193109      1.0954335      0.97720325     1.9088466    
     51360   1.9088466      158.5          158.5          158.5          1.0306559      1.0193172      1.0954405      0.97720994     1.9088466    
     51380   1.9088466      158.5          158.5          158.5          1.0306579      1.0193201      1.0954415      0.97721211     1.9088466    
     51400   1.9088466      158.5          158.5          158.5          1.0306527      1.0193148      1.095435       0.97720828     1.9088466    
     51420   1.9088466      158.5          158.5          158.5          1.0306495      1.0193117      1.0954324      0.97720455     1.9088466    
     51440   1.9088466      158.5          158.5          158.5          1.030651       1.0193129      1.0954344      0.97720577     1.9088466    
     51460   1.9088466      158.5          158.5          158.5          1.0306524      1.0193145      1.0954364      0.97720623     1.9088466    
     51480   1.9088466      158.5          158.5          158.5          1.0306533      1.0193161      1.095436       0.97720796     1.9088466    
     51500   1.9088466      158.5          158.5          158.5          1.030649       1.0193111      1.0954334      0.97720257     1.9088466    
     51520   1.9088466      158.5          158.5          158.5          1.0306444      1.0193075      1.0954257      0.97720001     1.9088466    
     51540   1.9088466      158.5          158.5          158.5          1.0306438      1.0193066      1.0954256      0.9771991      1.9088466    
     51560   1.9088466      158.5          158.5          158.5          1.030639       1.0193001      1.0954232      0.97719379     1.9088466    
     51580   1.9088466      158.5          158.5          158.5          1.0306364      1.0192981      1.0954195      0.97719155     1.9088466    
     51600   1.9088466      158.5          158.5          158.5          1.0306364      1.0192961      1.0954236      0.9771894      1.9088466    
     51620   1.9088466      158.5          158.5          158.5          1.0306357      1.0192964      1.0954196      0.97719094     1.9088466    
     51640   1.9088466      158.5          158.5          158.5          1.03064        1.0193014      1.0954239      0.97719476     1.9088466    
     51660   1.9088466      158.5          158.5          158.5          1.0306432      1.0193051      1.0954262      0.97719818     1.9088466    
     51680   1.9088466      158.5          158.5          158.5          1.030648       1.0193084      1.0954338      0.97720174     1.9088466    
     51700   1.9088466      158.5          158.5          158.5          1.0306506      1.019312       1.0954347      0.977205       1.9088466    
     51720   1.9088466      158.5          158.5          158.5          1.030654       1.0193156      1.0954378      0.97720846     1.9088466    
     51740   1.9088466      158.5          158.5          158.5          1.0306514      1.0193143      1.0954338      0.977206       1.9088466    
     51760   1.9088466      158.5          158.5          158.5          1.0306514      1.0193124      1.0954355      0.97720627     1.9088466    
     51780   1.9088466      158.5          158.5          158.5          1.0306498      1.0193122      1.0954327      0.9772044      1.9088466    
     51800   1.9088466      158.5          158.5          158.5          1.0306538      1.0193162      1.095436       0.97720935     1.9088466    
     51820   1.9088466      158.5          158.5          158.5          1.0306557      1.0193172      1.0954396      0.97721018     1.9088466    
     51840   1.9088466      158.5          158.5          158.5          1.0306534      1.0193152      1.0954376      0.97720733     1.9088466    
     51860   1.9088466      158.5          158.5          158.5          1.0306481      1.0193102      1.0954313      0.9772028      1.9088466    
     51880   1.9088466      158.5          158.5          158.5          1.0306439      1.0193061      1.0954267      0.97719891     1.9088466    
     51900   1.9088466      158.5          158.5          158.5          1.0306423      1.0193042      1.0954262      0.97719671     1.9088466    
     51920   1.9088466      158.5          158.5          158.5          1.0306448      1.0193066      1.0954287      0.97719909     1.9088466    
     51940   1.9088466      158.5          158.5          158.5          1.0306486      1.0193095      1.0954341      0.9772023      1.9088466    
     51960   1.9088466      158.5          158.5          158.5          1.030656       1.019316       1.0954425      0.97720958     1.9088466    
     51980   1.9088466      158.5          158.5          158.5          1.0306569      1.0193194      1.0954402      0.97721118     1.9088466    
     52000   1.9088466      158.5          158.5          158.5          1.0306545      1.019317       1.0954376      0.97720895     1.9088466    
     52020   1.9088466      158.5          158.5          158.5          1.0306493      1.0193109      1.0954329      0.97720424     1.9088466    
     52040   1.9088466      158.5          158.5          158.5          1.0306495      1.0193111      1.0954332      0.97720408     1.9088466    
     52060   1.9088466      158.5          158.5          158.5          1.0306521      1.0193143      1.0954361      0.97720588     1.9088466    
     52080   1.9088466      158.5          158.5          158.5          1.0306534      1.0193163      1.0954352      0.97720859     1.9088466    
     52100   1.9088466      158.5          158.5          158.5          1.0306499      1.0193106      1.0954358      0.97720339     1.9088466    
     52120   1.9088466      158.5          158.5          158.5          1.0306479      1.0193098      1.0954311      0.97720282     1.9088466    
     52140   1.9088466      158.5          158.5          158.5          1.030643       1.0193048      1.0954266      0.97719771     1.9088466    
     52160   1.9088466      158.5          158.5          158.5          1.0306404      1.0193019      1.0954247      0.97719458     1.9088466    
     52180   1.9088466      158.5          158.5          158.5          1.0306391      1.0192995      1.0954244      0.97719333     1.9088466    
     52200   1.9088466      158.5          158.5          158.5          1.0306333      1.0192974      1.0954145      0.97718806     1.9088466    
     52220   1.9088466      158.5          158.5          158.5          1.0306409      1.0193023      1.0954248      0.97719576     1.9088466    
     52240   1.9088466      158.5          158.5          158.5          1.0306424      1.0193036      1.0954264      0.97719725     1.9088466    
     52260   1.9088466      158.5          158.5          158.5          1.0306441      1.0193054      1.0954285      0.97719859     1.9088466    
     52280   1.9088466      158.5          158.5          158.5          1.0306488      1.0193103      1.095434       0.97720203     1.9088466    
     52300   1.9088466      158.5          158.5          158.5          1.0306539      1.0193182      1.0954362      0.97720742     1.9088466    
     52320   1.9088466      158.5          158.5          158.5          1.030656       1.0193177      1.0954397      0.97721056     1.9088466    
     52340   1.9088466      158.5          158.5          158.5          1.0306528      1.0193157      1.0954356      0.97720724     1.9088466    
     52360   1.9088466      158.5          158.5          158.5          1.0306494      1.0193124      1.0954307      0.97720504     1.9088466    
     52380   1.9088466      158.5          158.5          158.5          1.030649       1.0193114      1.0954318      0.97720388     1.9088466    
     52400   1.9088466      158.5          158.5          158.5          1.0306528      1.0193142      1.0954372      0.97720714     1.9088466    
     52420   1.9088466      158.5          158.5          158.5          1.0306545      1.0193166      1.0954377      0.97720916     1.9088466    
     52440   1.9088466      158.5          158.5          158.5          1.0306523      1.019315       1.0954355      0.97720651     1.9088466    
     52460   1.9088466      158.5          158.5          158.5          1.0306453      1.0193073      1.0954288      0.97719997     1.9088466    
     52480   1.9088466      158.5          158.5          158.5          1.0306426      1.0193044      1.0954261      0.97719721     1.9088466    
     52500   1.9088466      158.5          158.5          158.5          1.030641       1.0193033      1.0954242      0.9771956      1.9088466    
     52520   1.9088466      158.5          158.5          158.5          1.0306428      1.0193046      1.0954265      0.9771974      1.9088466    
     52540   1.9088466      158.5          158.5          158.5          1.0306472      1.0193089      1.0954312      0.97720151     1.9088466    
     52560   1.9088466      158.5          158.5          158.5          1.030652       1.0193139      1.0954355      0.97720678     1.9088466    
     52580   1.9088466      158.5          158.5          158.5          1.0306522      1.0193139      1.0954352      0.97720754     1.9088466    
     52600   1.9088466      158.5          158.5          158.5          1.0306509      1.019313       1.0954336      0.97720608     1.9088466    
     52620   1.9088466      158.5          158.5          158.5          1.030649       1.0193116      1.0954316      0.97720364     1.9088466    
     52640   1.9088466      158.5          158.5          158.5          1.0306504      1.0193129      1.0954332      0.97720495     1.9088466    
     52660   1.9088466      158.5          158.5          158.5          1.0306536      1.0193156      1.095438       0.97720703     1.9088466    
     52680   1.9088466      158.5          158.5          158.5          1.0306552      1.0193163      1.0954387      0.97721044     1.9088466    
     52700   1.9088466      158.5          158.5          158.5          1.0306507      1.0193123      1.0954353      0.97720459     1.9088466    
     52720   1.9088466      158.5          158.5          158.5          1.0306484      1.0193098      1.0954322      0.97720324     1.9088466    
     52740   1.9088466      158.5          158.5          158.5          1.0306449      1.0193059      1.0954293      0.97719951     1.9088466    
     52760   1.9088466      158.5          158.5          158.5          1.030645       1.0193071      1.0954291      0.97719876     1.9088466    
     52780   1.9088466      158.5          158.5          158.5          1.0306429      1.0193042      1.0954274      0.97719724     1.9088466    
     52800   1.9088466      158.5          158.5          158.5          1.0306331      1.0192929      1.095422       0.97718446     1.9088466    
     52820   1.9088466      158.5          158.5          158.5          1.030639       1.0193026      1.09542        0.97719436     1.9088466    
     52840   1.9088466      158.5          158.5          158.5          1.0306444      1.0193069      1.0954277      0.97719871     1.9088466    
     52860   1.9088466      158.5          158.5          158.5          1.030646       1.0193083      1.0954289      0.97720088     1.9088466    
     52880   1.9088466      158.5          158.5          158.5          1.0306491      1.0193087      1.0954347      0.97720382     1.9088466    
     52900   1.9088466      158.5          158.5          158.5          1.030653       1.0193133      1.0954388      0.97720671     1.9088466    
     52920   1.9088466      158.5          158.5          158.5          1.0306561      1.0193172      1.0954401      0.97721086     1.9088466    
     52940   1.9088466      158.5          158.5          158.5          1.0306533      1.0193151      1.095438       0.97720686     1.9088466    
     52960   1.9088466      158.5          158.5          158.5          1.030651       1.0193126      1.0954347      0.97720559     1.9088466    
     52980   1.9088466      158.5          158.5          158.5          1.0306503      1.0193122      1.0954329      0.9772057      1.9088466    
     53000   1.9088466      158.5          158.5          158.5          1.0306514      1.0193145      1.0954339      0.97720601     1.9088466    
     53020   1.9088466      158.5          158.5          158.5          1.0306516      1.0193133      1.0954357      0.97720575     1.9088466    
     53040   1.9088466      158.5          158.5          158.5          1.0306516      1.0193133      1.0954351      0.97720636     1.9088466    
     53060   1.9088466      158.5          158.5          158.5          1.030648       1.0193096      1.0954322      0.97720218     1.9088466    
     53080   1.9088466      158.5          158.5          158.5          1.0306454      1.019306       1.0954306      0.97719953     1.9088466    
     53100   1.9088466      158.5          158.5          158.5          1.030642       1.0193033      1.0954264      0.97719622     1.9088466    
     53120   1.9088466      158.5          158.5          158.5          1.0306436      1.0193052      1.0954275      0.97719803     1.9088466    
     53140   1.9088466      158.5          158.5          158.5          1.0306467      1.0193088      1.0954302      0.97720105     1.9088466    
     53160   1.9088466      158.5          158.5          158.5          1.0306515      1.0193133      1.0954348      0.9772065      1.9088466    
     53180   1.9088466      158.5          158.5          158.5          1.0306528      1.0193134      1.0954375      0.97720746     1.9088466    
     53200   1.9088466      158.5          158.5          158.5          1.0306519      1.0193138      1.0954356      0.97720631     1.9088466    
     53220   1.9088466      158.5          158.5          158.5          1.030649       1.019311       1.0954327      0.97720335     1.9088466    
     53240   1.9088466      158.5          158.5          158.5          1.0306506      1.0193121      1.0954343      0.97720538     1.9088466    
     53260   1.9088466      158.5          158.5          158.5          1.0306525      1.0193157      1.0954345      0.97720731     1.9088466    
     53280   1.9088466      158.5          158.5          158.5          1.0306543      1.0193166      1.0954373      0.97720888     1.9088466    
     53300   1.9088466      158.5          158.5          158.5          1.0306528      1.0193148      1.0954365      0.97720707     1.9088466    
     53320   1.9088466      158.5          158.5          158.5          1.0306501      1.0193116      1.0954346      0.97720406     1.9088466    
     53340   1.9088466      158.5          158.5          158.5          1.0306475      1.0193102      1.0954302      0.97720211     1.9088466    
     53360   1.9088466      158.5          158.5          158.5          1.0306448      1.0193065      1.0954282      0.97719973     1.9088466    
     53380   1.9088466      158.5          158.5          158.5          1.0306398      1.0193017      1.0954224      0.97719516     1.9088466    
     53400   1.9088466      158.5          158.5          158.5          1.0306415      1.0193028      1.0954249      0.97719681     1.9088466    
     53420   1.9088466      158.5          158.5          158.5          1.0306413      1.0193037      1.0954241      0.97719605     1.9088466    
     53440   1.9088466      158.5          158.5          158.5          1.0306419      1.0193035      1.0954261      0.97719618     1.9088466    
     53460   1.9088466      158.5          158.5          158.5          1.0306447      1.0193063      1.0954284      0.97719938     1.9088466    
     53480   1.9088466      158.5          158.5          158.5          1.030649       1.019312       1.0954317      0.97720332     1.9088466    
     53500   1.9088466      158.5          158.5          158.5          1.0306547      1.0193185      1.0954366      0.97720905     1.9088466    
     53520   1.9088466      158.5          158.5          158.5          1.0306565      1.0193181      1.0954403      0.97721104     1.9088466    
     53540   1.9088466      158.5          158.5          158.5          1.030653       1.0193143      1.0954373      0.97720754     1.9088466    
     53560   1.9088466      158.5          158.5          158.5          1.0306504      1.0193124      1.0954332      0.97720549     1.9088466    
     53580   1.9088466      158.5          158.5          158.5          1.0306483      1.0193096      1.0954324      0.97720278     1.9088466    
     53600   1.9088466      158.5          158.5          158.5          1.030652       1.0193144      1.0954349      0.97720672     1.9088466    
     53620   1.9088466      158.5          158.5          158.5          1.0306527      1.0193146      1.095436       0.97720749     1.9088466    
     53640   1.9088466      158.5          158.5          158.5          1.0306516      1.0193135      1.0954347      0.97720659     1.9088466    
     53660   1.9088466      158.5          158.5          158.5          1.0306476      1.0193099      1.0954305      0.97720235     1.9088466    
     53680   1.9088466      158.5          158.5          158.5          1.030646       1.0193085      1.0954289      0.97720076     1.9088466    
     53700   1.9088466      158.5          158.5          158.5          1.0306445      1.0193065      1.0954279      0.97719897     1.9088466    
     53720   1.9088466      158.5          158.5          158.5          1.0306451      1.0193069      1.0954287      0.97719965     1.9088466    
     53740   1.9088466      158.5          158.5          158.5          1.0306464      1.0193081      1.09543        0.97720109     1.9088466    
     53760   1.9088466      158.5          158.5          158.5          1.0306508      1.0193132      1.0954337      0.97720545     1.9088466    
     53780   1.9088466      158.5          158.5          158.5          1.0306522      1.0193139      1.0954358      0.97720684     1.9088466    
     53800   1.9088466      158.5          158.5          158.5          1.0306527      1.019314       1.095437       0.97720696     1.9088466    
     53820   1.9088466      158.5          158.5          158.5          1.0306509      1.0193124      1.0954346      0.97720576     1.9088466    
     53840   1.9088466      158.5          158.5          158.5          1.0306516      1.0193146      1.0954323      0.97720792     1.9088466    
     53860   1.9088466      158.5          158.5          158.5          1.0306519      1.019317       1.0954317      0.97720687     1.9088466    
     53880   1.9088466      158.5          158.5          158.5          1.0306518      1.0193147      1.0954339      0.9772068      1.9088466    
     53900   1.9088466      158.5          158.5          158.5          1.0306499      1.0193124      1.0954329      0.97720434     1.9088466    
     53920   1.9088466      158.5          158.5          158.5          1.0306498      1.0193114      1.0954334      0.97720461     1.9088466    
     53940   1.9088466      158.5          158.5          158.5          1.0306473      1.0193096      1.0954305      0.97720187     1.9088466    
     53960   1.9088466      158.5          158.5          158.5          1.0306444      1.0193063      1.0954273      0.9771996      1.9088466    
     53980   1.9088466      158.5          158.5          158.5          1.0306407      1.019301       1.0954238      0.97719717     1.9088466    
     54000   1.9088466      158.5          158.5          158.5          1.0306315      1.0192875      1.0954248      0.97718231     1.9088466    
     54020   1.9088466      158.5          158.5          158.5          1.0306361      1.0192977      1.0954187      0.97719204     1.9088466    
     54040   1.9088466      158.5          158.5          158.5          1.0306415      1.0193028      1.0954257      0.97719593     1.9088466    
     54060   1.9088466      158.5          158.5          158.5          1.0306457      1.0193068      1.0954303      0.97719999     1.9088466    
     54080   1.9088466      158.5          158.5          158.5          1.0306512      1.0193127      1.0954352      0.97720575     1.9088466    
     54100   1.9088466      158.5          158.5          158.5          1.030652       1.0193165      1.0954329      0.97720667     1.9088466    
     54120   1.9088466      158.5          158.5          158.5          1.0306547      1.0193163      1.0954384      0.97720924     1.9088466    
     54140   1.9088466      158.5          158.5          158.5          1.0306528      1.0193144      1.095437       0.9772071      1.9088466    
     54160   1.9088466      158.5          158.5          158.5          1.0306507      1.0193127      1.0954334      0.97720599     1.9088466    
     54180   1.9088466      158.5          158.5          158.5          1.0306491      1.0193121      1.0954317      0.97720349     1.9088466    
     54200   1.9088466      158.5          158.5          158.5          1.0306498      1.0193123      1.0954326      0.97720463     1.9088466    
     54220   1.9088466      158.5          158.5          158.5          1.0306513      1.019313       1.0954349      0.977206       1.9088466    
     54240   1.9088466      158.5          158.5          158.5          1.0306509      1.0193128      1.0954341      0.97720571     1.9088466    
     54260   1.9088466      158.5          158.5          158.5          1.0306492      1.0193111      1.0954326      0.97720397     1.9088466    
     54280   1.9088466      158.5          158.5          158.5          1.0306468      1.019309       1.0954298      0.97720161     1.9088466    
     54300   1.9088466      158.5          158.5          158.5          1.0306453      1.019307       1.0954289      0.97719984     1.9088466    
     54320   1.9088466      158.5          158.5          158.5          1.0306458      1.0193078      1.0954291      0.97720039     1.9088466    
     54340   1.9088466      158.5          158.5          158.5          1.030648       1.0193099      1.0954317      0.97720241     1.9088466    
     54360   1.9088466      158.5          158.5          158.5          1.0306504      1.0193123      1.0954336      0.97720512     1.9088466    
     54380   1.9088466      158.5          158.5          158.5          1.0306508      1.019313       1.0954341      0.9772054      1.9088466    
     54400   1.9088466      158.5          158.5          158.5          1.0306512      1.019313       1.0954349      0.9772058      1.9088466    
     54420   1.9088466      158.5          158.5          158.5          1.0306513      1.0193133      1.0954343      0.97720615     1.9088466    
     54440   1.9088466      158.5          158.5          158.5          1.0306526      1.0193144      1.0954356      0.9772078      1.9088466    
     54460   1.9088466      158.5          158.5          158.5          1.0306536      1.0193158      1.095437       0.97720811     1.9088466    
     54480   1.9088466      158.5          158.5          158.5          1.0306548      1.0193163      1.09544        0.97720816     1.9088466    
     54500   1.9088466      158.5          158.5          158.5          1.0306505      1.0193101      1.095437       0.97720439     1.9088466    
     54520   1.9088466      158.5          158.5          158.5          1.0306496      1.0193107      1.0954345      0.97720366     1.9088466    
     54540   1.9088466      158.5          158.5          158.5          1.0306473      1.0193097      1.0954305      0.97720171     1.9088466    
     54560   1.9088466      158.5          158.5          158.5          1.0306454      1.0193086      1.095427       0.97720054     1.9088466    
     54580   1.9088466      158.5          158.5          158.5          1.030641       1.019303       1.0954247      0.97719545     1.9088466    
     54600   1.9088466      158.5          158.5          158.5          1.0306224      1.0192809      1.0954099      0.97717631     1.9088466    
     54620   1.9088466      158.5          158.5          158.5          1.0306315      1.019292       1.0954147      0.9771877      1.9088466    
     54640   1.9088466      158.5          158.5          158.5          1.0306357      1.0192984      1.0954174      0.97719138     1.9088466    
     54660   1.9088466      158.5          158.5          158.5          1.0306451      1.0193068      1.09543        0.97719845     1.9088466    
     54680   1.9088466      158.5          158.5          158.5          1.0306504      1.0193125      1.0954333      0.97720519     1.9088466    
     54700   1.9088466      158.5          158.5          158.5          1.0306504      1.0193114      1.095435       0.97720487     1.9088466    
     54720   1.9088466      158.5          158.5          158.5          1.0306537      1.0193153      1.0954377      0.97720817     1.9088466    
     54740   1.9088466      158.5          158.5          158.5          1.0306547      1.0193171      1.0954379      0.97720905     1.9088466    
     54760   1.9088466      158.5          158.5          158.5          1.0306536      1.0193166      1.0954353      0.97720894     1.9088466    
     54780   1.9088466      158.5          158.5          158.5          1.0306512      1.019315       1.0954323      0.97720631     1.9088466    
     54800   1.9088466      158.5          158.5          158.5          1.0306496      1.0193114      1.0954331      0.97720432     1.9088466    
     54820   1.9088466      158.5          158.5          158.5          1.0306504      1.0193122      1.0954339      0.97720502     1.9088466    
     54840   1.9088466      158.5          158.5          158.5          1.0306509      1.0193128      1.0954345      0.97720537     1.9088466    
     54860   1.9088466      158.5          158.5          158.5          1.0306485      1.0193104      1.0954317      0.97720328     1.9088466    
     54880   1.9088466      158.5          158.5          158.5          1.0306467      1.0193088      1.0954297      0.97720157     1.9088466    
     54900   1.9088466      158.5          158.5          158.5          1.0306463      1.0193083      1.0954298      0.97720091     1.9088466    
     54920   1.9088466      158.5          158.5          158.5          1.0306459      1.0193079      1.0954294      0.97720051     1.9088466    
     54940   1.9088466      158.5          158.5          158.5          1.0306465      1.0193081      1.0954301      0.97720126     1.9088466    
     54960   1.9088466      158.5          158.5          158.5          1.0306495      1.0193113      1.0954328      0.97720438     1.9088466    
     54980   1.9088466      158.5          158.5          158.5          1.0306513      1.0193127      1.0954355      0.97720558     1.9088466    
     55000   1.9088466      158.5          158.5          158.5          1.0306518      1.0193147      1.0954338      0.97720686     1.9088466    
     55020   1.9088466      158.5          158.5          158.5          1.0306529      1.0193154      1.0954354      0.97720804     1.9088466    
     55040   1.9088466      158.5          158.5          158.5          1.0306528      1.0193135      1.0954372      0.97720774     1.9088466    
     55060   1.9088466      158.5          158.5          158.5          1.0306525      1.0193155      1.0954351      0.97720695     1.9088466    
     55080   1.9088466      158.5          158.5          158.5          1.0306516      1.0193141      1.0954345      0.97720618     1.9088466    
     55100   1.9088466      158.5          158.5          158.5          1.0306519      1.0193145      1.0954345      0.9772066      1.9088466    
     55120   1.9088466      158.5          158.5          158.5          1.0306517      1.0193122      1.0954377      0.97720512     1.9088466    
     55140   1.9088466      158.5          158.5          158.5          1.0306461      1.0193078      1.0954301      0.97720038     1.9088466    
     55160   1.9088466      158.5          158.5          158.5          1.0306389      1.0193011      1.0954214      0.97719439     1.9088466    
     55180   1.9088466      158.5          158.5          158.5          1.0306369      1.019299       1.0954205      0.97719116     1.9088466    
     55200   1.9088466      158.5          158.5          158.5          1.0306425      1.0193015      1.0954287      0.97719714     1.9088466    
     55220   1.9088466      158.5          158.5          158.5          1.030642       1.0193044      1.0954241      0.97719747     1.9088466    
     55240   1.9088466      158.5          158.5          158.5          1.0306418      1.0193042      1.0954249      0.97719646     1.9088466    
     55260   1.9088466      158.5          158.5          158.5          1.0306484      1.0193101      1.0954316      0.97720341     1.9088466    
     55280   1.9088466      158.5          158.5          158.5          1.0306527      1.0193144      1.0954366      0.97720729     1.9088466    
     55300   1.9088466      158.5          158.5          158.5          1.0306508      1.0193133      1.0954339      0.97720515     1.9088466    
     55320   1.9088466      158.5          158.5          158.5          1.0306498      1.0193116      1.0954338      0.97720416     1.9088466    
     55340   1.9088466      158.5          158.5          158.5          1.0306508      1.0193128      1.0954344      0.97720507     1.9088466    
     55360   1.9088466      158.5          158.5          158.5          1.0306474      1.0193093      1.0954305      0.97720236     1.9088466    
     55380   1.9088466      158.5          158.5          158.5          1.0306457      1.0193081      1.0954282      0.977201       1.9088466    
     55400   1.9088466      158.5          158.5          158.5          1.0306498      1.0193123      1.0954324      0.97720455     1.9088466    
     55420   1.9088466      158.5          158.5          158.5          1.030652       1.0193132      1.0954368      0.97720614     1.9088466    
     55440   1.9088466      158.5          158.5          158.5          1.0306526      1.0193148      1.0954354      0.9772075      1.9088466    
     55460   1.9088466      158.5          158.5          158.5          1.0306492      1.0193113      1.0954323      0.97720413     1.9088466    
     55480   1.9088466      158.5          158.5          158.5          1.0306465      1.0193083      1.0954302      0.97720099     1.9088466    
     55500   1.9088466      158.5          158.5          158.5          1.0306455      1.0193071      1.0954294      0.97719989     1.9088466    
     55520   1.9088466      158.5          158.5          158.5          1.0306462      1.019308       1.0954295      0.97720097     1.9088466    
     55540   1.9088466      158.5          158.5          158.5          1.0306483      1.0193102      1.0954314      0.97720317     1.9088466    
     55560   1.9088466      158.5          158.5          158.5          1.0306507      1.0193123      1.0954345      0.97720541     1.9088466    
     55580   1.9088466      158.5          158.5          158.5          1.0306507      1.0193124      1.0954346      0.9772052      1.9088466    
     55600   1.9088466      158.5          158.5          158.5          1.0306504      1.0193119      1.0954338      0.97720543     1.9088466    
     55620   1.9088466      158.5          158.5          158.5          1.0306509      1.0193116      1.0954359      0.97720533     1.9088466    
     55640   1.9088466      158.5          158.5          158.5          1.0306535      1.0193138      1.0954387      0.9772081      1.9088466    
     55660   1.9088466      158.5          158.5          158.5          1.0306557      1.0193174      1.0954397      0.97720996     1.9088466    
     55680   1.9088466      158.5          158.5          158.5          1.0306505      1.0193126      1.095433       0.97720575     1.9088466    
     55700   1.9088466      158.5          158.5          158.5          1.0306488      1.0193111      1.0954321      0.9772033      1.9088466    
     55720   1.9088466      158.5          158.5          158.5          1.0306482      1.0193095      1.0954327      0.97720226     1.9088466    
     55740   1.9088466      158.5          158.5          158.5          1.0306445      1.0193061      1.0954283      0.97719904     1.9088466    
     55760   1.9088466      158.5          158.5          158.5          1.0306428      1.019303       1.0954278      0.97719776     1.9088466    
     55780   1.9088466      158.5          158.5          158.5          1.0306467      1.0193097      1.0954294      0.97720103     1.9088466    
     55800   1.9088466      158.5          158.5          158.5          1.0306453      1.0193039      1.0954333      0.97719872     1.9088466    
     55820   1.9088466      158.5          158.5          158.5          1.030643       1.0193042      1.0954264      0.9771985      1.9088466    
     55840   1.9088466      158.5          158.5          158.5          1.0306413      1.0193029      1.0954254      0.97719572     1.9088466    
     55860   1.9088466      158.5          158.5          158.5          1.0306472      1.0193088      1.095431       0.97720193     1.9088466    
     55880   1.9088466      158.5          158.5          158.5          1.0306523      1.0193135      1.0954362      0.97720717     1.9088466    
     55900   1.9088466      158.5          158.5          158.5          1.0306505      1.0193123      1.0954349      0.97720447     1.9088466    
     55920   1.9088466      158.5          158.5          158.5          1.0306481      1.0193097      1.0954319      0.97720275     1.9088466    
     55940   1.9088466      158.5          158.5          158.5          1.030649       1.0193108      1.0954331      0.97720309     1.9088466    
     55960   1.9088466      158.5          158.5          158.5          1.03065        1.0193114      1.095434       0.97720463     1.9088466    
     55980   1.9088466      158.5          158.5          158.5          1.0306475      1.0193096      1.0954306      0.97720234     1.9088466    
     56000   1.9088466      158.5          158.5          158.5          1.0306495      1.0193112      1.0954327      0.97720459     1.9088466    
     56020   1.9088466      158.5          158.5          158.5          1.0306524      1.0193138      1.0954368      0.97720659     1.9088466    
     56040   1.9088466      158.5          158.5          158.5          1.0306526      1.0193143      1.095436       0.97720749     1.9088466    
     56060   1.9088466      158.5          158.5          158.5          1.0306505      1.0193122      1.0954338      0.97720546     1.9088466    
     56080   1.9088466      158.5          158.5          158.5          1.0306477      1.0193096      1.0954306      0.97720272     1.9088466    
     56100   1.9088466      158.5          158.5          158.5          1.0306456      1.0193073      1.0954294      0.97720019     1.9088466    
     56120   1.9088466      158.5          158.5          158.5          1.0306467      1.0193086      1.09543        0.97720151     1.9088466    
     56140   1.9088466      158.5          158.5          158.5          1.0306489      1.0193108      1.0954325      0.97720327     1.9088466    
     56160   1.9088466      158.5          158.5          158.5          1.0306508      1.0193124      1.0954346      0.97720527     1.9088466    
     56180   1.9088466      158.5          158.5          158.5          1.0306512      1.0193131      1.0954349      0.97720558     1.9088466    
     56200   1.9088466      158.5          158.5          158.5          1.0306508      1.0193126      1.0954347      0.97720509     1.9088466    
     56220   1.9088466      158.5          158.5          158.5          1.0306503      1.0193118      1.0954337      0.97720531     1.9088466    
     56240   1.9088466      158.5          158.5          158.5          1.0306524      1.0193145      1.0954354      0.97720739     1.9088466    
     56260   1.9088466      158.5          158.5          158.5          1.0306531      1.0193137      1.0954391      0.97720649     1.9088466    
     56280   1.9088466      158.5          158.5          158.5          1.0306518      1.0193131      1.0954355      0.977207       1.9088466    
     56300   1.9088466      158.5          158.5          158.5          1.030652       1.0193145      1.0954354      0.97720604     1.9088466    
     56320   1.9088466      158.5          158.5          158.5          1.0306521      1.0193137      1.0954364      0.9772063      1.9088466    
     56340   1.9088466      158.5          158.5          158.5          1.030644       1.0193065      1.0954266      0.97719885     1.9088466    
     56360   1.9088466      158.5          158.5          158.5          1.0306371      1.0192981      1.0954211      0.97719223     1.9088466    
     56380   1.9088466      158.5          158.5          158.5          1.0306398      1.0193015      1.0954228      0.97719502     1.9088466    
     56400   1.9088466      158.5          158.5          158.5          1.0306522      1.0193132      1.0954379      0.97720556     1.9088466    
     56420   1.9088466      158.5          158.5          158.5          1.0306424      1.0193035      1.095426       0.97719776     1.9088466    
     56440   1.9088466      158.5          158.5          158.5          1.0306377      1.0193004      1.09542        0.97719285     1.9088466    
     56460   1.9088466      158.5          158.5          158.5          1.0306424      1.0193045      1.0954251      0.97719744     1.9088466    
     56480   1.9088466      158.5          158.5          158.5          1.0306496      1.0193115      1.095433       0.97720419     1.9088466    
     56500   1.9088466      158.5          158.5          158.5          1.0306509      1.0193131      1.0954346      0.97720507     1.9088466    
     56520   1.9088466      158.5          158.5          158.5          1.0306499      1.0193121      1.0954325      0.97720522     1.9088466    
     56540   1.9088466      158.5          158.5          158.5          1.0306508      1.0193129      1.0954346      0.97720495     1.9088466    
     56560   1.9088466      158.5          158.5          158.5          1.0306535      1.0193154      1.0954371      0.97720792     1.9088466    
     56580   1.9088466      158.5          158.5          158.5          1.0306515      1.0193131      1.0954352      0.97720634     1.9088466    
     56600   1.9088466      158.5          158.5          158.5          1.0306513      1.0193131      1.0954354      0.97720536     1.9088466    
     56620   1.9088466      158.5          158.5          158.5          1.0306505      1.0193122      1.0954343      0.97720506     1.9088466    
     56640   1.9088466      158.5          158.5          158.5          1.0306501      1.0193122      1.0954333      0.97720478     1.9088466    
     56660   1.9088466      158.5          158.5          158.5          1.0306486      1.0193104      1.095432       0.97720327     1.9088466    
     56680   1.9088466      158.5          158.5          158.5          1.0306475      1.0193094      1.0954309      0.97720233     1.9088466    
     56700   1.9088466      158.5          158.5          158.5          1.0306477      1.0193093      1.0954316      0.9772021      1.9088466    
     56720   1.9088466      158.5          158.5          158.5          1.0306477      1.0193095      1.0954316      0.97720216     1.9088466    
     56740   1.9088466      158.5          158.5          158.5          1.0306484      1.0193102      1.0954318      0.97720327     1.9088466    
     56760   1.9088466      158.5          158.5          158.5          1.0306491      1.0193109      1.0954326      0.97720384     1.9088466    
     56780   1.9088466      158.5          158.5          158.5          1.0306497      1.0193117      1.0954327      0.97720461     1.9088466    
     56800   1.9088466      158.5          158.5          158.5          1.03065        1.0193119      1.0954335      0.97720456     1.9088466    
     56820   1.9088466      158.5          158.5          158.5          1.0306505      1.0193116      1.0954347      0.97720518     1.9088466    
     56840   1.9088466      158.5          158.5          158.5          1.0306522      1.0193146      1.0954355      0.97720661     1.9088466    
     56860   1.9088466      158.5          158.5          158.5          1.0306532      1.0193135      1.0954385      0.97720769     1.9088466    
     56880   1.9088466      158.5          158.5          158.5          1.0306522      1.0193143      1.0954351      0.97720731     1.9088466    
     56900   1.9088466      158.5          158.5          158.5          1.0306527      1.0193138      1.0954376      0.97720671     1.9088466    
     56920   1.9088466      158.5          158.5          158.5          1.0306489      1.0193109      1.0954327      0.977203       1.9088466    
     56940   1.9088466      158.5          158.5          158.5          1.030647       1.019308       1.0954315      0.97720134     1.9088466    
     56960   1.9088466      158.5          158.5          158.5          1.03064        1.0193023      1.0954229      0.97719469     1.9088466    
     56980   1.9088466      158.5          158.5          158.5          1.0306374      1.0192999      1.0954206      0.97719164     1.9088466    
     57000   1.9088466      158.5          158.5          158.5          1.0306409      1.0193036      1.0954231      0.97719613     1.9088466    
     57020   1.9088466      158.5          158.5          158.5          1.0306384      1.0193009      1.0954211      0.97719335     1.9088466    
     57040   1.9088466      158.5          158.5          158.5          1.0306384      1.0193006      1.0954224      0.97719223     1.9088466    
     57060   1.9088466      158.5          158.5          158.5          1.030646       1.019308       1.0954294      0.97720057     1.9088466    
     57080   1.9088466      158.5          158.5          158.5          1.0306499      1.0193122      1.0954332      0.97720425     1.9088466    
     57100   1.9088466      158.5          158.5          158.5          1.0306509      1.0193125      1.095435       0.97720516     1.9088466    
     57120   1.9088466      158.5          158.5          158.5          1.0306503      1.0193122      1.0954337      0.97720495     1.9088466    
     57140   1.9088466      158.5          158.5          158.5          1.0306523      1.0193141      1.0954355      0.97720721     1.9088466    
     57160   1.9088466      158.5          158.5          158.5          1.0306537      1.0193154      1.0954373      0.97720834     1.9088466    
     57180   1.9088466      158.5          158.5          158.5          1.0306523      1.0193141      1.0954359      0.97720692     1.9088466    
     57200   1.9088466      158.5          158.5          158.5          1.0306498      1.0193115      1.0954332      0.97720482     1.9088466    
     57220   1.9088466      158.5          158.5          158.5          1.03065        1.0193115      1.0954341      0.97720451     1.9088466    
     57240   1.9088466      158.5          158.5          158.5          1.030649       1.0193103      1.0954329      0.97720373     1.9088466    
     57260   1.9088466      158.5          158.5          158.5          1.0306485      1.0193102      1.095432       0.97720343     1.9088466    
     57280   1.9088466      158.5          158.5          158.5          1.0306476      1.0193094      1.0954311      0.97720215     1.9088466    
     57300   1.9088466      158.5          158.5          158.5          1.0306472      1.0193091      1.0954309      0.97720163     1.9088466    
     57320   1.9088466      158.5          158.5          158.5          1.0306475      1.0193095      1.0954309      0.97720224     1.9088466    
     57340   1.9088466      158.5          158.5          158.5          1.030649       1.0193108      1.0954325      0.9772037      1.9088466    
     57360   1.9088466      158.5          158.5          158.5          1.03065        1.019312       1.0954337      0.97720442     1.9088466    
     57380   1.9088466      158.5          158.5          158.5          1.0306504      1.0193122      1.0954339      0.97720497     1.9088466    
     57400   1.9088466      158.5          158.5          158.5          1.0306498      1.0193113      1.0954335      0.97720463     1.9088466    
     57420   1.9088466      158.5          158.5          158.5          1.0306501      1.0193129      1.0954318      0.97720553     1.9088466    
     57440   1.9088466      158.5          158.5          158.5          1.0306513      1.0193128      1.0954347      0.97720646     1.9088466    
     57460   1.9088466      158.5          158.5          158.5          1.0306516      1.0193129      1.0954363      0.97720574     1.9088466    
     57480   1.9088466      158.5          158.5          158.5          1.0306521      1.0193133      1.095436       0.97720702     1.9088466    
     57500   1.9088466      158.5          158.5          158.5          1.0306524      1.0193142      1.0954365      0.97720647     1.9088466    
     57520   1.9088466      158.5          158.5          158.5          1.0306496      1.0193115      1.0954333      0.97720389     1.9088466    
     57540   1.9088466      158.5          158.5          158.5          1.0306446      1.0193065      1.0954288      0.9771986      1.9088466    
     57560   1.9088466      158.5          158.5          158.5          1.0306361      1.0192974      1.0954202      0.9771908      1.9088466    
     57580   1.9088466      158.5          158.5          158.5          1.0306394      1.0193027      1.0954211      0.97719434     1.9088466    
     57600   1.9088466      158.5          158.5          158.5          1.0306483      1.0193101      1.0954333      0.97720146     1.9088466    
     57620   1.9088466      158.5          158.5          158.5          1.0306443      1.0193057      1.0954278      0.97719925     1.9088466    
     57640   1.9088466      158.5          158.5          158.5          1.0306397      1.0193021      1.095422       0.97719487     1.9088466    
     57660   1.9088466      158.5          158.5          158.5          1.0306481      1.0193095      1.0954327      0.97720209     1.9088466    
     57680   1.9088466      158.5          158.5          158.5          1.0306506      1.0193126      1.0954346      0.97720474     1.9088466    
     57700   1.9088466      158.5          158.5          158.5          1.0306516      1.0193142      1.0954346      0.97720612     1.9088466    
     57720   1.9088466      158.5          158.5          158.5          1.0306505      1.0193123      1.0954341      0.9772052      1.9088466    
     57740   1.9088466      158.5          158.5          158.5          1.0306513      1.0193133      1.0954348      0.97720583     1.9088466    
     57760   1.9088466      158.5          158.5          158.5          1.030652       1.0193146      1.0954346      0.97720683     1.9088466    
     57780   1.9088466      158.5          158.5          158.5          1.0306522      1.0193137      1.0954364      0.97720651     1.9088466    
     57800   1.9088466      158.5          158.5          158.5          1.0306501      1.0193123      1.0954329      0.97720496     1.9088466    
     57820   1.9088466      158.5          158.5          158.5          1.0306497      1.0193113      1.0954335      0.97720431     1.9088466    
     57840   1.9088466      158.5          158.5          158.5          1.0306494      1.0193112      1.0954334      0.97720371     1.9088466    
     57860   1.9088466      158.5          158.5          158.5          1.030649       1.0193107      1.0954329      0.9772035      1.9088466    
     57880   1.9088466      158.5          158.5          158.5          1.0306481      1.0193095      1.0954322      0.97720256     1.9088466    
     57900   1.9088466      158.5          158.5          158.5          1.0306473      1.019309       1.095431       0.97720184     1.9088466    
     57920   1.9088466      158.5          158.5          158.5          1.0306478      1.0193094      1.0954318      0.9772021      1.9088466    
     57940   1.9088466      158.5          158.5          158.5          1.0306487      1.0193107      1.0954321      0.97720319     1.9088466    
     57960   1.9088466      158.5          158.5          158.5          1.0306499      1.0193118      1.0954333      0.97720464     1.9088466    
     57980   1.9088466      158.5          158.5          158.5          1.0306504      1.0193122      1.0954339      0.97720497     1.9088466    
     58000   1.9088466      158.5          158.5          158.5          1.0306512      1.0193129      1.0954349      0.9772057      1.9088466    
     58020   1.9088466      158.5          158.5          158.5          1.0306507      1.0193126      1.0954342      0.97720524     1.9088466    
     58040   1.9088466      158.5          158.5          158.5          1.03065        1.0193123      1.0954329      0.97720479     1.9088466    
     58060   1.9088466      158.5          158.5          158.5          1.0306507      1.0193129      1.095434       0.97720503     1.9088466    
     58080   1.9088466      158.5          158.5          158.5          1.0306531      1.0193148      1.095437       0.97720743     1.9088466    
     58100   1.9088466      158.5          158.5          158.5          1.030653       1.0193146      1.0954365      0.97720779     1.9088466    
     58120   1.9088466      158.5          158.5          158.5          1.0306498      1.0193115      1.0954339      0.97720397     1.9088466    
     58140   1.9088466      158.5          158.5          158.5          1.0306469      1.0193091      1.0954299      0.97720166     1.9088466    
     58160   1.9088466      158.5          158.5          158.5          1.0306398      1.0193018      1.095423       0.9771946      1.9088466    
     58180   1.9088466      158.5          158.5          158.5          1.0306395      1.0193017      1.0954225      0.97719447     1.9088466    
     58200   1.9088466      158.5          158.5          158.5          1.0306421      1.0193045      1.0954256      0.97719621     1.9088466    
     58220   1.9088465      158.5          158.5          158.5          1.0306416      1.0193014      1.0954284      0.97719509     1.9088465    
     58240   1.9088465      158.5          158.5          158.5          1.0306405      1.0193029      1.095424       0.97719462     1.9088465    
     58260   1.9088465      158.5          158.5          158.5          1.0306464      1.0193073      1.0954312      0.97720052     1.9088465    
     58280   1.9088465      158.5          158.5          158.5          1.0306503      1.0193126      1.095434       0.97720436     1.9088465    
     58300   1.9088465      158.5          158.5          158.5          1.0306533      1.0193152      1.0954371      0.97720756     1.9088465    
     58320   1.9088465      158.5          158.5          158.5          1.0306528      1.0193141      1.095437       0.97720719     1.9088465    
     58340   1.9088465      158.5          158.5          158.5          1.0306514      1.019313       1.0954352      0.97720588     1.9088465    
     58360   1.9088465      158.5          158.5          158.5          1.0306505      1.0193127      1.0954333      0.97720565     1.9088465    
     58380   1.9088465      158.5          158.5          158.5          1.03065        1.019312       1.0954333      0.97720473     1.9088465    
     58400   1.9088465      158.5          158.5          158.5          1.0306501      1.019312       1.0954334      0.97720499     1.9088465    
     58420   1.9088465      158.5          158.5          158.5          1.030651       1.0193133      1.0954341      0.97720571     1.9088465    
     58440   1.9088465      158.5          158.5          158.5          1.0306506      1.0193124      1.0954341      0.97720526     1.9088465    
     58460   1.9088465      158.5          158.5          158.5          1.0306486      1.0193104      1.0954322      0.9772032      1.9088465    
     58480   1.9088465      158.5          158.5          158.5          1.030647       1.0193087      1.0954308      0.97720142     1.9088465    
     58500   1.9088465      158.5          158.5          158.5          1.0306471      1.0193088      1.0954308      0.97720166     1.9088465    
     58520   1.9088465      158.5          158.5          158.5          1.0306474      1.0193093      1.095431       0.97720182     1.9088465    
     58540   1.9088465      158.5          158.5          158.5          1.0306489      1.0193109      1.0954322      0.97720364     1.9088465    
     58560   1.9088465      158.5          158.5          158.5          1.0306508      1.0193127      1.0954341      0.97720563     1.9088465    
     58580   1.9088465      158.5          158.5          158.5          1.0306507      1.0193126      1.0954344      0.97720517     1.9088465    
     58600   1.9088465      158.5          158.5          158.5          1.0306506      1.0193122      1.0954342      0.97720538     1.9088465    
     58620   1.9088465      158.5          158.5          158.5          1.03065        1.019312       1.0954335      0.97720471     1.9088465    
     58640   1.9088465      158.5          158.5          158.5          1.0306502      1.0193123      1.0954331      0.9772054      1.9088465    
     58660   1.9088465      158.5          158.5          158.5          1.0306501      1.0193122      1.0954335      0.9772046      1.9088465    
     58680   1.9088465      158.5          158.5          158.5          1.0306508      1.0193119      1.0954348      0.97720563     1.9088465    
     58700   1.9088465      158.5          158.5          158.5          1.0306514      1.0193127      1.0954355      0.97720596     1.9088465    
     58720   1.9088465      158.5          158.5          158.5          1.0306507      1.0193108      1.0954369      0.97720438     1.9088465    
     58740   1.9088465      158.5          158.5          158.5          1.0306466      1.0193081      1.09543        0.9772017      1.9088465    
     58760   1.9088465      158.5          158.5          158.5          1.0306426      1.0193038      1.0954272      0.97719687     1.9088465    
     58780   1.9088465      158.5          158.5          158.5          1.0306399      1.0193017      1.0954233      0.97719473     1.9088465    
     58800   1.9088465      158.5          158.5          158.5          1.0306394      1.0193041      1.0954209      0.97719329     1.9088465    
     58820   1.9088465      158.5          158.5          158.5          1.0306396      1.0193015      1.0954228      0.97719469     1.9088465    
     58840   1.9088465      158.5          158.5          158.5          1.0306422      1.019304       1.0954258      0.97719672     1.9088465    
     58860   1.9088465      158.5          158.5          158.5          1.0306498      1.0193115      1.0954341      0.97720365     1.9088465    
     58880   1.9088465      158.5          158.5          158.5          1.0306526      1.0193146      1.0954366      0.97720663     1.9088465    
     58900   1.9088465      158.5          158.5          158.5          1.0306517      1.0193133      1.0954355      0.97720625     1.9088465    
     58920   1.9088465      158.5          158.5          158.5          1.0306496      1.0193117      1.0954324      0.97720464     1.9088465    
     58940   1.9088465      158.5          158.5          158.5          1.0306506      1.0193123      1.0954347      0.97720487     1.9088465    
     58960   1.9088465      158.5          158.5          158.5          1.0306513      1.0193126      1.0954352      0.97720624     1.9088465    
     58980   1.9088465      158.5          158.5          158.5          1.0306497      1.0193117      1.0954331      0.97720442     1.9088465    
     59000   1.9088465      158.5          158.5          158.5          1.0306493      1.0193112      1.0954325      0.97720413     1.9088465    
     59020   1.9088465      158.5          158.5          158.5          1.0306501      1.0193117      1.095434       0.9772046      1.9088465    
     59040   1.9088465      158.5          158.5          158.5          1.0306507      1.0193127      1.0954341      0.97720536     1.9088465    
     59060   1.9088465      158.5          158.5          158.5          1.0306492      1.0193111      1.0954328      0.97720378     1.9088465    
     59080   1.9088465      158.5          158.5          158.5          1.0306482      1.0193103      1.0954315      0.97720279     1.9088465    
     59100   1.9088465      158.5          158.5          158.5          1.0306477      1.0193095      1.0954314      0.97720219     1.9088465    
     59120   1.9088465      158.5          158.5          158.5          1.0306479      1.0193098      1.0954313      0.97720254     1.9088465    
     59140   1.9088465      158.5          158.5          158.5          1.0306486      1.0193104      1.0954321      0.97720318     1.9088465    
     59160   1.9088465      158.5          158.5          158.5          1.0306501      1.0193123      1.0954332      0.97720474     1.9088465    
     59180   1.9088465      158.5          158.5          158.5          1.0306507      1.0193125      1.0954343      0.9772053      1.9088465    
     59200   1.9088465      158.5          158.5          158.5          1.0306499      1.0193119      1.0954332      0.9772046      1.9088465    
     59220   1.9088465      158.5          158.5          158.5          1.0306499      1.0193118      1.0954333      0.97720452     1.9088465    
     59240   1.9088465      158.5          158.5          158.5          1.0306499      1.0193112      1.0954343      0.97720423     1.9088465    
     59260   1.9088465      158.5          158.5          158.5          1.0306518      1.0193132      1.0954361      0.97720624     1.9088465    
     59280   1.9088465      158.5          158.5          158.5          1.0306516      1.0193134      1.0954354      0.97720615     1.9088465    
     59300   1.9088465      158.5          158.5          158.5          1.0306544      1.0193158      1.0954392      0.97720826     1.9088465    
     59320   1.9088465      158.5          158.5          158.5          1.0306515      1.019313       1.0954356      0.9772057      1.9088465    
     59340   1.9088465      158.5          158.5          158.5          1.030648       1.0193099      1.0954318      0.97720232     1.9088465    
     59360   1.9088465      158.5          158.5          158.5          1.0306435      1.0193054      1.0954269      0.9771982      1.9088465    
     59380   1.9088465      158.5          158.5          158.5          1.0306411      1.0193031      1.0954243      0.97719604     1.9088465    
     59400   1.9088465      158.5          158.5          158.5          1.0306395      1.0193022      1.0954232      0.97719324     1.9088465    
     59420   1.9088465      158.5          158.5          158.5          1.0306412      1.0193026      1.0954256      0.97719531     1.9088465    
     59440   1.9088465      158.5          158.5          158.5          1.0306419      1.0193041      1.0954249      0.97719651     1.9088465    
     59460   1.9088465      158.5          158.5          158.5          1.0306461      1.0193084      1.0954289      0.97720094     1.9088465    
     59480   1.9088465      158.5          158.5          158.5          1.0306511      1.0193134      1.0954344      0.97720537     1.9088465    
     59500   1.9088465      158.5          158.5          158.5          1.0306519      1.0193137      1.0954359      0.97720626     1.9088465    
     59520   1.9088465      158.5          158.5          158.5          1.0306523      1.0193141      1.0954357      0.97720702     1.9088465    
     59540   1.9088465      158.5          158.5          158.5          1.0306527      1.0193141      1.0954369      0.97720727     1.9088465    
     59560   1.9088465      158.5          158.5          158.5          1.030651       1.0193126      1.0954349      0.9772055      1.9088465    
     59580   1.9088465      158.5          158.5          158.5          1.0306493      1.0193107      1.0954335      0.97720377     1.9088465    
     59600   1.9088465      158.5          158.5          158.5          1.0306489      1.0193107      1.0954323      0.97720376     1.9088465    
     59620   1.9088465      158.5          158.5          158.5          1.0306506      1.0193125      1.095434       0.97720527     1.9088465    
     59640   1.9088465      158.5          158.5          158.5          1.0306504      1.0193126      1.0954337      0.97720499     1.9088465    
     59660   1.9088465      158.5          158.5          158.5          1.0306492      1.0193112      1.0954327      0.97720378     1.9088465    
     59680   1.9088465      158.5          158.5          158.5          1.0306479      1.0193099      1.0954312      0.97720261     1.9088465    
     59700   1.9088465      158.5          158.5          158.5          1.0306477      1.0193097      1.0954312      0.97720238     1.9088465    
     59720   1.9088465      158.5          158.5          158.5          1.0306479      1.0193098      1.0954315      0.97720248     1.9088465    
     59740   1.9088465      158.5          158.5          158.5          1.0306491      1.0193109      1.0954326      0.97720373     1.9088465    
     59760   1.9088465      158.5          158.5          158.5          1.0306504      1.019312       1.0954342      0.97720505     1.9088465    
     59780   1.9088465      158.5          158.5          158.5          1.0306507      1.0193126      1.0954343      0.97720532     1.9088465    
     59800   1.9088465      158.5          158.5          158.5          1.0306502      1.0193121      1.0954336      0.97720478     1.9088465    
     59820   1.9088465      158.5          158.5          158.5          1.0306489      1.019311       1.0954325      0.97720333     1.9088465    
     59840   1.9088465      158.5          158.5          158.5          1.03065        1.0193117      1.0954335      0.97720493     1.9088465    
     59860   1.9088465      158.5          158.5          158.5          1.0306517      1.0193137      1.0954356      0.97720568     1.9088465    
     59880   1.9088465      158.5          158.5          158.5          1.0306543      1.0193153      1.0954395      0.97720799     1.9088465    
     59900   1.9088465      158.5          158.5          158.5          1.0306506      1.0193129      1.095434       0.97720512     1.9088465    
     59920   1.9088465      158.5          158.5          158.5          1.030649       1.0193106      1.0954333      0.97720295     1.9088465    
     59940   1.9088465      158.5          158.5          158.5          1.0306465      1.0193081      1.0954305      0.97720089     1.9088465    
     59960   1.9088465      158.5          158.5          158.5          1.0306454      1.0193077      1.0954288      0.97719975     1.9088465    
     59980   1.9088465      158.5          158.5          158.5          1.0306413      1.0193031      1.0954253      0.97719562     1.9088465    
     60000   1.9088465      158.5          158.5          158.5          1.0306361      1.0192978      1.0954198      0.9771906      1.9088465    
     60020   1.9088465      158.5          158.5          158.5          1.0306419      1.0193038      1.0954257      0.97719606     1.9088465    
     60040   1.9088465      158.5          158.5          158.5          1.030648       1.0193102      1.0954315      0.97720226     1.9088465    
     60060   1.9088465      158.5          158.5          158.5          1.0306472      1.0193082      1.0954315      0.97720189     1.9088465    
     60080   1.9088465      158.5          158.5          158.5          1.0306481      1.0193094      1.0954326      0.97720228     1.9088465    
     60100   1.9088465      158.5          158.5          158.5          1.03065        1.019311       1.0954351      0.97720391     1.9088465    
     60120   1.9088465      158.5          158.5          158.5          1.0306518      1.0193133      1.0954361      0.97720591     1.9088465    
     60140   1.9088465      158.5          158.5          158.5          1.03065        1.0193116      1.0954342      0.97720418     1.9088465    
     60160   1.9088465      158.5          158.5          158.5          1.0306478      1.0193094      1.0954312      0.9772027      1.9088465    
     60180   1.9088465      158.5          158.5          158.5          1.0306482      1.0193095      1.0954324      0.97720255     1.9088465    
     60200   1.9088465      158.5          158.5          158.5          1.0306504      1.0193118      1.0954349      0.97720463     1.9088465    
     60220   1.9088465      158.5          158.5          158.5          1.0306502      1.0193121      1.0954339      0.97720462     1.9088465    
     60240   1.9088465      158.5          158.5          158.5          1.0306496      1.019311       1.0954335      0.9772043      1.9088465    
     60260   1.9088465      158.5          158.5          158.5          1.0306497      1.0193115      1.0954332      0.97720421     1.9088465    
     60280   1.9088465      158.5          158.5          158.5          1.0306491      1.0193108      1.095433       0.97720354     1.9088465    
     60300   1.9088465      158.5          158.5          158.5          1.0306484      1.0193102      1.0954321      0.97720293     1.9088465    
     60320   1.9088465      158.5          158.5          158.5          1.0306484      1.0193101      1.0954322      0.97720281     1.9088465    
     60340   1.9088465      158.5          158.5          158.5          1.0306483      1.0193102      1.0954318      0.9772028      1.9088465    
     60360   1.9088465      158.5          158.5          158.5          1.0306485      1.0193104      1.0954322      0.97720304     1.9088465    
     60380   1.9088465      158.5          158.5          158.5          1.0306494      1.0193111      1.0954332      0.97720398     1.9088465    
     60400   1.9088465      158.5          158.5          158.5          1.0306503      1.0193121      1.095434       0.97720486     1.9088465    
     60420   1.9088465      158.5          158.5          158.5          1.0306492      1.0193116      1.095432       0.97720397     1.9088465    
     60440   1.9088465      158.5          158.5          158.5          1.0306494      1.0193113      1.095433       0.97720406     1.9088465    
     60460   1.9088465      158.5          158.5          158.5          1.0306504      1.0193125      1.0954338      0.97720487     1.9088465    
     60480   1.9088465      158.5          158.5          158.5          1.0306527      1.019315       1.0954357      0.97720744     1.9088465    
     60500   1.9088465      158.5          158.5          158.5          1.0306523      1.019315       1.095435       0.97720683     1.9088465    
     60520   1.9088465      158.5          158.5          158.5          1.0306507      1.0193138      1.0954332      0.97720518     1.9088465    
     60540   1.9088465      158.5          158.5          158.5          1.0306476      1.0193091      1.095432       0.97720185     1.9088465    
     60560   1.9088465      158.5          158.5          158.5          1.0306456      1.0193077      1.0954285      0.97720058     1.9088465    
     60580   1.9088465      158.5          158.5          158.5          1.0306413      1.0193037      1.0954245      0.97719562     1.9088465    
     60600   1.9088465      158.5          158.5          158.5          1.0306379      1.0193009      1.0954204      0.9771923      1.9088465    
     60620   1.9088465      158.5          158.5          158.5          1.0306401      1.0193028      1.0954231      0.97719452     1.9088465    
     60640   1.9088465      158.5          158.5          158.5          1.0306471      1.0193087      1.0954306      0.9772021      1.9088465    
     60660   1.9088465      158.5          158.5          158.5          1.0306496      1.019311       1.0954341      0.97720372     1.9088465    
     60680   1.9088465      158.5          158.5          158.5          1.0306494      1.0193113      1.0954336      0.97720342     1.9088465    
     60700   1.9088465      158.5          158.5          158.5          1.0306513      1.0193121      1.0954363      0.97720549     1.9088465    
     60720   1.9088465      158.5          158.5          158.5          1.0306535      1.0193151      1.0954375      0.97720777     1.9088465    
     60740   1.9088465      158.5          158.5          158.5          1.0306511      1.0193129      1.0954348      0.9772056      1.9088465    
     60760   1.9088465      158.5          158.5          158.5          1.0306503      1.019312       1.095434       0.977205       1.9088465    
     60780   1.9088465      158.5          158.5          158.5          1.0306504      1.0193123      1.0954338      0.97720512     1.9088465    
     60800   1.9088465      158.5          158.5          158.5          1.030651       1.0193128      1.0954346      0.97720552     1.9088465    
     60820   1.9088465      158.5          158.5          158.5          1.0306494      1.0193113      1.0954328      0.97720416     1.9088465    
     60840   1.9088465      158.5          158.5          158.5          1.0306486      1.0193104      1.0954321      0.97720323     1.9088465    
     60860   1.9088465      158.5          158.5          158.5          1.0306484      1.0193103      1.0954319      0.97720309     1.9088465    
     60880   1.9088465      158.5          158.5          158.5          1.0306485      1.0193103      1.0954322      0.97720296     1.9088465    
     60900   1.9088465      158.5          158.5          158.5          1.0306485      1.0193103      1.0954321      0.97720307     1.9088465    
     60920   1.9088465      158.5          158.5          158.5          1.0306483      1.0193102      1.0954319      0.97720282     1.9088465    
     60940   1.9088465      158.5          158.5          158.5          1.0306483      1.0193102      1.0954318      0.97720291     1.9088465    
     60960   1.9088465      158.5          158.5          158.5          1.0306489      1.0193109      1.0954322      0.97720355     1.9088465    
     60980   1.9088465      158.5          158.5          158.5          1.03065        1.019312       1.0954334      0.97720454     1.9088465    
     61000   1.9088465      158.5          158.5          158.5          1.0306506      1.0193124      1.0954344      0.97720506     1.9088465    
     61020   1.9088465      158.5          158.5          158.5          1.0306494      1.0193107      1.0954337      0.97720375     1.9088465    
     61040   1.9088465      158.5          158.5          158.5          1.0306489      1.0193106      1.0954325      0.9772037      1.9088465    
     61060   1.9088465      158.5          158.5          158.5          1.0306501      1.0193122      1.0954333      0.97720469     1.9088465    
     61080   1.9088465      158.5          158.5          158.5          1.0306522      1.0193144      1.0954357      0.97720658     1.9088465    
     61100   1.9088465      158.5          158.5          158.5          1.0306513      1.0193134      1.0954346      0.97720584     1.9088465    
     61120   1.9088465      158.5          158.5          158.5          1.0306506      1.0193134      1.0954333      0.97720506     1.9088465    
     61140   1.9088465      158.5          158.5          158.5          1.0306489      1.0193109      1.0954322      0.97720362     1.9088465    
     61160   1.9088465      158.5          158.5          158.5          1.0306461      1.0193079      1.0954298      0.97720064     1.9088465    
     61180   1.9088465      158.5          158.5          158.5          1.0306424      1.0193041      1.0954263      0.97719681     1.9088465    
     61200   1.9088465      158.5          158.5          158.5          1.0306378      1.0193006      1.0954197      0.97719304     1.9088465    
     61220   1.9088465      158.5          158.5          158.5          1.0306422      1.0193045      1.0954249      0.97719742     1.9088465    
     61240   1.9088465      158.5          158.5          158.5          1.0306476      1.0193091      1.0954322      0.97720154     1.9088465    
     61260   1.9088465      158.5          158.5          158.5          1.0306477      1.0193091      1.0954319      0.97720206     1.9088465    
     61280   1.9088465      158.5          158.5          158.5          1.0306477      1.0193093      1.095432       0.97720194     1.9088465    
     61300   1.9088465      158.5          158.5          158.5          1.0306506      1.0193122      1.0954343      0.97720527     1.9088465    
     61320   1.9088465      158.5          158.5          158.5          1.0306519      1.0193137      1.0954358      0.9772063      1.9088465    
     61340   1.9088465      158.5          158.5          158.5          1.0306504      1.0193124      1.0954338      0.97720503     1.9088465    
     61360   1.9088465      158.5          158.5          158.5          1.0306489      1.019311       1.0954321      0.97720366     1.9088465    
     61380   1.9088465      158.5          158.5          158.5          1.0306482      1.0193102      1.0954316      0.97720282     1.9088465    
     61400   1.9088465      158.5          158.5          158.5          1.0306497      1.0193117      1.0954334      0.97720405     1.9088465    
     61420   1.9088465      158.5          158.5          158.5          1.0306497      1.019312       1.0954328      0.97720435     1.9088465    
     61440   1.9088465      158.5          158.5          158.5          1.0306493      1.0193111      1.0954329      0.97720375     1.9088465    
     61460   1.9088465      158.5          158.5          158.5          1.0306481      1.01931        1.0954315      0.97720266     1.9088465    
     61480   1.9088465      158.5          158.5          158.5          1.0306478      1.0193096      1.0954315      0.97720231     1.9088465    
     61500   1.9088465      158.5          158.5          158.5          1.0306477      1.0193096      1.0954313      0.97720226     1.9088465    
     61520   1.9088465      158.5          158.5          158.5          1.0306478      1.0193097      1.0954315      0.97720237     1.9088465    
     61540   1.9088465      158.5          158.5          158.5          1.030648       1.0193099      1.0954315      0.97720273     1.9088465    
     61560   1.9088465      158.5          158.5          158.5          1.0306486      1.0193107      1.0954319      0.9772032      1.9088465    
     61580   1.9088465      158.5          158.5          158.5          1.0306497      1.0193116      1.0954332      0.9772043      1.9088465    
     61600   1.9088465      158.5          158.5          158.5          1.0306495      1.019311       1.0954335      0.9772039      1.9088465    
     61620   1.9088465      158.5          158.5          158.5          1.0306489      1.0193109      1.0954323      0.97720364     1.9088465    
     61640   1.9088465      158.5          158.5          158.5          1.0306488      1.0193106      1.0954324      0.97720343     1.9088465    
     61660   1.9088465      158.5          158.5          158.5          1.03065        1.0193118      1.0954337      0.97720459     1.9088465    
     61680   1.9088465      158.5          158.5          158.5          1.0306506      1.0193124      1.0954342      0.97720512     1.9088465    
     61700   1.9088465      158.5          158.5          158.5          1.0306502      1.0193117      1.0954344      0.97720456     1.9088465    
     61720   1.9088465      158.5          158.5          158.5          1.0306489      1.019311       1.0954322      0.97720351     1.9088465    
     61740   1.9088465      158.5          158.5          158.5          1.0306486      1.0193106      1.0954321      0.97720315     1.9088465    
     61760   1.9088465      158.5          158.5          158.5          1.0306475      1.0193091      1.0954312      0.97720207     1.9088465    
     61780   1.9088465      158.5          158.5          158.5          1.0306458      1.0193076      1.0954294      0.9772005      1.9088465    
     61800   1.9088465      158.5          158.5          158.5          1.0306438      1.0193054      1.0954272      0.97719897     1.9088465    
     61820   1.9088465      158.5          158.5          158.5          1.0306463      1.0193082      1.0954298      0.97720093     1.9088465    
     61840   1.9088465      158.5          158.5          158.5          1.0306483      1.0193099      1.095432       0.97720288     1.9088465    
     61860   1.9088465      158.5          158.5          158.5          1.0306487      1.0193106      1.0954322      0.97720331     1.9088465    
     61880   1.9088465      158.5          158.5          158.5          1.0306491      1.0193109      1.0954327      0.97720365     1.9088465    
     61900   1.9088465      158.5          158.5          158.5          1.0306501      1.0193118      1.095434       0.97720451     1.9088465    
     61920   1.9088465      158.5          158.5          158.5          1.030651       1.0193126      1.0954347      0.97720552     1.9088465    
     61940   1.9088465      158.5          158.5          158.5          1.03065        1.0193116      1.0954339      0.97720462     1.9088465    
     61960   1.9088465      158.5          158.5          158.5          1.030649       1.0193109      1.0954326      0.97720343     1.9088465    
     61980   1.9088465      158.5          158.5          158.5          1.0306492      1.0193106      1.0954333      0.97720359     1.9088465    
     62000   1.9088465      158.5          158.5          158.5          1.0306496      1.0193114      1.0954332      0.97720423     1.9088465    
     62020   1.9088465      158.5          158.5          158.5          1.0306499      1.0193118      1.0954334      0.97720448     1.9088465    
     62040   1.9088465      158.5          158.5          158.5          1.030649       1.0193109      1.0954325      0.9772037      1.9088465    
     62060   1.9088465      158.5          158.5          158.5          1.0306482      1.0193105      1.0954311      0.97720312     1.9088465    
     62080   1.9088465      158.5          158.5          158.5          1.0306477      1.0193097      1.0954313      0.97720223     1.9088465    
     62100   1.9088465      158.5          158.5          158.5          1.0306475      1.0193095      1.0954309      0.97720206     1.9088465    
     62120   1.9088465      158.5          158.5          158.5          1.0306479      1.0193095      1.0954319      0.97720235     1.9088465    
     62140   1.9088465      158.5          158.5          158.5          1.0306484      1.0193102      1.095432       0.97720292     1.9088465    
     62160   1.9088465      158.5          158.5          158.5          1.0306489      1.0193108      1.0954324      0.97720354     1.9088465    
     62180   1.9088465      158.5          158.5          158.5          1.0306496      1.0193115      1.0954331      0.97720421     1.9088465    
     62200   1.9088465      158.5          158.5          158.5          1.0306494      1.0193114      1.0954329      0.97720405     1.9088465    
     62220   1.9088465      158.5          158.5          158.5          1.030649       1.0193108      1.0954327      0.97720349     1.9088465    
     62240   1.9088465      158.5          158.5          158.5          1.0306486      1.0193104      1.0954322      0.97720324     1.9088465    
     62260   1.9088465      158.5          158.5          158.5          1.0306497      1.0193114      1.0954334      0.97720422     1.9088465    
     62280   1.9088465      158.5          158.5          158.5          1.0306502      1.019312       1.095434       0.97720475     1.9088465    
     62300   1.9088465      158.5          158.5          158.5          1.0306496      1.0193114      1.0954333      0.97720411     1.9088465    
     62320   1.9088465      158.5          158.5          158.5          1.0306487      1.0193105      1.0954323      0.97720322     1.9088465    
     62340   1.9088465      158.5          158.5          158.5          1.0306483      1.0193101      1.095432       0.97720282     1.9088465    
     62360   1.9088465      158.5          158.5          158.5          1.0306476      1.0193093      1.0954314      0.97720217     1.9088465    
     62380   1.9088465      158.5          158.5          158.5          1.030646       1.0193078      1.0954297      0.97720066     1.9088465    
     62400   1.9088465      158.5          158.5          158.5          1.030644       1.0193057      1.0954274      0.97719903     1.9088465    
     62420   1.9088465      158.5          158.5          158.5          1.0306463      1.0193082      1.0954297      0.97720086     1.9088465    
     62440   1.9088465      158.5          158.5          158.5          1.0306477      1.0193096      1.0954312      0.9772023      1.9088465    
     62460   1.9088465      158.5          158.5          158.5          1.0306482      1.0193098      1.095432       0.97720279     1.9088465    
     62480   1.9088465      158.5          158.5          158.5          1.0306487      1.0193103      1.0954326      0.97720312     1.9088465    
     62500   1.9088465      158.5          158.5          158.5          1.0306496      1.0193111      1.0954337      0.97720407     1.9088465    
     62520   1.9088465      158.5          158.5          158.5          1.0306502      1.0193117      1.0954343      0.9772046      1.9088465    
     62540   1.9088465      158.5          158.5          158.5          1.0306499      1.0193117      1.0954334      0.97720455     1.9088465    
     62560   1.9088465      158.5          158.5          158.5          1.0306488      1.0193107      1.0954323      0.97720338     1.9088465    
     62580   1.9088465      158.5          158.5          158.5          1.0306488      1.0193107      1.0954323      0.97720338     1.9088465    
     62600   1.9088465      158.5          158.5          158.5          1.0306495      1.0193113      1.0954333      0.97720402     1.9088465    
     62620   1.9088465      158.5          158.5          158.5          1.0306497      1.0193115      1.0954334      0.97720422     1.9088465    
     62640   1.9088465      158.5          158.5          158.5          1.0306489      1.0193107      1.0954324      0.97720363     1.9088465    
     62660   1.9088465      158.5          158.5          158.5          1.0306484      1.0193101      1.095432       0.97720302     1.9088465    
     62680   1.9088465      158.5          158.5          158.5          1.0306481      1.01931        1.0954317      0.97720248     1.9088465    
     62700   1.9088465      158.5          158.5          158.5          1.0306476      1.0193094      1.0954312      0.97720213     1.9088465    
     62720   1.9088465      158.5          158.5          158.5          1.0306479      1.0193097      1.0954316      0.97720246     1.9088465    
     62740   1.9088465      158.5          158.5          158.5          1.0306487      1.0193106      1.0954322      0.97720335     1.9088465    
     62760   1.9088465      158.5          158.5          158.5          1.0306489      1.0193108      1.0954323      0.97720356     1.9088465    
     62780   1.9088465      158.5          158.5          158.5          1.0306495      1.0193113      1.0954331      0.97720402     1.9088465    
     62800   1.9088465      158.5          158.5          158.5          1.0306493      1.0193115      1.0954324      0.97720412     1.9088465    
     62820   1.9088465      158.5          158.5          158.5          1.0306489      1.0193108      1.0954325      0.97720344     1.9088465    
     62840   1.9088465      158.5          158.5          158.5          1.0306488      1.0193108      1.0954322      0.97720346     1.9088465    
     62860   1.9088465      158.5          158.5          158.5          1.0306496      1.0193116      1.0954331      0.97720408     1.9088465    
     62880   1.9088465      158.5          158.5          158.5          1.0306501      1.0193122      1.0954335      0.97720467     1.9088465    
     62900   1.9088465      158.5          158.5          158.5          1.0306495      1.0193114      1.095433       0.97720408     1.9088465    
     62920   1.9088465      158.5          158.5          158.5          1.0306487      1.0193104      1.0954324      0.97720315     1.9088465    
     62940   1.9088465      158.5          158.5          158.5          1.0306482      1.01931        1.0954319      0.97720281     1.9088465    
     62960   1.9088465      158.5          158.5          158.5          1.0306478      1.0193097      1.0954315      0.9772022      1.9088465    
     62980   1.9088465      158.5          158.5          158.5          1.0306465      1.0193083      1.0954299      0.97720125     1.9088465    
     63000   1.9088465      158.5          158.5          158.5          1.0306445      1.0193067      1.0954273      0.97719958     1.9088465    
     63020   1.9088465      158.5          158.5          158.5          1.0306465      1.0193085      1.0954299      0.97720105     1.9088465    
     63040   1.9088465      158.5          158.5          158.5          1.0306478      1.0193097      1.0954313      0.97720232     1.9088465    
     63060   1.9088465      158.5          158.5          158.5          1.0306482      1.0193101      1.0954317      0.97720281     1.9088465    
     63080   1.9088465      158.5          158.5          158.5          1.0306488      1.0193104      1.0954326      0.97720327     1.9088465    
     63100   1.9088465      158.5          158.5          158.5          1.0306496      1.019311       1.0954337      0.97720403     1.9088465    
     63120   1.9088465      158.5          158.5          158.5          1.0306501      1.0193118      1.0954339      0.97720459     1.9088465    
     63140   1.9088465      158.5          158.5          158.5          1.0306497      1.0193115      1.0954333      0.97720423     1.9088465    
     63160   1.9088465      158.5          158.5          158.5          1.0306486      1.0193104      1.0954321      0.9772033      1.9088465    
     63180   1.9088465      158.5          158.5          158.5          1.0306487      1.0193105      1.0954324      0.97720326     1.9088465    
     63200   1.9088465      158.5          158.5          158.5          1.0306492      1.0193111      1.0954327      0.97720392     1.9088465    
     63220   1.9088465      158.5          158.5          158.5          1.0306495      1.0193113      1.0954331      0.97720398     1.9088465    
     63240   1.9088465      158.5          158.5          158.5          1.0306488      1.0193109      1.0954321      0.97720352     1.9088465    
     63260   1.9088465      158.5          158.5          158.5          1.0306486      1.0193104      1.095432       0.97720324     1.9088465    
     63280   1.9088465      158.5          158.5          158.5          1.0306479      1.0193098      1.0954316      0.97720239     1.9088465    
     63300   1.9088465      158.5          158.5          158.5          1.0306475      1.0193094      1.0954311      0.97720209     1.9088465    
     63320   1.9088465      158.5          158.5          158.5          1.030648       1.01931        1.0954315      0.97720244     1.9088465    
     63340   1.9088465      158.5          158.5          158.5          1.0306486      1.0193105      1.0954321      0.9772033      1.9088465    
     63360   1.9088465      158.5          158.5          158.5          1.0306489      1.0193108      1.0954323      0.97720368     1.9088465    
     63380   1.9088465      158.5          158.5          158.5          1.0306494      1.0193113      1.095433       0.97720398     1.9088465    
     63400   1.9088465      158.5          158.5          158.5          1.0306495      1.0193112      1.0954331      0.97720409     1.9088465    
     63420   1.9088465      158.5          158.5          158.5          1.0306486      1.0193105      1.0954321      0.97720322     1.9088465    
     63440   1.9088465      158.5          158.5          158.5          1.0306489      1.0193107      1.0954323      0.9772036      1.9088465    
     63460   1.9088465      158.5          158.5          158.5          1.0306497      1.0193114      1.0954334      0.97720421     1.9088465    
     63480   1.9088465      158.5          158.5          158.5          1.0306503      1.0193121      1.0954339      0.97720478     1.9088465    
     63500   1.9088465      158.5          158.5          158.5          1.0306492      1.019311       1.0954329      0.97720368     1.9088465    
     63520   1.9088465      158.5          158.5          158.5          1.0306487      1.0193106      1.0954324      0.97720328     1.9088465    
     63540   1.9088465      158.5          158.5          158.5          1.0306482      1.0193101      1.0954317      0.97720282     1.9088465    
     63560   1.9088465      158.5          158.5          158.5          1.0306476      1.0193095      1.0954312      0.97720226     1.9088465    
     63580   1.9088465      158.5          158.5          158.5          1.0306459      1.0193079      1.0954294      0.97720053     1.9088465    
     63600   1.9088465      158.5          158.5          158.5          1.0306443      1.0193057      1.0954285      0.9771986      1.9088465    
     63620   1.9088465      158.5          158.5          158.5          1.0306455      1.0193076      1.0954288      0.97720029     1.9088465    
     63640   1.9088465      158.5          158.5          158.5          1.0306474      1.0193093      1.0954308      0.97720206     1.9088465    
     63660   1.9088465      158.5          158.5          158.5          1.0306481      1.01931        1.0954317      0.97720266     1.9088465    
     63680   1.9088465      158.5          158.5          158.5          1.0306486      1.0193104      1.0954321      0.97720314     1.9088465    
     63700   1.9088465      158.5          158.5          158.5          1.0306491      1.019311       1.0954327      0.97720359     1.9088465    
     63720   1.9088465      158.5          158.5          158.5          1.0306501      1.0193119      1.0954337      0.97720471     1.9088465    
     63740   1.9088465      158.5          158.5          158.5          1.0306498      1.0193118      1.0954334      0.97720438     1.9088465    
     63760   1.9088465      158.5          158.5          158.5          1.0306491      1.019311       1.0954326      0.97720379     1.9088465    
     63780   1.9088465      158.5          158.5          158.5          1.0306487      1.0193107      1.095432       0.97720328     1.9088465    
     63800   1.9088465      158.5          158.5          158.5          1.0306491      1.0193108      1.0954328      0.97720356     1.9088465    
     63820   1.9088465      158.5          158.5          158.5          1.0306496      1.0193114      1.0954332      0.97720418     1.9088465    
     63837   1.9088465      158.5          158.5          158.5          1.030649       1.0193108      1.0954325      0.9772036      1.9088465    
Loop time of 5.64575 on 1 procs for 63837 steps with 100 atoms

95.1% CPU use with 1 MPI tasks x no OpenMP threads

Minimization stats:
  Stopping criterion = energy tolerance
  Energy initial, next-to-last, final = 
      87.4705890254573   1.90884653474737   1.90884653474737
  Force two-norm initial, final = 295.88097 1.1032222e-05
  Force max component initial, final = 66.928052 2.2956157e-06
  Final line search alpha, max atom move = 1 2.2956157e-06
  Iterations, force evaluations = 63837 127803

MPI task timing breakdown:
Section |  min time  |  avg time  |  max time  |%varavg| %total
---------------------------------------------------------------
Pair    | 2.2891     | 2.2891     | 2.2891     |   0.0 | 40.55
Bond    | 2.7369     | 2.7369     | 2.7369     |   0.0 | 48.48
Neigh   | 0.0040273  | 0.0040273  | 0.0040273  |   0.0 |  0.07
Comm    | 0.022779   | 0.022779   | 0.022779   |   0.0 |  0.40
Output  | 0.25286    | 0.25286    | 0.25286    |   0.0 |  4.48
Modify  | 0          | 0          | 0          |   0.0 |  0.00
Other   |            | 0.3401     |            |       |  6.02

Nlocal:            100 ave         100 max         100 min
Histogram: 1 0 0 0 0 0 0 0 0 0
Nghost:              0 ave           0 max           0 min
Histogram: 1 0 0 0 0 0 0 0 0 0
Neighs:            487 ave         487 max         487 min
Histogram: 1 0 0 0 0 0 0 0 0 0
FullNghs:            0 ave           0 max           0 min
Histogram: 1 0 0 0 0 0 0 0 0 0

Total # of neighbors = 487
Ave neighs/atom = 4.87
Ave special neighs/atom = 5.88
Neighbor list builds = 45
Dangerous builds = 0

# Get the equilibrium distance of the harmonic bond (type 1)
variable eq_dist equal 1.0  # Replace with the actual equilibrium distance

# Continue with your simulation steps
thermo_style custom step temp
thermo 1000
timestep 1

# Run the simulation for a specified number of steps
variable num_steps equal 100000
label loop_start

# First reaction
fix react1 all bond/react k forward 1 2 1 ${eq_dist} react_region react_dist 2*${eq_dist}
fix react1 all bond/react k forward 1 2 1 1 react_region react_dist 2*${eq_dist}
fix react1 all bond/react k forward 1 2 1 1 react_region react_dist 2*1
ERROR: Illegal fix bond/react command: missing mandatory 'react' argument (src/src/REACTION/fix_bond_react.cpp:178)
Last command: fix react1 all bond/react k forward 1 2 1 ${eq_dist} react_region react_dist 2*${eq_dist}
