read_data	InitialFile.txt
Reading data file ...
  orthogonal box = (0 0 0) to (158.5 158.5 158.5)
  1 by 1 by 1 MPI processor grid
WARNING: Atom style in data file atomic differs from currently defined atom style molecular (src/src/read_data.cpp:621)
  reading atoms ...
  100 atoms
  scanning bonds ...
  1 = max bonds/atom
  scanning angles ...
  1 = max angles/atom
  scanning dihedrals ...
  1 = max dihedrals/atom
  reading bonds ...
  99 bonds
  reading angles ...
  98 angles
  reading dihedrals ...
  97 dihedrals
Finding 1-2 1-3 1-4 neighbors ...
  special bond factors lj:    0        0        0       
  special bond factors coul:  0        0        0       
     2 = max # of 1-2 neighbors
     2 = max # of 1-3 neighbors
     4 = max # of 1-4 neighbors
     6 = max # of special neighbors
  special bonds CPU = 0.012 seconds
  read_data CPU = 0.039 seconds

# Dreiding potential information
neighbor	2.0 bin
neigh_modify every 1 delay 0 check yes

bond_style      harmonic
bond_coeff	1 350 1.53
bond_coeff	2 700 1.53

angle_style     harmonic
angle_coeff	1 60 109.5
angle_coeff	2 120 109.5

dihedral_style	multi/harmonic
dihedral_coeff	1 1.73 -4.49 0.776 6.99 0.0
dihedral_coeff	2 1.73 -4.49 0.776 6.99 0.0

pair_style	lj/cut 10.5
pair_coeff	* * 1.0 1.0 10.5
pair_coeff	3 3 2.0 0.5 10.5

compute csym all centro/atom fcc
compute peratom all pe/atom


#####################################################
# Equilibration (Brownian dynamics at 300 K)

velocity 	all create 300.0 1231
fix		1 all nve/limit 0.05
fix 2 all brownian 30.0 12908410 gamma_t 3.0 rng gaussian # Compute a correct 300K simulation, check the value for gamma_t
thermo_style	custom step temp
thermo          10000
timestep	1
run		100000
Generated 0 of 3 mixed pair_coeff terms from geometric mixing rule
WARNING: One or more atoms are time integrated more than once (src/src/modify.cpp:289)
Neighbor list info ...
  update: every = 1 steps, delay = 0 steps, check = yes
  max neighbors/atom: 2000, page size: 100000
  master list distance cutoff = 12.5
  ghost atom cutoff = 12.5
  binsize = 6.25, bins = 26 26 26
  2 neighbor lists, perpetual/occasional/extra = 1 1 0
  (1) pair lj/cut, perpetual
      attributes: half, newton on
      pair build: half/bin/newton
      stencil: half/bin/3d
      bin: standard
  (2) compute centro/atom, occasional
      attributes: full, newton on
      pair build: full/bin
      stencil: full/bin/3d
      bin: standard
Per MPI rank memory allocation (min/avg/max) = 8.124 | 8.124 | 8.124 Mbytes
   Step          Temp     
         0   300          
     10000   304.01368    
     20000   255.71863    
     30000   321.10868    
     40000   293.71464    
     50000   283.40994    
     60000   300.47507    
     70000   318.63661    
     80000   273.50579    
     90000   333.95695    
    100000   337.94215    
Loop time of 2.81021 on 1 procs for 100000 steps with 100 atoms

Performance: 3074.499 ns/day, 0.008 hours/ns, 35584.479 timesteps/s, 3.558 Matom-step/s
97.4% CPU use with 1 MPI tasks x no OpenMP threads

MPI task timing breakdown:
Section |  min time  |  avg time  |  max time  |%varavg| %total
---------------------------------------------------------------
Pair    | 0.6222     | 0.6222     | 0.6222     |   0.0 | 22.14
Bond    | 1.346      | 1.346      | 1.346      |   0.0 | 47.90
Neigh   | 0.0040944  | 0.0040944  | 0.0040944  |   0.0 |  0.15
Comm    | 0.014764   | 0.014764   | 0.014764   |   0.0 |  0.53
Output  | 0.00022201 | 0.00022201 | 0.00022201 |   0.0 |  0.01
Modify  | 0.76371    | 0.76371    | 0.76371    |   0.0 | 27.18
Other   |            | 0.05927    |            |       |  2.11

Nlocal:            100 ave         100 max         100 min
Histogram: 1 0 0 0 0 0 0 0 0 0
Nghost:              0 ave           0 max           0 min
Histogram: 1 0 0 0 0 0 0 0 0 0
Neighs:            630 ave         630 max         630 min
Histogram: 1 0 0 0 0 0 0 0 0 0
FullNghs:            0 ave           0 max           0 min
Histogram: 1 0 0 0 0 0 0 0 0 0

Total # of neighbors = 630
Ave neighs/atom = 6.3
Ave special neighs/atom = 5.88
Neighbor list builds = 80
Dangerous builds = 0
unfix 1
unfix 2
write_restart 	restart.${simname}.dreiding1
write_restart 	restart.InitialFile.dreiding1
System init for write_restart ...
Generated 0 of 3 mixed pair_coeff terms from geometric mixing rule

#####################################################
# Define Settings
compute eng all pe/atom
compute eatoms all reduce sum c_eng

#####################################################
# Minimization

dump mydmp all atom 100 dump.lammpstrj

reset_timestep 0
fix 1 all nvt temp 300.0 300.0 100.0
thermo 20
thermo_style custom step pe lx ly lz press pxx pyy pzz c_eatoms
min_style cg
minimize 1e-25 1e-25 500000 1000000
Generated 0 of 3 mixed pair_coeff terms from geometric mixing rule
Per MPI rank memory allocation (min/avg/max) = 9.249 | 9.249 | 9.249 Mbytes
   Step         PotEng           Lx             Ly             Lz           Press           Pxx            Pyy            Pzz          c_eatoms   
         0   17.331209      158.5          158.5          158.5          1.9210942      2.5747389      0.85117171     2.337372       17.331209    
        20   2.9126904      158.5          158.5          158.5          2.2663494      2.3868324      2.3049927      2.1072233      2.9126904    
        40   2.2665544      158.5          158.5          158.5          2.2457298      2.4420687      2.199619       2.0955018      2.2665544    
        60   2.069901       158.5          158.5          158.5          2.2243409      2.3884823      2.2220498      2.0624906      2.069901     
        80   1.8019393      158.5          158.5          158.5          2.2007921      2.3779578      2.2626009      1.9618175      1.8019393    
       100   1.5054239      158.5          158.5          158.5          1.8329001      1.9800847      1.824118       1.6944978      1.5054239    
       105   1.5054239      158.5          158.5          158.5          1.8329001      1.9800847      1.824118       1.6944978      1.5054239    
Loop time of 0.0107487 on 1 procs for 105 steps with 100 atoms

86.6% CPU use with 1 MPI tasks x no OpenMP threads

Minimization stats:
  Stopping criterion = energy tolerance
  Energy initial, next-to-last, final = 
      17.3312087506454   1.50542389412974   1.50542389412974
  Force two-norm initial, final = 155.63534 9.6237955
  Force max component initial, final = 33.962672 4.5021726
  Final line search alpha, max atom move = 0.011105749 0.05
  Iterations, force evaluations = 105 302

MPI task timing breakdown:
Section |  min time  |  avg time  |  max time  |%varavg| %total
---------------------------------------------------------------
Pair    | 0.0039462  | 0.0039462  | 0.0039462  |   0.0 | 36.71
Bond    | 0.0048165  | 0.0048165  | 0.0048165  |   0.0 | 44.81
Neigh   | 0          | 0          | 0          |   0.0 |  0.00
Comm    | 4.5069e-05 | 4.5069e-05 | 4.5069e-05 |   0.0 |  0.42
Output  | 0.001101   | 0.001101   | 0.001101   |   0.0 | 10.24
Modify  | 0          | 0          | 0          |   0.0 |  0.00
Other   |            | 0.0008398  |            |       |  7.81

Nlocal:            100 ave         100 max         100 min
Histogram: 1 0 0 0 0 0 0 0 0 0
Nghost:              0 ave           0 max           0 min
Histogram: 1 0 0 0 0 0 0 0 0 0
Neighs:            639 ave         639 max         639 min
Histogram: 1 0 0 0 0 0 0 0 0 0
FullNghs:            0 ave           0 max           0 min
Histogram: 1 0 0 0 0 0 0 0 0 0

Total # of neighbors = 639
Ave neighs/atom = 6.39
Ave special neighs/atom = 5.88
Neighbor list builds = 0
Dangerous builds = 0

group type1_atoms type 1
38 atoms in group type1_atoms
group type2_atoms type 2
31 atoms in group type2_atoms
group type3_atoms type 3
31 atoms in group type3_atoms

molecule mol1closeTo3PRE mol1closeTo3PRE.txt
Read molecule template mol1closeTo3PRE:
  1 molecules
  0 fragments
  4 atoms with max type 3
  3 bonds with max type 1
  2 angles with max type 1
  1 dihedrals with max type 1
  0 impropers with max type 0
molecule mol1closeTo3POST mol1closeTo3POST.txt
Read molecule template mol1closeTo3POST:
  1 molecules
  0 fragments
  4 atoms with max type 3
  3 bonds with max type 1
  2 angles with max type 1
  1 dihedrals with max type 1
  0 impropers with max type 0
molecule mol3closeTo1POST mol3closeTo1POST.txt
Read molecule template mol3closeTo1POST:
  1 molecules
  0 fragments
  4 atoms with max type 2
  3 bonds with max type 1
  2 angles with max type 1
  1 dihedrals with max type 1
  0 impropers with max type 0
molecule mol2closeTo3PRE mol2closeTo3PRE.txt
Read molecule template mol2closeTo3PRE:
  1 molecules
  0 fragments
  4 atoms with max type 3
  3 bonds with max type 1
  2 angles with max type 1
  1 dihedrals with max type 1
  0 impropers with max type 0
molecule mol2closeTo3POST mol2closeTo3POST.txt
Read molecule template mol2closeTo3POST:
  1 molecules
  0 fragments
  4 atoms with max type 3
  3 bonds with max type 1
  2 angles with max type 1
  1 dihedrals with max type 1
  0 impropers with max type 0
molecule mol3closeTo2POST mol3closeTo2POST.txt
Read molecule template mol3closeTo2POST:
  1 molecules
  0 fragments
  4 atoms with max type 2
  3 bonds with max type 1
  2 angles with max type 1
  1 dihedrals with max type 1
  0 impropers with max type 0
molecule mol2closeTo1PRE mol2closeTo1PRE.txt
Read molecule template mol2closeTo1PRE:
  1 molecules
  0 fragments
  4 atoms with max type 3
  3 bonds with max type 1
  2 angles with max type 1
  1 dihedrals with max type 1
  0 impropers with max type 0
molecule mol2closeTo1POST mol2closeTo1POST.txt
Read molecule template mol2closeTo1POST:
  1 molecules
  0 fragments
  4 atoms with max type 3
  3 bonds with max type 1
  2 angles with max type 1
  1 dihedrals with max type 1
  0 impropers with max type 0

#####################################################
# Do the reactions
fix 3 all bond/react   react reac1to2 all 1 0 3 mol1closeTo3PRE mol1closeTo3POST map_1to2.txt molecule intra   react reac2to3 type2_atoms 1 0 10 mol2closeTo3PRE mol2closeTo3POST map_2to3.txt    react reac3to2 type3_atoms 1 0 10 mol2closeTo3PRE mol3closeTo2POST map_3to2.txt    react reac2to1 type2_atoms 1 0 10 mol2closeTo1PRE mol2closeTo1POST map_2to1.txt
dynamic group bond_react_MASTER_group defined

run 100000

CITE-CITE-CITE-CITE-CITE-CITE-CITE-CITE-CITE-CITE-CITE-CITE-CITE

Your simulation uses code contributions which should be cited:

- fix bond/react: reacter.org doi:10.1016/j.polymer.2017.09.038, doi:10.1021/acs.macromol.0c02012

@Article{Gissinger17,
 author = {J. R. Gissinger and B. D. Jensen and K. E. Wise},
 title = {Modeling Chemical Reactions in Classical Molecular Dynamics Simulations},
 journal = {Polymer},
 year =    2017,
 volume =  128,
 pages =   {211--217}
}

@Article{Gissinger20,
 author = {J. R. Gissinger, B. D. Jensen, K. E. Wise},
 title = {{REACTER}: A Heuristic Method for Reactive Molecular Dynamics},
 journal = {Macromolecules},
 year =    2020,
 volume =  53,
 number =  22,
 pages =   {9953--9961}
}

CITE-CITE-CITE-CITE-CITE-CITE-CITE-CITE-CITE-CITE-CITE-CITE-CITE

Generated 0 of 3 mixed pair_coeff terms from geometric mixing rule
Neighbor list info ...
  update: every = 1 steps, delay = 0 steps, check = yes
  max neighbors/atom: 2000, page size: 100000
  master list distance cutoff = 12.5
  ghost atom cutoff = 12.5
  binsize = 6.25, bins = 26 26 26
  3 neighbor lists, perpetual/occasional/extra = 1 2 0
  (1) pair lj/cut, perpetual
      attributes: half, newton on
      pair build: half/bin/newton
      stencil: half/bin/3d
      bin: standard
  (2) compute centro/atom, occasional
      attributes: full, newton on
      pair build: full/bin
      stencil: full/bin/3d
      bin: standard
  (3) fix bond/react, occasional, copy from (1)
      attributes: half, newton on
      pair build: copy
      stencil: none
      bin: none
Per MPI rank memory allocation (min/avg/max) = 9.565 | 9.565 | 9.565 Mbytes
   Step         PotEng           Lx             Ly             Lz           Press           Pxx            Pyy            Pzz          c_eatoms   
       105   1.5054239      158.5          158.5          158.5          1.8329001      1.9800847      1.824118       1.6944978      1.5054239    
       120   22.767271      158.5          158.5          158.5          1.6081073      3.8689354     -0.10563552     1.0610219      22.767271    
       140   57.780082      158.5          158.5          158.5          2.728618       2.9076614      2.7979288      2.4802638      57.780082    
       160   55.435566      158.5          158.5          158.5         -1.127869      -1.3427336     -1.3036263     -0.73724699     55.435566    
       180   41.904024      158.5          158.5          158.5          0.68738559     4.4437782     -0.75885743    -1.622764       41.904024    
       200   51.739378      158.5          158.5          158.5          1.8214941      3.9259148      1.8349591     -0.29639164     51.739378    
       220   58.955187      158.5          158.5          158.5         -1.7068785     -4.1414        -0.83312144    -0.14611419     58.955187    
       240   59.004139      158.5          158.5          158.5         -0.48361       -1.1707654     -0.87644527     0.59638068     59.004139    
       260   51.02951       158.5          158.5          158.5         -0.1525464      0.98873946     0.54067797    -1.9870566      51.02951     
       280   57.377055      158.5          158.5          158.5         -2.6863529     -4.7786942     -2.1876277     -1.0927368      57.377055    
       300   63.519597      158.5          158.5          158.5         -1.1400303     -2.6911382     -0.60978319    -0.1191694      63.519597    
       320   62.245319      158.5          158.5          158.5         -1.5595375     -2.2700937     -0.33547174    -2.0730472      62.245319    
       340   70.215888      158.5          158.5          158.5         -3.7602456     -4.6919486     -3.5445057     -3.0442826      70.215888    
       360   62.559696      158.5          158.5          158.5         -1.2376523     -2.9225963     -1.3344604      0.54409972     62.559696    
       380   68.563428      158.5          158.5          158.5         -1.3150141     -2.8870615      1.0347244     -2.0927051      68.563428    
       400   70.635341      158.5          158.5          158.5         -3.6850592     -5.6233636     -2.2919192     -3.1398947      70.635341    
       420   75.301169      158.5          158.5          158.5         -0.98180186    -2.3042298     -0.086894745   -0.55428105     75.301169    
       440   74.705785      158.5          158.5          158.5         -0.73874599     0.19384852     0.31395241    -2.7240389      74.705785    
       460   80.094645      158.5          158.5          158.5         -4.5173258     -6.2961889     -3.3543529     -3.9014357      80.094645    
       480   71.716475      158.5          158.5          158.5         -0.74510599    -1.4507684     -1.5525186      0.76796904     71.716475    
       500   92.454796      158.5          158.5          158.5         -1.401165      -0.12541967    -1.4464281     -2.6316472      92.454796    
       520   83.51988       158.5          158.5          158.5         -5.3325862     -3.2701991     -5.0262232     -7.7013363      83.51988     
       540   86.620649      158.5          158.5          158.5         -0.16144317     1.2105933     -2.7458462      1.0509233      86.620649    
       560   81.172456      158.5          158.5          158.5          0.8007405      2.1279741     -2.2455627      2.5198102      81.172456    
       580   99.017662      158.5          158.5          158.5         -4.5730905     -4.1053923     -4.185557      -5.4283222      99.017662    
       600   96.816271      158.5          158.5          158.5          0.88077595     2.1139624      1.2122914     -0.68392591     96.816271    
       620   90.736656      158.5          158.5          158.5          2.0443254      4.6167689     -1.4047076      2.9209149      90.736656    
       640   96.693603      158.5          158.5          158.5         -3.7999251     -5.1917328     -5.4283267     -0.77971589     96.693603    
       660   97.502481      158.5          158.5          158.5          1.2860434      1.5355146      1.2652236      1.0573921      97.502481    
       680   90.496603      158.5          158.5          158.5          2.2809048      5.6249837     -0.29207734     1.509808       90.496603    
       700   90.340524      158.5          158.5          158.5         -4.0015107     -3.4245999     -6.0489086     -2.5310236      90.340524    
       720   82.015537      158.5          158.5          158.5          0.20806342    -1.6145598     -0.74597009     2.9847201      82.015537    
       740   97.300251      158.5          158.5          158.5          1.3339705      2.4589019     -0.47393548     2.016945       97.300251    
       760   91.360714      158.5          158.5          158.5         -4.5122109     -2.7894673     -3.7252292     -7.0219363      91.360714    
       780   75.229556      158.5          158.5          158.5         -0.15746256    -1.1100335      0.63580412     0.0018417482   75.229556    
       800   83.474717      158.5          158.5          158.5          2.6680187      0.61796638     1.8072034      5.5788864      83.474717    
       820   95.394217      158.5          158.5          158.5         -3.3946896     -5.4723106     -0.92940017    -3.7823581      95.394217    
       840   78.009492      158.5          158.5          158.5          0.62519076    -0.95723364     3.7138611     -0.8810552      78.009492    
       860   85.744103      158.5          158.5          158.5          5.0109122      4.8550671      5.0689681      5.1087014      85.744103    
       880   79.908455      158.5          158.5          158.5         -0.74830148    -1.8314692     -0.32799572    -0.08543953     79.908455    
       900   84.160746      158.5          158.5          158.5          1.2881387      0.33760881     4.5375336     -1.0107264      84.160746    
       920   85.985664      158.5          158.5          158.5          5.6546219      5.7761415      7.9231641      3.26456        85.985664    
       940   74.700193      158.5          158.5          158.5         -0.59803232    -0.72229397    -0.57474835    -0.49705465     74.700193    
       960   82.401987      158.5          158.5          158.5          0.36290084    -0.13741042     0.62845616     0.59765679     82.401987    
       980   76.261504      158.5          158.5          158.5          4.4292778      3.1474878      6.2730294      3.8673163      76.261504    
      1000   85.885473      158.5          158.5          158.5         -0.86446677     0.17341569    -0.28042414    -2.4863919      85.885473    
      1020   83.691667      158.5          158.5          158.5         -0.16383439     2.7639938     -2.7869777     -0.46851923     83.691667    
      1040   93.319272      158.5          158.5          158.5          3.0972276      3.1160115      1.3357514      4.83992        93.319272    
      1060   85.82495       158.5          158.5          158.5         -0.51664117    -1.9091297     -0.015377819    0.37458404     85.82495     
      1080   88.938182      158.5          158.5          158.5         -0.14671562     3.1138054     -2.8808204     -0.67313183     88.938182    
      1100   90.749357      158.5          158.5          158.5          2.5210725      3.7095926     -1.3998933      5.253518       90.749357    
      1120   91.549869      158.5          158.5          158.5         -0.49253445    -3.6655009      0.087309973    2.1005876      91.549869    
      1140   80.272391      158.5          158.5          158.5         -0.55693897     0.38203913     0.71219328    -2.7650493      80.272391    
      1160   89.665778      158.5          158.5          158.5          1.8165709      3.392525      -0.49221387     2.5494015      89.665778    
      1180   90.187831      158.5          158.5          158.5          0.1311503     -0.55185903    -1.1715211      2.116831       90.187831    
      1200   78.886405      158.5          158.5          158.5         -0.96603734    -0.40872938     0.63092601    -3.1203086      78.886405    
      1220   93.26905       158.5          158.5          158.5          0.5085054      1.5617088      1.3168669     -1.3530595      93.26905     
      1240   92.801578      158.5          158.5          158.5         -0.26414353    -1.7192958      1.2277612     -0.30089605     92.801578    
      1260   95.619619      158.5          158.5          158.5         -1.106         -2.1727526      0.62984546    -1.7750928      95.619619    
      1280   94.920334      158.5          158.5          158.5         -0.49436364    -1.7761178      1.4785784     -1.1855515      94.920334    
      1300   87.6485        158.5          158.5          158.5          0.25890968    -3.1412605      2.5994269      1.3185626      87.6485      
      1320   91.383625      158.5          158.5          158.5         -0.69348728    -1.4868762      0.83507353    -1.4286592      91.383625    
      1340   84.599986      158.5          158.5          158.5         -1.3036707     -1.9244788      1.2477985     -3.2343318      84.599986    
      1360   85.373444      158.5          158.5          158.5          0.57069887    -3.0141813      2.8130431      1.9132348      85.373444    
      1380   91.871618      158.5          158.5          158.5          0.46226691    -1.5252242      2.3069757      0.60504922     91.871618    
      1400   94.25605       158.5          158.5          158.5         -1.7628389     -0.4604982     -1.0029984     -3.8250201      94.25605     
      1420   84.990864      158.5          158.5          158.5          1.7204434      2.7209042      0.39535774     2.0450683      84.990864    
      1440   79.253684      158.5          158.5          158.5          2.0623717      1.5484678      2.2473809      2.3912662      79.253684    
      1460   95.983332      158.5          158.5          158.5         -0.70828353     1.0604569     -0.80273903    -2.3825684      95.983332    
      1480   91.328         158.5          158.5          158.5          1.5124688      5.4681285     -2.1504959      1.2197738      91.328       
      1500   74.227125      158.5          158.5          158.5          2.2850342      2.2154053      1.1112063      3.5284911      74.227125    
      1520   88.925769      158.5          158.5          158.5         -0.62936418    -2.8093573      1.1930944     -0.2718296      88.925769    
      1540   89.200302      158.5          158.5          158.5          1.7151743      1.3496024      2.3820112      1.4139093      89.200302    
      1560   78.015493      158.5          158.5          158.5          3.3154912      4.8786238      2.5501165      2.5177334      78.015493    
      1580   79.172868      158.5          158.5          158.5         -1.2207762     -0.31528747    -2.5365883     -0.81045297     79.172868    
      1600   78.645417      158.5          158.5          158.5         -0.46650826    -1.4337384     -1.8123026      1.8465162      78.645417    
      1620   87.118193      158.5          158.5          158.5          0.69977227     1.843274       0.6388849     -0.38284211     87.118193    
      1640   79.280463      158.5          158.5          158.5         -2.7467945      1.4363545     -5.4581299     -4.218608       79.280463    
      1660   84.058124      158.5          158.5          158.5         -2.095935      -0.14957833    -5.3741831     -0.76404375     84.058124    
      1680   78.107502      158.5          158.5          158.5         -0.11809124    -0.23444954    -0.057894651   -0.061929514    78.107502    
      1700   81.976692      158.5          158.5          158.5         -1.5539832     -1.0456541     -1.1346357     -2.4816597      81.976692    
      1720   85.71248       158.5          158.5          158.5         -0.50577489     0.67210524    -0.87450057    -1.3149293      85.71248     
      1740   77.078314      158.5          158.5          158.5          1.3850976      0.92619548     0.57695988     2.6521374      77.078314    
      1760   90.402968      158.5          158.5          158.5         -0.12519915    -2.727399       2.5038021     -0.15200053     90.402968    
      1780   79.899248      158.5          158.5          158.5          0.09661347    -2.8304992      2.0198265      1.1005131      79.899248    
      1800   87.361934      158.5          158.5          158.5          0.97524787     0.39059309    -1.4698122      4.0049627      87.361934    
      1820   87.739462      158.5          158.5          158.5          0.7481735      0.63814679     0.11880855     1.4875652      87.739462    
      1840   83.914547      158.5          158.5          158.5          0.43696295    -1.1224977      1.9629194      0.47046711     83.914547    
      1860   80.523786      158.5          158.5          158.5          1.8609305      1.3068161      2.4231256      1.8528497      80.523786    
      1880   93.606718      158.5          158.5          158.5          2.2033115      5.4756437      1.4193429     -0.28505217     93.606718    
      1900   92.711208      158.5          158.5          158.5          0.88374929     1.0240529      1.2211782      0.40601681     92.711208    
      1920   86.23441       158.5          158.5          158.5          2.2677302     -1.1001514      3.961466       3.9418761      86.23441     
      1940   89.830796      158.5          158.5          158.5          3.187416       2.7218472      4.7385824      2.1018185      89.830796    
      1960   90.246243      158.5          158.5          158.5          1.2033433      4.2459625     -0.40611024    -0.22982249     90.246243    
      1980   99.721183      158.5          158.5          158.5          2.2393347      1.4518268      2.137346       3.1288312      99.721183    
      2000   85.184329      158.5          158.5          158.5          4.0042592      2.3779806      6.9241603      2.7106366      85.184329    
      2020   90.842877      158.5          158.5          158.5          2.2629557      3.6862522      2.9735811      0.12903394     90.842877    
      2040   86.010567      158.5          158.5          158.5          2.2202158      4.762183      -0.089314071    1.9877784      86.010567    
      2060   93.075643      158.5          158.5          158.5          3.3675944      3.7764694      1.813201       4.5131128      93.075643    
      2080   82.008925      158.5          158.5          158.5          0.87133901     0.76663884     0.92450731     0.92287086     82.008925    
      2100   88.335535      158.5          158.5          158.5         -0.5269167      0.1187699     -0.042244643   -1.6572754      88.335535    
      2120   84.903118      158.5          158.5          158.5          2.3078864      3.901338       0.2740574      2.7482639      84.903118    
      2140   78.828166      158.5          158.5          158.5         -0.53827029    -0.94879531     0.28505869    -0.95107426     78.828166    
      2160   79.675339      158.5          158.5          158.5         -2.776828      -3.8409097     -2.4905811     -1.998993       79.675339    
      2180   84.203561      158.5          158.5          158.5          0.38850148     1.5264061     -1.5683788      1.2074772      84.203561    
      2200   88.64291       158.5          158.5          158.5         -2.4341967     -2.8236776     -1.5809787     -2.8979337      88.64291     
      2220   79.374953      158.5          158.5          158.5         -4.1420991     -5.9353823     -2.9891771     -3.5017378      79.374953    
      2240   80.287821      158.5          158.5          158.5          0.28780176    -0.75273871    -0.050220964    1.6663649      80.287821    
      2260   77.282058      158.5          158.5          158.5         -2.0542787     -2.0320661     -1.290188      -2.8405821      77.282058    
      2280   80.776531      158.5          158.5          158.5         -3.9340624     -3.1854038     -4.2650844     -4.351699       80.776531    
      2300   83.89406       158.5          158.5          158.5          0.27197125     0.74182793    -1.2331999      1.3072857      83.89406     
      2320   67.888721      158.5          158.5          158.5         -2.072503      -4.3657729     -0.92346303    -0.92827311     67.888721    
      2340   86.743379      158.5          158.5          158.5         -4.3601179     -7.0693822     -1.3485299     -4.6624416      86.743379    
      2360   81.340281      158.5          158.5          158.5          0.40398782     1.5207326     -0.23513373    -0.073635418    81.340281    
      2380   85.770445      158.5          158.5          158.5         -1.7961267     -1.5912333     -2.5994829     -1.1976639      85.770445    
      2400   75.410196      158.5          158.5          158.5         -2.7161354     -5.6835469      0.60805416    -3.0729135      75.410196    
      2420   86.554362      158.5          158.5          158.5          2.004862       2.8482531      3.2027441     -0.03641118     86.554362    
      2440   82.629212      158.5          158.5          158.5         -1.1225706      0.69603209    -2.6692575     -1.3944864      82.629212    
      2460   78.723111      158.5          158.5          158.5         -1.8997307     -2.2871888     -1.6174528     -1.7945505      78.723111    
      2480   91.343127      158.5          158.5          158.5          2.2288187      2.5882174      3.1477453      0.95049323     91.343127    
      2500   86.070824      158.5          158.5          158.5         -1.4338188      0.49576538    -0.49672765    -4.300494       86.070824    
      2520   78.425006      158.5          158.5          158.5         -1.1699363      1.514466      -1.9599495     -3.0643253      78.425006    
      2540   76.940128      158.5          158.5          158.5          1.8579051      4.6257018     -0.46578224     1.4137958      76.940128    
      2560   78.432678      158.5          158.5          158.5         -1.8186392     -1.8334501     -1.5499828     -2.0724848      78.432678    
      2580   78.068347      158.5          158.5          158.5         -1.7087943     -2.0290612     -0.22701075    -2.870311       78.068347    
      2600   83.054205      158.5          158.5          158.5         -0.35143111     0.84780618    -1.2134312     -0.68866829     83.054205    
      2620   84.72783       158.5          158.5          158.5         -3.9700654     -4.7144173     -4.6917027     -2.5040762      84.72783     
      2640   83.143368      158.5          158.5          158.5         -2.9381498     -3.7076969     -3.9738782     -1.1328742      83.143368    
      2660   79.868049      158.5          158.5          158.5         -0.38894596    -0.94149596    -0.82893314     0.60359123     79.868049    
      2680   83.496017      158.5          158.5          158.5         -1.1678178     -1.6656077     -0.99961981    -0.83822584     83.496017    
      2700   79.375369      158.5          158.5          158.5         -1.291156      -0.52463794    -3.148933      -0.199897       79.375369    
      2720   86.479136      158.5          158.5          158.5         -0.046860912    0.91966576    -1.5120566      0.4518081      86.479136    
      2740   86.564606      158.5          158.5          158.5         -0.91223769    -3.7271513      0.51898794     0.47145024     86.564606    
      2760   80.050387      158.5          158.5          158.5         -2.2857291     -4.5114439     -1.1499952     -1.1957482      80.050387    
      2780   83.511337      158.5          158.5          158.5         -1.8428069     -0.22374587    -4.5219775     -0.78269732     83.511337    
      2800   85.75676       158.5          158.5          158.5         -0.42338777    -0.25171217    -2.840216       1.8217649      85.75676     
      2820   83.428203      158.5          158.5          158.5         -0.080563257   -2.7514548      1.4368813      1.0728838      83.428203    
      2840   77.993652      158.5          158.5          158.5         -0.33581548     0.52633628    -0.94827446    -0.58550828     77.993652    
      2860   92.368734      158.5          158.5          158.5          0.86372248     3.872475      -2.0657612      0.78445365     92.368734    
      2880   81.719486      158.5          158.5          158.5          1.9705811      2.3381637      0.63238395     2.9411958      81.719486    
      2900   86.991644      158.5          158.5          158.5          0.59833472    -1.4068432      1.1700854      2.031762       86.991644    
      2920   91.380189      158.5          158.5          158.5          0.76628028     1.8990779      0.27502681     0.1247361      91.380189    
      2940   94.012881      158.5          158.5          158.5          3.2752078      7.0323236      1.1705121      1.6227876      94.012881    
      2960   89.340889      158.5          158.5          158.5          2.0796095      2.5455878      0.86465555     2.8285851      89.340889    
      2980   86.606904      158.5          158.5          158.5          2.3205257      1.5437509      3.4341309      1.9836954      86.606904    
      3000   91.174942      158.5          158.5          158.5          3.6110139      7.4113934      3.7108277     -0.28917938     91.174942    
      3020   97.58542       158.5          158.5          158.5          0.23621752     1.8216677     -0.013003157   -1.100012       97.58542     
      3040   90.72512       158.5          158.5          158.5          0.61003819    -0.17001695     2.5040959     -0.50396436     90.72512     
      3060   87.385071      158.5          158.5          158.5          1.8566436      1.258324       3.1007458      1.2108608      87.385071    
      3080   89.180321      158.5          158.5          158.5         -1.7318816     -2.1201654     -1.9900699     -1.0854096      89.180321    
      3100   85.55669       158.5          158.5          158.5          0.24623262    -0.35609284     2.6042196     -1.5094289      85.55669     
      3120   86.896414      158.5          158.5          158.5          1.6818896      3.007649       2.9301014     -0.89208164     86.896414    
      3140   84.266738      158.5          158.5          158.5         -1.2341349     -1.9404628     -1.2823584     -0.47958361     84.266738    
      3160   95.228015      158.5          158.5          158.5          0.58594922    -0.97494669     0.82612944     1.9066649      95.228015    
      3180   79.792146      158.5          158.5          158.5          0.72863845     0.94621204     0.83091778     0.40878552     79.792146    
      3200   84.128592      158.5          158.5          158.5         -1.3345887     -1.0448147     -2.4545935     -0.5043578      84.128592    
      3220   84.063499      158.5          158.5          158.5         -0.025799849   -2.7891136     -0.63322319     3.3449373      84.063499    
      3240   84.822569      158.5          158.5          158.5         -1.079357      -2.4675395     -1.3214137      0.55088237     84.822569    
      3260   79.204793      158.5          158.5          158.5         -1.2150703      0.67185436    -3.0236238     -1.2934415      79.204793    
      3280   87.031071      158.5          158.5          158.5          0.22677524    -0.31266309    -0.99985422     1.992843       87.031071    
      3300   85.84104       158.5          158.5          158.5         -1.6508344     -3.7460264     -2.3096226      1.1031458      85.84104     
      3320   92.341099      158.5          158.5          158.5         -2.531023      -1.6105839     -3.1648386     -2.8176467      92.341099    
      3340   93.163588      158.5          158.5          158.5          0.49116605     2.3150368     -0.12540443    -0.71613418     93.163588    
      3360   98.06873       158.5          158.5          158.5         -1.026405      -1.2487557      0.24832332    -2.0787826      98.06873     
      3380   94.998384      158.5          158.5          158.5         -1.1373826     -2.641543      -0.64250809    -0.12809665     94.998384    
      3400   84.4244        158.5          158.5          158.5          2.5590812      3.4556488      2.045024       2.1765708      84.4244      
      3420   93.007281      158.5          158.5          158.5         -0.41066033     3.0225864     -1.0592139     -3.1953535      93.007281    
      3440   104.87656      158.5          158.5          158.5         -2.1418292     -0.8525973     -2.2238669     -3.3490236      104.87656    
      3460   93.897768      158.5          158.5          158.5          2.2571695     -0.11702536     3.1912911      3.6972428      93.897768    
      3480   98.886926      158.5          158.5          158.5         -1.5703711     -3.4713202      1.9302629     -3.1700558      98.886926    
      3500   96.81806       158.5          158.5          158.5         -2.4395634     -0.71964451    -1.217371      -5.3816748      96.81806     
      3520   100.85824      158.5          158.5          158.5          3.0782665      3.5862575      1.6369225      4.0116196      100.85824    
      3540   84.570696      158.5          158.5          158.5         -0.74277518    -4.6702148      3.7325755     -1.2906862      84.570696    
      3560   93.550999      158.5          158.5          158.5         -1.8719149     -4.2194797      3.3997978     -4.7960629      93.550999    
      3580   90.16473       158.5          158.5          158.5          3.9278015      5.817834       3.1296447      2.8359257      90.16473     
      3600   92.330979      158.5          158.5          158.5         -1.1563961     -3.0205655      0.64363108    -1.0922538      92.330979    
      3620   96.578928      158.5          158.5          158.5         -2.1545951     -7.3831058      0.73691227     0.18240823     96.578928    
      3640   94.869418      158.5          158.5          158.5          3.2587477      1.2195961      3.4503548      5.1062923      94.869418    
      3660   84.752511      158.5          158.5          158.5          0.31426821     1.8677514     -0.89202432    -0.032922435    84.752511    
      3680   97.158294      158.5          158.5          158.5         -0.87470155    -0.40690659    -3.650076       1.4328779      97.158294    
      3700   90.372487      158.5          158.5          158.5          3.8316243      1.7519169      3.1238006      6.6191555      90.372487    
      3720   88.18181       158.5          158.5          158.5          1.4580537      1.693573       1.1723045      1.5082834      88.18181     
      3740   89.197623      158.5          158.5          158.5          0.071911606    2.5575778     -3.9035478      1.5617049      89.197623    
      3760   96.145693      158.5          158.5          158.5          4.4935342      5.0330433      0.22210068     8.2254586      96.145693    
      3780   96.653692      158.5          158.5          158.5          0.87619712    -1.0071528      2.7773961      0.85834808     96.653692    
      3800   87.704318      158.5          158.5          158.5         -0.70988779    -0.19579259    -0.43347452    -1.5003962      87.704318    
      3820   94.594005      158.5          158.5          158.5          3.5429455      7.3906514     -1.7501749      4.98836        94.594005    
      3840   88.977209      158.5          158.5          158.5          0.44535436     3.8935767     -2.5746535      0.017139891    88.977209    
      3860   102.71403      158.5          158.5          158.5         -1.0813645     -1.8687869     -1.1916374     -0.18366915     102.71403    
      3880   106.61139      158.5          158.5          158.5          2.4343819      4.3100943      0.82176518     2.1712862      106.61139    
      3900   102.97731      158.5          158.5          158.5          0.04994279     6.1686894     -0.8511736     -5.1676875      102.97731    
      3920   101.51781      158.5          158.5          158.5         -0.63723802     0.46126261     0.27991048    -2.6528872      101.51781    
      3940   97.883014      158.5          158.5          158.5          1.6249227      2.0037496      2.0057242      0.86529424     97.883014    
      3960   110.90825      158.5          158.5          158.5         -0.60488973     1.5966697     -0.33209355    -3.0792454      110.90825    
      3980   96.831144      158.5          158.5          158.5         -0.77544946    -1.1157856     -0.02509756    -1.1854652      96.831144    
      4000   106.51627      158.5          158.5          158.5         -0.41795528    -0.40653572    -0.68431605    -0.16301407     106.51627    
      4020   103.64287      158.5          158.5          158.5         -1.296844      -0.57907463    -1.2626975     -2.04876        103.64287    
      4040   87.850419      158.5          158.5          158.5         -1.796158      -5.8500454      0.35057571     0.11099576     87.850419    
      4060   95.855979      158.5          158.5          158.5         -0.99772046    -2.4462978      0.33502322    -0.88188686     95.855979    
      4080   92.11659       158.5          158.5          158.5         -0.77007988    -1.9708466      2.1591255     -2.4985185      92.11659     
      4100   104.21123      158.5          158.5          158.5         -2.5950351     -7.4977858      1.6580855     -1.945405       104.21123    
      4120   98.49122       158.5          158.5          158.5          0.1383605     -3.8203741      1.9056445      2.3298111      98.49122     
      4140   88.813158      158.5          158.5          158.5         -0.12474922    -0.9286612      1.6377322     -1.0833187      88.813158    
      4160   96.67853       158.5          158.5          158.5         -2.7754243     -5.0109127      0.4046487     -3.720009       96.67853     
      4180   100.56338      158.5          158.5          158.5          0.21835961    -2.1832556      0.077136622    2.7611978      100.56338    
      4200   97.358736      158.5          158.5          158.5         -0.25436196    -2.0499609     -0.88034171     2.1672167      97.358736    
      4220   81.747226      158.5          158.5          158.5         -1.4351583     -2.2264234     -0.50433516    -1.5747165      81.747226    
      4240   92.343784      158.5          158.5          158.5          1.8514127      4.1331533      1.2925384      0.12854628     92.343784    
      4260   87.586042      158.5          158.5          158.5          2.6927717      3.1169146      3.1038263      1.8575741      87.586042    
      4280   91.732375      158.5          158.5          158.5          0.36511336    -1.2377643      0.74828818     1.5848162      91.732375    
      4300   90.696211      158.5          158.5          158.5          2.447796       4.7987978     -0.38316341     2.9277536      90.696211    
      4320   89.551293      158.5          158.5          158.5          3.5603865      6.854886       3.1444581      0.68181526     89.551293    
      4340   87.255064      158.5          158.5          158.5         -0.34054365     0.18113235     0.79389394    -1.9966572      87.255064    
      4360   88.809061      158.5          158.5          158.5          0.74308751     1.4826916     -1.2238465      1.9704174      88.809061    
      4380   86.388874      158.5          158.5          158.5          3.7911482      6.0986953      2.5341555      2.7405937      86.388874    
      4400   80.248108      158.5          158.5          158.5         -0.52036568     2.2479398     -2.0811144     -1.7279225      80.248108    
      4420   95.766616      158.5          158.5          158.5         -0.065317442   -0.11019393    -1.3439769      1.2582185      95.766616    
      4440   82.620046      158.5          158.5          158.5          2.287582       0.58740129     1.7032464      4.5720982      82.620046    
      4460   78.870543      158.5          158.5          158.5         -2.3644897     -1.7978514     -3.5706822     -1.7249354      78.870543    
      4480   82.262056      158.5          158.5          158.5         -0.98640579     0.11323233    -1.9858442     -1.0866055      82.262056    
      4500   78.374186      158.5          158.5          158.5          0.72229364    -0.72341816     2.342259       0.54804012     78.374186    
      4520   78.427479      158.5          158.5          158.5         -2.2792471     -5.8442339     -0.40200381    -0.59150367     78.427479    
      4540   77.999963      158.5          158.5          158.5          0.61328758    -0.99056199     1.9589709      0.87145382     77.999963    
      4560   76.001998      158.5          158.5          158.5         -0.069768739    1.4328951      2.118823      -3.7610243      76.001998    
      4580   83.283524      158.5          158.5          158.5         -3.541184      -4.9453966      0.11598132    -5.7941366      83.283524    
      4600   79.382571      158.5          158.5          158.5         -0.75398835    -3.8618184     -0.21393269     1.8137861      79.382571    
      4620   86.349701      158.5          158.5          158.5         -2.5213278     -2.171873      -3.3087911     -2.0833192      86.349701    
      4640   89.132848      158.5          158.5          158.5         -4.7826249     -2.0784784     -7.0834779     -5.1859185      89.132848    
      4660   79.554836      158.5          158.5          158.5         -0.77432152    -2.4223276     -2.4332443      2.5326074      79.554836    
      4680   92.053935      158.5          158.5          158.5         -2.5129996     -5.4693122     -3.552463       1.4827765      92.053935    
      4700   86.437699      158.5          158.5          158.5         -3.9079385     -2.5595467     -6.7278039     -2.436465       86.437699    
      4720   91.679127      158.5          158.5          158.5          1.9812234      5.8690779     -1.6487057      1.7232981      91.679127    
      4740   84.321059      158.5          158.5          158.5          0.41217754     0.062850138    0.92496695     0.24871553     84.321059    
      4760   86.755379      158.5          158.5          158.5         -2.8712743     -4.409618      -2.6514734     -1.5527315      86.755379    
      4780   99.679437      158.5          158.5          158.5          3.5812158      6.7667083      1.1748812      2.8020579      99.679437    
      4800   92.68718       158.5          158.5          158.5          1.4789195      5.6705457     -1.3282269      0.094439819    92.68718     
      4820   96.801868      158.5          158.5          158.5         -2.6507841     -1.8069502     -2.5446354     -3.6007666      96.801868    
      4840   95.407403      158.5          158.5          158.5          5.2615741      4.0257363      6.4082555      5.3507304      95.407403    
      4860   84.726901      158.5          158.5          158.5          2.6080607      4.4752652      0.91090032     2.4380166      84.726901    
      4880   101.44942      158.5          158.5          158.5         -0.73600028     0.5548686     -3.0489829      0.28611345     101.44942    
      4900   90.427937      158.5          158.5          158.5          6.5898249      3.2367558      8.1675605      8.3651583      90.427937    
      4920   101.99694      158.5          158.5          158.5          2.1247089     -2.1937273      6.3277334      2.2401206      101.99694    
      4940   103.91739      158.5          158.5          158.5          0.87554579     0.33941955     1.7707408      0.51647699     103.91739    
      4960   91.628695      158.5          158.5          158.5          5.7603202      4.7862971      6.55864        5.9360236      91.628695    
      4980   100.64977      158.5          158.5          158.5          1.2954745     -1.0616157      4.9783642     -0.030324958    100.64977    
      5000   101.86546      158.5          158.5          158.5          0.072498296   -1.2989093      3.6903122     -2.173908       101.86546    
      5020   94.791827      158.5          158.5          158.5          4.3950169      5.6674197      3.7357651      3.7818658      94.791827    
      5040   98.370555      158.5          158.5          158.5          0.01886664     1.1879813     -2.3772717      1.2458903      98.370555    
      5060   91.984003      158.5          158.5          158.5         -2.4157122     -2.065214      -2.3257774     -2.8561453      91.984003    
      5080   97.587076      158.5          158.5          158.5          1.6674477      1.1273893      3.6882016      0.18675221     97.587076    
      5100   87.992574      158.5          158.5          158.5         -1.5502862      0.68266997    -2.2757051     -3.0578235      87.992574    
      5120   105.07976      158.5          158.5          158.5         -3.2605908     -1.9654581     -3.5011387     -4.3151755      105.07976    
      5140   100.00012      158.5          158.5          158.5          0.65733003    -0.87005203     1.8606691      0.98137302     100.00012    
      5160   96.04231       158.5          158.5          158.5         -2.3819444     -1.5910093     -1.2536833     -4.3011408      96.04231     
      5180   85.2225        158.5          158.5          158.5         -1.7604207      0.1843394     -1.8713192     -3.5942822      85.2225      
      5200   84.272828      158.5          158.5          158.5          0.41166024     1.2229933     -1.1813854      1.1933729      84.272828    
      5220   98.200162      158.5          158.5          158.5         -3.483441      -4.569577      -3.4477356     -2.4330102      98.200162    
      5240   95.444064      158.5          158.5          158.5         -1.6469457     -1.0324623     -2.1707528     -1.737622       95.444064    
      5260   82.620602      158.5          158.5          158.5          0.39191344     2.2233979     -1.7429691      0.69531156     82.620602    
      5280   86.542342      158.5          158.5          158.5         -2.5885487     -3.7902348     -2.8316394     -1.1437718      86.542342    
      5300   87.215387      158.5          158.5          158.5         -0.63783683    -1.053796      -0.28765003    -0.5720645      87.215387    
      5320   81.275709      158.5          158.5          158.5          1.508931       2.8539331      1.6102762      0.062583646    81.275709    
      5340   86.462028      158.5          158.5          158.5         -1.2032514     -1.6316234     -0.89689848    -1.0812322      86.462028    
      5360   91.017977      158.5          158.5          158.5         -1.4534538     -3.8208437     -1.2114586      0.67194077     91.017977    
      5380   91.838803      158.5          158.5          158.5          1.5592756      1.5304814      2.4128468      0.73449863     91.838803    
      5400   94.07693       158.5          158.5          158.5         -0.10052793     0.52453862     1.1148024     -1.9409248      94.07693     
      5420   85.109051      158.5          158.5          158.5         -1.7183636     -3.1301459     -2.4118017      0.38685682     85.109051    
      5440   90.226421      158.5          158.5          158.5          1.8188068      0.37285989     1.5978334      3.4857271      90.226421    
      5460   90.354796      158.5          158.5          158.5          0.046025194    1.8646413     -0.59856143    -1.1280043      90.354796    
      5480   97.999769      158.5          158.5          158.5         -4.0362672     -2.1836213     -6.0277288     -3.8974514      97.999769    
      5500   91.280577      158.5          158.5          158.5          1.77884        1.7055036      0.72905659     2.9019598      91.280577    
      5520   96.467824      158.5          158.5          158.5          1.4132519     -0.69241029     1.3425044      3.5896618      96.467824    
      5540   105.17974      158.5          158.5          158.5         -3.1043147     -3.391716      -5.8916667     -0.029561307    105.17974    
      5560   99.816629      158.5          158.5          158.5          1.4617967      2.5201835     -0.099996818    1.9652035      99.816629    
      5580   95.657779      158.5          158.5          158.5          1.7094423      0.28257591     2.1154369      2.7303141      95.657779    
      5600   105.91764      158.5          158.5          158.5         -3.1854067     -5.1017202     -5.4851814      1.0306815      105.91764    
      5620   96.242679      158.5          158.5          158.5          0.19887537    -0.10004405     1.9040833     -1.2074131      96.242679    
      5640   91.611166      158.5          158.5          158.5          1.2898908      3.2861674      2.4905785     -1.9070733      91.611166    
      5660   94.699401      158.5          158.5          158.5         -3.3350415     -4.301979      -3.6997335     -2.0034121      94.699401    
      5680   96.387453      158.5          158.5          158.5          0.44122734     0.80383284     1.5621916     -1.0423424      96.387453    
      5700   99.218114      158.5          158.5          158.5          1.3333083      3.7376127      2.6891127     -2.4268005      99.218114    
      5720   90.80326       158.5          158.5          158.5         -2.5644563     -2.1346152     -3.2027594     -2.3559944      90.80326     
      5740   91.134192      158.5          158.5          158.5          1.2005155      1.4815893      0.083282717    2.0366745      91.134192    
      5760   91.153783      158.5          158.5          158.5          2.7031288      3.8767919      2.7379191      1.4946754      91.153783    
      5780   97.196323      158.5          158.5          158.5         -0.64135217     1.4996547     -2.3794215     -1.0442897      97.196323    
      5800   98.133327      158.5          158.5          158.5          2.1441038      2.3554175      2.8348062      1.2420875      98.133327    
      5820   92.214198      158.5          158.5          158.5          4.490022       3.3409845      6.2443474      3.8847342      92.214198    
      5840   90.733919      158.5          158.5          158.5          2.3582942      1.9479059      1.0641969      4.0627799      90.733919    
      5860   86.517783      158.5          158.5          158.5          2.832767       3.6595916      2.5438267      2.2948827      86.517783    
      5880   89.772736      158.5          158.5          158.5          3.3063021      1.8418239      5.6456806      2.4314017      89.772736    
      5900   93.490205      158.5          158.5          158.5          0.72193584    -0.70639435     1.3209605      1.5512413      93.490205    
      5920   86.281907      158.5          158.5          158.5          0.68233904    -0.24791041     2.0196431      0.27528442     86.281907    
      5940   87.208762      158.5          158.5          158.5          1.1936911      1.2796454      1.5540294      0.74739838     87.208762    
      5960   100.31305      158.5          158.5          158.5         -0.41202652     0.92486748    -2.4384956      0.27754858     100.31305    
      5980   82.301891      158.5          158.5          158.5         -0.66879662    -0.24262452     0.60148138    -2.3652467      82.301891    
      6000   83.293697      158.5          158.5          158.5          0.35701373    -0.42158151     1.2139381      0.27868461     83.293697    
      6020   94.191775      158.5          158.5          158.5         -0.44932882     1.568243      -5.5982433      2.6820138      94.191775    
      6040   86.107081      158.5          158.5          158.5          0.12999803     1.6934404     -0.98908117    -0.31436515     86.107081    
      6060   91.075402      158.5          158.5          158.5         -0.35757223    -2.1613097      1.2289051     -0.14031212     91.075402    
      6080   90.382343      158.5          158.5          158.5         -1.765336       0.84867586    -6.2138125      0.069128533    90.382343    
      6100   98.353155      158.5          158.5          158.5         -1.0530669      1.8411257     -3.160233      -1.8400934      98.353155    
      6120   90.06929       158.5          158.5          158.5         -2.4116252     -5.7147202      0.28248465    -1.8026402      90.06929     
      6140   97.189149      158.5          158.5          158.5         -4.2203352     -5.6996198     -3.3030274     -3.6583584      97.189149    
      6160   92.585101      158.5          158.5          158.5         -1.0495752      0.33903372    -1.5135632     -1.9741962      92.585101    
      6180   89.822279      158.5          158.5          158.5         -1.2960351     -2.4721417     -1.2343367     -0.18162695     89.822279    
      6200   103.51546      158.5          158.5          158.5         -3.9845557     -4.3978439     -3.2391139     -4.3167093      103.51546    
      6220   99.263636      158.5          158.5          158.5          0.097039523    0.77260131    -0.24604096    -0.23544178     99.263636    
      6240   94.216927      158.5          158.5          158.5          1.6157529      0.49961994    -0.77677025     5.1244089      94.216927    
      6260   94.517512      158.5          158.5          158.5         -1.3560542      0.34144424    -2.3233109     -2.0862959      94.517512    
      6280   95.784693      158.5          158.5          158.5          1.4007167      3.6525486      1.7091895     -1.1595881      95.784693    
      6300   101.70211      158.5          158.5          158.5          1.3794247      0.92113706    -0.44172064     3.6588576      101.70211    
      6320   89.020641      158.5          158.5          158.5         -1.0761245     -1.5406749     -0.66760979    -1.0200888      89.020641    
      6340   87.942205      158.5          158.5          158.5          1.851737       5.0062773      1.7341235     -1.1851899      87.942205    
      6360   97.34206       158.5          158.5          158.5          0.68683182     2.5598181      0.42256265    -0.92188527     97.34206     
      6380   87.538613      158.5          158.5          158.5         -1.9098285     -3.2639848     -0.60043689    -1.8650638      87.538613    
      6400   87.348832      158.5          158.5          158.5         -0.46208208    -0.22116024    -0.10481249    -1.0602735      87.348832    
      6420   91.775251      158.5          158.5          158.5         -0.50934669     0.59325043    -2.4131878      0.2918973      91.775251    
      6440   92.548072      158.5          158.5          158.5         -1.4399962     -2.6213238     -0.63206629    -1.0665984      92.548072    
      6460   82.856032      158.5          158.5          158.5          1.5158073     -1.2964424      3.5406213      2.3032429      82.856032    
      6480   82.704224      158.5          158.5          158.5          2.5356229      2.6486942      2.4488551      2.5093193      82.704224    
      6500   93.334386      158.5          158.5          158.5          1.0995465      3.2324615      0.94951356    -0.88333559     93.334386    
      6520   93.369673      158.5          158.5          158.5          2.3300009      0.8947442      3.6921091      2.4031495      93.369673    
      6540   96.578602      158.5          158.5          158.5          1.4908252     -0.15547927     2.5904864      2.0374683      96.578602    
      6560   81.249181      158.5          158.5          158.5          1.4000173      3.1808252      0.26951983     0.74970693     81.249181    
      6580   89.63416       158.5          158.5          158.5          1.358242       4.3891298     -1.0827136      0.76830988     89.63416     
      6600   92.47495       158.5          158.5          158.5          0.58760564     2.8361201     -1.1985854      0.12528217     92.47495     
      6620   95.842494      158.5          158.5          158.5         -0.64594115     0.87824176    -2.7906057     -0.025459551    95.842494    
      6640   89.438393      158.5          158.5          158.5         -0.38255247     0.079039204   -3.3917584      2.1650618      89.438393    
      6660   86.535997      158.5          158.5          158.5         -0.31301601    -0.31265778    -3.2610915      2.6347012      86.535997    
      6680   91.718106      158.5          158.5          158.5         -1.3475135      0.85891128    -3.5676007     -1.333851       91.718106    
      6700   86.629418      158.5          158.5          158.5         -0.22574492    -0.77310111    -1.7820288      1.8778951      86.629418    
      6720   101.82059      158.5          158.5          158.5         -0.53994206    -2.8921354     -1.2334514      2.5057606      101.82059    
      6740   81.198608      158.5          158.5          158.5         -1.5747422     -0.35677824    -1.8943039     -2.4731443      81.198608    
      6760   96.326964      158.5          158.5          158.5         -0.40778015    -1.327585      -0.74317707     0.84742164     96.326964    
      6780   89.249835      158.5          158.5          158.5          0.33315468    -2.8236011      2.2857252      1.5373399      89.249835    
      6800   92.416144      158.5          158.5          158.5         -1.6565177     -1.5844258      0.75739388    -4.1425212      92.416144    
      6820   92.720019      158.5          158.5          158.5         -1.3714622      0.48133471    -0.72183172    -3.8738895      92.720019    
      6840   99.442525      158.5          158.5          158.5         -0.86826409     0.7640041      0.69365073    -4.0624471      99.442525    
      6860   89.716154      158.5          158.5          158.5         -1.811337      -1.4264402     -1.1376561     -2.8699146      89.716154    
      6880   92.19651       158.5          158.5          158.5         -2.0396644     -2.7861726     -1.4893888     -1.8434319      92.19651     
      6900   87.837938      158.5          158.5          158.5          2.1107069      2.1304838      3.8104722      0.39116456     87.837938    
      6920   87.802954      158.5          158.5          158.5          1.542843       1.8922439      2.5647959      0.17148906     87.802954    
      6940   90.137537      158.5          158.5          158.5         -0.5220187     -1.3958442      0.077355244   -0.24756709     90.137537    
      6960   92.280105      158.5          158.5          158.5          3.4813085      2.6506683      2.7490519      5.0442054      92.280105    
      6980   90.510757      158.5          158.5          158.5         -0.0054231345   0.49021551    -0.70881266     0.20232775     90.510757    
      7000   96.845603      158.5          158.5          158.5         -3.2897873     -2.250936      -4.1280598     -3.4903662      96.845603    
      7020   93.83462       158.5          158.5          158.5          1.4139012      1.2206282      0.19571834     2.825357       93.83462     
      7040   87.242403      158.5          158.5          158.5         -1.6284025     -2.2429945     -3.206487       0.56427381     87.242403    
      7060   92.01087       158.5          158.5          158.5         -2.4663217     -2.0462141     -2.3588225     -2.9939285      92.01087     
      7080   86.027558      158.5          158.5          158.5          2.3603674      2.7445738      0.95295571     3.3835727      86.027558    
      7100   85.861219      158.5          158.5          158.5         -0.9989623     -0.22134138    -3.5116476      0.73610211     85.861219    
      7120   83.040277      158.5          158.5          158.5         -0.52992378    -1.0003543     -0.76287436     0.17345727     83.040277    
      7140   75.911495      158.5          158.5          158.5          3.8629516      3.6879673      4.032868       3.8680197      75.911495    
      7160   87.948905      158.5          158.5          158.5          0.15757613     1.6271549      0.44257807    -1.5970046      87.948905    
      7180   84.235115      158.5          158.5          158.5          0.81105686     0.089349653    1.0266092      1.3172118      84.235115    
      7200   85.919461      158.5          158.5          158.5          2.3810206     -0.44046526     2.9623044      4.6212227      85.919461    
      7220   83.440377      158.5          158.5          158.5          0.16055815     0.66843159     1.4524394     -1.6391966      83.440377    
      7240   89.518966      158.5          158.5          158.5          1.0505066      2.0990182      2.8544013     -1.8018998      89.518966    
      7260   90.556526      158.5          158.5          158.5          1.841821       1.1272287      2.151311       2.2469233      90.556526    
      7280   82.234319      158.5          158.5          158.5          1.5828061      1.7829271      0.92577293     2.0397183      82.234319    
      7300   91.444414      158.5          158.5          158.5          2.0004851      5.0070884      2.2116387     -1.2172719      91.444414    
      7320   86.721938      158.5          158.5          158.5          1.3069958      4.2816228      1.083282      -1.4439173      86.721938    
      7340   87.752768      158.5          158.5          158.5          1.0191601      1.1234161     -1.3687597      3.3028237      87.752768    
      7360   95.635807      158.5          158.5          158.5          2.2283218      3.0094813      3.0918149      0.58366924     95.635807    
      7380   92.317397      158.5          158.5          158.5          0.32465521     2.6112372      1.5338846     -3.1711562      92.317397    
      7400   100.07381      158.5          158.5          158.5         -0.23696612     1.8818749     -2.8494428      0.25666959     100.07381    
      7420   97.200502      158.5          158.5          158.5          0.78928083    -1.728467      -0.0057540553   4.1020636      97.200502    
      7440   95.947475      158.5          158.5          158.5         -1.281803      -4.7608843     -0.7478091      1.6632845      95.947475    
      7460   93.39659       158.5          158.5          158.5         -2.1975538     -0.31108895    -3.8706046     -2.4109678      93.39659     
      7480   101.9073       158.5          158.5          158.5         -1.9354008      0.32198433    -1.6713049     -4.4568818      101.9073     
      7500   98.505818      158.5          158.5          158.5         -2.3388664     -1.7492256     -3.8417324     -1.4256411      98.505818    
      7520   92.274238      158.5          158.5          158.5         -1.682419      -2.2520711     -1.8117084     -0.98347768     92.274238    
      7540   91.316917      158.5          158.5          158.5         -2.5496041     -1.5151694     -0.038441888   -6.0952011      91.316917    
      7560   101.98111      158.5          158.5          158.5         -2.434598      -1.4550058     -1.9814375     -3.8673509      101.98111    
      7580   89.684978      158.5          158.5          158.5         -0.65633125    -1.6731988     -2.5404828      2.2446879      89.684978    
      7600   88.466734      158.5          158.5          158.5         -1.9554145     -4.3628489     -0.46343614    -1.0399585      88.466734    
      7620   93.984638      158.5          158.5          158.5         -0.66558715    -0.5217183      1.3443741     -2.8194173      93.984638    
      7640   91.837523      158.5          158.5          158.5          0.67411702     1.3192728     -0.79208326     1.4951615      91.837523    
      7660   84.697399      158.5          158.5          158.5         -2.3687455     -4.5986667     -2.2359943     -0.27157538     84.697399    
      7680   82.348581      158.5          158.5          158.5         -0.40508087    -2.7087521      0.78868304     0.70482639     82.348581    
      7700   85.06727       158.5          158.5          158.5          0.44558865     1.3231777      0.23336749    -0.21977926     85.06727     
      7720   87.505344      158.5          158.5          158.5         -2.698869      -3.3309598     -3.3286322     -1.437015       87.505344    
      7740   79.85467       158.5          158.5          158.5         -0.42078182    -1.4787861     -2.4876188      2.7040594      79.85467     
      7760   84.290832      158.5          158.5          158.5          1.1842301      2.0463928     -0.1137562      1.6200536      84.290832    
      7780   91.265894      158.5          158.5          158.5         -0.92731728     0.24886137    -0.46079386    -2.5700193      91.265894    
      7800   77.441808      158.5          158.5          158.5          0.28589427     3.2077996     -2.6160438      0.26592697     77.441808    
      7820   93.40956       158.5          158.5          158.5          2.9058895      3.6403414      2.6372446      2.4400823      93.40956     
      7840   82.558744      158.5          158.5          158.5         -0.052700641    0.04578948     0.94657297    -1.1504644      82.558744    
      7860   93.863777      158.5          158.5          158.5         -1.8816385      0.93454629    -3.6948358     -2.8846259      93.863777    
      7880   84.662522      158.5          158.5          158.5          2.7674126      6.9302521      2.3401089     -0.96812334     84.662522    
      7900   96.904238      158.5          158.5          158.5         -1.709466      -1.9824351      0.084839951   -3.2308029      96.904238    
      7920   99.644191      158.5          158.5          158.5         -0.75697763    -2.0721099     -2.9134715      2.7146485      99.644191    
      7940   94.0767        158.5          158.5          158.5          4.8925489      5.5624957      3.6351068      5.4800442      94.0767      
      7960   93.291138      158.5          158.5          158.5         -0.84984601    -0.72282703     0.17330194    -2.000013       93.291138    
      7980   108.24921      158.5          158.5          158.5          1.3596154     -0.56830443    -0.36573991     5.0128904      108.24921    
      8000   95.337375      158.5          158.5          158.5          3.7740687      1.1753343      2.9001736      7.2466981      95.337375    
      8020   91.397137      158.5          158.5          158.5         -2.2625822     -1.8773744     -1.1071074     -3.8032649      91.397137    
      8040   98.137896      158.5          158.5          158.5          1.2366342      4.3888175      0.80243538    -1.4813503      98.137896    
      8060   95.299907      158.5          158.5          158.5          1.0313271      0.77354247     0.55177339     1.7686653      95.299907    
      8080   96.386209      158.5          158.5          158.5         -3.2150758     -6.1353681     -2.2759328     -1.2339264      96.386209    
      8100   86.058537      158.5          158.5          158.5          0.78090764     1.8026254     -1.0791654      1.6192629      86.058537    
      8120   100.95219      158.5          158.5          158.5         -0.37176961     0.43540935    -0.63573993    -0.91497826     100.95219    
      8140   89.265452      158.5          158.5          158.5         -2.4815091     -7.2610484     -1.2801239      1.0966451      89.265452    
      8160   82.343619      158.5          158.5          158.5          1.7487698     -0.91175276     1.6857798      4.4722825      82.343619    
      8180   88.433178      158.5          158.5          158.5          0.69053808     2.9133886      0.59099091    -1.4327653      88.433178    
      8200   90.188165      158.5          158.5          158.5         -2.3396314     -0.48089187    -1.5476278     -4.9903745      90.188165    
      8220   95.296227      158.5          158.5          158.5          1.7992315      0.50259821     2.2004308      2.6946656      95.296227    
      8240   85.543961      158.5          158.5          158.5          1.2758444      2.0780492      1.5001163      0.24936761     85.543961    
      8260   92.216973      158.5          158.5          158.5         -2.3524268      1.090799      -3.1846573     -4.9634221      92.216973    
      8280   88.58753       158.5          158.5          158.5          3.0777371      4.6018369      2.929323       1.7020515      88.58753     
      8300   85.6057        158.5          158.5          158.5          1.9302268      0.8294621      1.0767642      3.8844541      85.6057      
      8320   88.507252      158.5          158.5          158.5         -2.1583874     -1.7936352     -2.9212542     -1.7602728      88.507252    
      8340   81.23754       158.5          158.5          158.5          3.1515062      5.5454239      1.0440713      2.8650234      81.23754     
      8360   90.775264      158.5          158.5          158.5          0.2173645      0.48154839    -1.2489619      1.419507       90.775264    
      8380   90.178509      158.5          158.5          158.5         -3.6694952     -4.6022651     -3.5163191     -2.8899014      90.178509    
      8400   84.003767      158.5          158.5          158.5          2.549905       1.7505362      2.213434       3.6857447      84.003767    
      8420   94.301425      158.5          158.5          158.5         -0.69018679     0.77199354    -2.0198522     -0.82270172     94.301425    
      8440   94.686599      158.5          158.5          158.5         -3.2465521     -2.464399      -0.53209764    -6.7431598      94.686599    
      8460   91.545576      158.5          158.5          158.5          2.7176978     -0.72294135     3.8984567      4.977578       91.545576    
      8480   91.804136      158.5          158.5          158.5         -0.53503688    -2.4277073     -1.8710805      2.6936771      91.804136    
      8500   96.295815      158.5          158.5          158.5         -1.0365314     -2.059258       1.5929059     -2.6432419      96.295815    
      8520   97.267498      158.5          158.5          158.5          2.2476476     -0.75914339     3.7294587      3.7726274      97.267498    
      8540   102.48001      158.5          158.5          158.5         -1.5179153     -3.9134051     -2.7587964      2.1184556      102.48001    
      8560   97.622648      158.5          158.5          158.5         -2.1744118     -3.0453551     -0.27769071    -3.2001896      97.622648    
      8580   99.408854      158.5          158.5          158.5         -0.63006171    -2.2250514      1.3546701     -1.0198038      99.408854    
      8600   101.43024      158.5          158.5          158.5         -2.0203683     -2.4063964     -2.6850768     -0.96963181     101.43024    
      8620   96.270999      158.5          158.5          158.5         -2.3282157     -2.8920566     -0.76644281    -3.3261476      96.270999    
      8640   105.43024      158.5          158.5          158.5         -1.3080035     -0.73808346    -0.56059309    -2.6253341      105.43024    
      8660   103.06806      158.5          158.5          158.5         -1.2239078      0.76492681    -2.4685915     -1.9680587      103.06806    
      8680   91.003837      158.5          158.5          158.5         -0.85982031    -0.62915577     0.42264558    -2.3729507      91.003837    
      8700   89.778108      158.5          158.5          158.5          1.6250198      2.8953813      0.37230131     1.6073768      89.778108    
      8720   89.943481      158.5          158.5          158.5          1.5587278      1.4703         0.87259548     2.3332879      89.943481    
      8740   100.36216      158.5          158.5          158.5          1.6620083      1.6177776      2.4372621      0.93098506     100.36216    
      8760   89.088967      158.5          158.5          158.5          5.579367       7.9116342      4.0188206      4.8076463      89.088967    
      8780   88.554306      158.5          158.5          158.5          1.9742356      2.7784196      1.3313513      1.8129359      88.554306    
      8800   92.963764      158.5          158.5          158.5          2.1311733      1.5354426      3.6101868      1.2478904      92.963764    
      8820   87.227497      158.5          158.5          158.5          4.4363517      6.3654851      1.9195593      5.0240108      87.227497    
      8840   87.282433      158.5          158.5          158.5         -2.2089961      0.9835106     -6.2859554     -1.3245435      87.282433    
      8860   87.10769       158.5          158.5          158.5         -0.34026387    -0.66297923    -0.36122634     0.003413972    87.10769     
      8880   91.708487      158.5          158.5          158.5          1.8000848      0.58540279     3.4399634      1.3748881      91.708487    
      8900   91.435651      158.5          158.5          158.5         -3.0057898     -1.6478465     -3.2793399     -4.0901831      91.435651    
      8920   89.7755        158.5          158.5          158.5          0.12937991     0.85001875     0.61981044    -1.0816895      89.7755      
      8940   101.0286       158.5          158.5          158.5          0.59149757    -1.3683967      0.62690495     2.5159845      101.0286     
      8960   88.482399      158.5          158.5          158.5         -2.4671886     -3.0569676     -0.86357459    -3.4810236      88.482399    
      8980   88.823784      158.5          158.5          158.5         -0.16246736     0.93853954     1.6771931     -3.1031347      88.823784    
      9000   98.470994      158.5          158.5          158.5         -2.8633094     -3.3514074     -3.2598113     -1.9787096      98.470994    
      9020   90.040402      158.5          158.5          158.5         -1.344022      -1.9413647     -1.9303288     -0.1603725      90.040402    
      9040   95.257707      158.5          158.5          158.5         -0.76074325    -2.3645702      2.960141      -2.8778005      95.257707    
      9060   95.371181      158.5          158.5          158.5         -0.97110075    -1.0596347     -0.06910364    -1.7845639      95.371181    
      9080   95.670754      158.5          158.5          158.5          3.7841973      4.1655516      1.6119195      5.5751207      95.670754    
      9100   103.10039      158.5          158.5          158.5          2.1995646     -1.5109566      3.8928134      4.2168371      103.10039    
      9120   109.22794      158.5          158.5          158.5          1.1143026     -1.0280434      3.9481272      0.42282408     109.22794    
      9140   102.05212      158.5          158.5          158.5          3.0470317      4.3210562      1.8973959      2.9226432      102.05212    
      9160   108.64733      158.5          158.5          158.5         -1.7965946     -3.4455953     -1.845693      -0.098495375    108.64733    
      9180   119.92808      158.5          158.5          158.5         -2.9048669     -4.3107829     -2.02987       -2.3739479      119.92808    
      9200   112.68724      158.5          158.5          158.5          0.39202597     1.7305301      1.139728      -1.6941802      112.68724    
      9220   116.34902      158.5          158.5          158.5         -1.3548859      0.53627949    -1.1254286     -3.4755086      116.34902    
      9240   121.7858       158.5          158.5          158.5         -1.4412673      0.23815221    -1.9223139     -2.6396403      121.7858     
      9260   106.26323      158.5          158.5          158.5          3.0686941      3.0264226      3.1988947      2.980765       106.26323    
      9280   110.40424      158.5          158.5          158.5          0.39881577    -1.3892729      1.9349262      0.65079398     110.40424    
      9300   99.13339       158.5          158.5          158.5         -2.1468274     -1.2542658     -2.4631074     -2.723109       99.13339     
      9320   113.16453      158.5          158.5          158.5          2.4468274      3.5095862      1.4739633      2.3569326      113.16453    
      9340   91.354692      158.5          158.5          158.5         -0.97244091    -1.9727818     -1.6198075      0.67526664     91.354692    
      9360   103.45937      158.5          158.5          158.5         -1.4959116     -5.5747126      0.040728573    1.0462491      103.45937    
      9380   89.527873      158.5          158.5          158.5          4.2118864      3.9132283      5.6945545      3.0278762      89.527873    
      9400   103.988        158.5          158.5          158.5         -1.8507235      0.26295457    -2.2550456     -3.5600794      103.988      
      9420   96.807225      158.5          158.5          158.5         -0.58871372    -1.8243458     -0.88018631     0.938391       96.807225    
      9440   91.208048      158.5          158.5          158.5          1.1981523     -0.073760738    3.0362186      0.63199904     91.208048    
      9460   95.998472      158.5          158.5          158.5         -4.4033145     -1.3231795     -3.2070971     -8.6796669      95.998472    
      9480   97.567974      158.5          158.5          158.5         -1.0715263      1.9181569     -3.3802728     -1.752463       97.567974    
      9500   94.914382      158.5          158.5          158.5         -1.7241518     -1.7589592     -1.3170842     -2.096412       94.914382    
      9520   90.785646      158.5          158.5          158.5         -1.890978      -2.107247       1.9746503     -5.5403375      90.785646    
      9540   91.686029      158.5          158.5          158.5          2.112333       2.3082935      1.5625718      2.4661337      91.686029    
      9560   94.215795      158.5          158.5          158.5         -0.62388763    -1.1219369     -1.2682133      0.5184873      94.215795    
      9580   98.863691      158.5          158.5          158.5          1.8382407      1.8961811      2.1964105      1.4221304      98.863691    
      9600   91.744731      158.5          158.5          158.5          1.2424605      0.25913827    -0.13653445     3.6047776      91.744731    
      9620   81.98032       158.5          158.5          158.5         -0.77799173    -0.1388732     -2.5051162      0.31001422     81.98032     
      9640   94.11684       158.5          158.5          158.5          1.6585642      4.1159464     -0.19780427     1.0575505      94.11684     
      9660   102.58697      158.5          158.5          158.5          0.55929204    -0.63605707    -1.2001701      3.5141032      102.58697    
      9680   90.256124      158.5          158.5          158.5          1.5348012     -1.3338901      2.1653143      3.7729793      90.256124    
      9700   97.572481      158.5          158.5          158.5          2.7891745      2.5380221      1.5393967      4.2901047      97.572481    
      9720   100.77305      158.5          158.5          158.5          1.2706386      1.6932346      0.7866882      1.331993       100.77305    
      9740   98.243322      158.5          158.5          158.5         -0.330869      -3.3815881      1.7386788      0.65030231     98.243322    
      9760   100.35436      158.5          158.5          158.5          0.48936235    -0.025561746   -0.32484956     1.8184984      100.35436    
      9780   92.98441       158.5          158.5          158.5          0.56888174     2.3698732      0.57465835    -1.2378863      92.98441     
      9800   96.179575      158.5          158.5          158.5         -1.959581       0.18486111    -1.2792397     -4.7843643      96.179575    
      9820   90.749631      158.5          158.5          158.5          1.2295635      1.2177877      0.089836456    2.3810663      90.749631    
      9840   103.45932      158.5          158.5          158.5          1.3782039      0.38602769     0.90027853     2.8483053      103.45932    
      9860   94.927526      158.5          158.5          158.5         -3.7111637     -1.7378301     -4.0298449     -5.365816       94.927526    
      9880   95.707486      158.5          158.5          158.5          1.3747356      2.7499255      1.9390992     -0.56481797     95.707486    
      9900   103.80891      158.5          158.5          158.5         -0.3408185     -1.5939545      0.41991972     0.15157926     103.80891    
      9920   91.304193      158.5          158.5          158.5         -5.2430908     -6.0659209     -5.7315638     -3.9317877      91.304193    
      9940   91.707662      158.5          158.5          158.5          0.35264766    -0.47280118     0.96835833     0.56238583     91.707662    
      9960   95.95674       158.5          158.5          158.5         -0.94741385    -1.2271655     -0.18669814    -1.4283779      95.95674     
      9980   91.813783      158.5          158.5          158.5         -2.2181635     -1.2865626     -2.0694301     -3.2984977      91.813783    
     10000   86.414252      158.5          158.5          158.5          3.8220402      5.3377761      3.0884754      3.0398691      86.414252    
     10020   90.403545      158.5          158.5          158.5          2.099803       3.1673914      0.085233128    3.0467845      90.403545    
     10040   92.621819      158.5          158.5          158.5         -0.3696831     -0.95699413     1.0875956     -1.2396508      92.621819    
     10060   78.686494      158.5          158.5          158.5          3.2590238      3.5530586      4.5161051      1.7079076      78.686494    
     10080   85.639172      158.5          158.5          158.5          0.24109216    -0.75740043    -1.0059902      2.4866671      85.639172    
     10100   97.713417      158.5          158.5          158.5         -1.9347267     -3.2058218     -1.327893      -1.2704654      97.713417    
     10120   86.092343      158.5          158.5          158.5          3.0393175      4.0613239      3.8387583      1.2178705      86.092343    
     10140   90.462244      158.5          158.5          158.5          1.0941322      1.4264754     -0.91925499     2.7751761      90.462244    
     10160   95.252325      158.5          158.5          158.5         -0.97493566    -4.3294515     -1.7303741      3.1350186      95.252325    
     10180   90.94757       158.5          158.5          158.5          1.6093672     -0.11420015     3.0810233      1.8612784      90.94757     
     10200   89.847674      158.5          158.5          158.5         -0.50572886    -0.31270264    -0.20507613    -0.99940781     89.847674    
     10220   96.090113      158.5          158.5          158.5         -2.8809725     -3.4213716     -3.1225821     -2.0989638      96.090113    
     10240   87.960781      158.5          158.5          158.5          0.86117761    -1.6016158      1.9271779      2.2579707      87.960781    
     10260   85.587186      158.5          158.5          158.5          1.484059       0.47694709     2.6339501      1.3412797      85.587186    
     10280   102.89762      158.5          158.5          158.5         -1.0004632     -0.5716816      0.99328157    -3.4229895      102.89762    
     10300   103.66372      158.5          158.5          158.5          2.864063       3.6187472      3.8937193      1.0797225      103.66372    
     10320   100.96443      158.5          158.5          158.5          0.58353642     2.7501266     -1.9010245      0.90150718     100.96443    
     10340   96.758398      158.5          158.5          158.5         -3.100912      -0.45331095    -4.2429521     -4.6064729      96.758398    
     10360   101.2689       158.5          158.5          158.5          1.2677638      1.0757345      3.6901907     -0.96263378     101.2689     
     10380   106.10937      158.5          158.5          158.5         -1.4592241     -1.8009418     -1.9662927     -0.61043775     106.10937    
     10400   111.05091      158.5          158.5          158.5         -3.7585256     -2.6659146     -7.8685449     -0.74111714     111.05091    
     10420   113.478        158.5          158.5          158.5          1.6845097      0.099298953    3.6451749      1.3090553      113.478      
     10440   102.1326       158.5          158.5          158.5          0.29783414    -1.726922       4.4997847     -1.8793602      102.1326     
     10460   105.29018      158.5          158.5          158.5         -0.7686832      0.18194501    -2.5261902      0.038195603    105.29018    
     10480   117.41082      158.5          158.5          158.5          2.323259       3.721755      -0.36329842     3.6113204      117.41082    
     10500   100.95944      158.5          158.5          158.5          0.0040654925   0.59080753     0.72153276    -1.3001438      100.95944    
     10520   118.48671      158.5          158.5          158.5         -2.0965237     -4.2798963     -0.51659521    -1.4930796      118.48671    
     10540   105.92177      158.5          158.5          158.5          2.8915586      3.0608078      1.9099981      3.7038698      105.92177    
     10560   103.10858      158.5          158.5          158.5          1.6362101      5.5158555     -2.8498293      2.242604       103.10858    
     10580   93.309931      158.5          158.5          158.5         -0.039649037    0.51331481     1.1620195     -1.7942815      93.309931    
     10600   108.45877      158.5          158.5          158.5          4.0238049      5.3845694      6.4269285      0.25991683     108.45877    
     10620   100.81495      158.5          158.5          158.5          0.66497796     3.3008557     -1.217278      -0.088643781    100.81495    
     10640   95.232613      158.5          158.5          158.5         -1.8429065     -2.324109      -2.600679      -0.6039314      95.232613    
     10660   97.316566      158.5          158.5          158.5          1.3789465      1.47682        1.3299883      1.3300311      97.316566    
     10680   106.54808      158.5          158.5          158.5         -2.2295374     -3.1615725     -1.1413247     -2.385715       106.54808    
     10700   99.506149      158.5          158.5          158.5         -0.14033076    -3.6128553      1.6062715      1.5855915      99.506149    
     10720   101.40101      158.5          158.5          158.5          1.0301467      0.86786244    -0.87309919     3.095677       101.40101    
     10740   90.651091      158.5          158.5          158.5         -0.2051428      0.62223546    -1.0135017     -0.22416216     90.651091    
     10760   104.58963      158.5          158.5          158.5          1.3542173     -1.070088       3.4721473      1.6605925      104.58963    
     10780   96.124361      158.5          158.5          158.5          0.79300202     1.1590998      0.14161414     1.0782921      96.124361    
     10800   99.195333      158.5          158.5          158.5         -0.44419015     0.68369054    -0.18893032    -1.8273307      99.195333    
     10820   102.50108      158.5          158.5          158.5         -0.43556046    -1.2706716      1.5995782     -1.635588       102.50108    
     10840   101.84075      158.5          158.5          158.5          0.022497072   -1.2567437      1.1861108      0.13812417     101.84075    
     10860   91.910486      158.5          158.5          158.5          0.25980264     1.6035355     -0.86240417     0.038276581    91.910486    
     10880   108.03333      158.5          158.5          158.5         -1.978246       0.56562045    -4.4837625     -2.0165959      108.03333    
     10900   90.591916      158.5          158.5          158.5         -0.17140828    -0.7050433      0.95494152    -0.76412307     90.591916    
     10920   102.65762      158.5          158.5          158.5         -1.1187715     -2.0895904      1.7694905     -3.0362146      102.65762    
     10940   102.26734      158.5          158.5          158.5         -1.9937537     -0.64418893    -3.837866      -1.4992061      102.26734    
     10960   107.79915      158.5          158.5          158.5         -0.083156058    0.46374011    -2.388195       1.6749867      107.79915    
     10980   99.06117       158.5          158.5          158.5          0.39229912    -0.92375563     3.2883237     -1.1876707      99.06117     
     11000   100.14331      158.5          158.5          158.5          0.98167605     0.32497516     0.5018841      2.1181689      100.14331    
     11020   102.49234      158.5          158.5          158.5          1.1139054      1.4015295     -0.92375988     2.8639467      102.49234    
     11040   100.48827      158.5          158.5          158.5          3.220163       3.637774       1.9395717      4.0831433      100.48827    
     11060   101.80541      158.5          158.5          158.5          1.8549754      1.5038583      0.47022261     3.5908453      101.80541    
     11080   99.050257      158.5          158.5          158.5          0.19473518     1.4950751     -1.1239124      0.21304275     99.050257    
     11100   99.844356      158.5          158.5          158.5          2.2283422      5.4795874      0.39217669     0.81326268     99.844356    
     11120   109.02882      158.5          158.5          158.5         -1.6559702     -0.61636161    -2.827716      -1.5238329      109.02882    
     11140   95.917547      158.5          158.5          158.5          1.418243       2.0800996      1.1550707      1.0195586      95.917547    
     11160   92.508002      158.5          158.5          158.5          3.3092757      6.2394242      2.9130542      0.77534884     92.508002    
     11180   102.08105      158.5          158.5          158.5         -2.1327584     -0.038623598   -3.5752721     -2.7843796      102.08105    
     11200   100.0868       158.5          158.5          158.5          1.2147607      1.1700834      1.7340115      0.74018719     100.0868     
     11220   92.64273       158.5          158.5          158.5          1.4797102      2.5411974      1.276794       0.62113916     92.64273     
     11240   92.003372      158.5          158.5          158.5         -2.8380453     -1.9215335     -2.3925275     -4.2000749      92.003372    
     11260   90.723705      158.5          158.5          158.5         -0.075629111   -2.6333267      1.7539942      0.65244514     90.723705    
     11280   96.29183       158.5          158.5          158.5          0.15875032    -3.298386       1.5869939      2.1876431      96.29183     
     11300   97.46404       158.5          158.5          158.5         -2.1448008      0.11441747    -3.1221732     -3.4266466      97.46404     
     11320   111.95176      158.5          158.5          158.5         -1.8017986     -2.4515034     -0.5289379     -2.4249547      111.95176    
     11340   97.083947      158.5          158.5          158.5          0.83457637    -3.8479073      2.0514367      4.3001998      97.083947    
     11360   104.0101       158.5          158.5          158.5         -2.1023731     -3.1740121     -4.046986       0.91387885     104.0101     
     11380   113.02702      158.5          158.5          158.5         -1.909554      -1.2741012     -1.2429522     -3.2116086      113.02702    
     11400   109.777        158.5          158.5          158.5          1.2310977      1.9753113      0.53244404     1.1855379      109.777      
     11420   112.17805      158.5          158.5          158.5         -1.9858883     -3.1908897     -3.2743861      0.50761099     112.17805    
     11440   97.768159      158.5          158.5          158.5          1.4050545      2.0665149      2.5296044     -0.38095567     97.768159    
     11460   114.52499      158.5          158.5          158.5          1.1995342      2.5628738      2.8168221     -1.7810933      114.52499    
     11480   97.172924      158.5          158.5          158.5         -0.61503072    -1.4423417     -2.0910439      1.6882934      97.172924    
     11500   107.14228      158.5          158.5          158.5          2.6439314      2.1841783      2.4238475      3.3237684      107.14228    
     11520   97.198376      158.5          158.5          158.5         -0.99243099     0.61181767     0.0027163071  -3.5918269      97.198376    
     11540   103.65426      158.5          158.5          158.5          0.47661441     3.353307      -1.741987      -0.18147678     103.65426    
     11560   102.89409      158.5          158.5          158.5          2.2245833      3.788925       1.9221158      0.96270896     102.89409    
     11580   99.177856      158.5          158.5          158.5         -1.395012      -1.6223991     -0.78545817    -1.7771787      99.177856    
     11600   98.140434      158.5          158.5          158.5          2.4381421      5.0715456      1.2552155      0.98766531     98.140434    
     11620   105.87881      158.5          158.5          158.5          0.67812794     2.4700336      1.2780922     -1.7137419      105.87881    
     11640   104.08826      158.5          158.5          158.5         -0.68742883    -0.50098152     0.70793286    -2.2692378      104.08826    
     11660   102.63441      158.5          158.5          158.5          1.0164784      1.6070756     -0.21297113     1.6553308      102.63441    
     11680   107.29103      158.5          158.5          158.5         -3.4728363     -2.9940345     -4.2595371     -3.1649374      107.29103    
     11700   103.84849      158.5          158.5          158.5         -1.1433921      1.0422933     -1.1837305     -3.288739       103.84849    
     11720   97.040032      158.5          158.5          158.5          1.216938       1.4659469      0.91289042     1.2719767      97.040032    
     11740   95.104767      158.5          158.5          158.5         -1.7330123     -3.2860128      0.31956545    -2.2325895      95.104767    
     11760   98.789252      158.5          158.5          158.5          0.24821277    -0.53280012    -0.55065392     1.8280923      98.789252    
     11780   100.96076      158.5          158.5          158.5          3.0366858      1.4943944      1.3045893      6.3110736      100.96076    
     11800   105.31326      158.5          158.5          158.5         -1.8541675     -3.4388215     -0.79211006    -1.3315711      105.31326    
     11820   104.16381      158.5          158.5          158.5         -0.59321213    -3.0547381     -1.3313356      2.6064373      104.16381    
     11840   97.826258      158.5          158.5          158.5          2.7872221      1.2656154      0.9060034      6.1900475      97.826258    
     11860   103.97101      158.5          158.5          158.5         -2.4466146     -3.0853178     -4.0758881     -0.17863786     103.97101    
     11880   101.15294      158.5          158.5          158.5          0.25541784     0.20762778    -1.6245537      2.1831794      101.15294    
     11900   102.43962      158.5          158.5          158.5          2.4449245      1.9420434      2.5014368      2.8912934      102.43962    
     11920   85.484499      158.5          158.5          158.5         -2.9009286     -4.0015236     -1.6084884     -3.0927737      85.484499    
     11940   100.48591      158.5          158.5          158.5          0.2235839      1.3628014     -0.49072288    -0.20132677     100.48591    
     11960   107.03907      158.5          158.5          158.5          0.52764219     0.10955446     0.98948626     0.48388585     107.03907    
     11980   94.456552      158.5          158.5          158.5         -3.4592276     -4.7719943     -1.6299501     -3.9757384      94.456552    
     12000   100.52162      158.5          158.5          158.5          0.1668056      0.5526077     -0.080079199    0.027888301    100.52162    
     12020   94.791243      158.5          158.5          158.5          1.2959968      1.6586742      0.53375045     1.6955656      94.791243    
     12040   96.707503      158.5          158.5          158.5         -2.6071869     -4.3329206     -1.2746517     -2.2139885      96.707503    
     12060   91.740151      158.5          158.5          158.5          0.61628589    -0.7001382      2.4324062      0.1165897      91.740151    
     12080   91.346074      158.5          158.5          158.5          1.1610634     -0.74995817     2.809681       1.4234673      91.346074    
     12100   98.899023      158.5          158.5          158.5         -2.8977555     -3.4618577     -3.73066       -1.5007487      98.899023    
     12120   89.154328      158.5          158.5          158.5          0.87900428     2.1573211      0.83205954    -0.35236784     89.154328    
     12140   89.216688      158.5          158.5          158.5          0.94769747     0.23494108     1.4534996      1.1546517      89.216688    
     12160   97.035599      158.5          158.5          158.5         -0.69341261     0.20069867    -0.22138614    -2.0595504      97.035599    
     12180   97.791067      158.5          158.5          158.5          4.7112778      8.5273526      3.6369596      1.9695211      97.791067    
     12200   99.98545       158.5          158.5          158.5          2.4245874      3.3398544      1.5247437      2.4091642      99.98545     
     12220   93.893981      158.5          158.5          158.5          0.17857891    -0.038431345    0.78705722    -0.21288913     93.893981    
     12240   105.91301      158.5          158.5          158.5          2.2405036      4.4105803      0.93768698     1.3732434      105.91301    
     12260   102.27413      158.5          158.5          158.5         -2.4445775     -3.5999618     -3.0561274     -0.67764345     102.27413    
     12280   103.32472      158.5          158.5          158.5         -3.5938928     -6.5607186     -2.0806        -2.1403598      103.32472    
     12300   102.76169      158.5          158.5          158.5         -0.99925101    -3.6165863     -1.1861515      1.8049848      102.76169    
     12320   90.729996      158.5          158.5          158.5         -0.61445487    -2.3047824     -0.64175451     1.1031722      90.729996    
     12340   96.002229      158.5          158.5          158.5         -1.3693805     -3.0582042      0.9283347     -1.9782721      96.002229    
     12360   105.06044      158.5          158.5          158.5          0.54430438    -0.066543194   -0.61684978     2.3163061      105.06044    
     12380   104.8924       158.5          158.5          158.5          0.11402555     0.6699156      0.70747982    -1.0353188      104.8924     
     12400   100.23219      158.5          158.5          158.5         -2.4878912     -1.0060386     -1.0106707     -5.4469643      100.23219    
     12420   104.10748      158.5          158.5          158.5          0.9097624      2.5870352     -0.98079611     1.1230481      104.10748    
     12440   110.49932      158.5          158.5          158.5          1.4985297      2.8711934     -0.15603182     1.7804275      110.49932    
     12460   100.8008       158.5          158.5          158.5          0.014668637   -0.79621192     0.99151346    -0.15129563     100.8008     
     12480   95.985097      158.5          158.5          158.5          4.8215126      5.9092923      5.4038453      3.1514003      95.985097    
     12500   97.136563      158.5          158.5          158.5          1.6445276      3.8540144     -1.1367365      2.216305       97.136563    
     12520   100.02232      158.5          158.5          158.5          0.082590149    2.3766504     -2.0169344     -0.11194557     100.02232    
     12540   94.921018      158.5          158.5          158.5          3.5414768      5.2899638      3.4721474      1.8623193      94.921018    
     12560   101.63         158.5          158.5          158.5         -0.015061223    0.027618274   -0.049210834   -0.023591108    101.63       
     12580   95.750869      158.5          158.5          158.5          0.49821653     1.4275583      0.546732      -0.47964067     95.750869    
     12600   94.925498      158.5          158.5          158.5          2.10765        3.932088       1.0720099      1.3188522      94.925498    
     12620   93.019294      158.5          158.5          158.5         -0.24674077     0.75054947    -2.1756165      0.68484474     93.019294    
     12640   86.586809      158.5          158.5          158.5          0.44585448    -0.85308086     2.4443892     -0.25374487     86.586809    
     12660   86.092942      158.5          158.5          158.5          0.0011197651  -0.77006081     1.5885334     -0.81511332     86.092942    
     12680   89.756358      158.5          158.5          158.5         -2.8236852     -2.136561      -3.6429471     -2.6915476      89.756358    
     12700   96.375697      158.5          158.5          158.5         -1.5044104     -1.6295425      0.62936951    -3.5130584      96.375697    
     12720   90.194387      158.5          158.5          158.5         -1.2964885     -2.3434948      1.1306589     -2.6766295      90.194387    
     12740   90.794229      158.5          158.5          158.5         -2.1982633     -4.7855865     -0.66427689    -1.1449266      90.794229    
     12760   90.071664      158.5          158.5          158.5         -0.096953021   -2.5015716      2.3019859     -0.091273394    90.071664    
     12780   99.893487      158.5          158.5          158.5         -1.2871356     -2.7385745      1.0846342     -2.2074666      99.893487    
     12800   97.6503        158.5          158.5          158.5         -2.9382996     -3.7020585     -0.80287928    -4.309961       97.6503      
     12820   94.86525       158.5          158.5          158.5         -1.1484053     -3.7155516      0.61137109    -0.3410353      94.86525     
     12840   93.049369      158.5          158.5          158.5         -1.8606551     -3.3449762     -1.2386729     -0.99831604     93.049369    
     12860   93.083509      158.5          158.5          158.5         -1.8393442     -0.95175227    -1.8063753     -2.759905       93.083509    
     12880   94.314434      158.5          158.5          158.5          0.40132941     0.15185679     1.0510481      0.0010833695   94.314434    
     12900   92.410846      158.5          158.5          158.5          0.35021513    -2.3337567      1.6212339      1.7631682      92.410846    
     12920   92.167237      158.5          158.5          158.5          0.95916119     1.6493415      1.1181724      0.10996975     92.167237    
     12940   107.04399      158.5          158.5          158.5          1.8663658      3.4698774      1.7001049      0.42911501     107.04399    
     12960   96.176267      158.5          158.5          158.5          1.3079273      1.4007122      0.94430951     1.5787601      96.176267    
     12980   107.02712      158.5          158.5          158.5          0.31520704    -1.1990307     -0.14593013     2.290582       107.02712    
     13000   105.80448      158.5          158.5          158.5          0.6831074      1.6805        -2.3011632      2.6699854      105.80448    
     13020   104.70093      158.5          158.5          158.5          1.3869631      2.4283596      0.34756969     1.38496        104.70093    
     13040   103.36492      158.5          158.5          158.5          3.7681195      2.6967723      6.7847653      1.822821       103.36492    
     13060   94.464426      158.5          158.5          158.5          3.3914378      4.1759148      2.3312726      3.6671259      94.464426    
     13080   86.515082      158.5          158.5          158.5          2.2434993      4.4819662      0.066599503    2.1819323      86.515082    
     13100   98.74013       158.5          158.5          158.5          2.6891994      4.3819442      1.8376772      1.8479767      98.74013     
     13120   94.275244      158.5          158.5          158.5         -1.5334091     -0.65985168    -1.525159      -2.4152165      94.275244    
     13140   95.467827      158.5          158.5          158.5         -1.3196175     -1.9284995     -0.93182273    -1.0985303      95.467827    
     13160   97.321579      158.5          158.5          158.5          0.68222447     0.90234073     0.075718669    1.068614       97.321579    
     13180   96.049485      158.5          158.5          158.5         -3.6926458     -5.5726306     -1.5114516     -3.9938553      96.049485    
     13200   98.033508      158.5          158.5          158.5         -2.2245306     -1.1330232     -1.6701218     -3.8704468      98.033508    
     13220   100.80444      158.5          158.5          158.5         -1.2464092      0.17829325    -2.0013005     -1.9162203      100.80444    
     13240   92.353174      158.5          158.5          158.5         -2.287869      -3.1907883     -1.4767435     -2.1960751      92.353174    
     13260   87.282153      158.5          158.5          158.5         -1.1313887     -1.181525      -0.82838522    -1.384256       87.282153    
     13280   90.629859      158.5          158.5          158.5         -0.87842059    -1.0377581      0.22060413    -1.8181078      90.629859    
     13300   91.529613      158.5          158.5          158.5         -0.283552      -2.2533001      0.84041209     0.56223199     91.529613    
     13320   91.403651      158.5          158.5          158.5          1.2290005      1.0425672      0.047656994    2.5967773      91.403651    
     13340   96.257017      158.5          158.5          158.5          3.4347553      3.3214909      2.9206219      4.0621531      96.257017    
     13360   100.77601      158.5          158.5          158.5          1.0654734     -1.8459543      2.7302055      2.312169       100.77601    
     13380   103.79396      158.5          158.5          158.5         -0.48843808    -0.17550908    -2.5393024      1.2494972      103.79396    
     13400   108.89432      158.5          158.5          158.5          3.6496628      2.3394084      1.9511343      6.6584458      108.89432    
     13420   116.7165       158.5          158.5          158.5          0.31829487    -0.8967505      3.0523538     -1.2007187      116.7165     
     13440   115.83373      158.5          158.5          158.5         -0.064864668    0.067466433    0.10054426    -0.3626047      115.83373    
     13460   111.04777      158.5          158.5          158.5          3.4727945      3.3659272      1.0883609      5.9640953      111.04777    
     13480   105.64695      158.5          158.5          158.5          0.78651339     1.6954048      0.077156473    0.58697889     105.64695    
     13500   109.44963      158.5          158.5          158.5          1.320441       2.661142       3.7946324     -2.4944516      109.44963    
     13520   109.89759      158.5          158.5          158.5          1.1897081      1.0810284      1.5284744      0.95962145     109.89759    
     13540   112.50218      158.5          158.5          158.5         -0.87474226    -1.4836041     -2.2925796      1.1519569      112.50218    
     13560   107.41054      158.5          158.5          158.5         -1.1359631     -1.6118243     -0.4094698     -1.3865952      107.41054    
     13580   116.12588      158.5          158.5          158.5         -2.2818236     -2.3084607     -0.57418018    -3.9628299      116.12588    
     13600   104.08726      158.5          158.5          158.5         -0.78196591     0.51058937    -1.5073894     -1.3490977      104.08726    
     13620   121.21368      158.5          158.5          158.5         -1.5753259     -0.23464975    -3.7232913     -0.76803658     121.21368    
     13640   102.83961      158.5          158.5          158.5         -1.0356198      1.4685008     -2.2241648     -2.3511955      102.83961    
     13660   107.03376      158.5          158.5          158.5          1.3464084      3.4451226      0.75728729    -0.1631847      107.03376    
     13680   98.832396      158.5          158.5          158.5         -0.23787272     1.5311261     -3.0690923      0.82434802     98.832396    
     13700   111.32657      158.5          158.5          158.5          1.1079738      1.7904006      0.64309866     0.8904222      111.32657    
     13720   94.121696      158.5          158.5          158.5          3.0200794      4.9507109      4.352245      -0.24271771     94.121696    
     13740   100.00877      158.5          158.5          158.5         -0.83502457     1.2207787     -2.4818086     -1.2440438      100.00877    
     13760   107.61821      158.5          158.5          158.5          0.60242485     0.21671582    -1.1771778      2.7677365      107.61821    
     13780   91.471714      158.5          158.5          158.5          2.446587       2.4764018      1.5359255      3.3274338      91.471714    
     13800   96.732422      158.5          158.5          158.5         -0.41549105     1.7154905     -1.1364129     -1.8255507      96.732422    
     13820   94.921514      158.5          158.5          158.5          2.797327       3.0313859      3.4060886      1.9545066      94.921514    
     13840   93.436942      158.5          158.5          158.5          2.2528542      0.88249379     1.4943737      4.381695       93.436942    
     13860   95.617772      158.5          158.5          158.5         -4.2629573     -7.2446683     -1.9091049     -3.6350986      95.617772    
     13880   97.526945      158.5          158.5          158.5         -1.0551361     -0.92763093     1.7723411     -4.0101184      97.526945    
     13900   94.369036      158.5          158.5          158.5         -0.18346387     1.2429149     -0.90399278    -0.88931375     94.369036    
     13920   96.180009      158.5          158.5          158.5         -3.0535694     -7.5586811     -0.96425904    -0.63776821     96.180009    
     13940   95.864088      158.5          158.5          158.5          1.8492244     -1.5240733      5.3811569      1.6905895      95.864088    
     13960   92.708245      158.5          158.5          158.5          1.2607107      3.5780353      2.0412192     -1.8371223      92.708245    
     13980   103.4173       158.5          158.5          158.5         -1.6182297     -1.484619      -0.61751477    -2.7525554      103.4173     
     14000   97.997992      158.5          158.5          158.5          0.61947021    -1.6042245     -0.091025432    3.5536606      97.997992    
     14020   103.38703      158.5          158.5          158.5         -1.1283776     -0.80517213    -1.6437237     -0.93623703     103.38703    
     14040   97.867826      158.5          158.5          158.5         -2.7887391     -0.33646217    -3.1033157     -4.9264394      97.867826    
     14060   103.04328      158.5          158.5          158.5         -0.77945233     1.0576358     -1.7478508     -1.648142       103.04328    
     14080   102.09138      158.5          158.5          158.5          2.6427997      4.3041253      0.6526296      2.9716444      102.09138    
     14100   107.65647      158.5          158.5          158.5         -1.2633106      0.16914623    -1.9664535     -1.9926246      107.65647    
     14120   107.25411      158.5          158.5          158.5         -0.41087897    -0.3916157     -0.62733886    -0.21368235     107.25411    
     14140   106.12646      158.5          158.5          158.5          3.8406186      5.4068746      2.1572107      3.9577705      106.12646    
     14160   111.01888      158.5          158.5          158.5         -2.8937521     -1.5824502     -6.3648902     -0.73391591     111.01888    
     14180   97.811232      158.5          158.5          158.5          0.37531974     0.66710163    -0.88524237     1.3441         97.811232    
     14200   104.29027      158.5          158.5          158.5          4.1229315      5.4361307      4.7225026      2.2101613      104.29027    
     14220   109.00115      158.5          158.5          158.5         -3.6122703     -5.0050162     -3.5166961     -2.3150987      109.00115    
     14240   95.971593      158.5          158.5          158.5          0.48591593    -2.8834858     -0.99357066     5.3348043      95.971593    
     14260   97.36673       158.5          158.5          158.5          2.5555608      1.4581567      4.1523137      2.0562121      97.36673     
     14280   104.27508      158.5          158.5          158.5         -3.7525935     -5.0678065     -1.1297216     -5.0602525      104.27508    
     14300   93.647808      158.5          158.5          158.5          0.22401537    -0.056070881    0.42918886     0.29892813     93.647808    
     14320   101.96091      158.5          158.5          158.5          1.1871135     -0.13975137     0.36088752     3.3402044      101.96091    
     14340   98.879118      158.5          158.5          158.5         -3.8163933     -6.8869201     -1.9086528     -2.6536069      98.879118    
     14360   98.427536      158.5          158.5          158.5          0.17511534    -0.8183278      3.9879299     -2.644256       98.427536    
     14380   95.975598      158.5          158.5          158.5          3.0350039      2.8316666      3.2999522      2.973393       95.975598    
     14400   95.286114      158.5          158.5          158.5         -2.1138009     -4.6003801     -2.420644       0.67962145     95.286114    
     14420   102.71642      158.5          158.5          158.5          0.75597349    -0.69934023     1.4856605      1.4816002      102.71642    
     14440   101.85818      158.5          158.5          158.5          3.5578991      4.6621192      3.3896503      2.6219278      101.85818    
     14460   107.27729      158.5          158.5          158.5         -2.8306194     -2.5802447     -3.1492012     -2.7624124      107.27729    
     14480   97.0742        158.5          158.5          158.5          2.0840776      2.7755674     -0.54352429     4.0201896      97.0742      
     14500   99.363024      158.5          158.5          158.5          3.2989531      3.6494616      3.4883829      2.7590148      99.363024    
     14520   109.64858      158.5          158.5          158.5         -4.2980883     -1.7775958     -1.8134802     -9.3031889      109.64858    
     14540   106.68794      158.5          158.5          158.5          0.47427618     2.072089      -1.3195529      0.67029242     106.68794    
     14560   108.24462      158.5          158.5          158.5          2.1937322      1.8132093      1.9577656      2.8102216      108.24462    
     14580   115.27743      158.5          158.5          158.5         -2.3979137     -2.4730907      0.36354575    -5.0841962      115.27743    
     14600   97.933724      158.5          158.5          158.5         -0.33676406     1.0325883     -1.7530786     -0.28980192     97.933724    
     14620   105.39894      158.5          158.5          158.5         -1.999532      -2.1055543     -2.9121781     -0.98086363     105.39894    
     14640   108.85606      158.5          158.5          158.5         -4.5668524     -5.1699889     -2.7957401     -5.7348283      108.85606    
     14660   103.76591      158.5          158.5          158.5         -0.059203423   -0.57948978     0.029916724    0.37196279     103.76591    
     14680   109.22643      158.5          158.5          158.5          0.35996832     2.0657513      0.14423852    -1.1300849      109.22643    
     14700   101.76276      158.5          158.5          158.5         -0.11044079     0.78900929    -0.42794982    -0.69238184     101.76276    
     14720   106.28062      158.5          158.5          158.5          4.0259518      1.5779017      2.7222691      7.7776846      106.28062    
     14740   100.14231      158.5          158.5          158.5          1.0856582      1.0646021      1.4151811      0.77719151     100.14231    
     14760   101.39019      158.5          158.5          158.5         -0.79002299    -1.1372555      2.3065246     -3.5393381      101.39019    
     14780   103.71079      158.5          158.5          158.5          1.0325668     -1.5258508      2.6926634      1.9308878      103.71079    
     14800   103.07317      158.5          158.5          158.5         -0.60869001    -0.96111701    -0.63833491    -0.22661812     103.07317    
     14820   103.54441      158.5          158.5          158.5         -1.4668017     -6.5170179      1.349964       0.76664893     103.54441    
     14840   92.117817      158.5          158.5          158.5         -0.30459201    -4.2166124      0.36075245     2.9420839      92.117817    
     14860   94.080574      158.5          158.5          158.5          2.5163286      2.2832783      1.5864236      3.6792838      94.080574    
     14880   102.58442      158.5          158.5          158.5         -0.62777297    -2.4872274     -0.89651556     1.5004241      102.58442    
     14900   97.163522      158.5          158.5          158.5         -0.94471254    -0.68732052    -2.1744629      0.027645772    97.163522    
     14920   92.71476       158.5          158.5          158.5          4.6586123      7.1536739      4.5308705      2.2912925      92.71476     
     14940   92.170254      158.5          158.5          158.5         -1.4163616      0.88806936    -1.7243057     -3.4128485      92.170254    
     14960   104.38183      158.5          158.5          158.5         -2.1812872     -0.91126673    -3.5250759     -2.107519       104.38183    
     14980   101.64804      158.5          158.5          158.5          3.197727       2.0730704      1.5767948      5.9433158      101.64804    
     15000   91.863349      158.5          158.5          158.5         -3.964296      -2.7461073     -3.7807527     -5.3660279      91.863349    
     15020   89.371448      158.5          158.5          158.5         -0.23252271     2.7646986     -1.1072891     -2.3549776      89.371448    
     15040   95.434654      158.5          158.5          158.5          2.6839182      1.8097163      2.0008552      4.2411831      95.434654    
     15060   91.714706      158.5          158.5          158.5         -2.5556834     -2.5971025     -2.1532572     -2.9166905      91.714706    
     15080   107.8783       158.5          158.5          158.5          0.89214826     3.4821192     -0.18516886    -0.6205056      107.8783     
     15100   93.483363      158.5          158.5          158.5          0.52988728     0.94285454     1.6715225     -1.0247152      93.483363    
     15120   98.517624      158.5          158.5          158.5         -2.2226422     -2.2999558     -1.601356      -2.7666148      98.517624    
     15140   103.68581      158.5          158.5          158.5          1.4151699      4.5389796     -2.0025079      1.7090378      103.68581    
     15160   100.52618      158.5          158.5          158.5          0.77129338     1.568413       2.9423321     -2.196865       100.52618    
     15180   102.32549      158.5          158.5          158.5          0.57010457    -1.2624253      3.4229784     -0.45023943     102.32549    
     15200   108.26321      158.5          158.5          158.5          1.1543612      1.1445759     -1.964009       4.2825165      108.26321    
     15220   108.52047      158.5          158.5          158.5          0.69425963     1.4278454      0.61756022     0.037373309    108.52047    
     15240   104.52383      158.5          158.5          158.5         -0.83447029    -3.9940951      2.1338265     -0.64314226     104.52383    
     15260   105.66825      158.5          158.5          158.5         -0.47700954    -3.8702326     -0.28120225     2.7204062      105.66825    
     15280   114.21414      158.5          158.5          158.5          0.11798232    -3.0224416      1.659052       1.7173366      114.21414    
     15300   109.66093      158.5          158.5          158.5         -2.6465029     -4.4272213     -2.6900721     -0.82221539     109.66093    
     15320   104.34067      158.5          158.5          158.5         -0.87528283    -2.7417692      0.45132032    -0.33539954     104.34067    
     15340   113.5005       158.5          158.5          158.5         -0.90714706    -3.2264175      2.7136712     -2.2086949      113.5005     
     15360   108.26788      158.5          158.5          158.5         -2.0964249     -4.3576505     -2.4677974      0.53617328     108.26788    
     15380   100.85173      158.5          158.5          158.5          1.5256607      2.1943119     -0.3223559      2.7050262      100.85173    
     15400   95.128244      158.5          158.5          158.5         -1.5817316     -3.3455499      2.0051473     -3.4047922      95.128244    
     15420   97.402042      158.5          158.5          158.5         -1.0929375     -1.9368527     -1.2498606     -0.092099131    97.402042    
     15440   101.06051      158.5          158.5          158.5          2.5339404      3.5351095     -0.69510106     4.7618127      101.06051    
     15460   92.896611      158.5          158.5          158.5         -2.9319739     -1.0033651     -4.0164246     -3.776132       92.896611    
     15480   96.888621      158.5          158.5          158.5         -1.7000531     -0.33305643    -1.6794592     -3.0876437      96.888621    
     15500   88.372433      158.5          158.5          158.5          2.5733638      1.9114559      2.5683548      3.2402808      88.372433    
     15520   90.685277      158.5          158.5          158.5         -1.6900329     -2.8947091     -0.50723584    -1.6681536      90.685277    
     15540   83.482426      158.5          158.5          158.5         -0.016440661    4.5441928     -1.89313       -2.7003848      83.482426    
     15560   86.22007       158.5          158.5          158.5          2.6522089      5.1849508      2.1163442      0.65533179     86.22007     
     15580   91.414844      158.5          158.5          158.5          0.27027337    -3.3630738      1.7685186      2.4053753      91.414844    
     15600   85.675222      158.5          158.5          158.5          1.8413656      1.7763602      1.5810733      2.1666632      85.675222    
     15620   98.643048      158.5          158.5          158.5          2.7781634      7.7287501     -0.59351333     1.1992533      98.643048    
     15640   99.667089      158.5          158.5          158.5          1.0035352      3.0787718     -0.43175544     0.36358922     99.667089    
     15660   90.231727      158.5          158.5          158.5          0.90108731    -0.72889511     1.7974681      1.6346889      90.231727    
     15680   93.215334      158.5          158.5          158.5          0.67081869     0.11671717    -0.34580662     2.2415455      93.215334    
     15700   99.843974      158.5          158.5          158.5         -1.1575609     -2.3768922     -0.88513814    -0.21065253     99.843974    
     15720   112.17951      158.5          158.5          158.5         -1.8760296     -6.048978       0.94337566    -0.5224863      112.17951    
     15740   99.517013      158.5          158.5          158.5          0.2740649     -2.6874183      2.5296708      0.97994224     99.517013    
     15760   97.384913      158.5          158.5          158.5          0.63455036     0.56410932     1.0307595      0.3087823      97.384913    
     15780   97.450617      158.5          158.5          158.5          0.29533668     0.11893149     0.93613037    -0.16905183     97.450617    
     15800   106.60993      158.5          158.5          158.5          0.94831863     0.40695185     1.243514       1.1944901      106.60993    
     15820   95.223549      158.5          158.5          158.5          1.8100678      2.8203092      1.6700451      0.93984896     95.223549    
     15840   100.00251      158.5          158.5          158.5          0.077437588    1.1297004     -2.3321771      1.4347895      100.00251    
     15860   105.46989      158.5          158.5          158.5          0.039263565    1.1018078     -0.96424218    -0.019774885    105.46989    
     15880   98.3407        158.5          158.5          158.5          1.6476034      2.6299249      0.39851381     1.9143715      98.3407      
     15900   103.43493      158.5          158.5          158.5         -0.94827284    -0.74925115    -2.025525      -0.070042335    103.43493    
     15920   104.659        158.5          158.5          158.5         -1.3636398     -0.81406039    -1.6255698     -1.6512891      104.659      
     15940   94.143305      158.5          158.5          158.5          0.19233971     1.6861537     -0.96016028    -0.14897425     94.143305    
     15960   100.83695      158.5          158.5          158.5         -2.2861837     -0.93842701    -5.6182698     -0.30185424     100.83695    
     15980   101.90621      158.5          158.5          158.5         -2.4238092     -2.5547111     -1.6838588     -3.0328576      101.90621    
     16000   100.87823      158.5          158.5          158.5         -0.81537259    -1.7384537     -0.86363391     0.15596988     100.87823    
     16020   97.418849      158.5          158.5          158.5          0.060773376    0.32727571    -1.1639732      1.0190176      97.418849    
     16040   93.285512      158.5          158.5          158.5         -0.27852281    -0.063588371    2.2261521     -2.9981321      93.285512    
     16060   92.319961      158.5          158.5          158.5         -2.0873145     -4.537289       0.84501627    -2.5696706      92.319961    
     16080   100.17439      158.5          158.5          158.5         -0.32163129    -4.2563738      0.61253013     2.6789498      100.17439    
     16100   97.093156      158.5          158.5          158.5         -1.7771536     -2.7298495     -0.50709365    -2.0945177      97.093156    
     16120   93.734473      158.5          158.5          158.5         -1.380236      -1.3933161     -2.1857219     -0.5616701      93.734473    
     16140   85.240703      158.5          158.5          158.5          3.9837114      0.81851929     6.1041067      5.0285083      85.240703    
     16160   99.629958      158.5          158.5          158.5         -0.83346273    -3.3502862      2.2245424     -1.3746444      99.629958    
     16180   96.309369      158.5          158.5          158.5          0.80048188     3.3665487     -0.75622929    -0.20887379     96.309369    
     16200   87.956033      158.5          158.5          158.5          5.8665708      9.2027499      4.5351233      3.8618392      87.956033    
     16220   90.647394      158.5          158.5          158.5         -0.11714018     0.029738675    2.6613516     -3.0425108      90.647394    
     16240   89.196712      158.5          158.5          158.5          3.0008542      4.8225262      2.4234054      1.7566311      89.196712    
     16260   87.198364      158.5          158.5          158.5          3.2382701      4.7095517      0.65827991     4.3469787      87.198364    
     16280   91.207405      158.5          158.5          158.5         -2.3944888     -2.7334749     -2.3709309     -2.0790605      91.207405    
     16300   93.117662      158.5          158.5          158.5         -0.37235783    -0.6469305      1.8108888     -2.2810318      93.117662    
     16320   92.755815      158.5          158.5          158.5         -2.9994716     -6.2682178     -2.1469788     -0.58321808     92.755815    
     16340   95.543395      158.5          158.5          158.5         -2.5624653     -4.1331962     -3.2849679     -0.2692319      95.543395    
     16360   98.508421      158.5          158.5          158.5         -1.5047142     -1.9421117     -0.62650053    -1.9455303      98.508421    
     16380   97.116278      158.5          158.5          158.5         -2.6032685     -1.773204      -2.3329391     -3.7036626      97.116278    
     16400   106.30181      158.5          158.5          158.5         -0.055009441   -0.0015654587  -0.90651338     0.74305052     106.30181    
     16420   99.753166      158.5          158.5          158.5         -2.4237508     -2.9785901     -3.2584879     -1.0341745      99.753166    
     16440   102.76082      158.5          158.5          158.5          0.36312906     2.6617957      0.6147569     -2.1871654      102.76082    
     16460   98.133803      158.5          158.5          158.5          0.96778871    -0.44798109     3.7213453     -0.36999813     98.133803    
     16480   107.35506      158.5          158.5          158.5         -2.1929422     -5.2050109     -2.126299       0.75248347     107.35506    
     16500   111.27499      158.5          158.5          158.5          3.0515078      4.0351929      0.96434389     4.1549867      111.27499    
     16520   99.315055      158.5          158.5          158.5         -0.35087714    -0.54993215     1.605777      -2.1084763      99.315055    
     16540   96.789354      158.5          158.5          158.5         -0.1711667     -1.2232249     -0.011956885    0.7216817      96.789354    
     16560   115.7452       158.5          158.5          158.5          2.8396622      4.2569053     -0.13664842     4.3987298      115.7452     
     16580   108.37579      158.5          158.5          158.5         -3.4941956     -1.5649523     -6.5789694     -2.338665       108.37579    
     16600   98.877088      158.5          158.5          158.5          1.4882226      3.6963473      1.0798302     -0.31150972     98.877088    
     16620   91.489624      158.5          158.5          158.5          1.9246834      2.2213835      3.2685128      0.28415385     91.489624    
     16640   108.81374      158.5          158.5          158.5         -2.948095      -2.9101249     -2.9301207     -3.0040395      108.81374    
     16660   103.03796      158.5          158.5          158.5          1.3882669      2.8516103      2.2623149     -0.94912437     103.03796    
     16680   103.59997      158.5          158.5          158.5          1.2669146      3.8315219     -0.89481741     0.86403924     103.59997    
     16700   91.855981      158.5          158.5          158.5          0.78787174     2.9071019      2.0363057     -2.5797924      91.855981    
     16720   101.61467      158.5          158.5          158.5          2.1455818      3.2325697      4.1800519     -0.97587626     101.61467    
     16740   97.959714      158.5          158.5          158.5          1.2918105      2.2938905     -1.0845436      2.6660847      97.959714    
     16760   92.784899      158.5          158.5          158.5          2.2585614      2.5336539      1.1256196      3.1164107      92.784899    
     16780   92.906213      158.5          158.5          158.5         -3.3472072     -4.0759224     -3.8879126     -2.0777865      92.906213    
     16800   100.04084      158.5          158.5          158.5         -0.35840656     0.5087545     -3.5188851      1.9349109      100.04084    
     16820   88.827486      158.5          158.5          158.5          1.8483605      0.059591339    0.2820762      5.2034139      88.827486    
     16840   99.279921      158.5          158.5          158.5         -3.7115858     -6.9707456     -1.4854556     -2.6785561      99.279921    
     16860   95.778552      158.5          158.5          158.5          2.7453283      2.0117759      2.8453627      3.3788465      95.778552    
     16880   99.033515      158.5          158.5          158.5          1.7545048      2.7834646     -1.3726388      3.8526887      99.033515    
     16900   88.736303      158.5          158.5          158.5         -3.6147991     -3.4060735     -3.8323401     -3.6059837      88.736303    
     16920   103.59323      158.5          158.5          158.5          1.4238394      1.8771673      0.56755758     1.8267932      103.59323    
     16940   100.5869       158.5          158.5          158.5         -1.7179711     -3.2031876     -0.57089568    -1.3798299      100.5869     
     16960   94.80293       158.5          158.5          158.5         -2.8664415     -3.3708476     -2.3324838     -2.8959933      94.80293     
     16980   99.4938        158.5          158.5          158.5          2.8917008      4.5164988      1.4917162      2.6668873      99.4938      
     17000   103.99989      158.5          158.5          158.5          2.0510657      1.2432373      4.1315405      0.77841949     103.99989    
     17020   92.865653      158.5          158.5          158.5          0.012776821   -1.2169993      1.7534725     -0.49814278     92.865653    
     17040   106.64461      158.5          158.5          158.5         -0.33596581     0.97751287    -3.5523919      1.5669816      106.64461    
     17060   97.646609      158.5          158.5          158.5          1.1433082      3.1007844     -0.14289093     0.4720312      97.646609    
     17080   107.66228      158.5          158.5          158.5         -0.46684138     0.40671243     0.18283502    -1.9900716      107.66228    
     17100   96.275253      158.5          158.5          158.5         -0.27982268     2.0146403     -1.1096966     -1.7444117      96.275253    
     17120   98.159304      158.5          158.5          158.5          2.5668829      3.8723528      2.4250033      1.4032925      98.159304    
     17140   102.52128      158.5          158.5          158.5         -2.3996672     -2.8981959     -1.8236084     -2.4771972      102.52128    
     17160   105.70417      158.5          158.5          158.5         -1.024226      -1.3229695      0.82232536    -2.5720339      105.70417    
     17180   95.29853       158.5          158.5          158.5          1.3302218      2.9156095      0.62248679     0.45256901     95.29853     
     17200   100.43957      158.5          158.5          158.5         -2.0800076     -3.7353824     -1.6017702     -0.90287018     100.43957    
     17220   111.16621      158.5          158.5          158.5          1.0557197     -0.97811489     4.3849893     -0.23971519     111.16621    
     17240   106.50741      158.5          158.5          158.5         -0.14488605    -0.34092919    -0.22389502     0.13016604     106.50741    
     17260   100.94871      158.5          158.5          158.5         -3.6473122     -4.6352111     -3.6220529     -2.6846725      100.94871    
     17280   110.73289      158.5          158.5          158.5         -0.56631724    -0.0059306686  -1.2418408     -0.45118026     110.73289    
     17300   108.31635      158.5          158.5          158.5         -2.1847627     -2.9953883     -2.811108      -0.74779187     108.31635    
     17320   102.32485      158.5          158.5          158.5         -2.4277517     -4.1673479     -1.4932126     -1.6226947      102.32485    
     17340   110.00157      158.5          158.5          158.5          1.9423649      3.4095302      3.2763726     -0.85880807     110.00157    
     17360   104.34798      158.5          158.5          158.5         -0.1082252     -2.2785706      2.8823583     -0.92846327     104.34798    
     17380   107.68032      158.5          158.5          158.5         -1.5082655     -6.1720423      0.24580748     1.4014382      107.68032    
     17400   112.79857      158.5          158.5          158.5          1.465154       2.765338       0.18780839     1.4423156      112.79857    
     17420   108.1166       158.5          158.5          158.5         -0.57292339    -0.41384362    -0.27034805    -1.0345785      108.1166     
     17440   113.27037      158.5          158.5          158.5         -0.62028886    -2.6627657     -0.50214387     1.304043       113.27037    
     17460   113.39525      158.5          158.5          158.5          2.7116876      4.346277       1.9305739      1.8582119      113.39525    
     17480   105.86143      158.5          158.5          158.5         -0.67130899     1.9788345      0.11407914    -4.1068406      105.86143    
     17500   119.20474      158.5          158.5          158.5         -1.1988857     -0.42415509    -1.4463795     -1.7261226      119.20474    
     17520   110.89091      158.5          158.5          158.5          1.7581421     -0.050403682    2.8471051      2.4777248      110.89091    
     17540   110.20383      158.5          158.5          158.5         -0.7489663     -0.42427569     0.26426222    -2.0868854      110.20383    
     17560   103.8522       158.5          158.5          158.5          0.87492807     3.8670029      0.81549974    -2.0577184      103.8522     
     17580   108.47613      158.5          158.5          158.5          2.247154       3.3138577      2.4891177      0.93848654     108.47613    
     17600   102.35399      158.5          158.5          158.5         -0.11829572    -3.9963662      0.7546874      2.8867917      102.35399    
     17620   106.66833      158.5          158.5          158.5          0.92236794     0.22587456     0.64722593     1.8940033      106.66833    
     17640   101.31253      158.5          158.5          158.5          2.4716065      7.3841971     -0.51542728     0.54604967     101.31253    
     17660   94.199821      158.5          158.5          158.5          0.77237291     0.69582421     0.32206831     1.2992262      94.199821    
     17680   105.31542      158.5          158.5          158.5         -0.92090516    -4.7001994      1.5973259      0.3401581      105.31542    
     17700   103.77861      158.5          158.5          158.5          0.95012292     2.907815      -1.3326093      1.275163       103.77861    
     17720   96.985062      158.5          158.5          158.5          0.94703232     3.6615756      1.1382293     -1.9587079      96.985062    
     17740   103.75238      158.5          158.5          158.5         -1.562036      -1.0923462      2.298962      -5.8927237      103.75238    
     17760   109.16102      158.5          158.5          158.5          0.75662539     2.9718951     -0.49807796    -0.20394094     109.16102    
     17780   107.2953       158.5          158.5          158.5          0.48452906     2.9071883     -0.25263953    -1.2009616      107.2953     
     17800   100.89675      158.5          158.5          158.5         -0.90309359     1.2330491      0.28992231    -4.2322522      100.89675    
     17820   106.79868      158.5          158.5          158.5          1.8817385      4.7098235      0.8518711      0.083520947    106.79868    
     17840   97.948295      158.5          158.5          158.5         -0.026215197   -1.2270671     -1.1241393      2.2725608      97.948295    
     17860   112.13275      158.5          158.5          158.5         -0.11430004    -0.54769875    -2.250336       2.4551347      112.13275    
     17880   108.72949      158.5          158.5          158.5          1.8479838      3.2169112     -0.9940594      3.3210997      108.72949    
     17900   110.9023       158.5          158.5          158.5         -1.1345572     -1.1296774     -1.3420667     -0.93192753     110.9023     
     17920   103.74316      158.5          158.5          158.5         -0.56755758    -2.7141785     -1.2710769      2.2825827      103.74316    
     17940   109.13631      158.5          158.5          158.5          1.346109      -0.40672559     1.6017951      2.8432576      109.13631    
     17960   116.44764      158.5          158.5          158.5         -1.7335461     -1.8888117     -0.29850348    -3.0133232      116.44764    
     17980   111.49204      158.5          158.5          158.5         -1.0059114     -1.4372851     -1.7064708      0.12602172     111.49204    
     18000   100.23071      158.5          158.5          158.5          0.69176201     0.19479822     0.94285149     0.93763631     100.23071    
     18020   109.37702      158.5          158.5          158.5         -2.1118679     -4.545277       0.43599559    -2.2263221      109.37702    
     18040   106.7523       158.5          158.5          158.5         -0.9018816     -1.1131032     -1.1318298     -0.46071182     106.7523     
     18060   103.00746      158.5          158.5          158.5          2.5484253      3.1666161      1.8629352      2.6157246      103.00746    
     18080   112.28773      158.5          158.5          158.5         -0.42569532    -1.5974172      1.1505687     -0.83023742     112.28773    
     18100   90.141199      158.5          158.5          158.5          0.016987844   -0.34188315     0.29375961     0.099087076    90.141199    
     18120   92.618841      158.5          158.5          158.5          2.4471822      4.1916578      0.96172188     2.1881669      92.618841    
     18140   103.34987      158.5          158.5          158.5         -1.6176218     -2.5109252      0.22955563    -2.5714958      103.34987    
     18160   92.985838      158.5          158.5          158.5         -0.62492287    -3.0297469      0.7518089      0.40316937     92.985838    
     18180   96.200017      158.5          158.5          158.5          2.588094       2.3411669      1.3762908      4.0468244      96.200017    
     18200   94.831274      158.5          158.5          158.5         -2.0953157      0.38938126    -3.7358891     -2.9394392      94.831274    
     18220   100.36742      158.5          158.5          158.5          0.47229186     5.0691061     -3.6201259     -0.032104626    100.36742    
     18240   88.574002      158.5          158.5          158.5          3.4455886      4.3195592      2.8115267      3.2056799      88.574002    
     18260   94.479096      158.5          158.5          158.5         -0.7376581     -1.8076838      0.82676128    -1.2320518      94.479096    
     18280   91.724347      158.5          158.5          158.5          1.5828888      6.4594207     -1.6248131     -0.085941171    91.724347    
     18300   104.01613      158.5          158.5          158.5          1.4098382      4.3166963     -1.0750127      0.98783098     104.01613    
     18320   95.929364      158.5          158.5          158.5         -0.46810643    -3.0731608      2.4925825     -0.82374094     95.929364    
     18340   101.48188      158.5          158.5          158.5          0.72076695     1.6271443      3.528382      -2.9932254      101.48188    
     18360   98.265472      158.5          158.5          158.5          0.20966721     4.6935756     -0.88947697    -3.175097       98.265472    
     18380   99.95111       158.5          158.5          158.5         -0.067964084    0.67962983    -0.23045395    -0.65306813     99.95111     
     18400   103.5639       158.5          158.5          158.5         -0.60423229    -2.9231156      2.490156      -1.3797373      103.5639     
     18420   101.68412      158.5          158.5          158.5         -0.3040436     -1.7863502     -0.59151478     1.4657342      101.68412    
     18440   104.56113      158.5          158.5          158.5          0.9054642      1.5996038     -0.5014603      1.6182491      104.56113    
     18460   103.69532      158.5          158.5          158.5         -1.1501547     -5.1549592      1.7712601     -0.066765036    103.69532    
     18480   107.29381      158.5          158.5          158.5          0.97782756    -3.1372606      2.5169476      3.5537956      107.29381    
     18500   108.93438      158.5          158.5          158.5         -1.4716737     -2.0585496     -1.0465902     -1.3098813      108.93438    
     18520   104.49758      158.5          158.5          158.5         -2.7388208     -3.8343095     -2.2024736     -2.1796793      104.49758    
     18540   108.08055      158.5          158.5          158.5         -0.29878538    -2.8495523     -0.21827809     2.1714743      108.08055    
     18560   99.436732      158.5          158.5          158.5         -4.2753483     -6.3661578     -3.3398605     -3.1200266      99.436732    
     18580   104.16757      158.5          158.5          158.5         -2.941575      -3.4662182     -2.5488313     -2.8096755      104.16757    
     18600   97.368918      158.5          158.5          158.5         -0.18048183     1.0781064     -1.1531094     -0.4664425      97.368918    
     18620   100.92372      158.5          158.5          158.5         -1.4941425     -1.4049657     -0.83513493    -2.2423268      100.92372    
     18640   96.379539      158.5          158.5          158.5          0.56685578     0.006976475    1.8784313     -0.18484049     96.379539    
     18660   97.768382      158.5          158.5          158.5          0.65254064     1.8142489      0.32317107    -0.17979807     97.768382    
     18680   97.327756      158.5          158.5          158.5          0.56757822     2.4199822      1.7288458     -2.4460933      97.327756    
     18700   96.948198      158.5          158.5          158.5          0.033246591    0.43318532     0.94968822    -1.2831338      96.948198    
     18720   94.627118      158.5          158.5          158.5          2.3545152      5.383579       1.6200921      0.059874348    94.627118    
     18740   99.227508      158.5          158.5          158.5         -0.05449156     2.5040621      0.516259      -3.1837958      99.227508    
     18760   92.071198      158.5          158.5          158.5         -2.2922398     -1.593645      -2.9041598     -2.3789146      92.071198    
     18780   101.43893      158.5          158.5          158.5          2.9938329      4.6605958      0.22713591     4.093767       101.43893    
     18800   92.011753      158.5          158.5          158.5         -2.0637315     -1.4499944     -2.8054872     -1.9357129      92.011753    
     18820   93.833259      158.5          158.5          158.5         -1.6615634     -3.1534239     -1.1776433     -0.65362291     93.833259    
     18840   92.527446      158.5          158.5          158.5          4.6775688      4.1503611      3.6489655      6.2333798      92.527446    
     18860   92.364323      158.5          158.5          158.5         -2.1004066     -4.3454618     -1.1772272     -0.77853072     92.364323    
     18880   105.2028       158.5          158.5          158.5          1.3336363      0.19299273     2.5924562      1.2154601      105.2028     
     18900   107.39104      158.5          158.5          158.5          1.5873161     -0.16877993     1.5420172      3.3887111      107.39104    
     18920   101.22501      158.5          158.5          158.5         -3.9260519     -5.4291199     -5.7040717     -0.64496395     101.22501    
     18940   112.52657      158.5          158.5          158.5         -0.32652755    -2.9942391     -0.73282987     2.7474863      112.52657    
     18960   106.03732      158.5          158.5          158.5         -0.45485897    -3.7265183      0.58780581     1.7741356      106.03732    
     18980   100.96625      158.5          158.5          158.5          0.36453982     0.22266043     1.3681874     -0.49722839     100.96625    
     19000   111.06791      158.5          158.5          158.5          1.9434369      3.3027323     -0.65917134     3.1867496      111.06791    
     19020   99.465449      158.5          158.5          158.5          1.3960627      2.2105622     -1.4496921      3.427318       99.465449    
     19040   104.3331       158.5          158.5          158.5          1.7023509      2.9024531      1.9913326      0.21326694     104.3331     
     19060   116.31994      158.5          158.5          158.5         -0.40910215    -0.0082532433   0.91704333    -2.1360965      116.31994    
     19080   107.0176       158.5          158.5          158.5         -1.6086888     -2.7388032     -3.5429644      1.4557011      107.0176     
     19100   107.39374      158.5          158.5          158.5         -0.80193751     0.42652749    -2.6015722     -0.23076779     107.39374    
     19120   110.70631      158.5          158.5          158.5         -0.84702795     0.049976906    1.1918052     -3.7828659      110.70631    
     19140   114.49         158.5          158.5          158.5          0.23314739     0.64360745     0.78381893    -0.72798421     114.49       
     19160   110.68925      158.5          158.5          158.5          0.24135208     1.2212006      0.052399805   -0.54954412     110.68925    
     19180   88.083388      158.5          158.5          158.5          1.2833168      3.0785659      0.59552633     0.17585812     88.083388    
     19200   97.504167      158.5          158.5          158.5         -1.4055967     -2.6877333      0.24320215    -1.7722591      97.504167    
     19220   86.308287      158.5          158.5          158.5         -3.2832987     -4.2204655     -3.0430924     -2.5863382      86.308287    
     19240   78.556564      158.5          158.5          158.5          1.5811334      1.679031      -1.0270124      4.0913815      78.556564    
     19260   93.859772      158.5          158.5          158.5         -0.026675711   -0.8327501     -1.2056683      1.9583913      93.859772    
     19280   93.48426       158.5          158.5          158.5         -0.75784968    -1.2701         1.2551182     -2.2585672      93.48426     
     19300   88.214252      158.5          158.5          158.5          2.4294147      3.5181729      2.8648653      0.90520578     88.214252    
     19320   97.463687      158.5          158.5          158.5         -1.6136104     -2.6731428     -3.4149908      1.2473025      97.463687    
     19340   87.871365      158.5          158.5          158.5         -0.70124155    -3.5119439      2.3898535     -0.98163425     87.871365    
     19360   94.992799      158.5          158.5          158.5          2.0803453      0.88865433     5.3671131     -0.014731497    94.992799    
     19380   90.639416      158.5          158.5          158.5          0.58441728     1.3997753     -1.8276258      2.1811023      90.639416    
     19400   104.06406      158.5          158.5          158.5          0.63577174     1.5664293     -1.2943317      1.6352176      104.06406    
     19420   102.52145      158.5          158.5          158.5          2.0160192      2.8786224      4.2685243     -1.0990892      102.52145    
     19440   109.35065      158.5          158.5          158.5         -0.31568668    -0.61199676     1.1922925     -1.5273557      109.35065    
     19460   102.84197      158.5          158.5          158.5         -1.0287421     -0.43934543    -2.2584715     -0.38840948     102.84197    
     19480   97.592642      158.5          158.5          158.5          2.3000252      5.4539778      0.89221405     0.55388358     97.592642    
     19500   103.9634       158.5          158.5          158.5          2.2343529      4.3947289      2.750598      -0.44226832     103.9634     
     19520   98.08591       158.5          158.5          158.5          2.1177019      4.3262603      0.6188222      1.4080233      98.08591     
     19540   106.70428      158.5          158.5          158.5          1.9686331      3.2163694      0.84933555     1.8401942      106.70428    
     19560   103.6581       158.5          158.5          158.5         -0.79788518     0.83350596    -1.0475778     -2.1795837      103.6581     
     19580   104.65274      158.5          158.5          158.5         -0.77329808    -0.75815049    -0.042596869   -1.5191469      104.65274    
     19600   108.73642      158.5          158.5          158.5         -0.26061609     0.72416901    -0.93767764    -0.56833962     108.73642    
     19620   115.67677      158.5          158.5          158.5         -2.9906212     -3.4862859     -2.7083031     -2.7772746      115.67677    
     19640   95.337737      158.5          158.5          158.5         -2.7414752     -5.3644805     -1.0385561     -1.8213891      95.337737    
     19660   97.525067      158.5          158.5          158.5         -1.4656739      1.0144704     -4.8650618     -0.54643039     97.525067    
     19680   107.01288      158.5          158.5          158.5         -2.2435055     -2.359802      -3.0090748     -1.3616398      107.01288    
     19700   105.61774      158.5          158.5          158.5         -2.719099      -9.3973357      2.6745253     -1.4344868      105.61774    
     19720   99.255826      158.5          158.5          158.5         -1.6290191     -5.2500662     -0.80250688     1.1655159      99.255826    
     19740   99.52725       158.5          158.5          158.5         -1.2628387      0.31123054    -3.6897493     -0.4099974      99.52725     
     19760   99.132636      158.5          158.5          158.5         -0.84108482    -2.4025023      1.6024062     -1.7231583      99.132636    
     19780   101.456        158.5          158.5          158.5          0.81830412    -1.4380902      1.9773775      1.9156251      101.456      
     19800   98.051308      158.5          158.5          158.5         -1.1215476      1.0653698     -3.7763915     -0.65362123     98.051308    
     19820   99.910483      158.5          158.5          158.5          0.7912852      3.1001414      0.63094698    -1.3572328      99.910483    
     19840   86.434011      158.5          158.5          158.5          1.4340584     -1.1419045      3.6663633      1.7777164      86.434011    
     19860   92.925041      158.5          158.5          158.5         -0.89093573    -2.2877369      0.5971847     -0.98225498     92.925041    
     19880   96.311996      158.5          158.5          158.5          3.0050363      4.3801281      1.8290308      2.80595        96.311996    
     19900   82.25811       158.5          158.5          158.5          2.1564866      1.6906086      0.25428381     4.5245673      82.25811     
     19920   98.097956      158.5          158.5          158.5         -0.72062538    -2.5161043      0.61746799    -0.26323985     98.097956    
     19940   84.361424      158.5          158.5          158.5          1.8896483     -0.11107528     4.8792247      0.90079548     84.361424    
     19960   91.449018      158.5          158.5          158.5          1.0561491      0.61515613    -0.54589352     3.0991845      91.449018    
     19980   97.105107      158.5          158.5          158.5          0.51084173     2.8459383     -0.61271187    -0.7007012      97.105107    
     20000   90.440346      158.5          158.5          158.5         -0.67721957     0.048337062   -0.23600083    -1.843995       90.440346    
     20020   99.537619      158.5          158.5          158.5         -1.7201716     -2.8487161     -2.6170668      0.30526807     99.537619    
     20040   101.27744      158.5          158.5          158.5         -2.1613878     -1.2903926     -1.9741872     -3.2195837      101.27744    
     20060   102.86449      158.5          158.5          158.5         -2.8282349     -3.5480848     -4.0476763     -0.88894376     102.86449    
     20080   98.232474      158.5          158.5          158.5          0.51335094     0.73844996    -0.67171721     1.4733201      98.232474    
     20100   114.31235      158.5          158.5          158.5          0.078753023    1.6597337      0.30457846    -1.7280531      114.31235    
     20120   108.28623      158.5          158.5          158.5          0.42982294     2.4959918     -0.81933689    -0.38718613     108.28623    
     20140   104.41469      158.5          158.5          158.5          1.7381399      4.117093       0.91316636     0.18416045     104.41469    
     20160   121.50386      158.5          158.5          158.5         -0.73678739    -2.501647      -0.7090377      1.0003225      121.50386    
     20180   122.17173      158.5          158.5          158.5         -0.15487826    -2.2121409     -1.0199582      2.7674644      122.17173    
     20200   106.26609      158.5          158.5          158.5          0.043113785    1.3951329     -0.21245307    -1.0533385      106.26609    
     20220   103.76738      158.5          158.5          158.5          0.71267269     2.8078797      0.24874847    -0.91861011     103.76738    
     20240   100.99519      158.5          158.5          158.5          2.3686584      2.9818183      1.5288243      2.5953326      100.99519    
     20260   118.14677      158.5          158.5          158.5          0.13659635    -1.3223438     -0.023503718    1.7556366      118.14677    
     20280   117.6687       158.5          158.5          158.5         -1.021195      -0.64966165    -2.1874417     -0.22648179     117.6687     
     20300   112.04472      158.5          158.5          158.5          0.20210132     1.0388896     -2.1373799      1.7047944      112.04472    
     20320   104.69948      158.5          158.5          158.5          1.1048843      0.34730487    -0.5861036      3.5534517      104.69948    
     20340   108.22228      158.5          158.5          158.5         -0.16377676    -1.0124607      0.93519722    -0.4140668      108.22228    
     20360   115.88732      158.5          158.5          158.5          1.8226497     -0.69849799     0.97781721     5.1886299      115.88732    
     20380   105.36979      158.5          158.5          158.5          1.0803595     -0.24230523    -1.6393786      5.1227623      105.36979    
     20400   91.804502      158.5          158.5          158.5         -0.51912974     0.059572888   -0.41662955    -1.2003326      91.804502    
     20420   103.03077      158.5          158.5          158.5          1.9920445      1.4508162      3.6510094      0.87430797     103.03077    
     20440   101.3704       158.5          158.5          158.5         -1.8202968     -5.836767      -1.4115534      1.7874302      101.3704     
     20460   98.280437      158.5          158.5          158.5         -1.0883846     -0.53564813    -2.3175974     -0.41190826     98.280437    
     20480   100.02506      158.5          158.5          158.5          1.0114231      4.163519       0.71430182    -1.8435514      100.02506    
     20500   90.304268      158.5          158.5          158.5         -1.7945279     -2.3646458      0.48413525    -3.503073       90.304268    
     20520   97.001998      158.5          158.5          158.5         -0.10249958     1.0349092      0.82857998    -2.170988       97.001998    
     20540   101.97366      158.5          158.5          158.5          0.74156771     5.7210838     -2.0906017     -1.405779       101.97366    
     20560   100.56644      158.5          158.5          158.5         -0.95448355     2.5365037     -1.9630333     -3.4369211      100.56644    
     20580   92.973306      158.5          158.5          158.5          0.055429135   -2.6374246      1.4348625      1.3688495      92.973306    
     20600   98.635629      158.5          158.5          158.5         -1.2155053     -5.1498526      1.0188725      0.48446422     98.635629    
     20620   102.59652      158.5          158.5          158.5         -0.10350583     1.3762876      0.62074825    -2.3075534      102.59652    
     20640   103.61519      158.5          158.5          158.5         -0.46632692     0.67619404    -2.3478199      0.27264505     103.61519    
     20660   104.79733      158.5          158.5          158.5         -1.7036394     -3.7122514     -2.7547058      1.3560389      104.79733    
     20680   91.009989      158.5          158.5          158.5          1.1140818      0.88403008     2.2350636      0.22315181     91.009989    
     20700   99.908165      158.5          158.5          158.5          0.15893845     1.8961668     -0.80318872    -0.61616278     99.908165    
     20720   103.71425      158.5          158.5          158.5         -0.49520578     2.1418268     -3.7607498      0.13330559     103.71425    
     20740   105.68377      158.5          158.5          158.5          2.3045642      2.5329936      2.9488225      1.4318765      105.68377    
     20760   101.64267      158.5          158.5          158.5         -0.4583722     -2.910496       0.11989169     1.4154877      101.64267    
     20780   96.270425      158.5          158.5          158.5         -2.2718916     -1.8068042     -6.3049807      1.2961101      96.270425    
     20800   107.32757      158.5          158.5          158.5          1.5373896      3.6178906      0.55627782     0.43800046     107.32757    
     20820   100.35102      158.5          158.5          158.5         -0.52789461    -3.0009631      1.3114086      0.1058707      100.35102    
     20840   106.9945       158.5          158.5          158.5         -1.0897283     -2.9136735     -0.99945935     0.64394778     106.9945     
     20860   94.629689      158.5          158.5          158.5          1.818378       0.99971447     2.3057591      2.1496605      94.629689    
     20880   90.173118      158.5          158.5          158.5          0.64943295     1.2678929     -0.30257691     0.98298285     90.173118    
     20900   106.13616      158.5          158.5          158.5         -0.063472628    1.3888882     -0.72937707    -0.849929       106.13616    
     20920   107.38226      158.5          158.5          158.5         -0.58952616    -3.6260773      1.4606396      0.39685913     107.38226    
     20940   103.30876      158.5          158.5          158.5         -1.4215926     -2.8068868      1.2874648     -2.7453558      103.30876    
     20960   96.180996      158.5          158.5          158.5          0.054904202    2.9151368      1.1536813     -3.9041055      96.180996    
     20980   105.26649      158.5          158.5          158.5         -0.95551517    -2.3491383      2.4534802     -2.9708874      105.26649    
     21000   104.46125      158.5          158.5          158.5         -0.23981212    -1.1667161      1.0296374     -0.58235769     104.46125    
     21020   114.58659      158.5          158.5          158.5          0.096398387    1.9068557      0.7796138     -2.3972743      114.58659    
     21040   102.34262      158.5          158.5          158.5          0.41722012     4.0366681      1.513279      -4.2982867      102.34262    
     21060   89.645509      158.5          158.5          158.5          1.6345519      2.6463251      2.7145899     -0.45725941     89.645509    
     21080   106.3124       158.5          158.5          158.5          0.90807493     0.63654288     2.1399317     -0.052249729    106.3124     
     21100   107.76298      158.5          158.5          158.5          0.48011826     2.7019153      1.5996133     -2.8611738      107.76298    
     21120   104.67131      158.5          158.5          158.5         -0.74980673     1.3676904     -0.4976276     -3.119483       104.67131    
     21140   105.31378      158.5          158.5          158.5         -0.75118597    -1.1780358      0.12669177    -1.2022139      105.31378    
     21160   102.05833      158.5          158.5          158.5          0.1636832     -0.73442477    -0.24309018     1.4685646      102.05833    
     21180   113.58343      158.5          158.5          158.5         -1.8099367     -1.8762726     -5.5074213      1.9538839      113.58343    
     21200   123.41939      158.5          158.5          158.5          0.49925081     3.501558      -2.092439       0.088633491    123.41939    
     21220   121.60425      158.5          158.5          158.5          0.71732912    -0.31819692     1.3673013      1.102883       121.60425    
     21240   109.53585      158.5          158.5          158.5         -0.87834242    -6.9717177     -1.2371138      5.5738042      109.53585    
     21260   108.57424      158.5          158.5          158.5          2.0189382     -0.46266382     2.2900889      4.2293897      108.57424    
     21280   114.37124      158.5          158.5          158.5         -0.074262914    0.015261072    1.1035325     -1.3415823      114.37124    
     21300   118.21878      158.5          158.5          158.5         -0.4275991     -1.5930807     -1.7553984      2.0656818      118.21878    
     21320   103.94149      158.5          158.5          158.5          1.1594058     -0.68075844    -0.09733597     4.2563118      103.94149    
     21340   103.39366      158.5          158.5          158.5         -0.79654899     0.59375314    -0.96986736    -2.0135327      103.39366    
     21360   98.335822      158.5          158.5          158.5          1.2569385      4.1021884     -0.90272398     0.57135101     98.335822    
     21380   105.82379      158.5          158.5          158.5          1.675311       1.3332977      2.168785       1.5238501      105.82379    
     21400   107.56419      158.5          158.5          158.5          0.46709683    -1.1724903      3.6191345     -1.0453537      107.56419    
     21420   105.732        158.5          158.5          158.5          2.4274718      3.8162017      2.6439933      0.82222041     105.732      
     21440   104.86118      158.5          158.5          158.5          1.2325698      5.2153217     -0.574033      -0.94357926     104.86118    
     21460   108.59558      158.5          158.5          158.5         -0.75372435     0.14895366    -1.7260091     -0.68411764     108.59558    
     21480   108.15904      158.5          158.5          158.5          1.3401782     -1.0656592      2.421261       2.6649329      108.15904    
     21500   108.52122      158.5          158.5          158.5         -1.003304       0.14851157     1.7126365     -4.87106        108.52122    
     21520   95.676324      158.5          158.5          158.5         -1.0302342      0.31472624     0.8606708     -4.2660997      95.676324    
     21540   94.848543      158.5          158.5          158.5          2.4568936      4.8640992      0.25881664     2.247765       94.848543    
     21560   109.61801      158.5          158.5          158.5         -2.1149632     -0.12478852    -4.5288094     -1.6912918      109.61801    
     21580   110.84106      158.5          158.5          158.5         -2.816004      -4.2881858     -1.6705517     -2.4892746      110.84106    
     21600   104.57542      158.5          158.5          158.5          0.51410941     2.5621765     -2.0444539      1.0246056      104.57542    
     21620   98.833184      158.5          158.5          158.5         -2.8398474     -2.3169327     -5.3384318     -0.86417759     98.833184    
     21640   101.42767      158.5          158.5          158.5         -1.486256      -4.7343889      0.013363703    0.26225711     101.42767    
     21660   110.14408      158.5          158.5          158.5          1.4307848     -1.459642       1.1527897      4.5992066      110.14408    
     21680   108.71287      158.5          158.5          158.5         -2.2188273     -4.6307703     -0.84330443    -1.1824073      108.71287    
     21700   107.91017      158.5          158.5          158.5          0.31288961     0.86664877     0.44017202    -0.36815197     107.91017    
     21720   105.65132      158.5          158.5          158.5          2.4577259      1.406487       1.4368548      4.5298358      105.65132    
     21740   112.00943      158.5          158.5          158.5          0.15414814    -3.1196507      2.257606       1.3244892      112.00943    
     21760   112.81425      158.5          158.5          158.5          1.8186231      2.8607108      2.0618821      0.53327659     112.81425    
     21780   110.65236      158.5          158.5          158.5          1.5318513      2.9259702     -0.77924091     2.4488245      110.65236    
     21800   111.72869      158.5          158.5          158.5         -1.6963136     -4.0418106     -1.513822       0.46669188     111.72869    
     21820   109.07573      158.5          158.5          158.5         -0.51138921    -1.0241432      1.6402168     -2.1502411      109.07573    
     21840   103.0848       158.5          158.5          158.5          0.64582918     1.7076377      0.24652148    -0.016671645    103.0848     
     21860   123.33941      158.5          158.5          158.5         -0.72077098     0.10332993    -0.90894759    -1.3566953      123.33941    
     21880   117.84666      158.5          158.5          158.5          1.2309775      0.32844324     2.6541448      0.71034447     117.84666    
     21900   112.90277      158.5          158.5          158.5          0.54535232    -0.79281466     1.8493885      0.57948313     112.90277    
     21920   109.43669      158.5          158.5          158.5         -2.5625044      1.4333526     -0.28567031    -8.8351954      109.43669    
     21940   115.97441      158.5          158.5          158.5          1.5418426      4.9276736      1.144766      -1.4469119      115.97441    
     21960   116.93445      158.5          158.5          158.5          0.28841793     0.35206526    -1.404828       1.9180165      116.93445    
     21980   108.73574      158.5          158.5          158.5         -0.96340256     1.6482393      0.65314895    -5.1915959      108.73574    
     22000   106.31663      158.5          158.5          158.5          3.3153964      7.2337954      2.9778804     -0.26548679     106.31663    
     22020   99.419049      158.5          158.5          158.5          0.14902931     2.4211398     -2.8887919      0.91474002     99.419049    
     22040   111.18129      158.5          158.5          158.5         -0.57172982     1.2692895      0.84410859    -3.8285876      111.18129    
     22060   106.72176      158.5          158.5          158.5          0.51758595     1.6372618      0.73520745    -0.81971134     106.72176    
     22080   96.455299      158.5          158.5          158.5         -0.19529409    -2.0730973     -0.48160971     1.9688247      96.455299    
     22100   98.351782      158.5          158.5          158.5         -2.0721263     -3.4242908     -0.73955273    -2.0525354      98.351782    
     22120   106.13025      158.5          158.5          158.5         -0.53711391    -3.4551111      1.5777497      0.26601961     106.13025    
     22140   113.80306      158.5          158.5          158.5          0.55328455    -2.3528936      2.0208042      1.991943       113.80306    
     22160   98.622336      158.5          158.5          158.5         -2.3991358     -3.8482939      0.14535279    -3.4944664      98.622336    
     22180   112.86962      158.5          158.5          158.5          0.59266593    -2.0027265      0.89855203     2.8821723      112.86962    
     22200   99.459276      158.5          158.5          158.5          0.65436263    -1.4715332     -1.2341667      4.6687878      99.459276    
     22220   111.2771       158.5          158.5          158.5         -1.6563571     -1.8671165     -1.8514223     -1.2505323      111.2771     
     22240   107.5105       158.5          158.5          158.5          0.60770917    -1.3417038      1.5756656      1.5891657      107.5105     
     22260   101.27563      158.5          158.5          158.5         -2.5091222     -4.4923175     -2.8991865     -0.13586261     101.27563    
     22280   103.90828      158.5          158.5          158.5         -1.863814      -2.4866725     -2.6051543     -0.49961512     103.90828    
     22300   110.08267      158.5          158.5          158.5         -0.36767533     0.46843336    -0.85803718    -0.71342217     110.08267    
     22320   106.79268      158.5          158.5          158.5         -1.2050166      1.9009111     -0.84819428    -4.6677666      106.79268    
     22340   108.77283      158.5          158.5          158.5          1.1105898      3.8079992      1.7620829     -2.2383126      108.77283    
     22360   98.354794      158.5          158.5          158.5          1.3815824      3.5945373     -0.2827416      0.83295138     98.354794    
     22380   102.09845      158.5          158.5          158.5          0.65752684     2.4184501     -1.4170372      0.97116764     102.09845    
     22400   112.96506      158.5          158.5          158.5          0.70181587     3.1625395      0.017351162   -1.0744431      112.96506    
     22420   103.52852      158.5          158.5          158.5         -0.2041753     -0.1045117     -1.2724026      0.76438842     103.52852    
     22440   95.557676      158.5          158.5          158.5          1.3447295      0.35843787     0.47747243     3.1982783      95.557676    
     22460   101.87237      158.5          158.5          158.5         -0.34503918     1.0439046      0.36897032    -2.4479925      101.87237    
     22480   105.43677      158.5          158.5          158.5         -0.27689364     0.16093096     1.5285612     -2.5201731      105.43677    
     22500   103.74595      158.5          158.5          158.5          1.7360182      0.19351026     3.6420185      1.3725258      103.74595    
     22520   100.111        158.5          158.5          158.5          0.42700819    -0.40522125    -0.35153829     2.0377841      100.111      
     22540   101.29232      158.5          158.5          158.5          0.45463665     1.5479746     -0.81383924     0.62977464     101.29232    
     22560   93.492442      158.5          158.5          158.5          0.16188427     0.92146979    -0.068369809   -0.36744715     93.492442    
     22580   108.78896      158.5          158.5          158.5          0.71700188     0.90648581    -0.35014043     1.5946603      108.78896    
     22600   106.56346      158.5          158.5          158.5         -1.1502613     -0.74377298    -4.8981657      2.1911548      106.56346    
     22620   93.38296       158.5          158.5          158.5         -2.6158781     -1.8457659     -5.5680421     -0.43382622     93.38296     
     22640   101.52827      158.5          158.5          158.5         -0.34902856    -1.9397374      0.93381298    -0.041161208    101.52827    
     22660   105.52554      158.5          158.5          158.5         -2.3458986     -6.7068234     -1.5080281      1.1771558      105.52554    
     22680   104.50242      158.5          158.5          158.5          0.7492362     -0.068602507   -1.3648161      3.6811272      104.50242    
     22700   103.73884      158.5          158.5          158.5          1.0841127      2.5193978     -1.2164548      1.9493951      103.73884    
     22720   106.02329      158.5          158.5          158.5         -1.8699859     -2.5071144     -2.6060686     -0.49677476     106.02329    
     22740   107.43774      158.5          158.5          158.5          2.2116125      2.4716962      0.80542719     3.357714       107.43774    
     22760   106.12728      158.5          158.5          158.5         -0.19093172     1.528087      -1.5167507     -0.58413145     106.12728    
     22780   111.08821      158.5          158.5          158.5         -1.6274304      0.66440325    -3.2511124     -2.295582       111.08821    
     22800   121.27479      158.5          158.5          158.5          0.85348287     2.2965153      0.13448404     0.12944928     121.27479    
     22820   107.79212      158.5          158.5          158.5         -1.9159716     -2.0254694     -1.811226      -1.9112193      107.79212    
     22840   101.58573      158.5          158.5          158.5          0.9759079     -1.0651245      3.2579938      0.73485447     101.58573    
     22860   121.88531      158.5          158.5          158.5          1.7081312      1.5819606      3.1421128      0.4003203      121.88531    
     22880   108.13026      158.5          158.5          158.5         -0.073736432   -2.4243716      2.0804269      0.12273542     108.13026    
     22900   113.17649      158.5          158.5          158.5          0.98704781    -2.4548376      5.2996643      0.11631669     113.17649    
     22920   117.84387      158.5          158.5          158.5          1.6069895      3.3025264      1.6965028     -0.17806062     117.84387    
     22940   115.69904      158.5          158.5          158.5         -1.46555       -0.97678228    -2.7674106     -0.65245724     115.69904    
     22960   117.41548      158.5          158.5          158.5         -1.9906669     -4.2154056     -1.1432426     -0.61335259     117.41548    
     22980   107.49285      158.5          158.5          158.5          0.010843972    0.22855213     0.53365824    -0.72967845     107.49285    
     23000   114.27239      158.5          158.5          158.5         -1.7857276     -2.0343942     -0.82937907    -2.4934095      114.27239    
     23020   108.61415      158.5          158.5          158.5         -0.99541913    -0.77913077     0.8094447     -3.0165713      108.61415    
     23040   115.71118      158.5          158.5          158.5          2.9678605      2.5206251      4.2015018      2.1814545      115.71118    
     23060   108.59438      158.5          158.5          158.5         -0.67264143    -0.42280189    -2.2106197      0.61549732     108.59438    
     23080   102.61409      158.5          158.5          158.5         -0.22677478     2.3690747     -2.7867937     -0.26260534     102.61409    
     23100   105.68707      158.5          158.5          158.5          2.1281312      2.3656209      3.2829428      0.73583001     105.68707    
     23120   102.93422      158.5          158.5          158.5         -1.2974722     -2.1063789     -1.7362231     -0.049814729    102.93422    
     23140   107.52041      158.5          158.5          158.5         -0.40104602     0.17015251    -2.1428419      0.76955139     107.52041    
     23160   109.93779      158.5          158.5          158.5          2.621943       4.0796481      4.3285201     -0.54233913     109.93779    
     23180   102.90802      158.5          158.5          158.5         -0.65821296    -0.045111964   -0.12748265    -1.8020443      102.90802    
     23200   105.9223       158.5          158.5          158.5         -1.0248197      0.8784637     -4.5308893      0.57796659     105.9223     
     23220   108.00187      158.5          158.5          158.5          2.1152719      5.5546963     -0.40042539     1.1915447      108.00187    
     23240   103.79849      158.5          158.5          158.5         -0.21853335     0.077218514    1.5042259     -2.2370445      103.79849    
     23260   102.48024      158.5          158.5          158.5         -1.3717815     -2.7377091     -0.14626672    -1.2313686      102.48024    
     23280   99.297665      158.5          158.5          158.5          1.4933527      0.79342314     1.1672876      2.5193472      99.297665    
     23300   112.81263      158.5          158.5          158.5         -3.0369894     -7.3643301     -0.55539779    -1.1912403      112.81263    
     23320   108.11798      158.5          158.5          158.5         -2.0708303     -3.2146986      0.48823048    -3.4860229      108.11798    
     23340   109.03475      158.5          158.5          158.5          2.3298674      5.0267318      2.8745044     -0.91163405     109.03475    
     23360   100.29306      158.5          158.5          158.5          0.08607923    -2.3584326      2.4342253      0.18244502     100.29306    
     23380   114.15451      158.5          158.5          158.5          0.46703926    -2.7699823      2.7902052      1.3808949      114.15451    
     23400   117.4718       158.5          158.5          158.5          0.76150147     3.7144899      0.36720521    -1.7971907      117.4718     
     23420   101.82669      158.5          158.5          158.5         -1.6439912     -0.625802      -2.4994593     -1.8067124      101.82669    
     23440   104.75502      158.5          158.5          158.5          1.0767981     -1.114206       0.6344294      3.7101709      104.75502    
     23460   112.23925      158.5          158.5          158.5          1.9011812      1.2717087      3.8728295      0.55900542     112.23925    
     23480   100.98565      158.5          158.5          158.5         -1.271893       0.014243453   -0.51914445    -3.310778       100.98565    
     23500   100.2669       158.5          158.5          158.5          1.9406354      2.3895497      1.298827       2.1335295      100.2669     
     23520   104.80914      158.5          158.5          158.5         -1.0728448     -1.526861      -1.032432      -0.65924134     104.80914    
     23540   105.8218       158.5          158.5          158.5         -1.5330262     -0.082595233   -4.8252326      0.30874937     105.8218     
     23560   100.03223      158.5          158.5          158.5          2.4441347      2.6541647      1.2152043      3.463035       100.03223    
     23580   111.57276      158.5          158.5          158.5         -0.30333568    -1.5864355      0.509904       0.16652442     111.57276    
     23600   97.072317      158.5          158.5          158.5          2.3406483      6.066088      -1.8289334      2.7847903      97.072317    
     23620   95.35444       158.5          158.5          158.5          0.1116362      1.8454313     -1.6687065      0.15818372     95.35444     
     23640   99.758681      158.5          158.5          158.5         -2.3093688     -3.221223       0.84444909    -4.5513325      99.758681    
     23660   96.155521      158.5          158.5          158.5          0.90464291     2.2522759      0.32058871     0.14106416     96.155521    
     23680   98.81007       158.5          158.5          158.5         -2.7931761     -1.5015778     -3.3122978     -3.5656527      98.81007     
     23700   97.057341      158.5          158.5          158.5          1.2394803     -0.90611788     3.2973537      1.3272051      97.057341    
     23720   86.975322      158.5          158.5          158.5          4.4387652      3.1864648      3.2179612      6.9118696      86.975322    
     23740   103.29195      158.5          158.5          158.5         -2.2674779     -3.8832911     -3.9654074      1.0462648      103.29195    
     23760   98.26756       158.5          158.5          158.5          1.2484112      1.2732995      1.0696663      1.4022677      98.26756     
     23780   101.46452      158.5          158.5          158.5          0.82953821     0.78673984    -0.081730401    1.7836052      101.46452    
     23800   98.59853       158.5          158.5          158.5         -3.6475413     -6.5676478     -3.5930107     -0.78196548     98.59853     
     23820   95.091026      158.5          158.5          158.5          1.2025594     -0.26155491     2.2198466      1.6493866      95.091026    
     23840   100.07677      158.5          158.5          158.5          0.025526439    0.031916759   -0.60393389     0.64859645     100.07677    
     23860   113.78849      158.5          158.5          158.5         -3.5511061     -4.9250884     -3.9843733     -1.7438568      113.78849    
     23880   101.35485      158.5          158.5          158.5          1.3742796      2.5483954      2.4602862     -0.88584292     101.35485    
     23900   98.030776      158.5          158.5          158.5          1.9086897      4.0733699      1.9770256     -0.32432644     98.030776    
     23920   96.571552      158.5          158.5          158.5         -1.7826578     -1.9623166     -3.8253864      0.43972959     96.571552    
     23940   103.46181      158.5          158.5          158.5          0.89848482     2.7481706     -2.039689       1.9869729      103.46181    
     23960   96.00469       158.5          158.5          158.5          0.81733492     1.4512168      0.8119639      0.18882407     96.00469     
     23980   110.59634      158.5          158.5          158.5         -3.863014      -5.4026931     -2.9188725     -3.2674764      110.59634    
     24000   100.09766      158.5          158.5          158.5         -0.087325487    0.62913062    -0.29531491    -0.59579217     100.09766    
     24020   103.66094      158.5          158.5          158.5          1.7710696     -0.79151248     1.6444563      4.460265       103.66094    
     24040   111.18182      158.5          158.5          158.5         -2.0345771     -5.0871081      0.69255134    -1.7091746      111.18182    
     24060   102.46593      158.5          158.5          158.5          1.13744        2.764016       2.4458566     -1.7975525      102.46593    
     24080   111.43052      158.5          158.5          158.5          2.0838942      1.8088348      0.18332694     4.2595207      111.43052    
     24100   100.07395      158.5          158.5          158.5         -2.5070277     -2.0709084     -1.2185103     -4.2316644      100.07395    
     24120   105.00944      158.5          158.5          158.5          2.5086741      2.8104168      6.9532499     -2.2376443      105.00944    
     24140   104.82742      158.5          158.5          158.5          1.0040062      0.4788318      2.514052       0.019134918    104.82742    
     24160   99.122956      158.5          158.5          158.5         -3.3875111     -3.4145024     -3.606449      -3.1415819      99.122956    
     24180   99.851647      158.5          158.5          158.5          3.9168164      5.6332075      4.5961849      1.5210568      99.851647    
     24200   88.692832      158.5          158.5          158.5          0.56427154     1.46309        0.90981269    -0.68008805     88.692832    
     24220   92.920082      158.5          158.5          158.5         -1.7219133     -1.9987061     -2.9778088     -0.18922491     92.920082    
     24240   96.696307      158.5          158.5          158.5          4.8431838      4.6216519      3.7830945      6.1248049      96.696307    
     24260   93.734155      158.5          158.5          158.5         -2.6938817     -3.0155487     -1.5827662     -3.4833303      93.734155    
     24280   93.453637      158.5          158.5          158.5         -0.74801236    -0.4903983      0.11222636    -1.8658651      93.453637    
     24300   93.307383      158.5          158.5          158.5          4.6816635      5.6161968      5.9324819      2.4963117      93.307383    
     24320   94.991205      158.5          158.5          158.5         -3.5500644     -4.8667704      0.44850232    -6.2319252      94.991205    
     24340   94.944887      158.5          158.5          158.5          2.5877984      1.1222653      3.3892816      3.2518484      94.944887    
     24360   92.838738      158.5          158.5          158.5          2.1168072      3.4066392      1.8320576      1.111725       92.838738    
     24380   92.27644       158.5          158.5          158.5         -4.3117082     -5.0121291     -2.5678013     -5.355194       92.27644     
     24400   98.758842      158.5          158.5          158.5          0.53086015     0.14901006     0.81230743     0.63126295     98.758842    
     24420   98.024978      158.5          158.5          158.5         -3.1823197     -2.6658908     -5.2937697     -1.5872986      98.024978    
     24440   94.425241      158.5          158.5          158.5         -1.7681692     -2.0826919     -3.2171911     -0.0046247481   94.425241    
     24460   98.869695      158.5          158.5          158.5          1.3620141      1.9051408      0.98242486     1.1984765      98.869695    
     24480   101.21545      158.5          158.5          158.5         -2.0776373     -4.0312131     -2.5723049      0.37060625     101.21545    
     24500   106.64277      158.5          158.5          158.5         -0.66489923    -2.5121092      0.27505988     0.24235167     106.64277    
     24520   106.58391      158.5          158.5          158.5         -0.34065359     0.1794857      0.89196337    -2.0934098      106.58391    
     24540   105.67836      158.5          158.5          158.5          0.65579342     1.0723872      1.3377636     -0.44277055     105.67836    
     24560   112.77171      158.5          158.5          158.5          1.2043676      1.6352412     -0.36558676     2.3434485      112.77171    
     24580   109.53668      158.5          158.5          158.5          0.48673322    -0.84170315     1.2786408      1.023262       109.53668    
     24600   106.37684      158.5          158.5          158.5          2.4481152      1.7701533      3.4705756      2.1036166      106.37684    
     24620   107.29199      158.5          158.5          158.5         -1.009101      -0.81293253    -2.4620671      0.24769674     107.29199    
     24640   113.74529      158.5          158.5          158.5         -0.73109381    -0.70110046    -1.9855355      0.49335449     113.74529    
     24660   107.11353      158.5          158.5          158.5          2.2875814      2.3156249      0.62395489     3.9231643      107.11353    
     24680   105.50314      158.5          158.5          158.5          1.1358385      0.36545071     0.70440024     2.3376644      105.50314    
     24700   103.85341      158.5          158.5          158.5          3.2468262      3.8456596      4.8330622      1.0617569      103.85341    
     24720   102.43914      158.5          158.5          158.5          2.735471       3.3063722      3.6698324      1.2302083      102.43914    
     24740   98.158015      158.5          158.5          158.5         -0.68730303     0.70336365     0.01726889    -2.7825416      98.158015    
     24760   100.93956      158.5          158.5          158.5         -0.6408435      1.0087175     -0.89358207    -2.0376659      100.93956    
     24780   109.18841      158.5          158.5          158.5         -2.6655133     -3.1071802     -2.7017165     -2.1876432      109.18841    
     24800   112.86059      158.5          158.5          158.5         -1.627806      -2.3504581     -0.1909193     -2.3420406      112.86059    
     24820   96.225905      158.5          158.5          158.5         -1.4181736      0.52560186    -1.0775889     -3.7025339      96.225905    
     24840   110.16364      158.5          158.5          158.5         -2.1790931     -0.62367577    -3.586023      -2.3275806      110.16364    
     24860   105.74095      158.5          158.5          158.5          1.6682467      2.3852393      0.98222774     1.6372731      105.74095    
     24880   95.752548      158.5          158.5          158.5          0.072718335   -0.95413038     0.71266055     0.45962483     95.752548    
     24900   98.420651      158.5          158.5          158.5         -0.038278315   -2.4730091      1.7727157      0.58545842     98.420651    
     24920   98.701339      158.5          158.5          158.5          2.6778874      2.4748926      1.0685416      4.490228       98.701339    
     24940   98.512203      158.5          158.5          158.5         -1.9632959     -3.5978854     -0.81151418    -1.4804882      98.512203    
     24960   106.0899       158.5          158.5          158.5          0.25277562    -1.358483       5.0549265     -2.9381166      106.0899     
     24980   95.061911      158.5          158.5          158.5          1.6253814      2.7044366      1.4295502      0.74215758     95.061911    
     25000   103.589        158.5          158.5          158.5         -1.2538029     -2.6845273     -1.8187759      0.74189453     103.589      
     25020   103.69396      158.5          158.5          158.5          3.7614572      3.699652       4.7706194      2.8141001      103.69396    
     25040   111.32784      158.5          158.5          158.5          0.80377816     3.6130202     -0.13278583    -1.0688999      111.32784    
     25060   100.75218      158.5          158.5          158.5          1.2409343      2.033566       1.1732885      0.51594844     100.75218    
     25080   107.59716      158.5          158.5          158.5          4.0577292      3.8910298      3.5945368      4.687621       107.59716    
     25100   99.006034      158.5          158.5          158.5         -0.32237078    -1.718851       0.40669174     0.34504693     99.006034    
     25120   101.67154      158.5          158.5          158.5         -0.03011573    -1.4075685      0.95943344     0.35778789     101.67154    
     25140   106.19946      158.5          158.5          158.5          0.05135039     0.21119486    -1.9085172      1.8513735      106.19946    
     25160   112.54741      158.5          158.5          158.5         -2.9829886     -1.3912437     -4.409476      -3.1482462      112.54741    
     25180   107.54016      158.5          158.5          158.5         -2.7511031     -1.015705      -3.7037806     -3.5338238      107.54016    
     25200   108.94998      158.5          158.5          158.5         -1.0730874     -0.97750685    -2.9090903      0.66733488     108.94998    
     25220   106.64754      158.5          158.5          158.5         -2.6469747     -1.8260868     -2.1247007     -3.9901366      106.64754    
     25240   103.10175      158.5          158.5          158.5         -3.2960494     -4.2869223     -4.2963405     -1.3048854      103.10175    
     25260   107.09575      158.5          158.5          158.5          2.5110572      1.7942437     -0.19839312     5.9373211      107.09575    
     25280   101.47585      158.5          158.5          158.5         -0.6303189      1.5412135      1.3109957     -4.7431659      101.47585    
     25300   113.18367      158.5          158.5          158.5         -0.31537897     0.14266575     1.3497438     -2.4385465      113.18367    
     25320   105.51888      158.5          158.5          158.5          4.4818862      2.7949068      2.7716504      7.8791014      105.51888    
     25340   99.030201      158.5          158.5          158.5         -2.4417319     -3.0719197     -0.076302847   -4.1769732      99.030201    
     25360   110.26384      158.5          158.5          158.5         -1.5428676     -0.50324046     0.50484216    -4.6302045      110.26384    
     25380   110.50611      158.5          158.5          158.5          1.3765623      0.27502475     0.19790067     3.6567614      110.50611    
     25400   95.008621      158.5          158.5          158.5         -2.5173585     -8.2770744      0.15707592     0.56792305     95.008621    
     25420   100.64856      158.5          158.5          158.5          1.4267857     -1.1518475      5.1579604      0.27424434     100.64856    
     25440   103.11275      158.5          158.5          158.5          3.4570207      5.1176526      4.6810265      0.57238295     103.11275    
     25460   102.37366      158.5          158.5          158.5         -0.48807567    -3.0613986      3.0672877     -1.4701161      102.37366    
     25480   99.580999      158.5          158.5          158.5          0.67587024    -4.7108614      3.601204       3.137268       99.580999    
     25500   100.86594      158.5          158.5          158.5          1.9855529      1.7986538      3.2358191      0.92218581     100.86594    
     25520   97.943801      158.5          158.5          158.5         -3.2901431     -2.0332825     -0.37730294    -7.4598439      97.943801    
     25540   99.390939      158.5          158.5          158.5          0.46283068    -0.87745253     2.5087451     -0.24280052     99.390939    
     25560   104.45755      158.5          158.5          158.5          1.159941       0.80177059     0.47274734     2.2053051      104.45755    
     25580   101.53116      158.5          158.5          158.5         -1.9909581     -0.14362359     1.1598569     -6.9891076      101.53116    
     25600   101.49771      158.5          158.5          158.5          3.4892922      5.5811723      3.5693006      1.3174037      101.49771    
     25620   99.857195      158.5          158.5          158.5          0.45006979     1.860041      -1.971717       1.4618853      99.857195    
     25640   103.50148      158.5          158.5          158.5         -2.4815055     -1.7267096     -2.8948308     -2.822976       103.50148    
     25660   104.06103      158.5          158.5          158.5          0.61825027     2.2963397     -1.4769025      1.0353136      104.06103    
     25680   107.57591      158.5          158.5          158.5         -2.8162411      1.2236859     -6.1349453     -3.5374639      107.57591    
     25700   101.92366      158.5          158.5          158.5         -1.4551548      1.4535425     -2.5756198     -3.243387       101.92366    
     25720   106.10498      158.5          158.5          158.5          1.4462826     -0.21952573     2.1020624      2.4563112      106.10498    
     25740   96.608793      158.5          158.5          158.5         -1.1498415     -2.7084139     -1.1030726      0.36196187     96.608793    
     25760   100.65886      158.5          158.5          158.5         -3.9192259     -1.395431      -5.9838081     -4.3784385      100.65886    
     25780   96.667367      158.5          158.5          158.5          0.77846913     2.6716163     -0.40205458     0.065845661    96.667367    
     25800   97.485867      158.5          158.5          158.5         -0.43688113    -2.5944615     -0.2129883      1.4968064      97.485867    
     25820   97.875606      158.5          158.5          158.5         -3.4414739     -5.6301836     -1.8728439     -2.8213942      97.875606    
     25840   106.53901      158.5          158.5          158.5          4.4790606      5.2056663      4.665502       3.5660135      106.53901    
     25860   90.831737      158.5          158.5          158.5          0.35065748     0.71598325     1.1314276     -0.79543842     90.831737    
     25880   102.0231       158.5          158.5          158.5         -1.6236229     -5.4781029      1.4503199     -0.84308564     102.0231     
     25900   102.01703      158.5          158.5          158.5          5.2900445      4.9005063      6.1142701      4.855357       102.01703    
     25920   101.37891      158.5          158.5          158.5         -1.4421206     -0.55446764    -2.0469313     -1.7249628      101.37891    
     25940   101.16409      158.5          158.5          158.5          0.35448358    -3.2496833      2.8323425      1.4807915      101.16409    
     25960   103.22926      158.5          158.5          158.5          2.1797879     -2.0400623      3.4979117      5.0815141      103.22926    
     25980   106.19143      158.5          158.5          158.5         -2.291981      -2.1872069     -3.9200059     -0.76873018     106.19143    
     26000   103.55367      158.5          158.5          158.5          0.92633065     1.8437195      0.26842228     0.66685019     103.55367    
     26020   103.54945      158.5          158.5          158.5         -0.5278276      0.23515       -2.0703891      0.25175635     103.54945    
     26040   103.69438      158.5          158.5          158.5         -0.40830547     0.069617016   -1.8915945      0.59706112     103.69438    
     26060   98.009819      158.5          158.5          158.5         -0.49295482    -0.13104041    -1.782747       0.43492291     98.009819    
     26080   112.08668      158.5          158.5          158.5         -0.42706437     2.5345093     -4.695679       0.87997651     112.08668    
     26100   110.40966      158.5          158.5          158.5         -0.076029884    2.3439021     -3.1555316      0.58353985     110.40966    
     26120   110.37357      158.5          158.5          158.5         -2.1714269     -2.9681533     -2.5023403     -1.0437871      110.37357    
     26140   114.54612      158.5          158.5          158.5          2.4282201      1.5400694      0.24201334     5.5025775      114.54612    
     26160   117.02885      158.5          158.5          158.5         -0.2263833      0.2118314     -2.1889226      1.2979413      117.02885    
     26180   108.93964      158.5          158.5          158.5         -0.9001509      0.090168921   -1.9434103     -0.84721132     108.93964    
     26200   112.41853      158.5          158.5          158.5          3.2153343      3.6341241      2.2128587      3.7990202      112.41853    
     26220   115.55685      158.5          158.5          158.5         -3.4893133     -4.791318      -4.5168034     -1.1598185      115.55685    
     26240   103.87979      158.5          158.5          158.5          0.54653029     1.1822405     -1.0915657      1.548916       103.87979    
     26260   117.08846      158.5          158.5          158.5          3.344022       4.2015401      3.9168176      1.9137082      117.08846    
     26280   111.22974      158.5          158.5          158.5         -1.749326      -6.667633       1.8857328     -0.4660779      111.22974    
     26300   101.28264      158.5          158.5          158.5          2.5351893      1.550525       2.2086041      3.8464389      101.28264    
     26320   113.15725      158.5          158.5          158.5          1.7135741      4.218053       0.010488425    0.91218093     113.15725    
     26340   113.57904      158.5          158.5          158.5         -0.51720292    -1.5838945      1.8982787     -1.865993       113.57904    
     26360   107.9332       158.5          158.5          158.5          3.116501       0.58664576     6.8529854      1.9098718      107.9332     
     26380   94.158843      158.5          158.5          158.5          2.1622503     -0.38679471     4.0504791      2.8230665      94.158843    
     26400   102.44924      158.5          158.5          158.5         -0.65867713    -1.8694411      0.48109822    -0.58768849     102.44924    
     26420   109.62871      158.5          158.5          158.5          1.9262673      4.0006625      2.9503848     -1.1722455      109.62871    
     26440   96.038467      158.5          158.5          158.5          1.2840121      2.3156654      0.63493286     0.90143817     96.038467    
     26460   106.09543      158.5          158.5          158.5         -2.2556298     -2.0480363     -1.1005445     -3.6183085      106.09543    
     26480   100.73208      158.5          158.5          158.5          2.7894122      2.7948146      3.270412       2.3030099      100.73208    
     26500   105.76417      158.5          158.5          158.5          0.0044274532  -1.1235401      0.27656206     0.86026035     105.76417    
     26520   110.70085      158.5          158.5          158.5         -3.2572715     -1.8802939     -1.8203208     -6.0711996      110.70085    
     26540   101.7185       158.5          158.5          158.5          0.66315506     1.7061501     -3.2549551      3.5382702      101.7185     
     26560   106.52114      158.5          158.5          158.5         -2.1482352     -2.8955502     -3.4203637     -0.12879183     106.52114    
     26580   95.947376      158.5          158.5          158.5         -1.4468975     -2.1535143      2.2470233     -4.4342015      95.947376    
     26600   100.83145      158.5          158.5          158.5          0.84614153     3.0052301     -1.792474       1.3256684      100.83145    
     26620   106.65903      158.5          158.5          158.5         -2.0687367      1.9668163     -6.2376821     -1.9353444      106.65903    
     26640   103.07418      158.5          158.5          158.5          1.1470574      3.7116405     -1.5520008      1.2815324      103.07418    
     26660   101.09188      158.5          158.5          158.5         -0.49779401    -0.83472368    -0.43388137    -0.22477698     101.09188    
     26680   106.73092      158.5          158.5          158.5         -1.5239284     -0.78595144    -0.92886566    -2.856968       106.73092    
     26700   103.21409      158.5          158.5          158.5          0.40092189     0.49250943    -1.3862392      2.0964954      103.21409    
     26720   99.335036      158.5          158.5          158.5         -0.14112179    -3.6710173      0.14645515     3.1011968      99.335036    
     26740   94.779731      158.5          158.5          158.5         -1.0010486     -2.1080727      1.6638112     -2.5588841      94.779731    
     26760   101.40528      158.5          158.5          158.5         -1.3921445     -1.0433993      0.0084523535  -3.1414865      101.40528    
     26780   98.718768      158.5          158.5          158.5          1.0376103     -0.0028738051   2.3404908      0.77521383     98.718768    
     26800   109.40655      158.5          158.5          158.5         -0.66925655    -1.5415951      1.747504      -2.2136785      109.40655    
     26820   106.0161       158.5          158.5          158.5         -0.51530275     0.62041965     2.4111708     -4.5774987      106.0161     
     26840   104.45967      158.5          158.5          158.5          2.6575384      3.4024579      4.990264      -0.42010656     104.45967    
     26860   108.01097      158.5          158.5          158.5         -1.404445      -3.0111868     -0.41962708    -0.7825211      108.01097    
     26880   92.297923      158.5          158.5          158.5          2.7977812      0.74256779     3.9301413      3.7206344      92.297923    
     26900   96.577618      158.5          158.5          158.5          2.4077223     -0.74947757     5.7936919      2.1789527      96.577618    
     26920   105.63947      158.5          158.5          158.5         -1.7984395     -2.7749208      3.1447159     -5.7651136      105.63947    
     26940   98.657752      158.5          158.5          158.5          1.4506962      3.5101064     -0.98288548     1.8248678      98.657752    
     26960   99.791363      158.5          158.5          158.5         -2.0262208     -1.8226307     -5.9363632      1.6803316      99.791363    
     26980   101.74631      158.5          158.5          158.5          0.15931656    -0.38793131     2.0827698     -1.2168888      101.74631    
     27000   100.16905      158.5          158.5          158.5          0.49607301     1.6665579      0.33314055    -0.51147939     100.16905    
     27020   113.24714      158.5          158.5          158.5         -1.8169374     -3.3451832     -4.1019672      1.9963383      113.24714    
     27040   107.72888      158.5          158.5          158.5          1.0772442      1.5841434      0.26818053     1.3794087      107.72888    
     27060   110.36145      158.5          158.5          158.5         -1.9361224      2.0766436     -6.3871281     -1.4978827      110.36145    
     27080   110.72948      158.5          158.5          158.5         -0.84256906    -0.28327414    -5.6675624      3.4231293      110.72948    
     27100   103.77383      158.5          158.5          158.5          0.91254147     0.886897      -0.98350066     2.8342281      103.77383    
     27120   118.02374      158.5          158.5          158.5         -2.7224111      1.3137965     -4.0193987     -5.461631       118.02374    
     27140   105.79783      158.5          158.5          158.5         -0.66833438    -1.9792889     -0.4250995      0.39938527     105.79783    
     27160   108.32981      158.5          158.5          158.5         -0.31368689    -3.8697274      1.9265571      1.0021097      108.32981    
     27180   110.53147      158.5          158.5          158.5          0.98081701     2.4982421      0.45786873    -0.013659846    110.53147    
     27200   105.54777      158.5          158.5          158.5          3.2605482      5.4925655      0.73377924     3.5552998      105.54777    
     27220   110.37764      158.5          158.5          158.5          0.99467478     0.075568555    3.6626087     -0.75415293     110.37764    
     27240   106.32637      158.5          158.5          158.5          2.4523685     -0.34048435     7.1622397      0.53535006     106.32637    
     27260   112.88495      158.5          158.5          158.5          0.85104598     0.90818066     1.1418471      0.5031102      112.88495    
     27280   117.25205      158.5          158.5          158.5         -0.59544478     0.17192711    -1.4857818     -0.47247966     117.25205    
     27300   103.12789      158.5          158.5          158.5          1.3134014     -0.017114873    1.3801326      2.5771866      103.12789    
     27320   100.28406      158.5          158.5          158.5         -0.81500534    -2.0981825      1.360504      -1.7073375      100.28406    
     27340   102.56057      158.5          158.5          158.5          1.2973409     -0.34171558     4.7184878     -0.48474948     102.56057    
     27360   106.44931      158.5          158.5          158.5          2.0514241      0.54836863     2.4165077      3.1893959      106.44931    
     27380   103.93395      158.5          158.5          158.5         -2.2389689     -3.7666418     -4.0834438      1.1331791      103.93395    
     27400   88.39017       158.5          158.5          158.5          1.1069055     -0.203811       1.8410198      1.6835077      88.39017     
     27420   98.419334      158.5          158.5          158.5         -0.94072652    -3.2669657      3.0309784     -2.5861923      98.419334    
     27440   97.441252      158.5          158.5          158.5         -3.0264991     -4.4088623     -3.4243685     -1.2462663      97.441252    
     27460   99.738304      158.5          158.5          158.5         -0.56007765     1.7631181     -6.1753255      2.7319745      99.738304    
     27480   103.60921      158.5          158.5          158.5         -3.7115877     -2.3637531     -4.2294044     -4.5416056      103.60921    
     27500   97.671365      158.5          158.5          158.5         -2.3242444     -5.3120469      0.30134789    -1.962034       97.671365    
     27520   104.51739      158.5          158.5          158.5         -0.49288488    -0.530379      -3.2323827      2.2841071      104.51739    
     27540   113.35044      158.5          158.5          158.5         -2.3734813      1.3100398     -6.5786015     -1.8518824      113.35044    
     27560   104.3568       158.5          158.5          158.5          1.4462749      2.3897288      0.046732127    1.9023639      104.3568     
     27580   97.862599      158.5          158.5          158.5          1.6101305     -1.2315355      3.5302294      2.5316976      97.862599    
     27600   108.68098      158.5          158.5          158.5         -0.58127302     0.19635184    -0.30331273    -1.6368582      108.68098    
     27620   113.48412      158.5          158.5          158.5         -0.60395036     2.6177322     -3.2817129     -1.1478704      113.48412    
     27640   106.64762      158.5          158.5          158.5         -0.36460092    -2.6504402      0.13433088     1.4223065      106.64762    
     27660   103.35676      158.5          158.5          158.5          2.0127298     -0.86652001     5.5543262      1.3503832      103.35676    
     27680   114.05927      158.5          158.5          158.5          2.0832244      5.8734544      1.4660644     -1.0898454      114.05927    
     27700   108.5066       158.5          158.5          158.5          3.3778397      7.170606       0.7711867      2.1917264      108.5066     
     27720   108.86654      158.5          158.5          158.5          2.1888389     -2.0148078      7.124509       1.4568154      108.86654    
     27740   116.89017      158.5          158.5          158.5         -1.6499732     -6.2691624      1.9524284     -0.63318551     116.89017    
     27760   108.49427      158.5          158.5          158.5          3.3036213      5.4437621      3.3383176      1.1287842      108.49427    
     27780   109.35563      158.5          158.5          158.5          2.100511       2.0111698      4.4834557     -0.19309239     109.35563    
     27800   117.18228      158.5          158.5          158.5         -1.1203359     -2.6720986      0.42788847    -1.1167975      117.18228    
     27820   108.46624      158.5          158.5          158.5          3.0835727      2.6735677      5.7982747      0.77887584     108.46624    
     27840   109.66017      158.5          158.5          158.5         -3.1076156     -4.4188791      0.3834335     -5.2874012      109.66017    
     27860   108.99005      158.5          158.5          158.5         -2.0794937     -1.1501683     -4.0091507     -1.079162       108.99005    
     27880   114.77621      158.5          158.5          158.5         -0.90852252    -1.3818259     -0.8643333     -0.47940836     114.77621    
     27900   113.2779       158.5          158.5          158.5         -4.2581731     -7.2026667     -2.9323811     -2.6394714      113.2779     
     27920   107.85146      158.5          158.5          158.5          1.3910052      0.93685658     2.0436282      1.1925308      107.85146    
     27940   107.15913      158.5          158.5          158.5         -4.519116      -4.1662767     -3.7945021     -5.5965694      107.15913    
     27960   111.4599       158.5          158.5          158.5         -2.1582781     -2.749731      -3.8574405      0.13233728     111.4599     
     27980   113.64756      158.5          158.5          158.5          1.2005286     -1.0110205     -0.13218684     4.7447931      113.64756    
     28000   115.89069      158.5          158.5          158.5         -3.6103154     -5.0728132     -2.0109556     -3.7471775      115.89069    
     28020   117.20865      158.5          158.5          158.5          4.6577531      7.2615827      1.9981095      4.713567       117.20865    
     28040   118.46434      158.5          158.5          158.5          0.89115686     1.5296826     -1.7920065      2.9357945      118.46434    
     28060   122.38258      158.5          158.5          158.5         -1.1564458     -2.7544577      0.90590669    -1.6207862      122.38258    
     28080   117.70782      158.5          158.5          158.5          3.1214989      5.6602042      2.9456354      0.75865707     117.70782    
     28100   119.21391      158.5          158.5          158.5         -3.3530747     -0.36941279    -4.3087676     -5.3810436      119.21391    
     28120   131.8657       158.5          158.5          158.5          1.4872371      2.3548374      1.482132       0.6247421      131.8657     
     28140   123.48566      158.5          158.5          158.5          2.0396629      0.92525313     1.2718088      3.9219269      123.48566    
     28160   119.29884      158.5          158.5          158.5         -0.66000707    -0.26460454    -1.0075872     -0.70782945     119.29884    
     28180   124.31824      158.5          158.5          158.5          3.6659481      6.2741301      4.8289019     -0.1051878      124.31824    
     28200   122.86595      158.5          158.5          158.5         -0.074016792    0.092109148    0.11099877    -0.4251583      122.86595    
     28220   127.77323      158.5          158.5          158.5         -0.01643378    -3.1621254      4.1384636     -1.0256395      127.77323    
     28240   121.58719      158.5          158.5          158.5          0.72796051    -1.7810572      4.3535921     -0.38865335     121.58719    
     28260   108.03006      158.5          158.5          158.5         -1.1191364     -0.68026141    -2.334365      -0.34278263     108.03006    
     28280   111.07918      158.5          158.5          158.5          0.78188541     0.35389865     1.8152627      0.17649484     111.07918    
     28300   125.24394      158.5          158.5          158.5          0.57124074    -3.0087533      4.3113273      0.41114816     125.24394    
     28320   115.48797      158.5          158.5          158.5          1.3062772     -1.6528485      2.2671119      3.3045681      115.48797    
     28340   112.69305      158.5          158.5          158.5          1.7957149      6.7097167      0.42491075    -1.7474826      112.69305    
     28360   111.23242      158.5          158.5          158.5          1.4267117      3.5325045     -0.57719482     1.3248253      111.23242    
     28380   116.52965      158.5          158.5          158.5         -1.3774898     -2.4703838     -4.7978246      3.1357391      116.52965    
     28400   110.94178      158.5          158.5          158.5         -0.46476156     1.2413483     -1.9793561     -0.65627694     110.94178    
     28420   107.64619      158.5          158.5          158.5         -1.7723294     -1.8506839     -2.4957807     -0.97052357     107.64619    
     28440   106.13467      158.5          158.5          158.5         -3.9468611     -1.4726337     -6.4397176     -3.9282319      106.13467    
     28460   108.83241      158.5          158.5          158.5          1.0793814      3.4481468     -1.8042249      1.5942221      108.83241    
     28480   106.33481      158.5          158.5          158.5         -1.8052194     -4.5874533     -2.997686       2.169481       106.33481    
     28500   109.34825      158.5          158.5          158.5         -0.51344886    -1.1218365     -0.93153619     0.51302609     109.34825    
     28520   105.92176      158.5          158.5          158.5          1.8607446      6.1510757     -0.078627815   -0.49021408     105.92176    
     28540   100.55334      158.5          158.5          158.5         -1.190826      -1.2058538     -3.323531       0.95690679     100.55334    
     28560   110.1322       158.5          158.5          158.5          1.2261282      0.53738132     0.85980026     2.2812029      110.1322     
     28580   107.48254      158.5          158.5          158.5         -0.89675548     0.11044797    -1.5309836     -1.2697308      107.48254    
     28600   106.16045      158.5          158.5          158.5          0.98812142     0.10732482     1.5709855      1.2860539      106.16045    
     28620   108.05781      158.5          158.5          158.5          1.6884104      1.9756746      1.7243564      1.3652003      108.05781    
     28640   113.90819      158.5          158.5          158.5         -2.7796616     -5.0352771     -0.3519424     -2.9517653      113.90819    
     28660   109.28426      158.5          158.5          158.5          2.2411969     -1.1337793      5.8606146      1.9967555      109.28426    
     28680   103.06961      158.5          158.5          158.5          0.6830102      1.8032759      0.99571397    -0.74995931     103.06961    
     28700   111.76676      158.5          158.5          158.5          1.1502708      3.0265298     -0.70871023     1.1329928      111.76676    
     28720   106.90648      158.5          158.5          158.5          4.1532784      0.20855168     7.880546       4.3707376      106.90648    
     28740   122.13129      158.5          158.5          158.5         -0.77133912    -4.0761822      3.7557916     -1.9936268      122.13129    
     28760   110.09246      158.5          158.5          158.5          2.3180882      4.252853       0.53067339     2.1707383      110.09246    
     28780   99.989543      158.5          158.5          158.5          2.2430717      2.9654951     -0.11424447     3.8779645      99.989543    
     28800   112.24873      158.5          158.5          158.5         -0.80925802    -1.9335914      0.14343527    -0.63761795     112.24873    
     28820   112.45783      158.5          158.5          158.5         -0.57716843    -0.887229       1.4553115     -2.2995878      112.45783    
     28840   118.88567      158.5          158.5          158.5         -3.2264628     -2.643678      -5.7044545     -1.331256       118.88567    
     28860   122.96696      158.5          158.5          158.5         -1.9943912     -1.0032642     -2.5086162     -2.4712932      122.96696    
     28880   109.90959      158.5          158.5          158.5         -2.3093081     -1.1492752     -1.774134      -4.0045151      109.90959    
     28900   118.02725      158.5          158.5          158.5         -1.2155519      0.15113063    -2.3219171     -1.4758693      118.02725    
     28920   111.96465      158.5          158.5          158.5          0.52533645     1.9318423      0.61298228    -0.96881521     111.96465    
     28940   107.01716      158.5          158.5          158.5         -2.4440671     -2.3606496     -3.4194879     -1.5520638      107.01716    
     28960   116.91671      158.5          158.5          158.5         -0.54102503    -0.83842514    -1.2457661      0.4611161      116.91671    
     28980   112.52991      158.5          158.5          158.5          0.21830846    -0.40575438     1.1299269     -0.069247152    112.52991    
     29000   107.29858      158.5          158.5          158.5         -1.2089795     -0.90076962    -0.74784017    -1.9783288      107.29858    
     29020   116.27109      158.5          158.5          158.5          2.3107179      1.3722739      4.0730131      1.4868666      116.27109    
     29040   102.36802      158.5          158.5          158.5          1.4362079      1.0977919      2.3585647      0.85226711     102.36802    
     29060   111.20786      158.5          158.5          158.5         -0.071450222    0.71678428    -1.9250995      0.9939645      111.20786    
     29080   115.01447      158.5          158.5          158.5          2.0989469     -0.34706379     2.4050598      4.2388448      115.01447    
     29100   110.01345      158.5          158.5          158.5         -0.39700225     2.1096567      0.29082945    -3.5914929      110.01345    
     29120   108.60636      158.5          158.5          158.5          0.66333512     2.6137881      0.186126      -0.80990871     108.60636    
     29140   110.45338      158.5          158.5          158.5          1.5838743     -0.34563906     3.4134146      1.6838475      110.45338    
     29160   105.24998      158.5          158.5          158.5          0.19373505    -1.6162859      2.2631443     -0.065653336    105.24998    
     29180   110.3076       158.5          158.5          158.5          0.069199361    0.009641665   -0.75965496     0.95761138     110.3076     
     29200   103.97181      158.5          158.5          158.5          0.7897009      1.1304858      1.0054204      0.23319655     103.97181    
     29220   107.4382       158.5          158.5          158.5          1.6162736      1.1717238      3.8058003     -0.12870344     107.4382     
     29240   106.0106       158.5          158.5          158.5         -1.2944488     -1.0847803     -1.6429141     -1.1556519      106.0106     
     29260   105.44437      158.5          158.5          158.5         -0.36232514     2.0405932     -1.0435708     -2.0839977      105.44437    
     29280   106.0335       158.5          158.5          158.5          1.2808267      5.0144989     -1.5193855      0.34736679     106.0335     
     29300   107.27184      158.5          158.5          158.5         -2.5939351     -3.3648652     -2.7135085     -1.7034316      107.27184    
     29320   121.7895       158.5          158.5          158.5          1.8068709     -0.17889468     3.1495736      2.4499338      121.7895     
     29340   104.22392      158.5          158.5          158.5          3.0403979      5.9668148      3.4897238     -0.335345       104.22392    
     29360   108.17073      158.5          158.5          158.5         -2.9907875     -2.1360486     -5.130104      -1.7062099      108.17073    
     29380   104.71279      158.5          158.5          158.5          1.8478386      0.2403471      1.6667339      3.6364347      104.71279    
     29400   109.21924      158.5          158.5          158.5         -1.2218931     -1.5162705      0.26623735    -2.4156461      109.21924    
     29420   120.70532      158.5          158.5          158.5         -3.5847699     -6.0760569     -1.0085383     -3.6697146      120.70532    
     29440   112.98883      158.5          158.5          158.5          3.0953614      2.3065323      4.2019742      2.7775777      112.98883    
     29460   103.83987      158.5          158.5          158.5          0.47363129     2.186812      -0.47956942    -0.2863487      103.83987    
     29480   117.62418      158.5          158.5          158.5         -2.4480548     -4.2829263     -2.5398006     -0.52143765     117.62418    
     29500   121.72895      158.5          158.5          158.5         -0.054266021   -0.19888164     1.2840833     -1.2479997      121.72895    
     29520   107.16062      158.5          158.5          158.5         -0.88604383     2.2691526     -3.7747509     -1.1525332      107.16062    
     29540   127.20179      158.5          158.5          158.5          1.4894757     -1.3420844      1.9308012      3.8797101      127.20179    
     29560   118.90937      158.5          158.5          158.5          1.2303194     -1.654162       2.7218123      2.6233081      118.90937    
     29580   122.02285      158.5          158.5          158.5         -0.41546205     5.0718894     -4.8862387     -1.4320369      122.02285    
     29600   110.0413       158.5          158.5          158.5         -0.56753516     2.4159047     -1.0889384     -3.0295717      110.0413     
     29620   117.04667      158.5          158.5          158.5         -0.037349028   -3.0006457      0.9798548      1.9087438      117.04667    
     29640   123.72412      158.5          158.5          158.5          0.80588035     1.3460949     -0.8067567      1.8783028      123.72412    
     29660   118.90724      158.5          158.5          158.5         -2.2203532      1.2195657     -0.44343393    -7.4371913      118.90724    
     29680   117.82373      158.5          158.5          158.5          0.95075454     1.2129643      0.22597521     1.4133241      117.82373    
     29700   115.82067      158.5          158.5          158.5          0.67937249    -0.25920825    -1.3265549      3.6238806      115.82067    
     29720   122.31683      158.5          158.5          158.5         -2.0269665     -2.9383494      2.0080981     -5.1506481      122.31683    
     29740   120.14744      158.5          158.5          158.5          3.6189297      4.0598683      4.6031098      2.1938109      120.14744    
     29760   108.40456      158.5          158.5          158.5          1.1935597      2.6458318     -0.58467198     1.5195193      108.40456    
     29780   108.09488      158.5          158.5          158.5          1.6539687      1.5442762      1.6339271      1.7837027      108.09488    
     29800   110.0357       158.5          158.5          158.5          2.2011982      2.2586527      1.8514543      2.4934875      110.0357     
     29820   111.2941       158.5          158.5          158.5         -2.2684399     -2.3218292     -1.2007911     -3.2826996      111.2941     
     29840   103.25051      158.5          158.5          158.5          0.31403013    -0.50424935     2.0295753     -0.58323555     103.25051    
     29860   110.14009      158.5          158.5          158.5         -1.2185218     -3.9675366     -2.6835962      2.9955674      110.14009    
     29880   105.51626      158.5          158.5          158.5         -0.1087244     -3.835583       0.63998887     2.8694209      105.51626    
     29900   102.58576      158.5          158.5          158.5          2.8604653      3.5896325      3.6798831      1.3118803      102.58576    
     29920   103.01959      158.5          158.5          158.5         -2.3450036     -0.99642658    -4.2385336     -1.8000506      103.01959    
     29940   97.924761      158.5          158.5          158.5         -0.31796921    -2.2107126     -3.2263775      4.4831825      97.924761    
     29960   96.997398      158.5          158.5          158.5         -0.66402484    -0.94554846    -0.14517318    -0.90135287     96.997398    
     29980   105.60751      158.5          158.5          158.5         -3.7456298     -2.3223271     -1.9451169     -6.9694453      105.60751    
     30000   107.79638      158.5          158.5          158.5          1.4832125      1.3506203      1.6177472      1.48127        107.79638    
     30020   106.66406      158.5          158.5          158.5         -1.3021524     -0.016654703   -4.1342214      0.24441883     106.66406    
     30040   99.747021      158.5          158.5          158.5         -2.2009922     -1.6307943     -2.958585      -2.0135973      99.747021    
     30060   104.70753      158.5          158.5          158.5         -0.76810414    -2.0846972      1.9615644     -2.1811796      104.70753    
     30080   104.79591      158.5          158.5          158.5         -2.4699167     -0.95540351    -4.0448661     -2.4094807      104.79591    
     30100   101.22656      158.5          158.5          158.5          0.48550673     1.5520284     -1.3619889      1.2664807      101.22656    
     30120   89.658074      158.5          158.5          158.5          0.28955386    -0.021143117    0.76680878     0.12299593     89.658074    
     30140   104.47272      158.5          158.5          158.5          0.85111817     0.20481071    -0.40237889     2.7509227      104.47272    
     30160   99.97036       158.5          158.5          158.5          1.7564781      1.7870305      0.53402912     2.9483747      99.97036     
     30180   109.29916      158.5          158.5          158.5         -0.12975539    -0.15557933    -1.9675393      1.7338524      109.29916    
     30200   112.39087      158.5          158.5          158.5          1.4915147     -0.064196247    0.68312391     3.8556166      112.39087    
     30220   109.83011      158.5          158.5          158.5         -0.17077017    -1.9744904      3.9228965     -2.4607166      109.83011    
     30240   112.78425      158.5          158.5          158.5         -0.55903144    -0.047926936    1.5926661     -3.2218335      112.78425    
     30260   108.18978      158.5          158.5          158.5          3.4412136      1.5942815      2.2547921      6.4745671      108.18978    
     30280   108.42976      158.5          158.5          158.5          1.4876009      0.55094634     0.46606447     3.445792       108.42976    
     30300   114.19235      158.5          158.5          158.5         -0.17667356     0.23035389    -0.70816575    -0.05220883     114.19235    
     30320   102.66134      158.5          158.5          158.5          1.066545      -1.50577        2.5735166      2.1318883      102.66134    
     30340   121.42781      158.5          158.5          158.5         -1.5264762     -1.2193401     -1.3791463     -1.9809421      121.42781    
     30360   105.48666      158.5          158.5          158.5         -2.1779926      0.52154569    -4.8212255     -2.2342979      105.48666    
     30380   113.55763      158.5          158.5          158.5         -1.7806207     -2.0115698     -1.2346589     -2.0956334      113.55763    
     30400   100.22788      158.5          158.5          158.5          0.52253802    -4.1777129      4.2651353      1.4801917      100.22788    
     30420   111.76777      158.5          158.5          158.5         -0.0077362677  -0.76936222    -1.3899583      2.1361118      111.76777    
     30440   113.23323      158.5          158.5          158.5         -1.0935217      1.2976045     -3.9568959     -0.62127364     113.23323    
     30460   105.85787      158.5          158.5          158.5          2.2297778      1.6954841      4.0410757      0.95277373     105.85787    
     30480   108.14378      158.5          158.5          158.5         -3.5496257     -5.969326      -1.1438929     -3.5356583      108.14378    
     30500   98.269515      158.5          158.5          158.5         -0.16328781    -0.081016349   -1.7490285      1.3401814      98.269515    
     30520   97.014295      158.5          158.5          158.5          2.7076754      3.7587688      0.5972074      3.7670501      97.014295    
     30540   107.36412      158.5          158.5          158.5         -3.0803668     -4.0483779     -0.99949911    -4.1932234      107.36412    
     30560   94.829553      158.5          158.5          158.5          4.1992283      4.4226315      6.723288       1.4517655      94.829553    
     30580   104.30322      158.5          158.5          158.5          0.67722809     1.4005908     -0.72921275     1.3603062      104.30322    
     30600   108.26106      158.5          158.5          158.5         -2.9332484     -2.2844574     -4.5307287     -1.9845593      108.26106    
     30620   96.471002      158.5          158.5          158.5          1.490164       2.0924515      1.0534122      1.3246282      96.471002    
     30640   103.18354      158.5          158.5          158.5         -3.1961654     -2.140601      -2.302342      -5.1455532      103.18354    
     30660   96.296212      158.5          158.5          158.5         -1.1197633     -0.51110235     1.3987428     -4.2469304      96.296212    
     30680   102.13241      158.5          158.5          158.5          2.1973311      3.9827933      1.7343305      0.87486956     102.13241    
     30700   106.7395       158.5          158.5          158.5         -1.3021212      1.200644      -2.1076868     -2.9993208      106.7395     
     30720   108.7699       158.5          158.5          158.5          1.7547754      1.6591048      2.0210629      1.5841585      108.7699     
     30740   102.78744      158.5          158.5          158.5          3.5655957      1.7741243      2.2087639      6.7138989      102.78744    
     30760   105.02211      158.5          158.5          158.5          1.9102725      1.8572238     -0.32302099     4.1966147      105.02211    
     30780   115.26995      158.5          158.5          158.5          1.5954735      2.570707       2.0940294      0.12168398     115.26995    
     30800   105.89972      158.5          158.5          158.5         -0.61645698    -3.6462363      5.3095149     -3.5126495      105.89972    
     30820   111.98986      158.5          158.5          158.5         -1.1445862     -0.86369178    -1.7790123     -0.79105454     111.98986    
     30840   120.70104      158.5          158.5          158.5         -0.94644036     2.799623      -4.4960365     -1.1429075      120.70104    
     30860   123.20759      158.5          158.5          158.5         -1.6968349     -1.2945993      1.2701179     -5.0660232      123.20759    
     30880   131.113        158.5          158.5          158.5         -2.0156402     -1.8450709     -1.4134652     -2.7883846      131.113      
     30900   117.0855       158.5          158.5          158.5         -0.99942359    -0.64697256    -1.3525579     -0.9987403      117.0855     
     30920   115.02907      158.5          158.5          158.5         -2.3183785     -2.0755947     -0.79024888    -4.0892921      115.02907    
     30940   121.40608      158.5          158.5          158.5          0.40475632     1.1732206      2.1580815     -2.1170331      121.40608    
     30960   109.81556      158.5          158.5          158.5         -0.11123655     2.0720093      0.041414683   -2.4471336      109.81556    
     30980   122.5605       158.5          158.5          158.5          0.26392822     2.006217      -3.0948286      1.8803963      122.5605     
     31000   116.81422      158.5          158.5          158.5          3.7067203      4.1887254      1.9397092      4.9917263      116.81422    
     31020   112.07465      158.5          158.5          158.5          1.1206008      2.7904623      3.8717485     -3.3004083      112.07465    
     31040   120.48132      158.5          158.5          158.5          0.22786339    -0.53090633     1.9241318     -0.70963532     120.48132    
     31060   95.98399       158.5          158.5          158.5          2.3852315      0.7696029      0.74384066     5.6422509      95.98399     
     31080   118.65518      158.5          158.5          158.5         -0.24818969    -0.40703544    -0.26686585    -0.070667793    118.65518    
     31100   109.77932      158.5          158.5          158.5          1.4952582      0.16775955     0.48032629     3.8376886      109.77932    
     31120   112.12718      158.5          158.5          158.5         -0.25026944    -0.69511089    -0.64754498     0.59184753     112.12718    
     31140   105.19686      158.5          158.5          158.5          0.63049978    -1.3215033      3.3343883     -0.12138572     105.19686    
     31160   109.71881      158.5          158.5          158.5          0.58852485     0.20580131     0.0097401204   1.5500331      109.71881    
     31180   105.86062      158.5          158.5          158.5         -2.2689852     -1.3429675     -3.8819157     -1.5820724      105.86062    
     31200   111.06655      158.5          158.5          158.5          0.53306689     0.072739827   -0.072620293    1.5990811      111.06655    
     31220   104.64395      158.5          158.5          158.5         -1.1864419     -0.41483641    -1.9435979     -1.2008913      104.64395    
     31240   107.59776      158.5          158.5          158.5         -0.90130651     1.0688049     -3.4627054     -0.31001904     107.59776    
     31260   107.2671       158.5          158.5          158.5          0.41852171     0.32614226    -1.4103839      2.3398068      107.2671     
     31280   114.85904      158.5          158.5          158.5         -3.1568997     -5.1858648     -0.71644356    -3.5683908      114.85904    
     31300   117.35368      158.5          158.5          158.5          0.15082691     0.89643091    -0.35789545    -0.086054734    117.35368    
     31320   107.911        158.5          158.5          158.5          0.1162007      2.2463752     -2.3257931      0.42801998     107.911      
     31340   109.931        158.5          158.5          158.5         -1.3940374      0.27074841    -0.16872273    -4.284138       109.931      
     31360   116.52612      158.5          158.5          158.5         -0.22508723    -0.73683558     0.39321211    -0.33163821     116.52612    
     31380   115.09         158.5          158.5          158.5         -1.4345266     -1.1074882     -1.0236568     -2.1724349      115.09       
     31400   121.80896      158.5          158.5          158.5         -0.39237336     0.89012807     2.7219056     -4.7891537      121.80896    
     31420   121.49904      158.5          158.5          158.5         -1.1818668     -1.8718144      1.5360923     -3.2098782      121.49904    
     31440   122.18179      158.5          158.5          158.5         -0.45998583    -1.5739326     -0.3502831      0.54425822     122.18179    
     31460   116.9377       158.5          158.5          158.5          0.97939205     0.52596863     0.4027777      2.0094298      116.9377     
     31480   120.75904      158.5          158.5          158.5         -0.83659159     2.6465557     -1.8600175     -3.296313       120.75904    
     31500   121.57857      158.5          158.5          158.5          1.0142985      4.2286257     -1.2472108      0.061480675    121.57857    
     31520   113.05661      158.5          158.5          158.5          2.0281819     -2.006944       2.8068201      5.2846697      113.05661    
     31540   120.7208       158.5          158.5          158.5         -1.5489718     -3.3215094      1.1182535     -2.4436596      120.7208     
     31560   115.09482      158.5          158.5          158.5          1.6982189      3.7941385      0.48980921     0.81070897     115.09482    
     31580   115.40569      158.5          158.5          158.5          1.3638619      0.46903158     0.30840514     3.3141491      115.40569    
     31600   119.00085      158.5          158.5          158.5         -1.4494454     -2.9820681     -1.3653724     -0.00089568798  119.00085    
     31620   101.24029      158.5          158.5          158.5          0.51168804     1.0466223     -0.31223378     0.80067565     101.24029    
     31640   117.44453      158.5          158.5          158.5          1.0950621      2.2380858      0.10829546     0.93880516     117.44453    
     31660   119.66031      158.5          158.5          158.5         -1.0563488     -0.30829676    -1.8739619     -0.98678787     119.66031    
     31680   110.2536       158.5          158.5          158.5          1.5828682     -0.68754801     1.3121167      4.1240358      110.2536     
     31700   110.69903      158.5          158.5          158.5         -0.89455825     0.73599765    -2.9625673     -0.45710511     110.69903    
     31720   109.35872      158.5          158.5          158.5         -2.4152313     -0.94512077    -2.4430753     -3.8574978      109.35872    
     31740   118.27223      158.5          158.5          158.5          0.78884314    -0.72497175     2.3162609      0.77524029     118.27223    
     31760   116.74055      158.5          158.5          158.5         -2.1606491     -0.87091974    -3.2136557     -2.3973718      116.74055    
     31780   113.38643      158.5          158.5          158.5          0.33337803     0.59434193     0.53499326    -0.12920109     113.38643    
     31800   109.34614      158.5          158.5          158.5          3.2765868      1.090662       6.0125711      2.7265273      109.34614    
     31820   106.89366      158.5          158.5          158.5          0.56869268     1.6138125      1.9308287     -1.8385631      106.89366    
     31840   104.89699      158.5          158.5          158.5          0.7740612      2.0691299     -0.41412964     0.66718335     104.89699    
     31860   104.4251       158.5          158.5          158.5          0.30851069    -3.8655217      1.9650203      2.8260335      104.4251     
     31880   113.96389      158.5          158.5          158.5         -1.8451608     -4.2582345      1.476318      -2.7535658      113.96389    
     31900   111.9078       158.5          158.5          158.5         -0.95100994     0.82989255     0.39963997    -4.0825623      111.9078     
     31920   110.30092      158.5          158.5          158.5          0.15329866    -0.56954757     1.5667128     -0.53726921     110.30092    
     31940   98.430302      158.5          158.5          158.5         -0.49348951    -1.9196883     -0.36808144     0.80730119     98.430302    
     31960   106.27522      158.5          158.5          158.5          0.090777017    2.1082682      1.1425073     -2.9784444      106.27522    
     31980   103.64659      158.5          158.5          158.5         -0.060684545    1.1226891      1.6875765     -2.9923193      103.64659    
     32000   106.04132      158.5          158.5          158.5         -0.48805251    -1.9877068     -1.2351511      1.7587003      106.04132    
     32020   98.248258      158.5          158.5          158.5          1.5595804      2.4362929      0.4955854      1.7468628      98.248258    
     32040   106.29882      158.5          158.5          158.5         -0.052603436    2.6219025      0.30536604    -3.0850788      106.29882    
     32060   98.117565      158.5          158.5          158.5          0.69765241     1.0096699     -0.19179782     1.2750851      98.117565    
     32080   89.517975      158.5          158.5          158.5         -0.36623287    -1.0731478      0.20684414    -0.232395       89.517975    
     32100   98.353275      158.5          158.5          158.5         -2.3022892     -0.43628074    -3.8643877     -2.6061992      98.353275    
     32120   102.70743      158.5          158.5          158.5          0.59150106     2.2881145     -0.53059195     0.016980632    102.70743    
     32140   92.837485      158.5          158.5          158.5         -1.0138018      0.630855      -0.49662372    -3.1756368      92.837485    
     32160   104.29785      158.5          158.5          158.5          0.41904028     2.66113       -0.41753021    -0.98647891     104.29785    
     32180   95.982269      158.5          158.5          158.5          0.61946487    -0.9229156      0.6830251      2.0982851      95.982269    
     32200   98.181792      158.5          158.5          158.5         -0.98230462    -1.6062344     -0.84640832    -0.49427115     98.181792    
     32220   108.24924      158.5          158.5          158.5          1.8678191      2.5436409     -0.40904509     3.4688615      108.24924    
     32240   101.2786       158.5          158.5          158.5         -2.1906809     -4.0372762     -1.9768787     -0.55788759     101.2786     
     32260   118.12578      158.5          158.5          158.5          2.0495575      0.16812278     3.0017657      2.9787839      118.12578    
     32280   103.35725      158.5          158.5          158.5          2.5698806      2.4137093      4.2144552      1.0814773      103.35725    
     32300   101.94511      158.5          158.5          158.5         -4.2791437     -6.0915566     -1.5319012     -5.2139734      101.94511    
     32320   117.71359      158.5          158.5          158.5          2.1531501     -2.2014501      3.7841276      4.8767727      117.71359    
     32340   101.48593      158.5          158.5          158.5         -0.77977467    -1.1435565     -0.75130922    -0.4444583      101.48593    
     32360   102.31549      158.5          158.5          158.5         -3.3837722      0.16170016    -3.8796488     -6.4333678      102.31549    
     32380   108.50112      158.5          158.5          158.5          5.0897267      5.6430762      4.1526375      5.4734664      108.50112    
     32400   108.82655      158.5          158.5          158.5          0.42224474    -2.0859083     -0.64779631     4.0004388      108.82655    
     32420   107.61589      158.5          158.5          158.5         -2.0594622     -2.0552759     -1.5763961     -2.5467148      107.61589    
     32440   114.57636      158.5          158.5          158.5          4.0017261      6.9791775      2.8328295      2.1931715      114.57636    
     32460   109.53307      158.5          158.5          158.5         -2.2242822     -1.9562051     -5.5301345      0.81349303     109.53307    
     32480   107.22577      158.5          158.5          158.5         -1.1942405     -2.3667717     -2.7708752      1.5549254      107.22577    
     32500   106.40061      158.5          158.5          158.5          3.3405346      5.0368325      5.1391666     -0.15439543     106.40061    
     32520   106.81101      158.5          158.5          158.5         -2.5610806      0.85952216    -3.6169519     -4.925812       106.81101    
     32540   98.973258      158.5          158.5          158.5          0.30184119     0.72648471    -1.5336051      1.712644       98.973258    
     32560   115.36921      158.5          158.5          158.5         -0.54245056    -5.7710243      3.1781358      0.96553679     115.36921    
     32580   106.82169      158.5          158.5          158.5         -2.8624134     -4.7195117     -4.4725442      0.6048159      106.82169    
     32600   107.56579      158.5          158.5          158.5          1.3393175      3.3796871     -2.0408587      2.679124       107.56579    
     32620   107.53966      158.5          158.5          158.5          0.034460987   -2.7048183      1.938327       0.86987428     107.53966    
     32640   101.49305      158.5          158.5          158.5          0.60500987    -2.0955736      0.24216738     3.6684359      101.49305    
     32660   110.22913      158.5          158.5          158.5          0.37388366     1.1522817     -0.87495384     0.8443231      110.22913    
     32680   101.02856      158.5          158.5          158.5         -0.70209744    -0.78524831     0.90475113    -2.2257952      101.02856    
     32700   107.86258      158.5          158.5          158.5         -3.13172       -3.9844113     -2.3878617     -3.0228871      107.86258    
     32720   107.97153      158.5          158.5          158.5         -2.8168455     -1.7184669     -3.7686873     -2.9633821      107.97153    
     32740   107.40782      158.5          158.5          158.5          0.39993078     0.037651763    1.8694759     -0.70733534     107.40782    
     32760   114.6928       158.5          158.5          158.5         -1.4740458     -3.612607       1.4210825     -2.2306127      114.6928     
     32780   119.56         158.5          158.5          158.5          2.9844067      3.953987       3.545484       1.4537492      119.56       
     32800   115.36694      158.5          158.5          158.5          3.2220907      4.7324923      3.6469425      1.2868373      115.36694    
     32820   121.66272      158.5          158.5          158.5         -2.9280266     -2.7257858     -0.97147236    -5.0868218      121.66272    
     32840   115.78448      158.5          158.5          158.5          3.2826206      2.8837453      3.7488037      3.2153129      115.78448    
     32860   123.00926      158.5          158.5          158.5          0.69504338     3.0092417     -0.23987962    -0.68423197     123.00926    
     32880   113.79492      158.5          158.5          158.5         -1.616234       0.24242991    -3.4086373     -1.6824945      113.79492    
     32900   119.55227      158.5          158.5          158.5          1.6103174      0.38121967     1.0510239      3.3987087      119.55227    
     32920   105.14003      158.5          158.5          158.5         -0.0067010072  -0.099133524    0.76676997    -0.68773947     105.14003    
     32940   117.87018      158.5          158.5          158.5         -0.067266699    2.0905042     -2.1611061     -0.13119817     117.87018    
     32960   108.45537      158.5          158.5          158.5          1.4725102      2.3196257     -0.63635559     2.7342603      108.45537    
     32980   108.07365      158.5          158.5          158.5          0.42892932    -1.7335949      1.0940933      1.9262895      108.07365    
     33000   105.74384      158.5          158.5          158.5         -2.8168544     -6.5419604     -0.0089653328  -1.8996375      105.74384    
     33020   111.59992      158.5          158.5          158.5          0.37912303    -0.075093599    1.1778721      0.034590606    111.59992    
     33040   110.73489      158.5          158.5          158.5         -0.97104056    -0.25094083    -2.725803       0.063622154    110.73489    
     33060   108.03904      158.5          158.5          158.5          1.0320828      2.3566059      0.49153247     0.24810997     108.03904    
     33080   104.85202      158.5          158.5          158.5          6.2175345      7.1069022      6.3148919      5.2308094      104.85202    
     33100   110.33998      158.5          158.5          158.5         -1.3406823     -1.2292173     -3.2163996      0.42357        110.33998    
     33120   105.23873      158.5          158.5          158.5          1.7951604      3.7133964      0.46564024     1.2064445      105.23873    
     33140   104.17002      158.5          158.5          158.5          0.1314238     -0.3271749      2.2237847     -1.5023384      104.17002    
     33160   100.09871      158.5          158.5          158.5         -3.6660759     -5.1231653     -2.6249463     -3.250116       100.09871    
     33180   111.78897      158.5          158.5          158.5          3.2848794      1.4483364      4.7286544      3.6776473      111.78897    
     33200   114.03721      158.5          158.5          158.5         -2.713741      -3.0948763     -1.1766992     -3.8696475      114.03721    
     33220   111.43508      158.5          158.5          158.5         -2.4864714     -1.3244304     -1.074822      -5.0601617      111.43508    
     33240   104.86306      158.5          158.5          158.5          1.9428812      0.50523221     5.8432859     -0.51987459     104.86306    
     33260   118.95177      158.5          158.5          158.5         -2.7845344     -2.5957274     -0.74976575    -5.00811        118.95177    
     33280   106.1666       158.5          158.5          158.5          2.8305683      5.5389287      1.7269379      1.2258384      106.1666     
     33300   109.61335      158.5          158.5          158.5          2.8740572      2.2054316      4.346547       2.0701929      109.61335    
     33320   109.69196      158.5          158.5          158.5          0.66462299    -2.1196412      1.9335598      2.1799504      109.69196    
     33340   106.38153      158.5          158.5          158.5          3.515834       3.3572598      4.4738269      2.7164154      106.38153    
     33360   102.38839      158.5          158.5          158.5         -0.05570202     0.61847367     0.28577564    -1.0713554      102.38839    
     33380   109.20514      158.5          158.5          158.5         -0.64748643     0.87014558    -2.6637705     -0.14883438     109.20514    
     33400   99.853737      158.5          158.5          158.5         -0.58787895    -0.84480308    -0.025098113   -0.89373565     99.853737    
     33420   115.26089      158.5          158.5          158.5         -5.7075106     -6.5057698     -3.4823975     -7.1343646      115.26089    
     33440   100.41088      158.5          158.5          158.5         -2.3503868     -2.579843      -1.3988873     -3.0724301      100.41088    
     33460   102.51352      158.5          158.5          158.5          1.3632031      1.4421032     -0.034203729    2.6817099      102.51352    
     33480   107.36649      158.5          158.5          158.5         -2.3385249     -3.5666035     -5.1892277      1.7402565      107.36649    
     33500   95.127899      158.5          158.5          158.5          3.2563638      1.9799001      3.5202612      4.2689301      95.127899    
     33520   101.82725      158.5          158.5          158.5          4.0630136      6.2847163      4.3860311      1.5182934      101.82725    
     33540   106.16407      158.5          158.5          158.5         -2.4962046      1.0415229     -4.574174      -3.9559626      106.16407    
     33560   104.42761      158.5          158.5          158.5          2.9073342      1.9698706      2.0236486      4.7284834      104.42761    
     33580   99.969756      158.5          158.5          158.5         -0.50506036    -3.1718051      1.2296607      0.42696338     99.969756    
     33600   102.70265      158.5          158.5          158.5         -4.9676805     -4.047683      -5.1246818     -5.7306768      102.70265    
     33620   96.136456      158.5          158.5          158.5          2.9490498      4.5510478      0.32503894     3.9710627      96.136456    
     33640   113.69347      158.5          158.5          158.5         -0.2103315     -0.056536078    1.5508555     -2.1253139      113.69347    
     33660   109.37943      158.5          158.5          158.5         -1.4908144     -1.4319013      1.7732048     -4.8137468      109.37943    
     33680   114.18261      158.5          158.5          158.5          1.9514995      2.9448068      2.8575637      0.052127984    114.18261    
     33700   109.39278      158.5          158.5          158.5         -4.702272      -4.2976939     -8.7852219     -1.0239003      109.39278    
     33720   115.45183      158.5          158.5          158.5         -1.6301155     -3.3511046     -4.1699806      2.6307387      115.45183    
     33740   110.80113      158.5          158.5          158.5          1.6614956      0.99314266     3.0237118      0.96763247     110.80113    
     33760   110.77337      158.5          158.5          158.5         -1.6530204     -2.5003479     -1.6463207     -0.81239262     110.77337    
     33780   115.5042       158.5          158.5          158.5          2.1753771      0.14100058     2.1201053      4.2650254      115.5042     
     33800   111.29977      158.5          158.5          158.5          2.8611552      0.058074049    5.0340941      3.4912975      111.29977    
     33820   116.35964      158.5          158.5          158.5         -0.83743595    -2.5957597     -0.39720041     0.48065223     116.35964    
     33840   116.83084      158.5          158.5          158.5          2.9147694      3.4045907      0.48992242     4.8497951      116.83084    
     33860   112.11115      158.5          158.5          158.5          1.3978927      4.3173652     -1.0568288      0.9331417      112.11115    
     33880   120.73036      158.5          158.5          158.5         -3.2711595     -3.6777029     -3.1724962     -2.9632795      120.73036    
     33900   106.15955      158.5          158.5          158.5          2.1059496      1.4752949      4.1867096      0.65584433     106.15955    
     33920   106.42421      158.5          158.5          158.5         -0.40232637    -0.3078207     -0.39436434    -0.50479407     106.42421    
     33940   117.41492      158.5          158.5          158.5         -2.8775241     -3.7075706     -5.2986784      0.37367689     117.41492    
     33960   110.96475      158.5          158.5          158.5          2.1273578      0.44628461     2.0447543      3.8910346      110.96475    
     33980   115.61047      158.5          158.5          158.5         -0.67386328    -2.4676301      0.84747305    -0.40143275     115.61047    
     34000   106.85169      158.5          158.5          158.5         -0.11173114     4.1682835     -4.57925        0.075773135    106.85169    
     34020   105.90228      158.5          158.5          158.5          2.3292765      5.2216956     -0.54903171     2.3151656      105.90228    
     34040   100.53674      158.5          158.5          158.5         -0.42330461    -1.9531739     -0.088054269    0.77131434     100.53674    
     34060   93.518064      158.5          158.5          158.5          1.1714802      2.1499316      1.2277891      0.1367197      93.518064    
     34080   108.2388       158.5          158.5          158.5          0.11983069     1.4288186      1.9895432     -3.0588697      108.2388     
     34100   100.47075      158.5          158.5          158.5         -0.1219187     -1.07503        1.3100983     -0.60082447     100.47075    
     34120   94.747949      158.5          158.5          158.5         -0.59817141    -0.47555641    -0.14831889    -1.1706389      94.747949    
     34140   95.484644      158.5          158.5          158.5         -0.94522241     1.3366982     -1.1141557     -3.0582097      95.484644    
     34160   103.02183      158.5          158.5          158.5         -1.0493703      1.3345335     -0.2115313     -4.2711131      103.02183    
     34180   90.452638      158.5          158.5          158.5         -0.32035114    -2.5576388      3.5860284     -1.989443       90.452638    
     34200   96.019931      158.5          158.5          158.5          2.1087313     -1.3425463      3.3424196      4.3263207      96.019931    
     34220   105.98944      158.5          158.5          158.5         -1.6306841     -1.2578442     -2.5756766     -1.0585313      105.98944    
     34240   101.47178      158.5          158.5          158.5         -0.58078206    -1.4941551      1.5726041     -1.8207952      101.47178    
     34260   96.984679      158.5          158.5          158.5          0.060501611   -1.8153629      1.5958524      0.4010153      96.984679    
     34280   100.23892      158.5          158.5          158.5         -3.1674571     -4.3035527     -3.0465725     -2.1522461      100.23892    
     34300   98.823948      158.5          158.5          158.5          0.74265648     1.8914994      1.2925928     -0.9561228      98.823948    
     34320   105.34405      158.5          158.5          158.5          2.310475       5.640236       3.2141597     -1.9229707      105.34405    
     34340   103.69123      158.5          158.5          158.5          1.5651069      2.2828193      2.2457496      0.16675175     103.69123    
     34360   106.92687      158.5          158.5          158.5          1.8406565     -0.080865683    1.420556       4.1822793      106.92687    
     34380   103.01055      158.5          158.5          158.5          1.0058409     -0.56405605     3.8584717     -0.276893       103.01055    
     34400   111.20371      158.5          158.5          158.5         -1.0131271     -0.18900412     1.002878      -3.8532551      111.20371    
     34420   104.61899      158.5          158.5          158.5         -1.2656489     -1.613834      -4.2273733      2.0442605      104.61899    
     34440   106.27007      158.5          158.5          158.5          2.3378484      0.86264139     0.49787565     5.6530282      106.27007    
     34460   114.76306      158.5          158.5          158.5          1.447498       2.3724831      1.634243       0.33576784     114.76306    
     34480   105.27256      158.5          158.5          158.5         -0.073878156    3.6987172     -1.7031996     -2.2171521      105.27256    
     34500   112.36956      158.5          158.5          158.5          0.25323999    -0.21522191    -2.5021448      3.4770867      112.36956    
     34520   114.49691      158.5          158.5          158.5         -0.93610905    -2.982801      -2.5423827      2.7168566      114.49691    
     34540   120.1725       158.5          158.5          158.5         -1.9119123      0.39430822    -2.839914      -3.2901312      120.1725     
     34560   107.76162      158.5          158.5          158.5          0.47356371     2.2034219      1.2024989     -1.9852297      107.76162    
     34580   108.62351      158.5          158.5          158.5          2.6608697      0.74519965     2.4997209      4.7376884      108.62351    
     34600   118.2614       158.5          158.5          158.5         -1.5833859     -2.207102      -3.7426447      1.1995888      118.2614     
     34620   122.50956      158.5          158.5          158.5          0.66125733     1.2888332     -0.99161715     1.6865559      122.50956    
     34640   104.86834      158.5          158.5          158.5          2.9460441      2.4806541      4.8850445      1.4724338      104.86834    
     34660   129.34142      158.5          158.5          158.5         -1.4717994     -4.1517629     -2.1288264      1.8651912      129.34142    
     34680   112.06475      158.5          158.5          158.5          3.0567345     -0.23250116     2.9064443      6.4962602      112.06475    
     34700   114.97869      158.5          158.5          158.5          1.5733236      3.3225961      4.0454652     -2.6480906      114.97869    
     34720   102.80937      158.5          158.5          158.5         -3.9817288     -3.6780962     -2.1201301     -6.14696        102.80937    
     34740   128.4597       158.5          158.5          158.5         -0.0050471019  -2.4583702      0.56809013     1.8751388      128.4597     
     34760   120.65344      158.5          158.5          158.5         -2.4260724     -1.2524691     -1.5750961     -4.4506519      120.65344    
     34780   104.89877      158.5          158.5          158.5         -1.7403199      0.57166345    -3.130287      -2.6623362      104.89877    
     34800   113.16926      158.5          158.5          158.5          1.5590569      0.70274356     1.9438912      2.0305361      113.16926    
     34820   116.30617      158.5          158.5          158.5          0.028569159   -1.9407271      1.9984744      0.027960165    116.30617    
     34840   109.51834      158.5          158.5          158.5          0.34503146    -0.64202487     0.44116001     1.2359592      109.51834    
     34860   101.81625      158.5          158.5          158.5         -1.0069961     -0.29247856    -1.308503      -1.4200068      101.81625    
     34880   110.35147      158.5          158.5          158.5         -0.91129297     0.49073072    -2.7275644     -0.49704522     110.35147    
     34900   113.64217      158.5          158.5          158.5          0.035395541   -2.2737544      0.30796606     2.0719749      113.64217    
     34920   101.45408      158.5          158.5          158.5          0.50295506    -1.9513575      2.4778084      0.98241424     101.45408    
     34940   102.90463      158.5          158.5          158.5          0.93260221     1.7541554      0.97985738     0.063793824    102.90463    
     34960   115.02462      158.5          158.5          158.5         -1.5799908     -1.3427957     -2.5269579     -0.87021876     115.02462    
     34980   104.75499      158.5          158.5          158.5          0.15819438    -1.8650496      1.1726623      1.1669704      104.75499    
     35000   97.823108      158.5          158.5          158.5         -0.042637722   -2.1457871      1.7549177      0.26295631     97.823108    
     35020   112.73199      158.5          158.5          158.5          2.1644316      4.119771       0.69666345     1.6768603      112.73199    
     35040   108.23128      158.5          158.5          158.5          2.9237843      4.3547206      2.6463303      1.7703021      108.23128    
     35060   111.92237      158.5          158.5          158.5          0.063887777   -2.0704721      0.72888015     1.5332553      111.92237    
     35080   102.22638      158.5          158.5          158.5          2.4263936      3.8816473     -0.62224101     4.0197746      102.22638    
     35100   107.38394      158.5          158.5          158.5         -1.5732716      1.6785086     -2.015734      -4.3825895      107.38394    
     35120   108.95436      158.5          158.5          158.5         -0.40494732    -4.2629013      2.4082299      0.63982939     108.95436    
     35140   103.51808      158.5          158.5          158.5         -1.8017185     -5.7231882     -0.8083325      1.1263651      103.51808    
     35160   112.09073      158.5          158.5          158.5         -3.2805196     -2.3770974     -3.063142      -4.4013193      112.09073    
     35180   113.60958      158.5          158.5          158.5          0.62978172     1.7153136      0.69051126    -0.51647967     113.60958    
     35200   123.27167      158.5          158.5          158.5         -3.6126231     -5.6911573     -1.8468021     -3.2999098      123.27167    
     35220   119.86351      158.5          158.5          158.5         -0.14363954    -0.21306116     1.6512096     -1.8690671      119.86351    
     35240   114.80349      158.5          158.5          158.5          1.2674176      4.0307964     -0.1032606     -0.12528302     114.80349    
     35260   120.83824      158.5          158.5          158.5         -4.2893763     -2.2802847     -7.1011651     -3.486679       120.83824    
     35280   113.14037      158.5          158.5          158.5          0.80616863    -0.97543562     1.5864905      1.807451       113.14037    
     35300   114.07227      158.5          158.5          158.5         -0.94045085    -3.5945446      1.2790845     -0.50589244     114.07227    
     35320   119.07587      158.5          158.5          158.5         -2.4933996     -2.3116827     -3.5231454     -1.6453706      119.07587    
     35340   111.65314      158.5          158.5          158.5          1.7278222      4.1545213     -0.84918056     1.8781258      111.65314    
     35360   103.47731      158.5          158.5          158.5          0.072406665    0.32504151     0.81068064    -0.91850216     103.47731    
     35380   105.25779      158.5          158.5          158.5         -0.10950009    -3.0391766      0.58559058     2.1250858      105.25779    
     35400   105.80162      158.5          158.5          158.5          2.2120657      3.7264547      0.66129251     2.2484498      105.80162    
     35420   104.59015      158.5          158.5          158.5          0.093837815    2.9105399      0.07082106    -2.6998475      104.59015    
     35440   95.000832      158.5          158.5          158.5         -1.6071083     -4.045644       0.1368828     -0.9125636      95.000832    
     35460   104.84751      158.5          158.5          158.5          2.0540032      0.28513474     1.8758727      4.0010021      104.84751    
     35480   102.25093      158.5          158.5          158.5          0.90612289     2.9341952     -1.5619267      1.3461002      102.25093    
     35500   96.291575      158.5          158.5          158.5          0.7139805      2.4752877     -0.42371955     0.090373384    96.291575    
     35520   103.64016      158.5          158.5          158.5          3.845483       1.2142762      6.9002354      3.4219372      103.64016    
     35540   102.5901       158.5          158.5          158.5         -0.59257816    -2.3863701      1.3113848     -0.70274915     102.5901     
     35560   99.173227      158.5          158.5          158.5          0.83470226     3.5125881     -1.8548825      0.84640112     99.173227    
     35580   92.957131      158.5          158.5          158.5          2.2714484      5.9063876      1.4668322     -0.5588746      92.957131    
     35600   102.80287      158.5          158.5          158.5         -3.5581481     -6.2240826     -0.37075463    -4.0796071      102.80287    
     35620   90.32921       158.5          158.5          158.5         -0.60325469    -2.1963932      2.2388526     -1.8522234      90.32921     
     35640   104.10833      158.5          158.5          158.5         -0.73787172     1.8436616     -1.3211617     -2.7361151      104.10833    
     35660   107.37477      158.5          158.5          158.5         -3.0122237     -1.6437689     -3.0869073     -4.3059949      107.37477    
     35680   98.749265      158.5          158.5          158.5          0.95479402     0.90280495     1.917169       0.044408118    98.749265    
     35700   102.74601      158.5          158.5          158.5          0.26359604    -0.84768212     2.6037209     -0.96525063     102.74601    
     35720   105.77201      158.5          158.5          158.5         -1.7282859     -1.277488      -4.5976389      0.69026919     105.77201    
     35740   94.777099      158.5          158.5          158.5          0.60009481     2.4682776     -2.0710205      1.4030273      94.777099    
     35760   105.57362      158.5          158.5          158.5         -0.38361447    -3.5139156      2.1673425      0.19572963     105.57362    
     35780   107.87478      158.5          158.5          158.5          0.0098101897  -2.5030314      2.303387       0.22907502     107.87478    
     35800   114.20586      158.5          158.5          158.5          2.4391753      6.5565938     -0.70124243     1.4621746      114.20586    
     35820   102.94052      158.5          158.5          158.5          0.7325771      2.6472089     -1.1527052      0.70322757     102.94052    
     35840   115.12614      158.5          158.5          158.5         -0.94107446    -2.3621347     -0.10247806    -0.35861061     115.12614    
     35860   119.92108      158.5          158.5          158.5          0.49573538     0.82157798     1.2196702     -0.55404205     119.92108    
     35880   107.36022      158.5          158.5          158.5         -1.6602288     -2.7084904      0.64028734    -2.9124832      107.36022    
     35900   110.25382      158.5          158.5          158.5         -0.26743895    -2.2766007     -0.055119129    1.529403       110.25382    
     35920   119.67158      158.5          158.5          158.5          0.16853874     1.6156791     -2.9077133      1.7976504      119.67158    
     35940   109.13775      158.5          158.5          158.5          0.19581986     0.5216743      0.59458982    -0.52880453     109.13775    
     35960   115.11437      158.5          158.5          158.5          0.52555208     0.16233748     2.8383468     -1.424028       115.11437    
     35980   109.37369      158.5          158.5          158.5         -2.2342368      2.2081258     -4.2047823     -4.7060539      109.37369    
     36000   109.99023      158.5          158.5          158.5          2.745347       3.6953286      2.6705195      1.8701929      109.99023    
     36020   111.35222      158.5          158.5          158.5          0.17710693    -2.7609076      2.4026051      0.88962332     111.35222    
     36040   100.92505      158.5          158.5          158.5         -1.5342795     -0.51616298    -2.1672388     -1.9194369      100.92505    
     36060   109.86773      158.5          158.5          158.5          1.5408908      3.7008899      0.22619153     0.6955911      109.86773    
     36080   104.89737      158.5          158.5          158.5         -4.1812067     -7.1049183     -3.8973089     -1.541393       104.89737    
     36100   110.40632      158.5          158.5          158.5         -1.0942567     -3.5135929     -2.5156907      2.7465135      110.40632    
     36120   100.46241      158.5          158.5          158.5         -0.1386404      1.279322      -2.3624974      0.66725422     100.46241    
     36140   100.38717      158.5          158.5          158.5         -3.9352481     -5.9956165     -2.3307356     -3.4793923      100.38717    
     36160   105.30021      158.5          158.5          158.5          0.50233899    -2.5906085      2.9395962      1.1580293      105.30021    
     36180   104.5743       158.5          158.5          158.5         -0.95961545    -2.5428397     -1.9836649      1.6476582      104.5743     
     36200   100.1751       158.5          158.5          158.5         -0.5664278     -2.7715039     -1.5893754      2.6615959      100.1751     
     36220   103.63075      158.5          158.5          158.5          0.32738087    -1.7249636      4.3264542     -1.619348       103.63075    
     36240   107.98275      158.5          158.5          158.5          2.336884       3.2779818      2.7760477      0.95662255     107.98275    
     36260   110.66238      158.5          158.5          158.5         -0.73821065     0.8513373     -4.5125907      1.4466214      110.66238    
     36280   107.61755      158.5          158.5          158.5         -1.6916842     -2.7685243     -0.6888633     -1.6176651      107.61755    
     36300   113.82917      158.5          158.5          158.5          3.0205617      3.7278469      5.4604714     -0.12663335     113.82917    
     36320   108.12687      158.5          158.5          158.5         -6.1284917     -4.1831427     -5.3656747     -8.8366575      108.12687    
     36340   125.92108      158.5          158.5          158.5          0.61509632    -0.68175621    -0.26175985     2.788805       125.92108    
     36360   113.36723      158.5          158.5          158.5          3.880785       2.8429289      3.4884675      5.3109587      113.36723    
     36380   124.09751      158.5          158.5          158.5         -4.452221      -1.7974658     -5.3181561     -6.2410411      124.09751    
     36400   114.68678      158.5          158.5          158.5          5.9508941      6.8249367      5.3920183      5.6357273      114.68678    
     36420   115.34029      158.5          158.5          158.5         -0.51521605     0.32182501    -1.8908101      0.023336899    115.34029    
     36440   119.85774      158.5          158.5          158.5         -3.8392727     -1.587201      -5.0143114     -4.9163056      119.85774    
     36460   116.27951      158.5          158.5          158.5          4.5679292      4.7677235      6.2000384      2.7360256      116.27951    
     36480   115.67527      158.5          158.5          158.5         -2.2132776     -2.5704028     -1.8586397     -2.2107903      115.67527    
     36500   127.12595      158.5          158.5          158.5          0.95161427     1.9098485     -1.3520164      2.2970108      127.12595    
     36520   115.83095      158.5          158.5          158.5          5.3530968      6.1427914      5.4823613      4.4341378      115.83095    
     36540   119.19576      158.5          158.5          158.5         -2.0515636     -2.9784373     -0.33823406    -2.8380194      119.19576    
     36560   117.29823      158.5          158.5          158.5         -0.43229273    -1.5790512     -1.1329063      1.4150793      117.29823    
     36580   119.42933      158.5          158.5          158.5          1.1891846      0.73041005     1.5985548      1.2385889      119.42933    
     36600   111.8012       158.5          158.5          158.5         -2.0604579     -4.7774045     -0.46816702    -0.93580226     111.8012     
     36620   114.24949      158.5          158.5          158.5         -2.632055      -5.3447407     -4.3169923      1.7655681      114.24949    
     36640   113.17045      158.5          158.5          158.5          1.1291754     -0.81312779     2.3056852      1.8949689      113.17045    
     36660   115.4481       158.5          158.5          158.5         -1.5738968     -0.34513603    -0.021217933   -4.3553366      115.4481     
     36680   96.464909      158.5          158.5          158.5          0.92792878     2.3158253     -0.92009972     1.3880607      96.464909    
     36700   117.23562      158.5          158.5          158.5          2.7435115      1.8707735      0.70324557     5.6565154      117.23562    
     36720   111.34732      158.5          158.5          158.5         -0.52583356    -0.20961601     0.74941355    -2.1172982      111.34732    
     36740   115.04626      158.5          158.5          158.5          1.356633       2.7481127      1.9235448     -0.60175834     115.04626    
     36760   108.38064      158.5          158.5          158.5          2.1295224      3.8746706      2.5015919      0.012304537    108.38064    
     36780   109.67228      158.5          158.5          158.5         -0.6038443      2.327628      -0.84823517    -3.2909257      109.67228    
     36800   107.6296       158.5          158.5          158.5          0.75936262    -0.013241025    2.682297      -0.39096816     107.6296     
     36820   103.71909      158.5          158.5          158.5          0.98255358     2.2986395      0.59901122     0.050010044    103.71909    
     36840   103.81593      158.5          158.5          158.5         -1.2302577     -1.3990823     -2.4812917      0.18960076     103.81593    
     36860   101.33081      158.5          158.5          158.5         -1.5945045     -3.1054864     -0.34630231    -1.3317247      101.33081    
     36880   110.35251      158.5          158.5          158.5         -0.47624348     3.0055284     -0.29569381    -4.138565       110.35251    
     36900   108.94246      158.5          158.5          158.5         -3.6977757     -4.5043661     -5.2994086     -1.2895525      108.94246    
     36920   101.61121      158.5          158.5          158.5         -2.4502553     -5.2425604     -4.3922797      2.2840744      101.61121    
     36940   105.63213      158.5          158.5          158.5          1.194838       1.4585547      1.35121        0.77474937     105.63213    
     36960   99.365818      158.5          158.5          158.5          0.1912465      1.382671      -1.6568517      0.84792023     99.365818    
     36980   105.16383      158.5          158.5          158.5          0.92176766     2.3379053     -2.1529136      2.5803113      105.16383    
     37000   104.55014      158.5          158.5          158.5          0.7142472     -0.16569084     3.3462958     -1.0378634      104.55014    
     37020   104.43492      158.5          158.5          158.5         -1.9546377     -3.4173228      0.40273415    -2.8493245      104.43492    
     37040   107.75072      158.5          158.5          158.5         -1.2752395      0.049658219   -1.8516999     -2.0236769      107.75072    
     37060   99.489086      158.5          158.5          158.5          0.50206548    -0.38573729     1.6276634      0.26427033     99.489086    
     37080   101.92693      158.5          158.5          158.5          1.6613098     -2.1596757      3.3229573      3.8206478      101.92693    
     37100   108.09602      158.5          158.5          158.5          0.57313577    -0.73024264    -1.7874294      4.2370794      108.09602    
     37120   115.24099      158.5          158.5          158.5         -1.2074249      2.6644624     -5.9427537     -0.34398322     115.24099    
     37140   102.69847      158.5          158.5          158.5         -1.3629835      1.4268809     -3.9883056     -1.5275257      102.69847    
     37160   107.49654      158.5          158.5          158.5         -0.2743221     -1.6877133      1.3191354     -0.4543884      107.49654    
     37180   106.91399      158.5          158.5          158.5          0.31682568    -0.373878       0.94791709     0.37643795     106.91399    
     37200   120.33381      158.5          158.5          158.5         -0.66650644     2.7495165     -2.5753584     -2.1736775      120.33381    
     37220   118.118        158.5          158.5          158.5          0.8547166      1.3168463      1.4790232     -0.23171966     118.118      
     37240   124.87214      158.5          158.5          158.5         -0.45765791    -1.4548507      2.0504164     -1.9685395      124.87214    
     37260   110.93173      158.5          158.5          158.5         -1.5275663     -0.37677876    -3.7047857     -0.50113457     110.93173    
     37280   120.51697      158.5          158.5          158.5          1.2928926      4.3151133     -3.8744823      3.4380469      120.51697    
     37300   117.95804      158.5          158.5          158.5         -1.2866658     -1.5709596     -1.6605038     -0.62853399     117.95804    
     37320   120.73739      158.5          158.5          158.5          0.22299306    -3.8793774      0.18379109     4.3645656      120.73739    
     37340   110.55397      158.5          158.5          158.5          0.65414632    -0.59497548    -0.21690784     2.7743223      110.55397    
     37360   116.93849      158.5          158.5          158.5         -3.104866      -3.0858613     -2.9401218     -3.2886149      116.93849    
     37380   110.40552      158.5          158.5          158.5          0.4956378     -1.339756       2.6296586      0.19701075     110.40552    
     37400   116.19881      158.5          158.5          158.5         -1.8705169     -4.1476678      1.3221433     -2.7860261      116.19881    
     37420   112.31898      158.5          158.5          158.5         -0.69452531    -2.8774406      0.76853392     0.025330694    112.31898    
     37440   114.23957      158.5          158.5          158.5          0.34747618     0.45369881    -1.0500537      1.6387834      114.23957    
     37460   107.26744      158.5          158.5          158.5         -0.28339223     2.072159       0.05368077    -2.9760164      107.26744    
     37480   109.28019      158.5          158.5          158.5          3.4659592      2.5741972      4.2022647      3.6214159      109.28019    
     37500   106.67748      158.5          158.5          158.5          0.48341948    -2.0590004     -1.6779839      5.1872427      106.67748    
     37520   110.72508      158.5          158.5          158.5          0.041342883    1.7432207      0.043855391   -1.6630475      110.72508    
     37540   98.570898      158.5          158.5          158.5          1.7561016      3.9466384      4.1193362     -2.7976697      98.570898    
     37560   100.0626       158.5          158.5          158.5         -2.9828478     -5.168605      -1.7788067     -2.0011317      100.0626     
     37580   108.88696      158.5          158.5          158.5          0.86604455    -0.91257458     0.9460097      2.5646985      108.88696    
     37600   105.49741      158.5          158.5          158.5          0.81102035     3.5302049      0.37663607    -1.4737799      105.49741    
     37620   109.88939      158.5          158.5          158.5         -0.81823022     1.9514343     -0.069310138   -4.3368148      109.88939    
     37640   105.09055      158.5          158.5          158.5          2.8224734      1.4414223      3.5399925      3.4860054      105.09055    
     37660   111.43748      158.5          158.5          158.5         -0.092428934   -2.0303098     -0.65565158     2.4086746      111.43748    
     37680   105.75498      158.5          158.5          158.5         -0.53196141     2.735441      -2.9999959     -1.3313293      105.75498    
     37700   105.27412      158.5          158.5          158.5          0.90613461     4.574971       0.35900207    -2.2155693      105.27412    
     37720   111.85207      158.5          158.5          158.5          1.0400837     -3.6655879      5.5669451      1.2188938      111.85207    
     37740   105.10197      158.5          158.5          158.5         -0.26361511    -0.7919238     -1.7182582      1.7193366      105.10197    
     37760   104.13049      158.5          158.5          158.5          0.27480656     5.4667003     -4.4050853     -0.23719522     104.13049    
     37780   114.98393      158.5          158.5          158.5         -0.3671684     -0.008536652    1.2587294     -2.3516979      114.98393    
     37800   114.93521      158.5          158.5          158.5         -2.963684      -7.1841944     -1.1015434     -0.60531409     114.93521    
     37820   109.15753      158.5          158.5          158.5          2.3967478      1.4224684      2.3835434      3.3842317      109.15753    
     37840   112.60946      158.5          158.5          158.5         -1.0255892      0.96111289    -0.3134021     -3.7244784      112.60946    
     37860   113.47978      158.5          158.5          158.5         -2.6194905     -2.4530215     -1.3779466     -4.0275034      113.47978    
     37880   115.20373      158.5          158.5          158.5          1.340394      -1.5591061      3.3324483      2.2478398      115.20373    
     37900   116.80451      158.5          158.5          158.5         -3.907991      -5.4245944     -4.7443043     -1.5550744      116.80451    
     37920   114.27481      158.5          158.5          158.5         -1.1142733     -0.4313931     -1.1722003     -1.7392266      114.27481    
     37940   109.72269      158.5          158.5          158.5          0.80032307    -0.72235766     1.702282       1.4210449      109.72269    
     37960   105.92895      158.5          158.5          158.5         -0.35697712    -1.7028377      0.36898078     0.26292554     105.92895    
     37980   113.8309       158.5          158.5          158.5         -0.48118732     0.16321082    -0.69349263    -0.91328015     113.8309     
     38000   94.811431      158.5          158.5          158.5         -2.2293446     -1.1405679     -3.3516293     -2.1958366      94.811431    
     38020   100.85194      158.5          158.5          158.5          0.83569092     1.0260926      2.6914589     -1.2104788      100.85194    
     38040   98.254129      158.5          158.5          158.5         -0.24390883    -4.2534046      3.2465083      0.27516977     98.254129    
     38060   106.58421      158.5          158.5          158.5          0.16374515     0.35487368    -1.8477255      1.9840872      106.58421    
     38080   98.505104      158.5          158.5          158.5          1.1689116      6.6262627     -3.0594986     -0.060029212    98.505104    
     38100   95.174551      158.5          158.5          158.5         -1.1171307      0.68577485    -2.3905572     -1.6466097      95.174551    
     38120   102.31062      158.5          158.5          158.5          2.9512728      3.0958256      2.5692184      3.1887743      102.31062    
     38140   95.819752      158.5          158.5          158.5          2.8798769      5.0693605      2.223795       1.3464751      95.819752    
     38160   99.913919      158.5          158.5          158.5          1.6121829      4.9010652     -0.65920919     0.59469284     99.913919    
     38180   101.51471      158.5          158.5          158.5          2.3419407      2.7265638      2.8489244      1.450334       101.51471    
     38200   93.496729      158.5          158.5          158.5         -0.98394352    -1.8326695     -1.1473183      0.028157168    93.496729    
     38220   104.99916      158.5          158.5          158.5         -1.2337529     -1.3633943     -3.3670223      1.029158       104.99916    
     38240   99.299307      158.5          158.5          158.5         -0.47718919    -2.3724537      1.6101496     -0.66926343     99.299307    
     38260   105.97047      158.5          158.5          158.5         -2.1832166     -3.2271575     -2.1042781     -1.2182142      105.97047    
     38280   105.0716       158.5          158.5          158.5         -0.87470808    -3.8048858     -1.1117074      2.2924689      105.0716     
     38300   107.70792      158.5          158.5          158.5          0.68253625    -2.9420653      2.1078625      2.8818116      107.70792    
     38320   110.56669      158.5          158.5          158.5         -1.7054304     -2.3311062     -2.2375039     -0.54768102     110.56669    
     38340   110.28823      158.5          158.5          158.5         -1.3101458      1.0989077     -2.7380899     -2.2912553      110.28823    
     38360   107.54978      158.5          158.5          158.5          3.1980892      3.6119711      4.956775       1.0255215      107.54978    
     38380   116.91221      158.5          158.5          158.5         -3.5124715     -4.3457222     -2.2893382     -3.9023541      116.91221    
     38400   116.96823      158.5          158.5          158.5         -1.1676772     -0.87984153    -0.49096888    -2.1322212      116.96823    
     38420   110.70486      158.5          158.5          158.5          1.6605998      3.2056945      1.3668372      0.40926779     110.70486    
     38440   115.02814      158.5          158.5          158.5         -4.4788486     -5.0422914     -4.4801818     -3.9140726      115.02814    
     38460   115.6156       158.5          158.5          158.5          3.3743308      1.7652404      2.6476664      5.7100856      115.6156     
     38480   110.5807       158.5          158.5          158.5          0.37869316     1.7540455     -1.5772944      0.95932839     110.5807     
     38500   109.44241      158.5          158.5          158.5         -1.4755556     -1.1315729      0.15659827    -3.4516922      109.44241    
     38520   104.01038      158.5          158.5          158.5          4.9151454      2.6271338      5.8661583      6.2521441      104.01038    
     38540   114.13435      158.5          158.5          158.5         -2.9121245     -2.1736752     -4.6253386     -1.9373596      114.13435    
     38560   113.89243      158.5          158.5          158.5          0.95281997     4.7022943      0.83671313    -2.6805475      113.89243    
     38580   108.97164      158.5          158.5          158.5          3.0765028      4.0964361      3.9487795      1.1842927      108.97164    
     38600   116.12711      158.5          158.5          158.5         -1.6702643     -1.9458798     -2.5152895     -0.54962357     116.12711    
     38620   107.1479       158.5          158.5          158.5          3.7851023      4.3255602      3.3624516      3.6672951      107.1479     
     38640   107.81977      158.5          158.5          158.5          0.81968971     1.3366478      0.090023215    1.0323981      107.81977    
     38660   109.12667      158.5          158.5          158.5         -2.0724757     -2.6223433     -2.0858446     -1.5092391      109.12667    
     38680   107.99929      158.5          158.5          158.5          0.28977292    -0.73808344     0.53592472     1.0714775      107.99929    
     38700   108.49322      158.5          158.5          158.5         -1.991127      -2.9424847     -1.5513712     -1.4795251      108.49322    
     38720   117.68128      158.5          158.5          158.5         -1.3208454     -1.9116196      0.59580785    -2.6467246      117.68128    
     38740   115.57286      158.5          158.5          158.5          0.93468727     2.043625      -0.50772691     1.2681637      115.57286    
     38760   111.55107      158.5          158.5          158.5         -1.0717991      0.22340442    -3.8643526      0.42555089     111.55107    
     38780   111.50261      158.5          158.5          158.5         -2.1041748     -4.9201241     -1.3834373     -0.0089629397   111.50261    
     38800   122.69218      158.5          158.5          158.5          0.59447933    -1.6680774      2.1202193      1.3312961      122.69218    
     38820   119.99997      158.5          158.5          158.5         -0.97227241    -0.73332455     1.0675056     -3.2509983      119.99997    
     38840   120.32541      158.5          158.5          158.5         -0.719777      -2.2284143      0.41752304    -0.3484397      120.32541    
     38860   115.55335      158.5          158.5          158.5          3.5374176      3.770199       2.9131805      3.9288732      115.55335    
     38880   116.14739      158.5          158.5          158.5         -1.858317      -4.5917548      0.34286156    -1.3260577      116.14739    
     38900   115.53852      158.5          158.5          158.5         -1.7264525     -2.1194274     -4.0806244      1.0206943      115.53852    
     38920   117.29782      158.5          158.5          158.5          1.4584702      2.7833229     -1.9195839      3.5116717      117.29782    
     38940   118.252        158.5          158.5          158.5         -3.6362493     -5.4373197      0.418844      -5.8902724      118.252      
     38960   112.85698      158.5          158.5          158.5          0.42618678    -0.33890755     3.4230353     -1.8055674      112.85698    
     38980   115.64211      158.5          158.5          158.5          1.5131074      4.5940162      0.34973103    -0.40442515     115.64211    
     39000   116.67275      158.5          158.5          158.5         -1.7915862     -0.67701008    -3.1734601     -1.5242885      116.67275    
     39020   116.36239      158.5          158.5          158.5          2.9325542      6.6082788      1.7898031      0.39958057     116.36239    
     39040   112.67893      158.5          158.5          158.5          0.96413501     4.0816716     -0.099028634   -1.090238       112.67893    
     39060   104.86579      158.5          158.5          158.5          0.73632961     2.6940381     -1.972214       1.4871647      104.86579    
     39080   115.81642      158.5          158.5          158.5          3.281709       6.796288       0.27379461     2.7750445      115.81642    
     39100   114.11646      158.5          158.5          158.5         -1.6740356     -1.2814256     -1.7686483     -1.972033       114.11646    
     39120   107.73908      158.5          158.5          158.5         -0.78701359    -1.7499665     -0.31434508    -0.29672915     107.73908    
     39140   105.32182      158.5          158.5          158.5          0.5008691     -0.63133846     0.8926518      1.2412939      105.32182    
     39160   110.90865      158.5          158.5          158.5         -0.18411966     2.0517752     -2.0553453     -0.54878896     110.90865    
     39180   96.460557      158.5          158.5          158.5          0.15034853     2.0877637     -1.2882404     -0.34847771     96.460557    
     39200   102.77635      158.5          158.5          158.5          0.1039083     -1.5971482      1.419022       0.48985114     102.77635    
     39220   105.73281      158.5          158.5          158.5          0.30948349     3.0850258     -1.0217232     -1.1348521      105.73281    
     39240   96.8775        158.5          158.5          158.5          0.22996971     1.9562924     -3.0465304      1.780147       96.8775      
     39260   97.439882      158.5          158.5          158.5         -0.30873777    -4.1021706      0.65812601     2.5178313      97.439882    
     39280   90.764239      158.5          158.5          158.5         -0.8644693     -3.9668072      1.801794      -0.42839475     90.764239    
     39300   92.031295      158.5          158.5          158.5         -0.1219521     -1.9991642      0.68256385     0.95074408     92.031295    
     39320   97.473951      158.5          158.5          158.5         -0.3463641      1.1561059     -0.75020981    -1.4449884      97.473951    
     39340   101.39291      158.5          158.5          158.5         -2.3373881     -2.2524721     -2.7185401     -2.0411521      101.39291    
     39360   93.77548       158.5          158.5          158.5         -0.082010264   -4.0184372      0.60062712     3.1717793      93.77548     
     39380   93.118035      158.5          158.5          158.5          2.001913       3.0279841      2.4558129      0.52194202     93.118035    
     39400   96.279124      158.5          158.5          158.5         -0.56557406     3.4890195     -3.768847      -1.4168947      96.279124    
     39420   95.116488      158.5          158.5          158.5          1.1995196     -1.7964659     -0.55545615     5.9504809      95.116488    
     39440   91.639931      158.5          158.5          158.5          1.8203998     -1.1673917      5.195513       1.433078       91.639931    
     39460   97.743877      158.5          158.5          158.5         -2.7923763     -0.46569975    -1.9238562     -5.9875731      97.743877    
     39480   104.66328      158.5          158.5          158.5         -0.45772875     2.3138224     -1.9974532     -1.6895554      104.66328    
     39500   105.57565      158.5          158.5          158.5         -0.59147702    -2.4514941     -0.30294093     0.98000403     105.57565    
     39520   94.161849      158.5          158.5          158.5          0.12840731    -1.6199064      0.70136228     1.3037661      94.161849    
     39540   107.98995      158.5          158.5          158.5          3.2036134      7.493788       1.4164569      0.70059523     107.98995    
     39560   105.77182      158.5          158.5          158.5          0.74140412     6.1221581     -2.1895574     -1.7083884      105.77182    
     39580   112.55182      158.5          158.5          158.5          0.5709987     -1.0741477      0.77858237     2.0085614      112.55182    
     39600   104.06074      158.5          158.5          158.5          1.4896573      0.99315112     2.4045034      1.0713173      104.06074    
     39620   111.0336       158.5          158.5          158.5         -0.1932831      4.048654      -3.6129564     -1.0155468      111.0336     
     39640   104.87987      158.5          158.5          158.5          0.87655571     2.9683909     -1.7097845      1.3710608      104.87987    
     39660   109.4356       158.5          158.5          158.5          0.55901601    -0.1829544      2.4474816     -0.5874792      109.4356     
     39680   106.32522      158.5          158.5          158.5         -0.25285732    -3.9403412      1.9677462      1.2140231      106.32522    
     39700   100.75476      158.5          158.5          158.5         -0.097209472   -1.6536948      1.3362741      0.02579223     100.75476    
     39720   112.29415      158.5          158.5          158.5          1.3384868      1.5227766      2.9963852     -0.50370126     112.29415    
     39740   105.37153      158.5          158.5          158.5         -1.5278746     -3.2465012      0.34809324    -1.6852157      105.37153    
     39760   115.63474      158.5          158.5          158.5         -2.3386994     -6.1424924     -0.28373022    -0.58987571     115.63474    
     39780   112.14165      158.5          158.5          158.5         -1.4187891     -2.9602868     -0.71505198    -0.58102842     112.14165    
     39800   105.43503      158.5          158.5          158.5         -4.4084464     -3.0980002     -4.3516571     -5.7756818      105.43503    
     39820   108.98915      158.5          158.5          158.5         -0.21552791    -3.3225006      2.3688207      0.30709615     108.98915    
     39840   106.48177      158.5          158.5          158.5          0.35251344    -4.4545428      4.8935949      0.61848817     106.48177    
     39860   105.95965      158.5          158.5          158.5         -1.7646008     -0.61620616    -1.1399203     -3.5376759      105.95965    
     39880   103.98903      158.5          158.5          158.5          1.7477435      3.201832       0.53659256     1.504806       103.98903    
     39900   98.758006      158.5          158.5          158.5          0.20862722    -3.3135414     -0.055260985    3.994684       98.758006    
     39920   95.746855      158.5          158.5          158.5          2.0793095     -0.073060258    0.45458025     5.8564085      95.746855    
     39940   103.49435      158.5          158.5          158.5          0.88945192     4.8631736     -0.77594531    -1.4188726      103.49435    
     39960   96.344909      158.5          158.5          158.5         -0.5788421      1.4167523     -0.10272811    -3.0505505      96.344909    
     39980   92.990687      158.5          158.5          158.5          1.6005007     -1.4435908      1.8275694      4.4175235      92.990687    
     40000   98.791482      158.5          158.5          158.5         -1.6481559     -2.2304682     -1.8384612     -0.87553838     98.791482    
     40020   96.618496      158.5          158.5          158.5          1.2418183      3.2103886      0.90575776    -0.3906914      96.618496    
     40040   98.924968      158.5          158.5          158.5          1.2405288      2.4008621     -0.32823483     1.648959       98.924968    
     40060   96.173969      158.5          158.5          158.5         -0.35411228    -2.9657478      0.021749464    1.8816615      96.173969    
     40080   98.544491      158.5          158.5          158.5          3.6670097      3.8921106      3.6179689      3.4909495      98.544491    
     40100   106.79864      158.5          158.5          158.5          1.0933032      6.7865095     -2.5257823     -0.98081772     106.79864    
     40120   98.194458      158.5          158.5          158.5          1.4412196      2.9314706      1.6449721     -0.25278405     98.194458    
     40140   101.12973      158.5          158.5          158.5          0.56778562    -2.9700267      3.2776149      1.3957686      101.12973    
     40160   107.21013      158.5          158.5          158.5         -1.802387      -3.3817215     -0.62675605    -1.3986836      107.21013    
     40180   98.779939      158.5          158.5          158.5         -0.84728408    -1.160177       0.72252291    -2.1041981      98.779939    
     40200   109.55944      158.5          158.5          158.5         -2.6207543     -5.1052907     -0.77237579    -1.9845964      109.55944    
     40220   97.493776      158.5          158.5          158.5          1.8459627     -0.83884529     6.512143      -0.13540952     97.493776    
     40240   113.89889      158.5          158.5          158.5          0.80365376    -0.018868577    1.9252259      0.50460392     113.89889    
     40260   106.31956      158.5          158.5          158.5          0.92068899     1.9379677     -1.1214126      1.9455119      106.31956    
     40280   111.38707      158.5          158.5          158.5          4.5121199      4.6976529      6.5953261      2.2433806      111.38707    
     40300   104.27062      158.5          158.5          158.5         -1.820793      -3.5722286     -0.20180902    -1.6883413      104.27062    
     40320   110.61855      158.5          158.5          158.5         -0.70709972    -0.50147097    -3.3444061      1.7245779      110.61855    
     40340   106.86525      158.5          158.5          158.5          0.65920073     1.1450058     -0.056088102    0.88868448     106.86525    
     40360   112.43236      158.5          158.5          158.5         -4.7966637     -2.2340496     -2.4997904     -9.6561511      112.43236    
     40380   103.66636      158.5          158.5          158.5          1.5742114      3.1699457      0.53080829     1.0218802      103.66636    
     40400   106.18398      158.5          158.5          158.5          1.546592       0.53712277     1.4835228      2.6191303      106.18398    
     40420   107.86211      158.5          158.5          158.5         -0.65391823     0.92257703    -0.58545076    -2.298881       107.86211    
     40440   114.81637      158.5          158.5          158.5          3.4004944      7.7780981      0.21928874     2.2040965      114.81637    
     40460   115.58919      158.5          158.5          158.5          1.5163856      2.9735055     -1.8817271      3.4573785      115.58919    
     40480   106.08712      158.5          158.5          158.5          0.70472157     1.7716111      1.6401928     -1.2976391      106.08712    
     40500   107.95345      158.5          158.5          158.5          1.4155659      2.6925623      3.0809831     -1.5268476      107.95345    
     40520   110.5814       158.5          158.5          158.5         -2.950802      -1.846446      -4.9816922     -2.0242677      110.5814     
     40540   111.3241       158.5          158.5          158.5         -3.3420276     -2.0441907     -6.1078386     -1.8740536      111.3241     
     40560   108.85893      158.5          158.5          158.5         -0.63217652    -1.7626533      1.2222386     -1.3561148      108.85893    
     40580   100.53726      158.5          158.5          158.5         -0.91819439    -3.0531481      0.11032363     0.18824131     100.53726    
     40600   109.23073      158.5          158.5          158.5         -0.11421986    -1.0809337     -0.58393653     1.3222106      109.23073    
     40620   100.07372      158.5          158.5          158.5          1.872933       1.7145673      4.0834512     -0.17921943     100.07372    
     40640   104.51797      158.5          158.5          158.5         -0.69439654    -1.6766577      0.57839458    -0.98492651     104.51797    
     40660   93.329883      158.5          158.5          158.5         -1.2420789     -2.7001266     -0.69587942    -0.33023065     93.329883    
     40680   106.47004      158.5          158.5          158.5          1.1200197      0.8717431      3.610074      -1.121758       106.47004    
     40700   102.98659      158.5          158.5          158.5         -2.6243642     -3.769595      -1.3981342     -2.7053634      102.98659    
     40720   103.66555      158.5          158.5          158.5         -0.67410445    -1.9170761     -0.36629897     0.26106173     103.66555    
     40740   93.752301      158.5          158.5          158.5          0.16967758    -0.52307512     0.21302989     0.81907797     93.752301    
     40760   103.2605       158.5          158.5          158.5         -2.5979487     -2.6452685     -3.1319717     -2.016606       103.2605     
     40780   97.486469      158.5          158.5          158.5          0.74341706     2.6031567      1.7436976     -2.1166032      97.486469    
     40800   113.69185      158.5          158.5          158.5          1.9297648      1.5583326      1.1158581      3.1151037      113.69185    
     40820   111.53785      158.5          158.5          158.5          0.23128484    -0.12711924    -1.2060071      2.0269808      111.53785    
     40840   110.49372      158.5          158.5          158.5          0.46573463     2.9999854      1.625893      -3.2286745      110.49372    
     40860   107.8487       158.5          158.5          158.5         -0.73942913     0.92088757     1.1782608     -4.3174358      107.8487     
     40880   114.32205      158.5          158.5          158.5         -1.8906446     -0.56699608    -3.3365583     -1.7683793      114.32205    
     40900   119.47629      158.5          158.5          158.5         -0.39071423     1.0744847     -1.8718872     -0.37474029     119.47629    
     40920   109.82827      158.5          158.5          158.5         -0.14863541    -0.79831688    -0.14407986     0.49649052     109.82827    
     40940   121.3418       158.5          158.5          158.5          0.097982006   -0.28608453     0.86301291    -0.28298236     121.3418     
     40960   119.62883      158.5          158.5          158.5          0.97507139     2.5750374      1.2438662     -0.89368945     119.62883    
     40980   110.02231      158.5          158.5          158.5          0.72561571     1.8029578     -1.2584227      1.632312       110.02231    
     41000   112.80408      158.5          158.5          158.5         -0.7060705      0.098419255   -4.2211939      2.0045632      112.80408    
     41020   110.96838      158.5          158.5          158.5          0.25932873    -0.40215109    -1.3804732      2.5606105      110.96838    
     41040   114.51438      158.5          158.5          158.5         -0.30289107     1.8592663     -0.51120716    -2.2567323      114.51438    
     41060   107.39707      158.5          158.5          158.5         -0.13881319     0.33386128    -1.5395915      0.78929062     107.39707    
     41080   117.60185      158.5          158.5          158.5          0.93853306    -2.2353488e-06 -0.54074834     3.3563497      117.60185    
     41100   104.1708       158.5          158.5          158.5         -1.0373168     -0.43431599    -3.3846963      0.70706173     104.1708     
     41120   102.17119      158.5          158.5          158.5         -1.184377      -2.0932701      0.088316202   -1.548177       102.17119    
     41140   106.88865      158.5          158.5          158.5          0.22490238    -2.1841714      3.6692372     -0.81035868     106.88865    
     41160   109.77896      158.5          158.5          158.5          1.0079335      0.98437552     1.0007926      1.0386324      109.77896    
     41180   111.56408      158.5          158.5          158.5         -0.12283546    -1.7450454     -0.98969884     2.3662379      111.56408    
     41200   98.366323      158.5          158.5          158.5         -0.24662175    -1.5959806      0.45029507     0.40582027     98.366323    
     41220   104.13943      158.5          158.5          158.5          1.3768435      2.3427946      0.70098643     1.0867494      104.13943    
     41240   109.7501       158.5          158.5          158.5         -0.78162194    -0.25265585    -1.9674409     -0.12476909     109.7501     
     41260   101.5708       158.5          158.5          158.5          1.3773097      0.35781617     2.5069204      1.2671925      101.5708     
     41280   109.71154      158.5          158.5          158.5          0.14248011    -0.44072631     1.3005211     -0.43235442     109.71154    
     41300   99.551732      158.5          158.5          158.5         -2.5946316     -2.3305961     -3.9294114     -1.5238874      99.551732    
     41320   100.2783       158.5          158.5          158.5          0.83288451     1.8861034      1.879047      -1.2664969      100.2783     
     41340   115.71474      158.5          158.5          158.5         -1.5043805     -1.0916392     -4.0935428      0.6720406      115.71474    
     41360   114.15452      158.5          158.5          158.5          1.181069      -0.42667798     0.94503719     3.0248479      114.15452    
     41380   115.47199      158.5          158.5          158.5          1.880368       1.1160544      6.4799479     -1.9548984      115.47199    
     41400   111.63292      158.5          158.5          158.5         -2.5064515      0.30141987    -3.9749895     -3.8457849      111.63292    
     41420   122.98537      158.5          158.5          158.5          0.36745832     3.9295986     -3.723857       0.89663329     122.98537    
     41440   119.87377      158.5          158.5          158.5         -1.582029      -0.39003731    -1.2493425     -3.1067071      119.87377    
     41460   113.07139      158.5          158.5          158.5         -1.4829214     -2.0845486     -0.42481285    -1.9394028      113.07139    
     41480   122.0682       158.5          158.5          158.5          0.03751225     3.8666746     -2.5997638     -1.154374       122.0682     
     41500   121.67438      158.5          158.5          158.5         -0.53005173     1.8831676     -1.9973977     -1.4759251      121.67438    
     41520   120.81968      158.5          158.5          158.5          2.1145938     -1.0236402      3.3560041      4.0114176      120.81968    
     41540   102.91607      158.5          158.5          158.5          1.6450498      1.415713       2.494537       1.0248993      102.91607    
     41560   122.49576      158.5          158.5          158.5          0.11274891     2.5028703     -0.59448417    -1.5701394      122.49576    
     41580   114.88989      158.5          158.5          158.5         -0.65878305     0.13370797    -1.1049161     -1.005141       114.88989    
     41600   109.93878      158.5          158.5          158.5         -0.58474788     0.06869551     1.3397165     -3.1626556      109.93878    
     41620   109.97488      158.5          158.5          158.5          1.8499147     -0.1529102      4.3790999      1.3235545      109.97488    
     41640   117.42281      158.5          158.5          158.5          0.65536811     0.57934532    -3.9821992      5.3689582      117.42281    
     41660   121.70343      158.5          158.5          158.5          1.5528687      2.6080627     -0.72192385     2.7724673      121.70343    
     41680   108.53145      158.5          158.5          158.5          1.8802572      0.3131355      5.143213       0.18442309     108.53145    
     41700   114.21684      158.5          158.5          158.5          1.3587999     -1.3706256      2.9982201      2.4488054      114.21684    
     41720   107.51699      158.5          158.5          158.5          2.4795319      2.6486651      3.3774324      1.4124983      107.51699    
     41740   108.37612      158.5          158.5          158.5         -0.54991348     1.2686592      0.28667901    -3.2050786      108.37612    
     41760   119.43344      158.5          158.5          158.5         -0.77772271    -2.4826641     -0.30719763     0.45669359     119.43344    
     41780   109.77963      158.5          158.5          158.5         -1.228474      -3.3939069      1.7525824     -2.0440975      109.77963    
     41800   108.13773      158.5          158.5          158.5         -1.4856465     -1.7207957     -1.5792216     -1.1569222      108.13773    
     41820   104.98665      158.5          158.5          158.5         -0.63139737     1.6684887     -4.4031693      0.84048854     104.98665    
     41840   113.1402       158.5          158.5          158.5         -0.17153548     0.29258683    -0.32062264    -0.48657063     113.1402     
     41860   121.84152      158.5          158.5          158.5         -0.69438991    -5.0239905      4.5544193     -1.6135984      121.84152    
     41880   115.60258      158.5          158.5          158.5          0.50786903     0.94696949    -0.66251482     1.2391524      115.60258    
     41900   123.25551      158.5          158.5          158.5         -1.6856501      3.1440738     -8.3896893      0.18866505     123.25551    
     41920   124.72335      158.5          158.5          158.5         -2.4949127     -2.2216278     -3.6120922     -1.6510182      124.72335    
     41940   130.02291      158.5          158.5          158.5         -0.23354344    -0.93154908     1.526865      -1.2959462      130.02291    
     41960   124.64881      158.5          158.5          158.5         -3.0604788     -0.075561921   -4.7762626     -4.329612       124.64881    
     41980   121.45769      158.5          158.5          158.5         -1.4506812      2.3448024     -7.2994915      0.60264562     121.45769    
     42000   126.58673      158.5          158.5          158.5          0.37210212    -0.07941976    -1.0443496      2.2400757      126.58673    
     42020   124.23681      158.5          158.5          158.5         -2.0753191     -4.1946035      2.5437942     -4.575148       124.23681    
     42040   116.69133      158.5          158.5          158.5          1.4139965      0.46679773     0.78149273     2.9936991      116.69133    
     42060   116.02203      158.5          158.5          158.5          1.4546084      4.7930655     -3.6533791      3.224139       116.02203    
     42080   119.56693      158.5          158.5          158.5          0.093894827    1.230933       1.2655285     -2.214777       119.56693    
     42100   124.57755      158.5          158.5          158.5          2.6048784      0.28587798     6.2310454      1.2977118      124.57755    
     42120   107.31486      158.5          158.5          158.5          0.69897259     0.33604275    -2.0111593      3.7720343      107.31486    
     42140   121.04085      158.5          158.5          158.5          0.4775762      2.6750206     -2.2720381      1.0297461      121.04085    
     42160   116.78371      158.5          158.5          158.5          0.036999176    0.69137489     1.2492982     -1.8296755      116.78371    
     42180   113.31643      158.5          158.5          158.5         -1.8754074     -7.9715195      3.5918081     -1.2465109      113.31643    
     42200   113.05702      158.5          158.5          158.5         -0.44602057    -2.8674728      0.62170413     0.90770697     113.05702    
     42220   127.8175       158.5          158.5          158.5          1.3049908      6.3391428     -2.5001873      0.07601678     127.8175     
     42240   109.89797      158.5          158.5          158.5          1.0824076     -0.61070685     1.6147534      2.2431762      109.89797    
     42260   106.12275      158.5          158.5          158.5          0.26323875    -4.3046252      5.0221021      0.072239347    106.12275    
     42280   116.81161      158.5          158.5          158.5          1.1071592      3.5644801      0.14332055    -0.38632311     116.81161    
     42300   114.56101      158.5          158.5          158.5         -1.7374067      2.1582241     -5.1282031     -2.242241       114.56101    
     42320   112.0718       158.5          158.5          158.5          0.77083445    -0.49454252     2.0837943      0.72325158     112.0718     
     42340   103.7209       158.5          158.5          158.5          1.1092815     -1.4717271      2.4413335      2.3582382      103.7209     
     42360   113.67185      158.5          158.5          158.5         -2.318181      -0.87130596    -2.9640463     -3.1191907      113.67185    
     42380   111.59597      158.5          158.5          158.5          0.83922283     4.6309387     -1.772135      -0.34113525     111.59597    
     42400   111.30226      158.5          158.5          158.5         -2.898204      -1.6574733     -5.9074125     -1.1297262      111.30226    
     42420   110.78222      158.5          158.5          158.5         -0.80592368    -3.2988486      0.66315701     0.2179205      110.78222    
     42440   110.51353      158.5          158.5          158.5          3.1695786      4.823282       2.2499273      2.4355266      110.51353    
     42460   117.69473      158.5          158.5          158.5         -3.016112       1.5193404     -5.1181033     -5.4495731      117.69473    
     42480   105.44666      158.5          158.5          158.5          1.0834954      0.72864412     1.6241603      0.89768174     105.44666    
     42500   100.74082      158.5          158.5          158.5         -1.1835461     -3.1643824      0.56824738    -0.9545032      100.74082    
     42520   113.22088      158.5          158.5          158.5         -2.3268005     -0.1064101     -2.5028995     -4.3710919      113.22088    
     42540   111.51907      158.5          158.5          158.5          1.5146252      4.9120175     -0.58474274     0.21660091     111.51907    
     42560   102.20261      158.5          158.5          158.5          0.094273173   -0.80105002     2.0714713     -0.98760177     102.20261    
     42580   102.59707      158.5          158.5          158.5          2.3377842     -1.3983676      5.5528194      2.8589009      102.59707    
     42600   112.74897      158.5          158.5          158.5         -1.031945      -0.49058024    -0.26100257    -2.3442523      112.74897    
     42620   107.70951      158.5          158.5          158.5         -1.7559415      0.942837      -0.79882135    -5.4118402      107.70951    
     42640   110.86019      158.5          158.5          158.5         -0.19250019    -3.4218304     -0.17500747     3.0193373      110.86019    
     42660   112.13404      158.5          158.5          158.5         -3.0396088     -5.3530876     -3.3430016     -0.42273722     112.13404    
     42680   110.66585      158.5          158.5          158.5          2.702762       5.851481       1.8919616      0.36484333     110.66585    
     42700   106.80695      158.5          158.5          158.5         -0.034377823    2.6241895     -0.11768232    -2.6096407      106.80695    
     42720   122.73255      158.5          158.5          158.5          3.1283763      0.20946496     6.8079723      2.3676917      122.73255    
     42740   113.72466      158.5          158.5          158.5          2.9015203     -0.85603201     6.6665233      2.8940697      113.72466    
     42760   120.95886      158.5          158.5          158.5         -2.8100179     -0.97860994    -2.4728883     -4.9785554      120.95886    
     42780   119.22233      158.5          158.5          158.5          1.3333678      3.0352569      0.51152544     0.45332122     119.22233    
     42800   111.31196      158.5          158.5          158.5         -2.2642967     -3.0604095     -2.5775253     -1.1549553      111.31196    
     42820   123.17065      158.5          158.5          158.5         -1.1708897     -3.9303125      0.31400241     0.10364113     123.17065    
     42840   124.57857      158.5          158.5          158.5          1.5099713      2.0224214     -0.22903164     2.7365242      124.57857    
     42860   125.26855      158.5          158.5          158.5         -0.44060581     0.92212684    -2.1285922     -0.11535204     125.26855    
     42880   117.44445      158.5          158.5          158.5          0.2511575     -0.29365031     0.270807       0.7763158      117.44445    
     42900   127.18811      158.5          158.5          158.5          1.9774691      0.028520376    1.0407024      4.8631846      127.18811    
     42920   126.75668      158.5          158.5          158.5          1.3007656      1.3930246      0.53915216     1.9701202      126.75668    
     42940   125.7805       158.5          158.5          158.5          1.1022443      3.6556519      0.66187157    -1.0107906      125.7805     
     42960   126.39082      158.5          158.5          158.5          0.51504955    -0.50601031     0.50250232     1.5486566      126.39082    
     42980   120.32512      158.5          158.5          158.5         -1.1906234     -2.3853034     -2.2776172      1.0910505      120.32512    
     43000   117.61325      158.5          158.5          158.5         -1.2965558     -2.920942      -0.36399068    -0.60473478     117.61325    
     43020   115.51725      158.5          158.5          158.5          0.51290556     2.4295929     -0.17409198    -0.7167842      115.51725    
     43040   116.39528      158.5          158.5          158.5         -0.59851405     1.0297478     -4.1637504      1.3384604      116.39528    
     43060   109.15409      158.5          158.5          158.5         -1.2927299     -3.1967572     -0.76737977     0.085947309    109.15409    
     43080   112.76024      158.5          158.5          158.5          0.35088589     1.9207364      0.10135563    -0.96943441     112.76024    
     43100   108.4467       158.5          158.5          158.5         -2.0354898      1.3055563     -3.6612088     -3.7508169      108.4467     
     43120   111.86727      158.5          158.5          158.5         -0.69406792    -1.5364851     -0.71642436     0.17070574     111.86727    
     43140   113.45977      158.5          158.5          158.5         -0.78428907    -2.5691013     -0.013137723    0.22937183     113.45977    
     43160   106.28083      158.5          158.5          158.5          0.24269558     2.5837744      1.300619      -3.1563066      106.28083    
     43180   107.75848      158.5          158.5          158.5          2.6891805      3.7461574      4.4063425     -0.084958326    107.75848    
     43200   112.63319      158.5          158.5          158.5         -0.79036059    -1.7865439      0.075053865   -0.65959169     112.63319    
     43220   116.02693      158.5          158.5          158.5          1.7688151     -0.76831361     1.4911675      4.5835914      116.02693    
     43240   105.8661       158.5          158.5          158.5         -0.78763146     0.20359136    -2.3908559     -0.17562985     105.8661     
     43260   106.70813      158.5          158.5          158.5         -1.7394964     -0.91743388     1.0952866     -5.3963418      106.70813    
     43280   120.0769       158.5          158.5          158.5          1.4953806     -2.5314198      6.6637686      0.35379303     120.0769     
     43300   110.39577      158.5          158.5          158.5         -2.4237001     -7.232249      -3.3453223      3.3064708      110.39577    
     43320   109.83174      158.5          158.5          158.5         -1.1803999     -2.2604504     -1.4849819      0.20423281     109.83174    
     43340   114.42558      158.5          158.5          158.5         -0.45764648     2.2525695      1.5223195     -5.1478284      114.42558    
     43360   107.9688       158.5          158.5          158.5         -1.4008083     -1.4398281     -1.1397097     -1.6228873      107.9688     
     43380   111.76067      158.5          158.5          158.5          4.2834273      1.7553574      4.809144       6.2857805      111.76067    
     43400   120.41124      158.5          158.5          158.5          2.698111       2.2459843      4.8280884      1.0202602      120.41124    
     43420   106.64638      158.5          158.5          158.5         -1.5683156      1.6571095     -1.4751476     -4.8869088      106.64638    
     43440   109.77654      158.5          158.5          158.5          1.2525159      0.34191663     2.1059544      1.3096766      109.77654    
     43460   117.23307      158.5          158.5          158.5         -3.6933557     -5.0266709     -4.1941799     -1.8592161      117.23307    
     43480   115.65749      158.5          158.5          158.5         -4.4761188     -1.7052833     -5.423363      -6.29971        115.65749    
     43500   104.96293      158.5          158.5          158.5          2.2024256      2.9610711      4.9795903     -1.3333844      104.96293    
     43520   103.52335      158.5          158.5          158.5         -2.6077953     -1.504897      -1.3782779     -4.9402112      103.52335    
     43540   99.816373      158.5          158.5          158.5          0.20388868     0.57996892    -1.6354705      1.6671676      99.816373    
     43560   103.96278      158.5          158.5          158.5          3.9996591      3.841327       3.5096388      4.6480115      103.96278    
     43580   105.09066      158.5          158.5          158.5         -2.1913672      1.4221897     -4.0544998     -3.9417917      105.09066    
     43600   100.25676      158.5          158.5          158.5          2.493855       5.4138857      0.73279679     1.3348826      100.25676    
     43620   100.72003      158.5          158.5          158.5          0.043372802   -2.8647064      1.584695       1.4101298      100.72003    
     43640   99.060077      158.5          158.5          158.5         -2.6031746     -4.171905      -3.3960475     -0.24157121     99.060077    
     43660   98.637464      158.5          158.5          158.5          1.5478544      3.2433268      0.49366176     0.90657473     98.637464    
     43680   99.664795      158.5          158.5          158.5         -4.7102351     -5.310962      -3.4405861     -5.3791572      99.664795    
     43700   96.826149      158.5          158.5          158.5         -2.4523301     -5.5163191     -3.2078382      1.3671668      96.826149    
     43720   100.85115      158.5          158.5          158.5          0.36124579    -1.4288928     -0.12657472     2.6392049      100.85115    
     43740   104.47803      158.5          158.5          158.5         -1.9347352      1.9108152     -0.57453393    -7.1404868      104.47803    
     43760   114.87997      158.5          158.5          158.5          4.4480567      2.6552623      7.4152962      3.2736117      114.87997    
     43780   104.9367       158.5          158.5          158.5          2.5268897     -2.1304846      5.1703799      4.5407738      104.9367     
     43800   113.91449      158.5          158.5          158.5          0.73761712     3.9039541     -2.1297447      0.4386419      113.91449    
     43820   105.30404      158.5          158.5          158.5          3.2372188      5.075957       4.640365      -0.0046655929   105.30404    
     43840   111.88876      158.5          158.5          158.5         -0.62808914    -2.8397745      2.6485964     -1.6930893      111.88876    
     43860   110.92712      158.5          158.5          158.5         -1.0117461     -1.4949667     -3.413318       1.8730464      110.92712    
     43880   111.80928      158.5          158.5          158.5          0.80034181     0.86626311    -0.24612343     1.7808858      111.80928    
     43900   110.93719      158.5          158.5          158.5         -3.1292146     -2.1023879     -1.7013493     -5.5839066      110.93719    
     43920   112.63934      158.5          158.5          158.5         -0.17997894     0.82388032    -1.6635135      0.29969637     112.63934    
     43940   113.08245      158.5          158.5          158.5          2.8800095      1.3405732      2.3962153      4.90324        113.08245    
     43960   118.7221       158.5          158.5          158.5         -2.1911455     -1.2762796     -1.3785271     -3.9186298      118.7221     
     43980   121.69081      158.5          158.5          158.5          0.58612672     1.8618214      0.77499533    -0.87843659     121.69081    
     44000   119.19253      158.5          158.5          158.5          2.2497075      1.2483682      2.6147319      2.8860224      119.19253    
     44020   119.41537      158.5          158.5          158.5         -4.5931442     -6.8644625     -2.4353519     -4.4796183      119.41537    
     44040   109.70935      158.5          158.5          158.5          2.0385348      3.338324      -0.082488931    2.8597695      109.70935    
     44060   115.96814      158.5          158.5          158.5         -1.3263382      1.418223      -4.4333516     -0.96388617     115.96814    
     44080   115.13238      158.5          158.5          158.5         -5.8083765     -6.4637917     -4.1913689     -6.7699689      115.13238    
     44100   124.91681      158.5          158.5          158.5          3.9829634      2.0726722      4.4660713      5.4101469      124.91681    
     44120   115.47143      158.5          158.5          158.5         -2.0213881     -3.0539022     -2.7713596     -0.23890259     115.47143    
     44140   112.70145      158.5          158.5          158.5         -0.015639709   -0.01944835     0.51667972    -0.54415049     112.70145    
     44160   112.73327      158.5          158.5          158.5          2.7893839      3.2918832      3.0768146      1.999454       112.73327    
     44180   127.06763      158.5          158.5          158.5         -4.6674077     -4.6995283     -2.6933903     -6.6093044      127.06763    
     44200   118.03686      158.5          158.5          158.5          2.5381859      1.0958589      3.3087398      3.2099589      118.03686    
     44220   110.73694      158.5          158.5          158.5          2.2018841      3.6471208      1.6332044      1.3253272      110.73694    
     44240   119.72125      158.5          158.5          158.5         -1.2466262      1.2901464     -0.090144894   -4.9398801      119.72125    
     44260   119.10609      158.5          158.5          158.5          3.1124404      2.7965077      5.0704935      1.4703201      119.10609    
     44280   113.63087      158.5          158.5          158.5         -0.27596431    -0.6934763     -1.3958428      1.2614262      113.63087    
     44300   119.94047      158.5          158.5          158.5         -1.1021364     -0.72329973    -3.2243393      0.64122977     119.94047    
     44320   117.98677      158.5          158.5          158.5          0.3284473      1.4505579      1.0594693     -1.5246853      117.98677    
     44340   114.39168      158.5          158.5          158.5          0.97957289     2.1899927      2.7024151     -1.9536891      114.39168    
     44360   114.9307       158.5          158.5          158.5          1.5050566      0.94084637     1.3779675      2.1963561      114.9307     
     44380   113.33944      158.5          158.5          158.5          1.5268419      2.3831905     -0.070399186    2.2677343      113.33944    
     44400   102.59149      158.5          158.5          158.5          1.9918552      3.939971       0.56240635     1.4731882      102.59149    
     44420   105.45989      158.5          158.5          158.5          1.3000756     -1.2766066      3.0288044      2.1480291      105.45989    
     44440   110.10991      158.5          158.5          158.5          2.4709029      2.7358525      1.6078554      3.0690008      110.10991    
     44460   112.96316      158.5          158.5          158.5         -0.58956856     2.9059602     -3.7708549     -0.90381095     112.96316    
     44480   104.2346       158.5          158.5          158.5          1.0664891      2.5345822      1.1624834     -0.49759829     104.2346     
     44500   107.47306      158.5          158.5          158.5          1.6789607      2.3049432      2.1435297      0.58840912     107.47306    
     44520   100.22381      158.5          158.5          158.5         -2.8239321     -4.2519932     -2.5463297     -1.6734733      100.22381    
     44540   115.1387       158.5          158.5          158.5         -0.30103423    -1.0894566     -0.7060706      0.89242448     115.1387     
     44560   106.45887      158.5          158.5          158.5         -1.1228723      0.94897982    -0.48420601    -3.8333907      106.45887    
     44580   111.14697      158.5          158.5          158.5         -2.5184675     -3.2758429     -0.72490317    -3.5546565      111.14697    
     44600   106.79922      158.5          158.5          158.5         -1.4639675     -1.6487522     -3.9366301      1.19348        106.79922    
     44620   126.32301      158.5          158.5          158.5         -0.74294434     1.6168762     -2.4365167     -1.4091925      126.32301    
     44640   114.65292      158.5          158.5          158.5          1.9111598      2.9458544      5.3836512     -2.5960261      114.65292    
     44660   117.81533      158.5          158.5          158.5          0.86175375    -1.9767444      3.2308339      1.3311717      117.81533    
     44680   118.43245      158.5          158.5          158.5          0.31203166    -1.2560916      1.3503623      0.84182427     118.43245    
     44700   116.5001       158.5          158.5          158.5         -0.90601412     2.219279      -3.5537096     -1.3836118      116.5001     
     44720   117.25721      158.5          158.5          158.5         -1.2871437     -0.17048031    -2.8955681     -0.79538279     117.25721    
     44740   111.69709      158.5          158.5          158.5          1.2675104     -1.0959224      4.7481943      0.15025934     111.69709    
     44760   117.35819      158.5          158.5          158.5          0.31333658    -3.5022878      2.045446       2.3968514      117.35819    
     44780   123.83208      158.5          158.5          158.5         -1.9182127     -4.1409229     -1.4346906     -0.17902449     123.83208    
     44800   121.30643      158.5          158.5          158.5         -1.632202       1.6802903     -1.5384984     -5.0383977      121.30643    
     44820   111.76666      158.5          158.5          158.5         -0.64555458    -0.79339358    -1.1758047      0.032534586    111.76666    
     44840   114.83029      158.5          158.5          158.5          0.64825595    -2.5394723      0.64059354     3.8436466      114.83029    
     44860   104.64653      158.5          158.5          158.5          2.1574375      6.2944631      0.979414      -0.80156445     104.64653    
     44880   113.79491      158.5          158.5          158.5          1.4772513      4.4555029      0.15095484    -0.17470382     113.79491    
     44900   104.16562      158.5          158.5          158.5         -0.40650689    -3.3409282      1.150241       0.97116655     104.16562    
     44920   110.12413      158.5          158.5          158.5         -0.0766056     -2.4727587      1.9617472      0.28119473     110.12413    
     44940   104.98146      158.5          158.5          158.5         -0.81915206     0.42643462    -1.6516147     -1.2322761      104.98146    
     44960   99.850033      158.5          158.5          158.5         -0.027236339    1.7670433     -1.8127545     -0.035997853    99.850033    
     44980   109.02927      158.5          158.5          158.5          1.531672      -0.97507471     3.1135219      2.4565689      109.02927    
     45000   108.44863      158.5          158.5          158.5          0.10502797    -2.7056957      1.748959       1.2718206      108.44863    
     45020   108.55041      158.5          158.5          158.5          2.3369498      3.9195245      0.84617239     2.2451525      108.55041    
     45040   109.62421      158.5          158.5          158.5          1.1089724      2.4703294      1.6073861     -0.75079848     109.62421    
     45060   110.24129      158.5          158.5          158.5         -0.24206449    -3.2374682      1.8083472      0.7029275      110.24129    
     45080   106.53607      158.5          158.5          158.5          0.43745748    -0.63245107     0.71846024     1.2263633      106.53607    
     45100   114.34036      158.5          158.5          158.5         -2.8373585      0.82916597    -6.3101962     -3.0310452      114.34036    
     45120   104.84825      158.5          158.5          158.5          0.59324603     0.21012898     1.1382908      0.4313183      104.84825    
     45140   108.77429      158.5          158.5          158.5         -0.7172865     -2.1889377      1.9011457     -1.8640675      108.77429    
     45160   112.25081      158.5          158.5          158.5         -2.4218892     -1.6126456     -3.7021078     -1.9509141      112.25081    
     45180   109.35294      158.5          158.5          158.5          0.84375253     2.9066752     -0.018767058   -0.35665053     109.35294    
     45200   113.53524      158.5          158.5          158.5         -1.2808962      0.11893891    -0.52709972    -3.4345278      113.53524    
     45220   109.55228      158.5          158.5          158.5          1.3964315      0.99261782     0.57773306     2.6189435      109.55228    
     45240   120.04228      158.5          158.5          158.5          1.0883504      0.14715495     0.42808872     2.6898075      120.04228    
     45260   109.13859      158.5          158.5          158.5         -5.2033726     -5.406842      -4.4368727     -5.7664033      109.13859    
     45280   114.6932       158.5          158.5          158.5          0.79030419     0.89592901     0.44963097     1.0253526      114.6932     
     45300   114.43284      158.5          158.5          158.5         -3.4042712     -1.6893232     -5.5329515     -2.990539       114.43284    
     45320   111.22292      158.5          158.5          158.5         -3.5108929     -6.3903399     -2.0595369     -2.082802       111.22292    
     45340   116.94488      158.5          158.5          158.5          4.3257067      1.8939818      7.656288       3.4268502      116.94488    
     45360   108.10236      158.5          158.5          158.5         -1.7163218      0.034592546   -3.5380252     -1.6455327      108.10236    
     45380   115.97865      158.5          158.5          158.5          0.92869565     0.73918913     0.21315862     1.8337392      115.97865    
     45400   116.37983      158.5          158.5          158.5          1.6887969     -2.8278336      4.547679       3.3465451      116.37983    
     45420   107.18736      158.5          158.5          158.5         -2.9058041     -8.0402993     -1.2092622      0.53214911     107.18736    
     45440   116.2719       158.5          158.5          158.5          0.70023966     1.836075      -1.587589       1.8522329      116.2719     
     45460   121.74872      158.5          158.5          158.5         -1.3407954      0.9951255     -2.6123964     -2.4051154      121.74872    
     45480   110.74889      158.5          158.5          158.5          1.0617378     -3.3318125      3.2221106      3.2949153      110.74889    
     45500   97.796813      158.5          158.5          158.5          0.94240466    -0.65383974     1.6497739      1.8312798      97.796813    
     45520   112.38793      158.5          158.5          158.5          0.063465997    3.4966127     -1.4792775     -1.8269372      112.38793    
     45540   112.33628      158.5          158.5          158.5          2.8189681      4.2423524      2.2443787      1.9701732      112.33628    
     45560   100.87269      158.5          158.5          158.5         -0.70523579    -2.3877723      0.53088646    -0.25882158     100.87269    
     45580   117.14964      158.5          158.5          158.5          2.1525221      4.8121688     -0.33713193     1.9825296      117.14964    
     45600   106.76409      158.5          158.5          158.5         -1.4247183      3.1931696     -5.5391475     -1.9281768      106.76409    
     45620   105.82342      158.5          158.5          158.5         -3.0918818     -1.8931604     -3.8315198     -3.5509651      105.82342    
     45640   105.69287      158.5          158.5          158.5          0.0016588688  -1.0127701      2.0787238     -1.0609771      105.69287    
     45660   108.5598       158.5          158.5          158.5         -3.460478      -3.4718601     -2.254969      -4.654605       108.5598     
     45680   103.31537      158.5          158.5          158.5          1.8956883      3.1545827      0.87551545     1.6569668      103.31537    
     45700   101.96015      158.5          158.5          158.5          1.7143721      3.8651396      0.44802233     0.82995425     101.96015    
     45720   101.46607      158.5          158.5          158.5         -1.7090227     -1.9871024     -1.6632071     -1.4767587      101.46607    
     45740   104.80027      158.5          158.5          158.5          2.4269636      1.974373       1.4643415      3.8421763      104.80027    
     45760   100.65776      158.5          158.5          158.5         -1.0151547      0.28883738    -1.4185601     -1.9157415      100.65776    
     45780   95.788679      158.5          158.5          158.5         -1.6786879     -2.4199576      0.43574672    -3.0518528      95.788679    
     45800   107.1306       158.5          158.5          158.5          0.37521817    -2.7355215      2.9928077      0.86836835     107.1306     
     45820   105.36716      158.5          158.5          158.5         -0.4643374     -3.4173131      1.9129455      0.11135538     105.36716    
     45840   98.399334      158.5          158.5          158.5         -1.5471574     -2.2260959     -1.2742189     -1.1411575      98.399334    
     45860   109.10567      158.5          158.5          158.5          0.32262582    -0.42576995    -0.96791367     2.3615611      109.10567    
     45880   108.73182      158.5          158.5          158.5          0.2402144     -0.052557244   -2.3722854      3.1454859      108.73182    
     45900   106.88872      158.5          158.5          158.5         -1.9893288     -3.3291258     -1.5195737     -1.1192869      106.88872    
     45920   106.16811      158.5          158.5          158.5          4.662765       2.364359       6.6677372      4.9561989      106.16811    
     45940   121.25322      158.5          158.5          158.5          2.4100424      3.0650702     -0.5375973      4.7026543      121.25322    
     45960   108.08971      158.5          158.5          158.5         -2.3182979     -0.34474228    -3.5420495     -3.0681019      108.08971    
     45980   113.92007      158.5          158.5          158.5          5.8926982      4.5767038      7.7282199      5.3731708      113.92007    
     46000   120.33622      158.5          158.5          158.5         -2.5068501      0.11022474    -6.9654257     -0.66534921     120.33622    
     46020   109.72443      158.5          158.5          158.5          1.5433871      3.5673463      0.038515173    1.0242998      109.72443    
     46040   113.60967      158.5          158.5          158.5          4.8602624      3.3612057      6.3698793      4.8497022      113.60967    
     46060   118.91771      158.5          158.5          158.5         -5.6912352     -4.8121082     -6.7784758     -5.4831216      118.91771    
     46080   108.41414      158.5          158.5          158.5          2.2359703      3.6395976      1.5615592      1.506754       108.41414    
     46100   111.14627      158.5          158.5          158.5         -2.9145697      0.30284678    -2.5552733     -6.4912825      111.14627    
     46120   117.15269      158.5          158.5          158.5         -2.7866814     -2.3825031     -0.34349468    -5.6340463      117.15269    
     46140   116.93092      158.5          158.5          158.5          4.2733603      2.0774717      6.080217       4.6623922      116.93092    
     46160   110.76709      158.5          158.5          158.5         -2.6389165     -2.8490084     -1.7813548     -3.2863862      110.76709    
     46180   112.56275      158.5          158.5          158.5          0.4442432      3.435195      -1.9076507     -0.19481468     112.56275    
     46200   107.8894       158.5          158.5          158.5          1.8373711      3.1485354      0.15306619     2.2105118      107.8894     
     46220   110.85005      158.5          158.5          158.5         -1.7401325     -3.9278153      0.51566773    -1.8082498      110.85005    
     46240   113.40619      158.5          158.5          158.5          2.7295526      0.28324872     4.5228435      3.3825655      113.40619    
     46260   111.74217      158.5          158.5          158.5         -1.2174362     -1.7691602     -1.1286037     -0.75454461     111.74217    
     46280   101.18385      158.5          158.5          158.5         -1.2849827     -1.9382831      0.98458835    -2.9012532      101.18385    
     46300   106.59748      158.5          158.5          158.5          0.30829242    -4.037499       1.9434295      3.0189468      106.59748    
     46320   117.07334      158.5          158.5          158.5         -1.9775204     -3.4444914     -1.579369      -0.90870068     117.07334    
     46340   98.583027      158.5          158.5          158.5          1.0247559      3.9783663     -0.5465157     -0.357583       98.583027    
     46360   107.08937      158.5          158.5          158.5         -0.71386828     0.79076089    -1.2539563     -1.6784094      107.08937    
     46380   108.42957      158.5          158.5          158.5         -0.093468191   -4.3176704      3.015591       1.0216749      108.42957    
     46400   110.79903      158.5          158.5          158.5          2.2639818      0.67977645     3.0721274      3.0400417      110.79903    
     46420   107.18668      158.5          158.5          158.5          0.15446857     3.9737383     -1.5497733     -1.9605594      107.18668    
     46440   116.46265      158.5          158.5          158.5          2.9592469      2.6518766      2.3380128      3.8878514      116.46265    
     46460   107.66485      158.5          158.5          158.5         -0.40882824    -1.9402114     -2.2017853      2.915512       107.66485    
     46480   110.30084      158.5          158.5          158.5         -1.5537873      1.3193396     -3.0448776     -2.9358238      110.30084    
     46500   115.35772      158.5          158.5          158.5          1.4560101      4.1070573      0.062394009    0.19857904     115.35772    
     46520   107.13886      158.5          158.5          158.5         -1.2757347      0.94846683    -3.6188025     -1.1568685      107.13886    
     46540   109.25271      158.5          158.5          158.5          0.4515146      0.83945101     1.2274011     -0.71230827     109.25271    
     46560   114.57531      158.5          158.5          158.5          1.6863805      0.90377288     4.1642235     -0.0088549863   114.57531    
     46580   116.01236      158.5          158.5          158.5         -0.67917447     0.56830734    -1.7810806     -0.82475014     116.01236    
     46600   109.98241      158.5          158.5          158.5          0.89570065     1.9361642      0.23973985     0.51119788     109.98241    
     46620   106.99545      158.5          158.5          158.5         -0.90995893    -3.2847718      2.591163      -2.036268       106.99545    
     46640   108.88797      158.5          158.5          158.5         -2.1825004     -2.1897229     -3.1778008     -1.1799776      108.88797    
     46660   118.97523      158.5          158.5          158.5         -0.42599454     3.9960443     -5.1059675     -0.16806037     118.97523    
     46680   114.99709      158.5          158.5          158.5         -2.7322492     -1.3188762     -4.6137269     -2.2641444      114.99709    
     46700   110.03635      158.5          158.5          158.5         -0.49375157    -3.1454992      0.89699181     0.76725263     110.03635    
     46720   117.57549      158.5          158.5          158.5         -1.4279765     -3.7918764      0.9080046     -1.4000576      117.57549    
     46740   118.85108      158.5          158.5          158.5         -3.0597152     -5.3516737     -1.9916321     -1.8358398      118.85108    
     46760   117.61196      158.5          158.5          158.5          0.29172136    -2.4855047      1.6127083      1.7479605      117.61196    
     46780   105.3767       158.5          158.5          158.5          1.7644608     -0.087941371    2.785561       2.595763       105.3767     
     46800   117.67348      158.5          158.5          158.5          3.5264522      2.3003435      3.6047265      4.6742866      117.67348    
     46820   108.59885      158.5          158.5          158.5          1.1462087      2.3509575      1.6577083     -0.57003974     108.59885    
     46840   113.97374      158.5          158.5          158.5         -0.034696291   -0.13246809    -0.4795875      0.50796672     113.97374    
     46860   116.6147       158.5          158.5          158.5          0.092488138    0.82144904    -1.8977965      1.3538119      116.6147     
     46880   116.15646      158.5          158.5          158.5         -1.4150564      0.68603739    -0.17205489    -4.7591516      116.15646    
     46900   105.82472      158.5          158.5          158.5          0.7507324      0.31043185     0.52772731     1.414038       105.82472    
     46920   106.84263      158.5          158.5          158.5          2.194011       1.2537279      2.1729518      3.1553532      106.84263    
     46940   116.17244      158.5          158.5          158.5          2.2648882      2.7197168      3.372433       0.7025148      116.17244    
     46960   106.08702      158.5          158.5          158.5          1.8786463      3.8241091      3.1787152     -1.3668854      106.08702    
     46980   112.71467      158.5          158.5          158.5          3.0748338      4.7928876      2.1333149      2.298299       112.71467    
     47000   103.06074      158.5          158.5          158.5          1.1975813      2.0497788      0.073359969    1.469605       103.06074    
     47020   113.72555      158.5          158.5          158.5         -2.2178404     -2.708445      -0.61642845    -3.3286478      113.72555    
     47040   99.761692      158.5          158.5          158.5         -0.1323892     -1.7253966      2.2277196     -0.89949063     99.761692    
     47060   109.92348      158.5          158.5          158.5         -0.51721357     1.7539345     -2.1794988     -1.1260764      109.92348    
     47080   98.239799      158.5          158.5          158.5         -1.1804102     -1.228951      -2.3772643      0.06498483     98.239799    
     47100   108.93104      158.5          158.5          158.5          1.3845544      2.0335527      1.3272602      0.79285036     108.93104    
     47120   117.2478       158.5          158.5          158.5         -2.5239633     -0.42301015    -2.7726713     -4.3762085      117.2478     
     47140   95.547598      158.5          158.5          158.5         -0.075029465   -1.1550305     -0.89275127     1.8226933      95.547598    
     47160   114.44861      158.5          158.5          158.5          0.15931644     0.23571193    -2.7643927      3.0066301      114.44861    
     47180   104.17579      158.5          158.5          158.5         -3.336151      -1.8477907     -5.3360871     -2.8245752      104.17579    
     47200   111.03131      158.5          158.5          158.5          0.54961528    -2.7062605      2.8235059      1.5316004      111.03131    
     47220   114.06941      158.5          158.5          158.5         -2.8599027     -4.0218684     -1.9755271     -2.5823127      114.06941    
     47240   115.09355      158.5          158.5          158.5          0.43029074     1.587191      -1.9073696      1.6110509      115.09355    
     47260   115.1096       158.5          158.5          158.5          3.8682363      3.0821783      3.8768138      4.6457167      115.1096     
     47280   109.28264      158.5          158.5          158.5          0.6112253     -0.51861944     4.2891768     -1.9368814      109.28264    
     47300   117.69403      158.5          158.5          158.5          3.4136827      4.0608639      2.5056574      3.6745269      117.69403    
     47320   113.67229      158.5          158.5          158.5          0.49218788    -1.2507814     -1.5092119      4.2365569      113.67229    
     47340   118.32139      158.5          158.5          158.5         -2.6357121     -2.931491      -1.9883658     -2.9872794      118.32139    
     47360   107.18114      158.5          158.5          158.5         -0.5886188      1.2297372      1.3638924     -4.359486       107.18114    
     47380   109.87761      158.5          158.5          158.5         -2.0532617     -1.1093029     -3.7092163     -1.341266       109.87761    
     47400   91.166102      158.5          158.5          158.5         -2.0572804     -2.1701132     -5.1342677      1.1325398      91.166102    
     47420   108.44519      158.5          158.5          158.5         -0.40457138     2.0011069     -1.3062286     -1.9085924      108.44519    
     47440   101.96432      158.5          158.5          158.5         -0.68534148     0.14768647     1.2691967     -3.4729076      101.96432    
     47460   103.27093      158.5          158.5          158.5          0.13113246    -0.88246495     0.52363795     0.75222438     103.27093    
     47480   96.350968      158.5          158.5          158.5          3.2830183      3.0653604      1.6567663      5.1269282      96.350968    
     47500   108.41644      158.5          158.5          158.5          0.38647935     0.66489305     1.2358012     -0.74125617     108.41644    
     47520   106.2012       158.5          158.5          158.5          2.3531239      3.558586       2.3020747      1.1987108      106.2012     
     47540   96.396868      158.5          158.5          158.5          1.7485769      0.050386341   -0.012011618    5.2073559      96.396868    
     47560   106.47862      158.5          158.5          158.5         -1.3664151     -2.7546356     -2.4141377      1.0695281      106.47862    
     47580   102.0151       158.5          158.5          158.5          1.9444903      0.84323869     3.0526117      1.9376206      102.0151     
     47600   108.702        158.5          158.5          158.5         -2.6308828     -3.9447956      0.021322896   -3.9691758      108.702      
     47620   101.68655      158.5          158.5          158.5         -2.2148836     -3.8941119     -2.2826403     -0.46789864     101.68655    
     47640   109.09602      158.5          158.5          158.5         -0.68955101    -1.0413316     -0.75227968    -0.27504172     109.09602    
     47660   114.46425      158.5          158.5          158.5         -5.6577336     -5.4247351     -3.7933475     -7.7551182      114.46425    
     47680   98.446928      158.5          158.5          158.5          1.9885484      1.0968004      4.3438107      0.52503414     98.446928    
     47700   110.20386      158.5          158.5          158.5          0.44062543    -1.5116824      2.2800946      0.55346409     110.20386    
     47720   107.76577      158.5          158.5          158.5         -1.8327211     -4.0606764     -1.3280905     -0.10939646     107.76577    
     47740   113.06798      158.5          158.5          158.5          1.7197095      1.7454898      2.4200712      0.99356732     113.06798    
     47760   116.28832      158.5          158.5          158.5         -3.1030906     -1.7139434     -2.7012456     -4.8940828      116.28832    
     47780   117.04398      158.5          158.5          158.5          1.2755598      0.95528016     0.2713736      2.6000256      117.04398    
     47800   104.71997      158.5          158.5          158.5          0.62499078    -0.78674662    -0.98829479     3.6500137      104.71997    
     47820   113.50748      158.5          158.5          158.5         -1.9385117      0.4742626     -2.2631375     -4.0266601      113.50748    
     47840   110.53747      158.5          158.5          158.5          2.8233212      1.1683913      8.2138729     -0.91230066     110.53747    
     47860   107.80035      158.5          158.5          158.5         -2.0714739     -3.0824571     -1.100814      -2.0311505      107.80035    
     47880   107.45857      158.5          158.5          158.5         -0.27744489     4.3112217     -5.310537       0.16698061     107.45857    
     47900   117.1967       158.5          158.5          158.5          1.1830434      2.9315963      1.7156789     -1.0981449      117.1967     
     47920   115.08208      158.5          158.5          158.5          0.10777495    -1.0482084      4.4839415     -3.1124083      115.08208    
     47940   104.8226       158.5          158.5          158.5          2.7069155      4.4907313      0.703415       2.9266001      104.8226     
     47960   107.65784      158.5          158.5          158.5          1.1230353      1.0658788      0.47942097     1.8238061      107.65784    
     47980   103.27802      158.5          158.5          158.5          2.1505365      0.58875697     4.8354551      1.0273973      103.27802    
     48000   96.269834      158.5          158.5          158.5          0.20517229     1.1379589     -0.23660089    -0.28584113     96.269834    
     48020   100.3          158.5          158.5          158.5         -0.1323634      0.69411115    -3.7920763      2.700875       100.3        
     48040   100.08781      158.5          158.5          158.5          0.47233884    -1.1366232      1.6707523      0.8828874      100.08781    
     48060   102.11007      158.5          158.5          158.5         -1.6769219     -4.7976454      1.0106557     -1.243776       102.11007    
     48080   102.23745      158.5          158.5          158.5          1.6558021     -1.4992018      2.7769699      3.6896382      102.23745    
     48100   99.773098      158.5          158.5          158.5          0.02492794    -0.95511593     0.36984541     0.66005434     99.773098    
     48120   105.76135      158.5          158.5          158.5         -0.60019416     0.40824232    -0.58528446    -1.6235403      105.76135    
     48140   116.34128      158.5          158.5          158.5          2.2390263      0.062997955    3.7371793      2.9169015      116.34128    
     48160   106.4772       158.5          158.5          158.5         -1.6732661     -3.5776891     -0.66583414    -0.77627514     106.4772     
     48180   100.47117      158.5          158.5          158.5         -0.30302061     1.6942791     -1.563392      -1.039949       100.47117    
     48200   105.86094      158.5          158.5          158.5          0.35578043     2.2159906      0.49769967    -1.646349       105.86094    
     48220   107.42508      158.5          158.5          158.5         -0.72675989    -3.7474118      0.31497274     1.2521594      107.42508    
     48240   107.0026       158.5          158.5          158.5         -1.0445448     -1.6842358     -1.7056075      0.25620884     107.0026     
     48260   103.90787      158.5          158.5          158.5         -0.55163243     5.7962018     -3.3089731     -4.142126       103.90787    
     48280   111.16053      158.5          158.5          158.5          1.6820155      2.9677107      1.388838       0.68949779     111.16053    
     48300   115.43089      158.5          158.5          158.5         -2.839259      -3.0135615     -2.7883768     -2.7158387      115.43089    
     48320   109.92827      158.5          158.5          158.5          1.8903384      5.3958099      1.704196      -1.4289906      109.92827    
     48340   122.59877      158.5          158.5          158.5          1.492321       5.0535871      1.0903015     -1.6669257      122.59877    
     48360   110.89354      158.5          158.5          158.5         -2.6784285     -0.51945301    -4.8272195     -2.688613       110.89354    
     48380   109.9274       158.5          158.5          158.5          3.6018336      0.99529098     4.927858       4.8823518      109.9274     
     48400   111.9566       158.5          158.5          158.5         -1.6109734     -0.87602379    -1.2392536     -2.7176429      111.9566     
     48420   111.49327      158.5          158.5          158.5         -1.3174829      3.7441379     -5.5362539     -2.1603328      111.49327    
     48440   113.25389      158.5          158.5          158.5          3.0782933      2.9156447      2.4565676      3.8626676      113.25389    
     48460   103.942        158.5          158.5          158.5         -5.1959679     -8.1489914     -2.1541232     -5.284789       103.942      
     48480   100.3399       158.5          158.5          158.5          0.88177214    -0.33508321    -0.0050375546   2.9854372      100.3399     
     48500   107.03956      158.5          158.5          158.5         -0.45386043     1.2648585     -4.5184823      1.8920425      107.03956    
     48520   110.162        158.5          158.5          158.5         -6.4703591     -5.3270735     -7.2031024     -6.8809015      110.162      
     48540   102.98897      158.5          158.5          158.5          3.9876473      1.3066336      5.7719385      4.8843698      102.98897    
     48560   101.45036      158.5          158.5          158.5         -0.61756604    -2.6040204      1.0825705     -0.33124817     101.45036    
     48580   102.13016      158.5          158.5          158.5         -2.0325573     -0.44264744    -2.1474903     -3.5075341      102.13016    
     48600   101.41096      158.5          158.5          158.5          4.0564775      2.5110444      6.0196517      3.6387364      101.41096    
     48620   105.70103      158.5          158.5          158.5         -2.3490335     -5.5353377     -1.6019514      0.090188788    105.70103    
     48640   97.636911      158.5          158.5          158.5          0.41759952    -0.42122564    -0.74390054     2.4179247      97.636911    
     48660   94.272464      158.5          158.5          158.5          1.0505692      4.6292673     -0.37933138    -1.0982283      94.272464    
     48680   98.573684      158.5          158.5          158.5         -2.6085368     -0.84531078    -4.522466      -2.4578335      98.573684    
     48700   98.361755      158.5          158.5          158.5          0.61720609    -2.2872406      1.6451258      2.4937331      98.361755    
     48720   99.299983      158.5          158.5          158.5         -0.45642357     1.6839666     -2.3189031     -0.73433417     99.299983    
     48740   103.97912      158.5          158.5          158.5         -0.94782494     3.4222654     -4.4244224     -1.8413179      103.97912    
     48760   100.62116      158.5          158.5          158.5          1.6952565      2.893134       2.0736945      0.11894102     100.62116    
     48780   114.3318       158.5          158.5          158.5          0.8387171      0.57668585     1.6331089      0.30635652     114.3318     
     48800   100.56835      158.5          158.5          158.5          2.1430627      1.3936539      3.8588645      1.1766697      100.56835    
     48820   111.83752      158.5          158.5          158.5          1.6572712      4.1051481      0.94631926    -0.079653835    111.83752    
     48840   106.7466       158.5          158.5          158.5          0.58151006     3.2334019     -1.0822938     -0.40657797     106.7466     
     48860   98.496705      158.5          158.5          158.5          1.3765996     -2.6069907      4.2182103      2.5185793      98.496705    
     48880   98.989212      158.5          158.5          158.5         -3.2144984     -5.897442      -1.1081988     -2.6378544      98.989212    
     48900   104.08118      158.5          158.5          158.5         -2.3661435     -0.12277756    -4.0451904     -2.9304626      104.08118    
     48920   109.85554      158.5          158.5          158.5          1.0477111      1.3701503     -1.7805446      3.5535275      109.85554    
     48940   98.859695      158.5          158.5          158.5         -2.7217743     -4.689103      -3.0927507     -0.38346911     98.859695    
     48960   104.1235       158.5          158.5          158.5         -0.84169677    -2.1118194      2.6024653     -3.0157362      104.1235     
     48980   99.186375      158.5          158.5          158.5          1.2463325      2.3249084      2.4454881     -1.0313989      99.186375    
     49000   109.37141      158.5          158.5          158.5         -3.7106902     -1.4179929     -7.6463379     -2.0677397      109.37141    
     49020   103.66939      158.5          158.5          158.5          0.96415262    -1.0693966      1.6443454      2.3175091      103.66939    
     49040   117.22193      158.5          158.5          158.5          0.55765568    -1.3868783      2.8258272      0.23401817     117.22193    
     49060   104.61162      158.5          158.5          158.5          0.020202824    0.54307581    -1.6262736      1.1438063      104.61162    
     49080   109.446        158.5          158.5          158.5          3.7456674      4.0686979      2.0173228      5.1509815      109.446      
     49100   101.013        158.5          158.5          158.5         -0.81004813    -1.9679029     -0.22788698    -0.23435456     101.013      
     49120   107.79668      158.5          158.5          158.5         -0.26118532    -1.8975019     -0.74326665     1.8572126      107.79668    
     49140   113.55209      158.5          158.5          158.5         -0.30462784     0.51729179    -0.15328495    -1.2778904      113.55209    
     49160   111.13072      158.5          158.5          158.5         -3.9558789     -1.7393774     -4.3251452     -5.803114       111.13072    
     49180   107.15315      158.5          158.5          158.5          2.8469908      3.6933309      0.76038361     4.0872579      107.15315    
     49200   113.31762      158.5          158.5          158.5          2.644244       0.29116663     3.9655742      3.6759913      113.31762    
     49220   117.59907      158.5          158.5          158.5         -0.78120388     0.4153111      0.60701609    -3.3659388      117.59907    
     49240   117.94434      158.5          158.5          158.5          4.7903757      8.9328625      2.5437684      2.8944963      117.94434    
     49260   129.41806      158.5          158.5          158.5          0.0062155606   2.1042488      0.12628647    -2.2118886      129.41806    
     49280   127.60142      158.5          158.5          158.5         -0.9274218     -1.4568239      2.3664063     -3.6918477      127.60142    
     49300   110.63616      158.5          158.5          158.5          4.6454469      4.8055103      6.6775068      2.4533235      110.63616    
     49320   106.79189      158.5          158.5          158.5         -1.7733118     -1.8045777     -2.0357831     -1.4795747      106.79189    
     49340   119.25525      158.5          158.5          158.5          0.67785441    -1.188291       1.3543396      1.8675146      119.25525    
     49360   119.20492      158.5          158.5          158.5          0.89144069     1.413305      -1.1079332      2.3689502      119.20492    
     49380   107.49192      158.5          158.5          158.5         -4.1777053     -2.9739281     -5.8224386     -3.7367491      107.49192    
     49400   115.91722      158.5          158.5          158.5         -0.12432119    -2.4890802      2.2109568     -0.094840256    115.91722    
     49420   116.93971      158.5          158.5          158.5         -3.1936291     -3.9235015     -3.2430802     -2.4143055      116.93971    
     49440   120.97837      158.5          158.5          158.5         -2.0292341     -3.2472702     -2.9361899      0.095757923    120.97837    
     49460   111.10556      158.5          158.5          158.5          3.0981046     -3.2376164      6.2021195      6.3298106      111.10556    
     49480   118.79916      158.5          158.5          158.5         -1.012679      -1.1550743     -1.468714      -0.41424886     118.79916    
     49500   114.92197      158.5          158.5          158.5          2.8429045      5.9555453     -1.7307583      4.3039267      114.92197    
     49520   118.32522      158.5          158.5          158.5          0.73459084    -0.11973773    -0.16966003     2.4931703      118.32522    
     49540   117.107        158.5          158.5          158.5         -1.2843467     -3.0114584      0.91744695    -1.7590287      117.107      
     49560   109.68365      158.5          158.5          158.5          1.5275063      2.9854311      1.4882247      0.10886329     109.68365    
     49580   106.40137      158.5          158.5          158.5         -0.61641784     1.2117085     -2.7217132     -0.33924873     106.40137    
     49600   109.50839      158.5          158.5          158.5          3.2540176      2.3014677      2.7652174      4.6953677      109.50839    
     49620   113.24691      158.5          158.5          158.5          1.385183       0.34235306     4.1310547     -0.31785868     113.24691    
     49640   117.91499      158.5          158.5          158.5          0.30063614     2.9381476      0.92309429    -2.9593335      117.91499    
     49660   107.08573      158.5          158.5          158.5          1.9618114      1.4108259      1.0233236      3.4512848      107.08573    
     49680   115.75594      158.5          158.5          158.5         -1.6405635     -2.8884777     -1.35622       -0.67699279     115.75594    
     49700   112.27627      158.5          158.5          158.5          2.5210735      2.9148151      4.4895151      0.15889023     112.27627    
     49720   117.51998      158.5          158.5          158.5          1.6910497      3.7590568      3.3404851     -2.0263928      117.51998    
     49740   120.39124      158.5          158.5          158.5         -1.1261635      1.8774588     -1.2487348     -4.0072146      120.39124    
     49760   113.0574       158.5          158.5          158.5          1.922257       1.2285077      2.1240705      2.4141929      113.0574     
     49780   110.68509      158.5          158.5          158.5         -2.0450324     -2.6581177      0.44165532    -3.9186347      110.68509    
     49800   117.29144      158.5          158.5          158.5          1.3757952      4.5108154      2.1067137     -2.4901436      117.29144    
     49820   113.96083      158.5          158.5          158.5         -0.87436887     0.53421616    -2.3072243     -0.85009841     113.96083    
     49840   118.70202      158.5          158.5          158.5         -3.263667      -3.2901109     -5.2767834     -1.2241069      118.70202    
     49860   126.4444       158.5          158.5          158.5          1.1591035     -2.6595641      3.2153147      2.92156        126.4444     
     49880   115.20077      158.5          158.5          158.5         -3.5458861     -6.5211832     -2.4398824     -1.6765927      115.20077    
     49900   134.47253      158.5          158.5          158.5          0.8830156      4.9094709     -4.1348353      1.8744112      134.47253    
     49920   123.77379      158.5          158.5          158.5          0.1367235     -1.3998319     -0.94447713     2.7544795      123.77379    
     49940   138.59738      158.5          158.5          158.5         -1.9422693     -6.3325456     -0.081179297    0.58691706     138.59738    
     49960   128.81307      158.5          158.5          158.5          0.13875542     0.2612924      0.53745443    -0.38248057     128.81307    
     49980   113.27025      158.5          158.5          158.5         -0.43077161    -0.34959388    -2.3295036      1.3867827      113.27025    
     50000   118.44977      158.5          158.5          158.5          1.6023155     -0.92963248     0.54209927     5.1944798      118.44977    
     50020   126.95502      158.5          158.5          158.5         -0.90049709    -1.9193081      0.046561326   -0.82874454     126.95502    
     50040   118.75969      158.5          158.5          158.5         -0.15436737     0.49607259     1.069263      -2.0284377      118.75969    
     50060   125.95928      158.5          158.5          158.5         -1.4699621      1.0669184     -3.3158291     -2.1609757      125.95928    
     50080   116.9311       158.5          158.5          158.5          0.80235296    -0.30388082    -0.5054702      3.2164099      116.9311     
     50100   128.07909      158.5          158.5          158.5          1.6905025     -2.3992169      4.9371216      2.5336026      128.07909    
     50120   115.97214      158.5          158.5          158.5         -1.796925      -0.81236499    -0.49337513    -4.085035       115.97214    
     50140   117.92981      158.5          158.5          158.5          3.4097261      6.1634161      0.74319011     3.3225721      117.92981    
     50160   116.29803      158.5          158.5          158.5          0.04776611     1.9130181     -0.3898509     -1.3798689      116.29803    
     50180   109.60728      158.5          158.5          158.5         -1.4514197      0.79026991     0.14691149    -5.2914405      109.60728    
     50200   109.7882       158.5          158.5          158.5          1.2962014     -0.12475072     2.4893857      1.5239693      109.7882     
     50220   116.72267      158.5          158.5          158.5         -3.5435731     -5.2619834     -3.3513127     -2.0174231      116.72267    
     50240   113.13953      158.5          158.5          158.5          0.67237381     3.006069      -0.13297601    -0.85597157     113.13953    
     50260   106.05437      158.5          158.5          158.5          0.6522042      0.98026188     0.91728463     0.059066103    106.05437    
     50280   110.47121      158.5          158.5          158.5         -1.1803058     -2.2471575     -1.3377215      0.043961468    110.47121    
     50300   109.8983       158.5          158.5          158.5          1.9677698      5.8868577      0.018930369   -0.0024786495   109.8983     
     50320   117.7844       158.5          158.5          158.5          1.0261959      2.7166256      0.16645522     0.19550694     117.7844     
     50340   107.7041       158.5          158.5          158.5          0.36077171    -4.0187554      1.1992693      3.9018012      107.7041     
     50360   117.44554      158.5          158.5          158.5         -1.4548718     -4.2485903     -1.3438176      1.2277925      117.44554    
     50380   115.41113      158.5          158.5          158.5         -1.3709058     -0.61693248    -2.8984231     -0.5973618      115.41113    
     50400   110.64279      158.5          158.5          158.5         -2.7125396     -2.8753776     -3.6990873     -1.5631539      110.64279    
     50420   106.62007      158.5          158.5          158.5         -0.33148855    -3.533379      -0.59920493     3.1381183      106.62007    
     50440   107.00295      158.5          158.5          158.5          1.9213003     -1.6400837      4.204655       3.1993297      107.00295    
     50460   109.58709      158.5          158.5          158.5         -1.8633974     -0.12025057    -1.8061516     -3.66379        109.58709    
     50480   111.27947      158.5          158.5          158.5          0.61448        3.3836262     -1.8507505      0.31056424     111.27947    
     50500   114.97076      158.5          158.5          158.5         -1.5936448     -1.8993436     -1.2992015     -1.5823894      114.97076    
     50520   115.40959      158.5          158.5          158.5         -2.0000593     -2.7534564     -1.2492818     -1.9974396      115.40959    
     50540   122.33612      158.5          158.5          158.5          3.0035453      4.8983781      1.1937277      2.9185301      122.33612    
     50560   112.03797      158.5          158.5          158.5          2.5167788      5.1204783      2.7412162     -0.3113582      112.03797    
     50580   122.91746      158.5          158.5          158.5          3.2529564      4.100649       3.7643194      1.8939009      122.91746    
     50600   120.54736      158.5          158.5          158.5          0.52677898     2.3975598     -0.74911882    -0.068104011    120.54736    
     50620   124.75493      158.5          158.5          158.5         -0.82917715    -0.02966759     0.34953657    -2.8074004      124.75493    
     50640   116.71259      158.5          158.5          158.5         -0.11966921     3.2130424     -0.62330722    -2.9487428      116.71259    
     50660   117.0279       158.5          158.5          158.5         -2.0071706      0.3818852     -2.8895285     -3.5138684      117.0279     
     50680   122.5827       158.5          158.5          158.5          2.2625166      2.6269254      0.93942986     3.2211945      122.5827     
     50700   113.92926      158.5          158.5          158.5          3.5332652      5.3844292      1.1605501      4.0548162      113.92926    
     50720   117.70897      158.5          158.5          158.5          0.096736504    2.6514192     -2.8679198      0.50671014     117.70897    
     50740   105.35999      158.5          158.5          158.5          2.1227392      1.2418594      2.4899725      2.6363856      105.35999    
     50760   115.54242      158.5          158.5          158.5         -0.49255019    -3.7188795      1.3330193      0.90820964     115.54242    
     50780   111.78801      158.5          158.5          158.5         -1.7756027     -3.3249306     -2.628219       0.62634162     111.78801    
     50800   107.08633      158.5          158.5          158.5         -0.45452125     0.86933       -0.12641664    -2.1064771      107.08633    
     50820   109.996        158.5          158.5          158.5         -3.0739625     -3.8237437      2.0251567     -7.4233005      109.996      
     50840   112.238        158.5          158.5          158.5         -1.2758685     -4.9376177      0.30823892     0.80177319     112.238      
     50860   110.12862      158.5          158.5          158.5         -1.5076566     -2.5019684     -2.8869679      0.86596654     110.12862    
     50880   96.504802      158.5          158.5          158.5         -1.5314242     -1.6140067      0.64763272    -3.6278987      96.504802    
     50900   108.72005      158.5          158.5          158.5          1.4953619     -0.88477284     4.0498013      1.3210572      108.72005    
     50920   105.54314      158.5          158.5          158.5         -1.6439613     -4.4702516      2.5608889     -3.0225211      105.54314    
     50940   105.6962       158.5          158.5          158.5          0.28552891    -1.1343992      2.1214303     -0.13044434     105.6962     
     50960   112.38609      158.5          158.5          158.5         -0.53413391     0.84660264    -1.8503472     -0.59865716     112.38609    
     50980   106.0446       158.5          158.5          158.5         -1.6632586     -1.6711771      2.0300639     -5.3486626      106.0446     
     51000   112.49585      158.5          158.5          158.5          1.7703275      1.132976       2.4959131      1.6820935      112.49585    
     51020   98.172967      158.5          158.5          158.5          1.1623746      3.230398      -2.728924       2.9856499      98.172967    
     51040   110.46608      158.5          158.5          158.5          1.8738523      4.5515317     -0.16668408     1.2367092      110.46608    
     51060   107.30584      158.5          158.5          158.5          2.4117973      5.8281188      1.5828272     -0.17555407     107.30584    
     51080   120.53405      158.5          158.5          158.5          1.0904609      2.8911429      0.56419707    -0.18395741     120.53405    
     51100   114.82655      158.5          158.5          158.5          2.9846587      4.1443849     -0.72522288     5.5348141      114.82655    
     51120   109.88574      158.5          158.5          158.5         -0.53326888     3.6259024     -5.2414985      0.015789517    109.88574    
     51140   111.58102      158.5          158.5          158.5          0.26273036     3.1621753     -0.38378753    -1.9901967      111.58102    
     51160   113.49125      158.5          158.5          158.5         -1.4517792     -2.3354988     -2.7455227      0.72568389     113.49125    
     51180   124.75969      158.5          158.5          158.5         -2.6433253     -3.6858776     -5.3991972      1.1550988      124.75969    
     51200   105.87068      158.5          158.5          158.5          1.9381281      2.3076959      0.84671509     2.6599733      105.87068    
     51220   119.0091       158.5          158.5          158.5         -0.21411452    -1.5630087      1.2164665     -0.29580132     119.0091     
     51240   120.09813      158.5          158.5          158.5         -0.65482628    -5.1652686      2.0626632      1.1381265      120.09813    
     51260   108.04096      158.5          158.5          158.5         -0.74529485    -3.691808      -0.91050412     2.3664276      108.04096    
     51280   122.00277      158.5          158.5          158.5         -3.8164679     -5.014513      -2.7944831     -3.6404077      122.00277    
     51300   119.75268      158.5          158.5          158.5         -1.773609      -3.525095       3.49197       -5.2877021      119.75268    
     51320   107.72855      158.5          158.5          158.5         -1.4286268     -1.4235563     -2.6509545     -0.21136961     107.72855    
     51340   117.24977      158.5          158.5          158.5          0.47235971    -1.6395001      0.84651135     2.2100679      117.24977    
     51360   116.91565      158.5          158.5          158.5         -0.52699204    -3.0109759      2.8386567     -1.408657       116.91565    
     51380   119.30271      158.5          158.5          158.5         -1.4329066     -0.81495355     1.1286945     -4.6124607      119.30271    
     51400   110.12232      158.5          158.5          158.5          0.46655541     1.3973356      1.1888775     -1.1865469      110.12232    
     51420   117.05574      158.5          158.5          158.5         -2.382336      -0.54672716    -3.4507464     -3.1495344      117.05574    
     51440   108.36694      158.5          158.5          158.5          2.0586979      3.3334111      1.0144641      1.8282186      108.36694    
     51460   113.71415      158.5          158.5          158.5          1.1972468      1.4280535     -0.22732785     2.3910149      113.71415    
     51480   111.91514      158.5          158.5          158.5          2.5626014      4.6352793      1.2055593      1.8469657      111.91514    
     51500   115.08762      158.5          158.5          158.5          4.8189884      6.6344886      5.777816       2.0446605      115.08762    
     51520   106.14041      158.5          158.5          158.5         -1.8413141     -3.6198582     -0.78106289    -1.1230212      106.14041    
     51540   101.75403      158.5          158.5          158.5          2.8319324      3.1822552      0.67101673     4.6425251      101.75403    
     51560   105.87658      158.5          158.5          158.5         -1.4061827      1.2970317     -3.3297746     -2.1858052      105.87658    
     51580   113.81493      158.5          158.5          158.5         -2.8051659     -1.4288957     -3.7317162     -3.254886       113.81493    
     51600   100.93111      158.5          158.5          158.5          2.9197321      2.6788314      1.2102891      4.8700759      100.93111    
     51620   104.08934      158.5          158.5          158.5         -2.9964041     -3.4447812     -1.7689171     -3.7755139      104.08934    
     51640   101.3122       158.5          158.5          158.5          1.695894       2.2448051      2.3791494      0.46372733     101.3122     
     51660   102.17957      158.5          158.5          158.5          0.81222895     1.1627274     -0.54960002     1.8235594      102.17957    
     51680   96.456762      158.5          158.5          158.5         -3.0688704     -5.3750026      0.26311428    -4.094723       96.456762    
     51700   109.19742      158.5          158.5          158.5          1.297426      -0.2204455      2.1636513      1.9490722      109.19742    
     51720   103.24195      158.5          158.5          158.5         -3.5034784     -3.1175696     -3.8301145     -3.562751       103.24195    
     51740   101.04536      158.5          158.5          158.5         -0.81014795    -3.6864463      1.3877129     -0.13171051     101.04536    
     51760   93.879582      158.5          158.5          158.5          2.8963779      0.85479225     4.4909909      3.3433504      93.879582    
     51780   106.54192      158.5          158.5          158.5          0.84486234     1.4049236      1.960169      -0.83050555     106.54192    
     51800   96.895579      158.5          158.5          158.5          1.9144188      3.7423204      1.5867643      0.41417174     96.895579    
     51820   103.11865      158.5          158.5          158.5          0.10069868    -1.3759807      0.91381432     0.76426246     103.11865    
     51840   101.48413      158.5          158.5          158.5         -1.6770981     -3.8954399     -1.1682106      0.032356168    101.48413    
     51860   108.98387      158.5          158.5          158.5         -0.32732825     1.5834878     -3.0683545      0.50288204     108.98387    
     51880   106.74723      158.5          158.5          158.5          2.5129798      5.0912054      0.090450335    2.3572836      106.74723    
     51900   106.02102      158.5          158.5          158.5         -0.28702113    -0.33528525     0.096365013   -0.62214315     106.02102    
     51920   115.137        158.5          158.5          158.5          1.1113385      0.64084366     3.4156887     -0.72251697     115.137      
     51940   113.06595      158.5          158.5          158.5          0.63105967     1.3461386      1.8011169     -1.2540765      113.06595    
     51960   114.89         158.5          158.5          158.5         -2.5124264     -0.17499483    -4.2555646     -3.1067197      114.89       
     51980   111.99366      158.5          158.5          158.5          2.5222732      1.6404811      1.3792507      4.5470879      111.99366    
     52000   115.28058      158.5          158.5          158.5          0.77239952     0.65629861     1.1798016      0.48109831     115.28058    
     52020   112.15622      158.5          158.5          158.5         -1.6157253      2.0461051     -2.9230928     -3.9701881      112.15622    
     52040   117.31411      158.5          158.5          158.5          1.8072033      0.22497323     2.4414322      2.7552044      117.31411    
     52060   117.33609      158.5          158.5          158.5         -1.1850072     -1.7388261     -1.7640006     -0.052195078    117.33609    
     52080   106.86797      158.5          158.5          158.5          0.22869109     2.1960846     -0.17793832    -1.3320731      106.86797    
     52100   111.08735      158.5          158.5          158.5          2.2505432      2.0366751      1.50944        3.2055146      111.08735    
     52120   108.09286      158.5          158.5          158.5         -1.5073922     -1.2718204     -3.8318792      0.58152292     108.09286    
     52140   114.22902      158.5          158.5          158.5         -0.04464725     1.4085697      0.25371183    -1.7962233      114.22902    
     52160   112.49367      158.5          158.5          158.5         -0.33026845     1.2278478      0.85055945    -3.0692126      112.49367    
     52180   100.13865      158.5          158.5          158.5         -1.652225      -0.89427632     0.86002219    -4.9224209      100.13865    
     52200   113.13736      158.5          158.5          158.5          2.6204935     -2.3223118      6.4617487      3.7220437      113.13736    
     52220   105.493        158.5          158.5          158.5          0.99533172    -3.454825       2.4427163      3.9981039      105.493      
     52240   107.8218       158.5          158.5          158.5         -1.0157723      1.2702228     -1.8873489     -2.4301909      107.8218     
     52260   99.327678      158.5          158.5          158.5          1.0756619      1.9544221      0.5402273      0.73233632     99.327678    
     52280   101.98523      158.5          158.5          158.5         -1.7721036     -3.3340931     -4.0013785      2.0191609      101.98523    
     52300   100.25804      158.5          158.5          158.5         -0.08649715    -1.2612844     -1.3664964      2.3682893      100.25804    
     52320   101.62674      158.5          158.5          158.5          0.11785675     1.1810861      0.96315054    -1.7906664      101.62674    
     52340   97.475109      158.5          158.5          158.5         -0.25052208     1.4680907      0.05274431    -2.2724013      97.475109    
     52360   103.43931      158.5          158.5          158.5          0.43691135    -0.81427146     0.43722169     1.6877838      103.43931    
     52380   103.61814      158.5          158.5          158.5          0.26743783    -1.0721844      0.21588723     1.6586106      103.61814    
     52400   100.15881      158.5          158.5          158.5          1.5457146      2.8142871      1.0593842      0.76347244     100.15881    
     52420   93.385356      158.5          158.5          158.5          0.55755346     3.3344833     -1.200759      -0.46106393     93.385356    
     52440   111.3208       158.5          158.5          158.5         -2.3926882     -3.7256791     -3.3187225     -0.13366308     111.3208     
     52460   93.60948       158.5          158.5          158.5         -1.2864298     -3.1073831     -0.5790634     -0.17284306     93.60948     
     52480   110.46288      158.5          158.5          158.5         -0.43831748    -1.1750479      1.9103089     -2.0502134      110.46288    
     52500   111.78235      158.5          158.5          158.5          1.8303694      4.9990104      2.7133452     -2.2212473      111.78235    
     52520   109.49529      158.5          158.5          158.5          1.4924393      2.9099234      2.6530277     -1.0856333      109.49529    
     52540   106.57806      158.5          158.5          158.5         -0.14312235    -3.1213836      0.55006947     2.141947       106.57806    
     52560   109.15134      158.5          158.5          158.5          1.8354269      3.0547253      1.1248391      1.3267162      109.15134    
     52580   110.6634       158.5          158.5          158.5         -2.5212828      2.2685573     -4.1914363     -5.6409693      110.6634     
     52600   109.48541      158.5          158.5          158.5          0.29595276    -0.15107015    -1.0845661      2.1234945      109.48541    
     52620   111.03952      158.5          158.5          158.5         -0.63108341    -3.4931204     -1.7254938      3.325364       111.03952    
     52640   117.48383      158.5          158.5          158.5         -2.5552798     -1.4085309     -3.2319598     -3.0253486      117.48383    
     52660   114.96293      158.5          158.5          158.5          2.4198315      3.1657388      2.4152222      1.6785336      114.96293    
     52680   106.42534      158.5          158.5          158.5          0.29097393    -3.332402       2.4329637      1.7723601      106.42534    
     52700   108.81385      158.5          158.5          158.5          0.07784726    -3.3283474     -0.16268856     3.7245777      108.81385    
     52720   113.30303      158.5          158.5          158.5          1.8517134      4.0488551      0.72403401     0.78225102     113.30303    
     52740   110.59791      158.5          158.5          158.5         -2.1532397      0.14529021    -1.6172622     -4.9877471      110.59791    
     52760   113.67466      158.5          158.5          158.5         -2.0038266     -4.4064607     -1.6536543      0.048635313    113.67466    
     52780   108.23105      158.5          158.5          158.5         -0.016432101   -2.963706       0.13239829     2.7820114      108.23105    
     52800   107.79592      158.5          158.5          158.5         -1.0820576      0.20792231    -0.16614022    -3.2879548      107.79592    
     52820   104.80909      158.5          158.5          158.5          0.92768133     2.2283066      1.3178594     -0.76312201     104.80909    
     52840   107.83336      158.5          158.5          158.5          1.5553904     -0.2676177      2.1323503      2.8014387      107.83336    
     52860   102.20364      158.5          158.5          158.5         -0.070681525   -1.8798024      0.18290413     1.4848537      102.20364    
     52880   111.18642      158.5          158.5          158.5         -0.099007102    1.0720821     -1.8417268      0.47262335     111.18642    
     52900   100.24648      158.5          158.5          158.5          0.60864475     3.2660767      0.09807632    -1.5382187      100.24648    
     52920   108.98126      158.5          158.5          158.5         -0.9363139     -1.3662236      1.0364922     -2.4792104      108.98126    
     52940   106.17773      158.5          158.5          158.5          2.9659888      2.0779948      2.6374296      4.1825421      106.17773    
     52960   105.57101      158.5          158.5          158.5          1.5671041      4.4315505      0.24719698     0.022564955    105.57101    
     52980   102.00718      158.5          158.5          158.5         -1.7395788     -1.1195126     -1.7004398     -2.3987839      102.00718    
     53000   109.72669      158.5          158.5          158.5          0.70058765    -1.9219008      2.3161361      1.7075276      109.72669    
     53020   116.10735      158.5          158.5          158.5         -3.9812696     -5.150044      -3.5832842     -3.2104806      116.10735    
     53040   112.62488      158.5          158.5          158.5         -1.6151377     -1.8513703     -1.6890323     -1.3050105      112.62488    
     53060   117.35255      158.5          158.5          158.5          2.5222262      1.0926823      3.8295879      2.6444085      117.35255    
     53080   115.71583      158.5          158.5          158.5         -2.9359698     -3.4815196     -1.8819857     -3.4444042      115.71583    
     53100   123.48711      158.5          158.5          158.5          1.4245375      2.6234989      1.6917209     -0.04160721     123.48711    
     53120   114.89432      158.5          158.5          158.5          0.14738951     1.5587019     -1.4888116      0.37227827     114.89432    
     53140   118.74176      158.5          158.5          158.5         -2.5320211     -1.7309168     -2.6068131     -3.2583334      118.74176    
     53160   124.92823      158.5          158.5          158.5         -0.47599045    -0.31061344     1.4548273     -2.5721852      124.92823    
     53180   112.45237      158.5          158.5          158.5         -2.1574991     -3.3845887     -0.89467934    -2.1932292      112.45237    
     53200   116.56565      158.5          158.5          158.5          0.052108317   -2.5231798     -2.057646       4.7371508      116.56565    
     53220   105.61203      158.5          158.5          158.5          1.6568564     -0.535651       1.7924319      3.7137882      105.61203    
     53240   120.33085      158.5          158.5          158.5          1.0184825      2.8425098      2.1980869     -1.9851491      120.33085    
     53260   107.34933      158.5          158.5          158.5          3.059027       3.3290371      2.2301441      3.6178997      107.34933    
     53280   112.48034      158.5          158.5          158.5         -1.7394234     -4.9906185     -1.7451819      1.5175302      112.48034    
     53300   112.16852      158.5          158.5          158.5          0.092582781    0.23512796     1.3406155     -1.2979951      112.16852    
     53320   107.96297      158.5          158.5          158.5          0.57144503     0.50844654     0.36958669     0.83630184     107.96297    
     53340   112.5821       158.5          158.5          158.5         -1.6046555     -4.4934455     -3.288438       2.967917       112.5821     
     53360   104.41839      158.5          158.5          158.5          1.3212122     -0.10729777     2.7260497      1.3448848      104.41839    
     53380   102.5892       158.5          158.5          158.5         -0.48759791     1.2150282      0.87515234    -3.5529743      102.5892     
     53400   103.07093      158.5          158.5          158.5          0.9324515      3.4298028     -0.22672434    -0.40572394     103.07093    
     53420   103.17716      158.5          158.5          158.5          3.3113624      3.7007518      2.0573972      4.1759381      103.17716    
     53440   111.8866       158.5          158.5          158.5         -0.059415226    1.0612553     -1.242294       0.0027930012   111.8866     
     53460   108.15954      158.5          158.5          158.5         -1.5462879      0.69252848    -0.53859296    -4.7927994      108.15954    
     53480   105.82779      158.5          158.5          158.5         -0.72797026    -0.023349616    1.5466237     -3.7071849      105.82779    
     53500   109.90681      158.5          158.5          158.5         -3.308038      -2.4532514     -4.9891806     -2.481682       109.90681    
     53520   107.67796      158.5          158.5          158.5          0.65324486    -0.54040046     0.33233068     2.1678044      107.67796    
     53540   103.28523      158.5          158.5          158.5          2.6011027      1.2300968      4.7812412      1.7919701      103.28523    
     53560   103.91584      158.5          158.5          158.5         -1.0358084     -1.4344537      0.48188742    -2.154859       103.91584    
     53580   114.60299      158.5          158.5          158.5          2.0276645      3.5761422     -0.18699971     2.693851       114.60299    
     53600   112.42333      158.5          158.5          158.5          0.56790308     1.9130308     -2.7996168      2.5902952      112.42333    
     53620   105.33216      158.5          158.5          158.5         -0.76836709    -3.1222558      0.52451061     0.29264393     105.33216    
     53640   116.78436      158.5          158.5          158.5          2.9138971      3.7557974      1.6261885      3.3597054      116.78436    
     53660   117.2911       158.5          158.5          158.5         -1.2913003     -0.311849      -3.1797158     -0.38233622     117.2911     
     53680   132.01471      158.5          158.5          158.5         -0.0029799659  -5.294583       3.8773249      1.4083182      132.01471    
     53700   119.29301      158.5          158.5          158.5          1.4899893     -3.241988       3.5637287      4.1482273      119.29301    
     53720   114.04862      158.5          158.5          158.5         -1.2384989      0.76648597    -5.0409136      0.55893079     114.04862    
     53740   119.29903      158.5          158.5          158.5          1.1714322      3.4355686      1.0103986     -0.93167069     119.29903    
     53760   117.61178      158.5          158.5          158.5         -1.7029393     -3.4112095     -0.9304497     -0.76715875     117.61178    
     53780   111.21455      158.5          158.5          158.5          1.4623591     -1.0225768      2.0251706      3.3844836      111.21455    
     53800   113.11196      158.5          158.5          158.5          0.35294976     2.7626101     -0.21773128    -1.4860296      113.11196    
     53820   104.39745      158.5          158.5          158.5          0.56010252     4.083896      -0.68026608    -1.7233223      104.39745    
     53840   117.19244      158.5          158.5          158.5          3.6323254      1.8584118      5.7322978      3.3062665      117.19244    
     53860   106.64847      158.5          158.5          158.5         -2.24244       -3.4442085     -0.73958688    -2.5435247      106.64847    
     53880   120.97207      158.5          158.5          158.5         -0.72718754     1.4015205     -1.7485328     -1.8345503      120.97207    
     53900   117.898        158.5          158.5          158.5         -0.82341947     2.6941023     -2.9564771     -2.2078837      117.898      
     53920   108.53167      158.5          158.5          158.5         -2.0409416     -1.9640411     -1.1989724     -2.9598113      108.53167    
     53940   101.1383       158.5          158.5          158.5          2.4499903      0.5853212      3.5911855      3.1734642      101.1383     
     53960   104.59952      158.5          158.5          158.5          0.64792019     2.6187922     -0.17808983    -0.49694177     104.59952    
     53980   107.01539      158.5          158.5          158.5         -1.8069551      1.0353731     -3.3812394     -3.0749991      107.01539    
     54000   97.077765      158.5          158.5          158.5          0.54195956    -2.074014       2.27094        1.4289527      97.077765    
     54020   99.46334       158.5          158.5          158.5         -2.2839678     -5.9253576     -1.2244441      0.2978983      99.46334     
     54040   108.32359      158.5          158.5          158.5         -3.1113549     -2.1332626     -4.2612177     -2.9395844      108.32359    
     54060   104.56355      158.5          158.5          158.5          2.5041166      4.2375969      2.8410447      0.43370809     104.56355    
     54080   100.60655      158.5          158.5          158.5         -1.1419425     -2.8626459     -0.21409848    -0.34908319     100.60655    
     54100   93.876791      158.5          158.5          158.5         -1.0966649     -5.4807384      1.339457       0.85128676     93.876791    
     54120   103.06769      158.5          158.5          158.5          2.2316456      1.8476909      3.169369       1.6778768      103.06769    
     54140   100.48149      158.5          158.5          158.5         -3.3036364     -0.93178847    -4.7092163     -4.2699043      100.48149    
     54160   101.46162      158.5          158.5          158.5          0.90730291    -2.7936639      2.7816238      2.7339488      101.46162    
     54180   97.823227      158.5          158.5          158.5          2.36243        0.58576814     2.1691464      4.3323754      97.823227    
     54200   98.688102      158.5          158.5          158.5         -3.9270172     -0.47458425    -6.3973845     -4.9090829      98.688102    
     54220   102.49779      158.5          158.5          158.5          3.2615085      5.3569698      3.0793925      1.3481632      102.49779    
     54240   98.517852      158.5          158.5          158.5          0.96951486    -0.52687049     3.5452206     -0.10980558     98.517852    
     54260   106.07684      158.5          158.5          158.5         -0.92695886    -2.7193824      0.36745062    -0.42894485     106.07684    
     54280   99.272399      158.5          158.5          158.5          3.7999121      5.7507303      0.62922778     5.0197782      99.272399    
     54300   102.26905      158.5          158.5          158.5         -3.5885293     -1.971035      -2.5647745     -6.2297785      102.26905    
     54320   114.81839      158.5          158.5          158.5         -4.1814655     -7.3073665      1.0773904     -6.3144205      114.81839    
     54340   108.43657      158.5          158.5          158.5         -0.11551893    -0.28940904    -1.5534136      1.4962659      108.43657    
     54360   103.25975      158.5          158.5          158.5         -2.0276947     -0.77926481    -5.1670295     -0.13678993     103.25975    
     54380   116.8641       158.5          158.5          158.5          1.4041103     -1.1229656      4.9435447      0.39175182     116.8641     
     54400   112.783        158.5          158.5          158.5          1.2278419      0.41287648     3.3711913     -0.10054214     112.783      
     54420   117.29218      158.5          158.5          158.5         -2.6403265     -0.53601795    -4.0267889     -3.3581726      117.29218    
     54440   111.64122      158.5          158.5          158.5         -1.1542546     -1.7495153      0.05228652    -1.7655351      111.64122    
     54460   121.16048      158.5          158.5          158.5         -2.7029423     -4.9345436      0.56877013    -3.7430535      121.16048    
     54480   125.058        158.5          158.5          158.5          0.0038456418   0.36616859     0.21183367    -0.56646534     125.058      
     54500   106.86307      158.5          158.5          158.5          0.50249454    -1.1460666     -0.5409503      3.1945005      106.86307    
     54520   109.44014      158.5          158.5          158.5         -0.96307028    -3.0994772     -0.22968579     0.43995217     109.44014    
     54540   109.26551      158.5          158.5          158.5          1.9222674      1.9298045      2.8168702      1.0201276      109.26551    
     54560   120.09961      158.5          158.5          158.5         -1.6159169     -2.0617552     -2.5485489     -0.23744655     120.09961    
     54580   113.40519      158.5          158.5          158.5         -0.59223129    -0.53419033    -1.8048589      0.56235535     113.40519    
     54600   105.60169      158.5          158.5          158.5          2.3593413      3.2747575      2.2605948      1.5426715      105.60169    
     54620   113.79654      158.5          158.5          158.5         -0.2326416      2.952834      -2.2545173     -1.3962415      113.79654    
     54640   105.49068      158.5          158.5          158.5          2.6306307      4.1825794      1.009873       2.6994398      105.49068    
     54660   105.88724      158.5          158.5          158.5          0.58885667     1.5019241     -0.35819989     0.62284585     105.88724    
     54680   109.54827      158.5          158.5          158.5         -0.12503503     1.7397743     -1.6525379     -0.46234143     109.54827    
     54700   104.11668      158.5          158.5          158.5          2.7534706      5.9214814      1.1605447      1.1783858      104.11668    
     54720   100.50888      158.5          158.5          158.5         -2.789844      -4.343719      -2.1492029     -1.8766102      100.50888    
     54740   98.773263      158.5          158.5          158.5          0.47333767    -1.7108155      1.8421557      1.2886729      98.773263    
     54760   96.714651      158.5          158.5          158.5          0.17713682     0.58117908    -1.5324941      1.4827255      96.714651    
     54780   108.75408      158.5          158.5          158.5         -1.5292317     -2.4166287     -1.1679946     -1.0030719      108.75408    
     54800   105.51032      158.5          158.5          158.5          3.2181207      4.1345817      3.591352       1.9284284      105.51032    
     54820   108.83138      158.5          158.5          158.5         -0.098586576    2.4365054     -1.6550959     -1.0771693      108.83138    
     54840   106.30274      158.5          158.5          158.5          2.4815689     -0.14510034     3.0818637      4.5079432      106.30274    
     54860   106.42319      158.5          158.5          158.5         -1.2433912     -4.6003647      1.449415      -0.57922403     106.42319    
     54880   116.82559      158.5          158.5          158.5         -3.3096516     -2.5482593     -2.1017233     -5.2789721      116.82559    
     54900   106.8611       158.5          158.5          158.5         -0.45958468    -0.29920972    -0.58514905    -0.49439526     106.8611     
     54920   112.17829      158.5          158.5          158.5         -1.0762393     -0.032423293   -0.91329002    -2.2830046      112.17829    
     54940   112.10669      158.5          158.5          158.5          1.3947073      3.4996661      3.3622935     -2.6778376      112.10669    
     54960   113.82773      158.5          158.5          158.5          1.8226242      4.9856462      2.280812      -1.7985857      113.82773    
     54980   115.3791       158.5          158.5          158.5          0.36035309     2.0151137     -1.5898287      0.65577431     115.3791     
     55000   105.43692      158.5          158.5          158.5          1.4549907     -0.18745617     1.034417       3.5180113      105.43692    
     55020   111.66048      158.5          158.5          158.5         -2.0844121     -1.6008449     -3.1378633     -1.5145281      111.66048    
     55040   116.75029      158.5          158.5          158.5         -1.9462609     -2.2636801     -2.4569164     -1.1181862      116.75029    
     55060   117.1756       158.5          158.5          158.5          0.59549936    -0.82037815     0.96185054     1.6450257      117.1756     
     55080   120.0535       158.5          158.5          158.5          2.5580498      3.7253651      1.9777183      1.971066       120.0535     
     55100   120.50149      158.5          158.5          158.5          0.435419       1.365027      -0.39894494     0.3401749      120.50149    
     55120   118.19206      158.5          158.5          158.5          1.9704491      2.3419003     -0.0039695273   3.5734166      118.19206    
     55140   112.6459       158.5          158.5          158.5          2.0884279      2.7428488      1.6693745      1.8530605      112.6459     
     55160   109.90539      158.5          158.5          158.5         -1.7432038     -2.4458399     -0.53472349    -2.2490478      109.90539    
     55180   110.58078      158.5          158.5          158.5          0.33447226    -1.6315666      2.6682119     -0.03322852     110.58078    
     55200   116.11538      158.5          158.5          158.5         -1.6885003     -1.831978      -1.8853512     -1.3481718      116.11538    
     55220   112.96306      158.5          158.5          158.5         -2.5455821     -2.0690025     -1.8678985     -3.6998455      112.96306    
     55240   118.3569       158.5          158.5          158.5         -0.19948024    -0.41254896     2.8339834     -3.0198752      118.3569     
     55260   105.47968      158.5          158.5          158.5         -1.2560731     -1.9823142     -1.8102862      0.024381217    105.47968    
     55280   116.29951      158.5          158.5          158.5          1.7663186      1.1313677     -0.89405143     5.0616395      116.29951    
     55300   110.77822      158.5          158.5          158.5          1.7653819      1.5060649      3.8941754     -0.10409452     110.77822    
     55320   110.71865      158.5          158.5          158.5         -0.88682973    -1.6472116      1.3113193     -2.3245969      110.71865    
     55340   109.16886      158.5          158.5          158.5         -0.94331903    -0.2361463     -3.3325504      0.73873963     109.16886    
     55360   104.15305      158.5          158.5          158.5          0.84397621     0.496776      -0.10433852     2.1394911      104.15305    
     55380   111.02868      158.5          158.5          158.5         -0.40400343    -0.90472295     0.97381298    -1.2811003      111.02868    
     55400   100.46844      158.5          158.5          158.5          3.0735691      3.4275208      2.0361591      3.7570275      100.46844    
     55420   100.62722      158.5          158.5          158.5          2.8243991      3.921006       2.1006968      2.4514945      100.62722    
     55440   103.20067      158.5          158.5          158.5         -3.1769241     -3.5818771     -1.3122606     -4.6366345      103.20067    
     55460   103.78852      158.5          158.5          158.5          0.54573885    -0.058096736    1.0546275      0.64068582     103.78852    
     55480   104.70767      158.5          158.5          158.5         -1.7745018     -2.2502762     -2.6325203     -0.44070881     104.70767    
     55500   106.09601      158.5          158.5          158.5         -1.4689528     -1.0295633     -2.6728192     -0.70447589     106.09601    
     55520   108.0957       158.5          158.5          158.5          3.188084       2.1267184      3.7358375      3.7016962      108.0957     
     55540   110.49048      158.5          158.5          158.5         -1.8632807     -2.5738307     -2.23127       -0.78474147     110.49048    
     55560   107.44247      158.5          158.5          158.5          2.0445779      2.5303464      1.776188       1.8271992      107.44247    
     55580   110.44545      158.5          158.5          158.5         -0.45628423    -0.51792724    -0.94502219     0.094096746    110.44545    
     55600   114.90893      158.5          158.5          158.5         -3.9239089     -5.0305149     -4.7601497     -1.9810621      114.90893    
     55620   106.43745      158.5          158.5          158.5          2.158905       1.0852841      1.3333242      4.0581066      106.43745    
     55640   125.45117      158.5          158.5          158.5         -2.4496705     -4.5132715     -2.0343919     -0.80134821     125.45117    
     55660   117.94654      158.5          158.5          158.5          1.1938218      1.2824805      2.0206528      0.27833204     117.94654    
     55680   110.70333      158.5          158.5          158.5          0.90965353     0.22750535    -0.209603       2.7110582      110.70333    
     55700   116.85242      158.5          158.5          158.5         -0.0058501672  -2.671773      -0.07433352     2.728556       116.85242    
     55720   109.37195      158.5          158.5          158.5          2.9103325      5.8868732      2.9906503     -0.14652618     109.37195    
     55740   119.58071      158.5          158.5          158.5         -3.9882255     -2.7165066     -2.9524302     -6.2957397      119.58071    
     55760   111.26272      158.5          158.5          158.5         -0.28347945    -1.9709807      1.0149019      0.10564048     111.26272    
     55780   106.76058      158.5          158.5          158.5         -0.32030844    -0.16666285     0.27725694    -1.0715194      106.76058    
     55800   117.92199      158.5          158.5          158.5         -2.4053897     -3.90128       -0.9739836     -2.3409053      117.92199    
     55820   116.04152      158.5          158.5          158.5          2.7398258      0.58015365     3.6652485      3.9740752      116.04152    
     55840   118.04282      158.5          158.5          158.5         -0.1016733      1.2260079     -1.1732188     -0.357809       118.04282    
     55860   126.08473      158.5          158.5          158.5          0.056746834    1.8505515     -0.80476035    -0.87555066     126.08473    
     55880   109.63099      158.5          158.5          158.5          0.0013911399  -0.52116352     2.2577699     -1.732433       109.63099    
     55900   115.28047      158.5          158.5          158.5         -3.0986171     -5.1118974     -0.16793267    -4.0160211      115.28047    
     55920   112.24288      158.5          158.5          158.5         -3.2263695     -3.4639012     -5.7867844     -0.42842278     112.24288    
     55940   117.46891      158.5          158.5          158.5         -1.1733022     -4.600601       1.404414      -0.32371968     117.46891    
     55960   113.69335      158.5          158.5          158.5          0.56183566    -1.1348601      4.2299261     -1.409559       113.69335    
     55980   123.91696      158.5          158.5          158.5          0.011816354    5.0840393     -4.6328556     -0.41573461     123.91696    
     56000   104.28767      158.5          158.5          158.5          3.9269576      4.2198411      0.021618122    7.5394135      104.28767    
     56020   119.92249      158.5          158.5          158.5          0.17414238    -3.8430702      3.1404796      1.2250178      119.92249    
     56040   110.39918      158.5          158.5          158.5         -1.5514708      1.4405998     -1.0352204     -5.0597917      110.39918    
     56060   107.84132      158.5          158.5          158.5          0.23946303     3.0677279     -2.6654561      0.31611722     107.84132    
     56080   119.87166      158.5          158.5          158.5         -3.7304824     -8.1143046     -3.6687505      0.59160782     119.87166    
     56100   104.03666      158.5          158.5          158.5          1.7202137      1.6597329      2.6439891      0.85691916     104.03666    
     56120   115.392        158.5          158.5          158.5          2.8956842      6.3525155      1.6489487      0.68558847     115.392      
     56140   109.05959      158.5          158.5          158.5         -0.64151005     0.40406383    -2.3427564      0.014162439    109.05959    
     56160   111.21948      158.5          158.5          158.5          3.6883551      4.3169105      3.4940297      3.2541252      111.21948    
     56180   108.76195      158.5          158.5          158.5          1.6202054      4.1328039     -0.58737244     1.3151847      108.76195    
     56200   114.27694      158.5          158.5          158.5          2.0414311      3.4031436      0.21366056     2.5074892      114.27694    
     56220   109.05876      158.5          158.5          158.5          2.3837513      1.7568286      3.1849494      2.209476       109.05876    
     56240   106.40232      158.5          158.5          158.5         -1.6772921     -3.223319       0.00033923159 -1.8088966      106.40232    
     56260   103.69541      158.5          158.5          158.5         -1.6254175     -4.1979198      0.19950979    -0.87784239     103.69541    
     56280   116.09032      158.5          158.5          158.5          0.71465429    -0.48519958     2.7322815     -0.10311904     116.09032    
     56300   105.88113      158.5          158.5          158.5          1.123056       2.7938832      0.75247454    -0.17718962     105.88113    
     56320   110.70353      158.5          158.5          158.5         -1.8171377     -0.96911838    -2.7992948     -1.6829999      110.70353    
     56340   105.11233      158.5          158.5          158.5         -1.1391351     -3.9121633      1.5329057     -1.0381478      105.11233    
     56360   117.65527      158.5          158.5          158.5         -2.1588451     -4.3396284      1.181264      -3.3181709      117.65527    
     56380   110.17358      158.5          158.5          158.5         -3.4775247     -2.321986      -3.4060523     -4.7045358      110.17358    
     56400   115.64842      158.5          158.5          158.5         -1.1254368     -1.7786569      0.028010792   -1.6256644      115.64842    
     56420   113.60146      158.5          158.5          158.5         -1.2049636     -1.4968014     -0.17950847    -1.9385808      113.60146    
     56440   125.1004       158.5          158.5          158.5         -1.4575815     -0.35991242    -0.57732463    -3.4355074      125.1004     
     56460   97.37401       158.5          158.5          158.5          1.583746       1.7058899      1.3155078      1.7298404      97.37401     
     56480   114.50392      158.5          158.5          158.5         -2.0996616     -4.6028492     -1.2127692     -0.48336626     114.50392    
     56500   109.45664      158.5          158.5          158.5         -2.3687319     -2.9853429     -0.38657847    -3.7342742      109.45664    
     56520   117.62116      158.5          158.5          158.5         -0.12499154     1.4193941      1.3112293     -3.105598       117.62116    
     56540   108.8884       158.5          158.5          158.5         -0.95538216    -4.5038869      0.3496072      1.2881333      108.8884     
     56560   114.07537      158.5          158.5          158.5          0.16456614    -0.46980407    -2.8485108      3.8120133      114.07537    
     56580   109.1387       158.5          158.5          158.5          4.3824686      7.1808988      1.7830784      4.1834287      109.1387     
     56600   108.02459      158.5          158.5          158.5          1.0504355      0.85676902     2.3675709     -0.073033294    108.02459    
     56620   102.37562      158.5          158.5          158.5          0.087517715   -1.1974437     -0.15102064     1.6110175      102.37562    
     56640   107.02348      158.5          158.5          158.5         -0.72559847    -2.0532263     -1.5688223      1.4452532      107.02348    
     56660   102.5954       158.5          158.5          158.5         -2.1686975     -3.7978264      0.31394963    -3.0222156      102.5954     
     56680   104.47579      158.5          158.5          158.5          1.123235       0.52056482     1.7142412      1.1348991      104.47579    
     56700   105.43982      158.5          158.5          158.5          1.4985493      0.9086972     -0.31960457     3.9065552      105.43982    
     56720   101.88637      158.5          158.5          158.5          0.85719029     1.611123       0.024755361    0.93569249     101.88637    
     56740   96.134104      158.5          158.5          158.5          1.4698339      4.0648223      1.9107968     -1.5661175      96.134104    
     56760   101.16522      158.5          158.5          158.5         -0.20385832    -0.33593421     1.5753452     -1.850986       101.16522    
     56780   102.66518      158.5          158.5          158.5          0.015604958    0.45799615    -0.89975363     0.48857235     102.66518    
     56800   115.88954      158.5          158.5          158.5          0.24942174     1.0319029     -2.6770782      2.3934406      115.88954    
     56820   107.71343      158.5          158.5          158.5         -0.3297286     -2.6203344      1.632246      -0.001097415    107.71343    
     56840   108.54352      158.5          158.5          158.5          1.1475388      2.6286587      3.8042743     -2.9903165      108.54352    
     56860   108.97769      158.5          158.5          158.5          0.22080298     0.82337306    -1.5671541      1.40619        108.97769    
     56880   114.48267      158.5          158.5          158.5         -2.5930898     -5.0830485     -3.1438308      0.44760998     114.48267    
     56900   113.94         158.5          158.5          158.5          0.13757324     1.1628089      3.8172672     -4.5673564      113.94       
     56920   109.59203      158.5          158.5          158.5         -1.5113573     -0.27561948     1.9934317     -6.2518841      109.59203    
     56940   112.35985      158.5          158.5          158.5         -2.185019      -1.2816317     -4.3284919     -0.94493341     112.35985    
     56960   117.44719      158.5          158.5          158.5          0.34106105     0.23674364    -2.039031       2.8254705      117.44719    
     56980   117.05177      158.5          158.5          158.5         -1.9954166     -2.5054526     -0.82659265    -2.6542044      117.05177    
     57000   121.86938      158.5          158.5          158.5         -1.5919432     -2.1797354     -1.3504975     -1.2455965      121.86938    
     57020   113.41405      158.5          158.5          158.5          0.57410196    -1.3999865     -1.1576708      4.2799631      113.41405    
     57040   111.92225      158.5          158.5          158.5          0.41860036     0.69992478    -1.4179587      1.973835       111.92225    
     57060   117.2002       158.5          158.5          158.5          0.95760132     1.8560729      2.913051      -1.8963199      117.2002     
     57080   111.27408      158.5          158.5          158.5         -0.16067549    -1.8800887      0.8670247      0.53103755     111.27408    
     57100   116.31187      158.5          158.5          158.5         -0.29702513    -1.3698565     -1.453772       1.932553       116.31187    
     57120   109.96095      158.5          158.5          158.5          0.35814242     1.2711301     -0.64679822     0.45009543     109.96095    
     57140   112.36655      158.5          158.5          158.5         -0.41576094     0.0048112186   0.42068566    -1.6727797      112.36655    
     57160   112.4109       158.5          158.5          158.5          2.0188496      0.015697566    3.7824702      2.2583809      112.4109     
     57180   112.50171      158.5          158.5          158.5          2.1710438      2.7514312     -0.31130329     4.0730034      112.50171    
     57200   108.73234      158.5          158.5          158.5         -0.18880626     0.84157338    -1.1229845     -0.28500761     108.73234    
     57220   113.31234      158.5          158.5          158.5          2.2750308      4.1916755      4.5398897     -1.906473       113.31234    
     57240   108.54352      158.5          158.5          158.5         -0.30956599     2.9428427     -2.3689892     -1.5025514      108.54352    
     57260   110.58278      158.5          158.5          158.5         -1.3429006     -0.60685264    -4.0303097      0.60846065     110.58278    
     57280   103.20954      158.5          158.5          158.5          0.046436517   -0.89078405     3.1893412     -2.1592476      103.20954    
     57300   100.70108      158.5          158.5          158.5         -3.5863        -2.7001975     -1.2904426     -6.7682599      100.70108    
     57320   108.40547      158.5          158.5          158.5          0.80459594     1.0567909      0.25946209     1.0975348      108.40547    
     57340   109.34328      158.5          158.5          158.5          0.61716613     1.1408744      0.22034336     0.4902806      109.34328    
     57360   92.786699      158.5          158.5          158.5         -1.1594741      1.3766511     -3.1913882     -1.6636853      92.786699    
     57380   101.04728      158.5          158.5          158.5          0.87272119     3.0850214     -1.9652991      1.4984412      101.04728    
     57400   94.963919      158.5          158.5          158.5         -1.2037328     -1.8592208      0.25911225    -2.01109        94.963919    
     57420   106.54176      158.5          158.5          158.5          0.7215906     -0.99520948     2.7551099      0.40487138     106.54176    
     57440   99.097774      158.5          158.5          158.5          2.2217427      2.0267974      2.5577258      2.0807049      99.097774    
     57460   108.05531      158.5          158.5          158.5         -2.7419654     -1.2082542     -3.8002603     -3.2173819      108.05531    
     57480   98.639926      158.5          158.5          158.5          0.83042169     2.5932725     -0.39755746     0.29555005     98.639926    
     57500   98.701553      158.5          158.5          158.5         -1.1280493     -3.5390951     -0.43495458     0.58990187     98.701553    
     57520   107.92057      158.5          158.5          158.5         -3.306021      -6.881317      -0.71159896    -2.325147       107.92057    
     57540   118.87934      158.5          158.5          158.5          1.6670234      2.1854827      2.528567       0.28702037     118.87934    
     57560   115.16889      158.5          158.5          158.5         -1.1280466     -0.93474131    -1.1079468     -1.3414518      115.16889    
     57580   110.25066      158.5          158.5          158.5         -1.2749236     -3.8193307     -0.41811482     0.41267486     110.25066    
     57600   111.04798      158.5          158.5          158.5          0.12050867    -1.5043359      1.381618       0.48424388     111.04798    
     57620   111.28042      158.5          158.5          158.5         -1.3207626      0.27249037    -1.8825317     -2.3522466      111.28042    
     57640   110.98313      158.5          158.5          158.5          1.8423482      2.2657587      1.2399885      2.0212975      110.98313    
     57660   120.22434      158.5          158.5          158.5          0.79999725    -2.5507112      2.0413647      2.9093383      120.22434    
     57680   116.83967      158.5          158.5          158.5          2.5023569      4.824202       0.87673455     1.8061342      116.83967    
     57700   115.9929       158.5          158.5          158.5          0.88956005     3.8299013     -1.6260857      0.46486448     115.9929     
     57720   113.69706      158.5          158.5          158.5         -3.4128376     -5.3055053     -3.6965783     -1.2364293      113.69706    
     57740   117.16291      158.5          158.5          158.5         -0.4804235     -3.9601053     -1.7172708      4.2361056      117.16291    
     57760   114.24068      158.5          158.5          158.5          0.97199396     2.5991107     -1.4153324      1.7322036      114.24068    
     57780   113.90048      158.5          158.5          158.5          1.6567688      4.7803479      0.3432817     -0.15332311     113.90048    
     57800   113.10093      158.5          158.5          158.5          1.6781033      2.4122452      2.1519042      0.47016041     113.10093    
     57820   114.52561      158.5          158.5          158.5         -0.79691653    -1.0844896      0.72217503    -2.028435       114.52561    
     57840   116.10909      158.5          158.5          158.5          1.4966921      4.7821887      0.85642388    -1.1485362      116.10909    
     57860   115.95203      158.5          158.5          158.5         -0.85155792    -0.11140269     0.14426168    -2.5875328      115.95203    
     57880   114.71803      158.5          158.5          158.5          0.58996747    -2.3390487      2.4001969      1.7087543      114.71803    
     57900   111.40229      158.5          158.5          158.5          1.0224942     -1.6882859      0.66678728     4.0889813      111.40229    
     57920   113.15891      158.5          158.5          158.5          1.1773818      3.7556566     -0.70480326     0.48129202     113.15891    
     57940   117.4329       158.5          158.5          158.5          1.9818349      6.7081311      0.76146998    -1.5240963      117.4329     
     57960   109.86334      158.5          158.5          158.5         -2.343486      -3.298191       0.29934892    -4.0316159      109.86334    
     57980   101.33069      158.5          158.5          158.5         -0.68601024    -1.9551418      1.0657578     -1.1686467      101.33069    
     58000   107.54281      158.5          158.5          158.5         -2.0187995     -0.20147088    -2.4065125     -3.4484152      107.54281    
     58020   104.04326      158.5          158.5          158.5         -3.4840781     -2.4826731     -4.5808399     -3.3887214      104.04326    
     58040   110.28996      158.5          158.5          158.5          0.84985743    -1.5976017      2.3472814      1.7998926      110.28996    
     58060   106.90761      158.5          158.5          158.5         -0.34795902    -2.6944724      1.7576805     -0.10708523     106.90761    
     58080   115.21722      158.5          158.5          158.5          0.82389754     1.2454636     -0.046355503    1.2725846      115.21722    
     58100   101.68691      158.5          158.5          158.5          0.85244622     1.2385961     -0.725199       2.0439416      101.68691    
     58120   115.37015      158.5          158.5          158.5         -0.96796421    -2.4894147      1.3448335     -1.7593114      115.37015    
     58140   118.7984       158.5          158.5          158.5         -0.50575115     0.67031495    -2.9808279      0.79325952     118.7984     
     58160   110.77956      158.5          158.5          158.5         -0.58704993     1.1164517     -3.8106133      0.93301181     110.77956    
     58180   119.36356      158.5          158.5          158.5          2.0432936      2.1945655      2.7912377      1.1440777      119.36356    
     58200   113.46184      158.5          158.5          158.5          1.4737092      0.43889069     3.6494043      0.33283263     113.46184    
     58220   117.2597       158.5          158.5          158.5          1.9524144     -0.45587798     1.6144845      4.6986368      117.2597     
     58240   110.71794      158.5          158.5          158.5         -1.2461672     -2.1286891     -2.5261114      0.91629898     110.71794    
     58260   116.36235      158.5          158.5          158.5         -3.554997      -3.8133035     -3.7575668     -3.0941206      116.36235    
     58280   128.5733       158.5          158.5          158.5         -0.32605435    -2.4854513     -0.22636589     1.7336542      128.5733     
     58300   113.74275      158.5          158.5          158.5         -1.5792683     -2.5246498      0.12188179    -2.3350369      113.74275    
     58320   110.23062      158.5          158.5          158.5          0.84556282     1.2388702      2.2866507     -0.98883244     110.23062    
     58340   123.07883      158.5          158.5          158.5          2.8098136      3.3788755      0.48476732     4.5657978      123.07883    
     58360   117.82993      158.5          158.5          158.5         -0.48806829     0.54662702    -0.1449113     -1.8659206      117.82993    
     58380   108.77174      158.5          158.5          158.5          2.5423739      2.1597205      5.3330551      0.13434597     108.77174    
     58400   123.51627      158.5          158.5          158.5          1.6249749      2.575471       0.96024133     1.3392123      123.51627    
     58420   108.21953      158.5          158.5          158.5         -2.991849       0.94167101    -5.4915549     -4.425663       108.21953    
     58440   116.30076      158.5          158.5          158.5         -0.48607515    -2.3369957     -0.76472914     1.6434994      116.30076    
     58460   109.41862      158.5          158.5          158.5         -2.6130614     -7.8617725      0.11067145    -0.088083131    109.41862    
     58480   106.50397      158.5          158.5          158.5         -1.4780614     -1.8907193      0.37852041    -2.9219851      106.50397    
     58500   105.73286      158.5          158.5          158.5          3.6040458      4.5304398      2.8483376      3.43336        105.73286    
     58520   105.16205      158.5          158.5          158.5          0.07389513    -0.40369154    -0.40271122     1.0280882      105.16205    
     58540   108.66809      158.5          158.5          158.5         -0.34795172    -1.6723636      0.56821523     0.060293189    108.66809    
     58560   111.56551      158.5          158.5          158.5          0.91803745     1.1565097      0.40836527     1.1892373      111.56551    
     58580   108.54736      158.5          158.5          158.5         -3.1399712     -2.4864882     -4.6247807     -2.3086448      108.54736    
     58600   110.77892      158.5          158.5          158.5         -0.42369304    -2.8967463      1.4629821      0.16268513     110.77892    
     58620   107.23866      158.5          158.5          158.5         -0.068254309   -1.4445455      3.3756939     -2.1359113      107.23866    
     58640   105.63901      158.5          158.5          158.5         -0.72185626    -2.8410984      1.3763271     -0.70079743     105.63901    
     58660   108.71023      158.5          158.5          158.5          1.5634721      0.53231154    -1.5573058      5.7154105      108.71023    
     58680   111.00072      158.5          158.5          158.5          2.4732507      5.1833507      1.036906       1.1994953      111.00072    
     58700   102.87938      158.5          158.5          158.5          1.8206744      2.1623615      3.4559293     -0.1562676      102.87938    
     58720   122.54731      158.5          158.5          158.5         -1.6987882     -1.261074      -2.7738497     -1.061441       122.54731    
     58740   114.71759      158.5          158.5          158.5         -0.45075734     2.1971605     -3.0233566     -0.52607596     114.71759    
     58760   103.59078      158.5          158.5          158.5          0.60997775     2.1104081      1.7839211     -2.064396       103.59078    
     58780   118.00689      158.5          158.5          158.5         -1.7731329     -0.85238705     0.11571711    -4.5827288      118.00689    
     58800   110.93149      158.5          158.5          158.5          1.9272586      3.657779       1.4857582      0.63823876     110.93149    
     58820   121.6334       158.5          158.5          158.5          1.7265997      4.6481485     -1.8711526      2.4028033      121.6334     
     58840   113.38272      158.5          158.5          158.5         -0.65158239     3.5554024     -2.0613221     -3.4488274      113.38272    
     58860   114.72267      158.5          158.5          158.5          2.7736035      2.0679319      4.6059572      1.6469214      114.72267    
     58880   120.21803      158.5          158.5          158.5         -3.2649902     -5.2248914     -2.8680742     -1.7020051      120.21803    
     58900   124.86693      158.5          158.5          158.5         -1.8814142     -0.60410599    -3.4837595     -1.5563771      124.86693    
     58920   117.75638      158.5          158.5          158.5          0.90144626     1.7617841      1.6574264     -0.71487168     117.75638    
     58940   115.38561      158.5          158.5          158.5         -1.3754918     -0.93545321    -1.0355772     -2.1554451      115.38561    
     58960   122.5128       158.5          158.5          158.5          5.0230421      5.350932       3.717002       6.0011924      122.5128     
     58980   122.58111      158.5          158.5          158.5          0.14661504     1.216045      -0.66063224    -0.11556762     122.58111    
     59000   118.3541       158.5          158.5          158.5         -3.7956016     -2.5124262     -5.3006845     -3.573694       118.3541     
     59020   122.70798      158.5          158.5          158.5          0.46160421    -1.0974673      2.3278252      0.15445479     122.70798    
     59040   128.23454      158.5          158.5          158.5         -3.0898515     -5.7997031     -1.9068064     -1.563045       128.23454    
     59060   137.43293      158.5          158.5          158.5          1.8561643      2.4586959     -0.7447571      3.854554       137.43293    
     59080   120.7716       158.5          158.5          158.5          2.2064836      3.6943995      0.49929508     2.4257563      120.7716     
     59100   135.88544      158.5          158.5          158.5         -1.9010734     -3.9658198     -0.24842329    -1.488977       135.88544    
     59120   133.54443      158.5          158.5          158.5          1.9900925      1.5424148      2.5275194      1.9003433      133.54443    
     59140   126.50116      158.5          158.5          158.5          0.1374792      0.78331218    -0.0021813906  -0.3686932      126.50116    
     59160   131.71779      158.5          158.5          158.5         -0.43703307    -2.4063352     -0.62120596     1.7164419      131.71779    
     59180   119.13417      158.5          158.5          158.5          2.2502897      1.1655741      1.584411       4.000884       119.13417    
     59200   138.98207      158.5          158.5          158.5         -3.1487523     -5.6518421     -1.8964102     -1.8980045      138.98207    
     59220   119.6032       158.5          158.5          158.5         -0.83317762    -1.3221922     -1.2107504      0.033409824    119.6032     
     59240   119.21072      158.5          158.5          158.5          2.4164285      5.0287704      0.76948437     1.4510306      119.21072    
     59260   133.4654       158.5          158.5          158.5          0.83784932     2.4393748      1.3199132     -1.2457401      133.4654     
     59280   131.82125      158.5          158.5          158.5          2.9859405      0.91696882     6.0637628      1.9770898      131.82125    
     59300   112.62785      158.5          158.5          158.5          1.6224464      1.8735404      1.8849862      1.1088127      112.62785    
     59320   106.96156      158.5          158.5          158.5         -0.82488009     1.0996947     -2.3330969     -1.2412381      106.96156    
     59340   116.38096      158.5          158.5          158.5         -1.067891      -1.5094018     -1.9645258      0.27025468     116.38096    
     59360   115.08469      158.5          158.5          158.5         -2.134506      -4.0265131      1.0860334     -3.4630383      115.08469    
     59380   110.62788      158.5          158.5          158.5          2.7146222      5.8700276      2.0680173      0.20582177     110.62788    
     59400   113.02734      158.5          158.5          158.5          1.8370202      5.3691941     -2.5519582      2.6938246      113.02734    
     59420   121.30696      158.5          158.5          158.5          1.0887564     -1.8522032      2.0262839      3.0921886      121.30696    
     59440   109.80338      158.5          158.5          158.5          1.5253387      0.78560715     3.8351802     -0.044771365    109.80338    
     59460   110.08838      158.5          158.5          158.5         -1.3477144      0.35346994    -3.2678891     -1.128724       110.08838    
     59480   113.09014      158.5          158.5          158.5         -1.2084807     -0.27338504    -4.635992       1.2839349      113.09014    
     59500   104.8627       158.5          158.5          158.5         -2.1860846     -5.392644      -0.41974863    -0.74586117     104.8627     
     59520   106.70695      158.5          158.5          158.5         -0.38547549    -2.8810965      2.8835113     -1.1588413      106.70695    
     59540   106.23606      158.5          158.5          158.5          0.62031848     0.75517029    -1.5686643      2.6744494      106.23606    
     59560   100.29433      158.5          158.5          158.5          0.76597845     1.6710554     -0.11266268     0.73954267     100.29433    
     59580   105.69026      158.5          158.5          158.5          0.897392       1.7968537      1.690991      -0.79566871     105.69026    
     59600   100.93313      158.5          158.5          158.5         -1.2385142     -1.6029996     -0.9671062     -1.1454367      100.93313    
     59620   102.30414      158.5          158.5          158.5          0.50363375    -0.39248955    -0.64723824     2.550629       102.30414    
     59640   102.80597      158.5          158.5          158.5         -1.862444      -1.7401445     -1.8969194     -1.9502681      102.80597    
     59660   103.47969      158.5          158.5          158.5         -1.5807194     -4.4571796      0.33762965    -0.62260822     103.47969    
     59680   104.00882      158.5          158.5          158.5          0.80884423    -2.8806803      1.8301686      3.4770444      104.00882    
     59700   103.18015      158.5          158.5          158.5         -0.79837966    -0.3681021     -1.5900991     -0.43693779     103.18015    
     59720   101.06488      158.5          158.5          158.5          0.87264378     2.6819762     -1.0469223      0.98287749     101.06488    
     59740   105.81059      158.5          158.5          158.5          1.6129247      0.7285371      2.6030056      1.5072315      105.81059    
     59760   94.656987      158.5          158.5          158.5          0.3743087      0.32699607     0.97504901    -0.17911897     94.656987    
     59780   112.3373       158.5          158.5          158.5         -0.70675716     2.7562137     -1.5941745     -3.2823107      112.3373     
     59800   106.48294      158.5          158.5          158.5         -1.7301977     -0.1019919     -1.8631519     -3.2254492      106.48294    
     59820   106.47887      158.5          158.5          158.5         -0.083639142    0.41020846     1.7043415     -2.3654674      106.47887    
     59840   112.17654      158.5          158.5          158.5          1.2124779      2.2597928     -0.93183895     2.3094798      112.17654    
     59860   117.89349      158.5          158.5          158.5          3.6535089      5.0536903      1.7712574      4.1355789      117.89349    
     59880   111.27057      158.5          158.5          158.5          0.91310154     0.20970834     4.4043362     -1.8747399      111.27057    
     59900   123.59638      158.5          158.5          158.5         -1.640236      -3.5966516     -1.8407302      0.51667375     123.59638    
     59920   113.47323      158.5          158.5          158.5         -1.6173624     -2.6225934     -3.8123896      1.5828957      113.47323    
     59940   126.45414      158.5          158.5          158.5         -2.9611606     -4.9404806     -2.114437      -1.8285641      126.45414    
     59960   117.79744      158.5          158.5          158.5          0.74551073    -0.38646835     0.18949433     2.4335062      117.79744    
     59980   115.54266      158.5          158.5          158.5          1.4492141      1.9556871     -0.054613402    2.4465687      115.54266    
     60000   126.18652      158.5          158.5          158.5          0.86408376    -0.7230219      1.0110957      2.3041775      126.18652    
     60020   110.3921       158.5          158.5          158.5          1.5816429      0.92170293    -0.24265881     4.0658847      110.3921     
     60040   110.45356      158.5          158.5          158.5          1.0212975      5.995116      -1.6708331     -1.2603903      110.45356    
     60060   105.83554      158.5          158.5          158.5         -0.5827107     -2.7046823      1.6244418     -0.66789158     105.83554    
     60080   112.71829      158.5          158.5          158.5         -0.22151455    -5.9984004      1.325226       4.0086308      112.71829    
     60100   113.30147      158.5          158.5          158.5         -0.079789443    0.95040904    -3.2798612      2.0900838      113.30147    
     60120   108.655        158.5          158.5          158.5          1.0042832      0.81984107     0.95311648     1.2398919      108.655      
     60140   109.09101      158.5          158.5          158.5          3.2116879      1.5960766      6.265258       1.773729       109.09101    
     60160   99.479924      158.5          158.5          158.5          0.45168857     2.5427126     -1.2404525      0.052805585    99.479924    
     60180   106.24242      158.5          158.5          158.5         -0.79622092     0.86751106    -1.6665891     -1.5895848      106.24242    
     60200   105.8754       158.5          158.5          158.5         -2.0755187     -1.5070115      0.45395948    -5.1735043      105.8754     
     60220   107.80548      158.5          158.5          158.5         -3.1654301     -3.0810382     -0.19617767    -6.2190746      107.80548    
     60240   99.127852      158.5          158.5          158.5         -2.2969637     -0.43984578    -1.1445754     -5.3064697      99.127852    
     60260   106.69879      158.5          158.5          158.5         -0.63238955     1.8742171     -2.2454342     -1.5259516      106.69879    
     60280   107.63833      158.5          158.5          158.5          0.51703936     0.026603636    2.629318      -1.1048036      107.63833    
     60300   106.57801      158.5          158.5          158.5         -0.23132216    -1.308192       2.2558593     -1.6416338      106.57801    
     60320   103.41995      158.5          158.5          158.5          0.52765577     1.7603927     -0.0061064742  -0.17131893     103.41995    
     60340   108.97996      158.5          158.5          158.5         -0.74543908     0.34138934    -4.1908539      1.6131473      108.97996    
     60360   104.23528      158.5          158.5          158.5          0.08246888     0.067608102   -0.10663266     0.2864312      104.23528    
     60380   106.58214      158.5          158.5          158.5          0.18065434    -0.23340125     3.9712184     -3.1958542      106.58214    
     60400   92.933497      158.5          158.5          158.5         -0.35663018     0.15685454    -1.2966008      0.069855757    92.933497    
     60420   109.80578      158.5          158.5          158.5          0.71602281    -0.13542547    -3.8281684      6.1116622      109.80578    
     60440   103.77643      158.5          158.5          158.5         -2.4145589     -6.8898461     -0.86734849     0.51351787     103.77643    
     60460   115.74754      158.5          158.5          158.5          0.67649775    -2.5493504      3.3690131      1.2098305      115.74754    
     60480   112.04672      158.5          158.5          158.5          0.36648541     2.7851883     -4.3344161      2.648684       112.04672    
     60500   105.09269      158.5          158.5          158.5         -2.3388035     -2.4092538     -6.1921383      1.5849816      105.09269    
     60520   105.39336      158.5          158.5          158.5          2.3653636     -2.3922663      5.8441315      3.6442256      105.39336    
     60540   109.74051      158.5          158.5          158.5         -0.48500467    -2.4645246      1.1334205     -0.12390987     109.74051    
     60560   115.82711      158.5          158.5          158.5          1.480054       3.9979626     -0.35363153     0.79583106     115.82711    
     60580   106.12947      158.5          158.5          158.5          1.9061691      1.3078756      3.1977026      1.2129293      106.12947    
     60600   110.94771      158.5          158.5          158.5         -1.8178513     -4.2181594      1.3271063     -2.5625006      110.94771    
     60620   100.86474      158.5          158.5          158.5          1.2329207      3.8253665      1.1385652     -1.2651697      100.86474    
     60640   118.73991      158.5          158.5          158.5         -0.47451179     3.9220771     -2.2725071     -3.0731054      118.73991    
     60660   104.46273      158.5          158.5          158.5         -1.2035847     -1.0658962      0.034128442   -2.5789864      104.46273    
     60680   105.26887      158.5          158.5          158.5          0.81233526    -0.82487181     4.4522672     -1.1903896      105.26887    
     60700   104.37709      158.5          158.5          158.5         -1.4696391     -3.2333704      0.99119954    -2.1667464      104.37709    
     60720   110.05207      158.5          158.5          158.5         -0.68813943     1.0673123      0.98504443    -4.116775       110.05207    
     60740   100.17276      158.5          158.5          158.5          0.68405716     1.615825       1.2034404     -0.767094       100.17276    
     60760   103.57102      158.5          158.5          158.5          0.6311745     -1.7588736      1.2584733      2.3939238      103.57102    
     60780   93.447091      158.5          158.5          158.5          0.75680603     1.8455018      1.2712806     -0.84636432     93.447091    
     60800   98.192158      158.5          158.5          158.5          0.29809721     3.1997645     -0.66025694    -1.6452159      98.192158    
     60820   102.46182      158.5          158.5          158.5         -1.5916522     -3.3895333     -1.9462786      0.5608555      102.46182    
     60840   100.45651      158.5          158.5          158.5         -0.48869788    -3.9345747     -0.52490667     2.9933877      100.45651    
     60860   92.024658      158.5          158.5          158.5          0.41157417    -1.8216658     -0.022083473    3.0784718      92.024658    
     60880   103.542        158.5          158.5          158.5         -1.9341748     -1.4827661     -1.2055897     -3.1141687      103.542      
     60900   98.816265      158.5          158.5          158.5          2.2435593      2.3250328      2.9470007      1.4586445      98.816265    
     60920   101.39269      158.5          158.5          158.5          1.9061617      0.82578183     1.1968498      3.6958535      101.39269    
     60940   92.386465      158.5          158.5          158.5         -1.9171737      0.51785397    -4.2705799     -1.9987951      92.386465    
     60960   103.52826      158.5          158.5          158.5          2.3373051      3.9395206      3.102306      -0.029911208    103.52826    
     60980   98.625468      158.5          158.5          158.5         -0.79784737    -2.0018474      0.97995542    -1.3716502      98.625468    
     61000   105.69673      158.5          158.5          158.5         -0.99891118    -2.4752484     -1.7395246      1.2180395      105.69673    
     61020   100.32091      158.5          158.5          158.5          1.4684888     -0.19209531     3.072182       1.5253795      100.32091    
     61040   90.845626      158.5          158.5          158.5         -3.0224544     -3.6388887     -1.4927425     -3.9357319      90.845626    
     61060   112.38761      158.5          158.5          158.5         -1.5073843     -4.066416      -1.6363345      1.1805977      112.38761    
     61080   110.54112      158.5          158.5          158.5         -0.30881021    -1.0370951     -1.1896499      1.3003143      110.54112    
     61100   112.10834      158.5          158.5          158.5          1.3411417      3.8413759      1.1356734     -0.95362412     112.10834    
     61120   99.724616      158.5          158.5          158.5          1.7193116      3.7477044      1.5216809     -0.11145043     99.724616    
     61140   108.05285      158.5          158.5          158.5          1.9908829      4.0070497     -0.376874       2.3424729      108.05285    
     61160   108.10938      158.5          158.5          158.5          2.0818715      0.99357038     3.5002224      1.7518218      108.10938    
     61180   115.10859      158.5          158.5          158.5         -2.5982427     -3.1994499     -0.43866603    -4.1566122      115.10859    
     61200   105.52165      158.5          158.5          158.5         -0.43770297     1.9347976     -3.2486689      0.00076240494  105.52165    
     61220   107.81226      158.5          158.5          158.5         -0.27531691     0.6319114     -2.7449701      1.2871079      107.81226    
     61240   103.37133      158.5          158.5          158.5          0.36302905     0.34024132    -0.87009617     1.618942       103.37133    
     61260   102.3743       158.5          158.5          158.5          3.9889892      5.4672658      4.1671987      2.3325031      102.3743     
     61280   102.36085      158.5          158.5          158.5         -0.39581248     1.0088656     -1.8292482     -0.36705485     102.36085    
     61300   93.568548      158.5          158.5          158.5          0.22059761    -0.92572155    -1.6467932      3.2343076      93.568548    
     61320   96.188823      158.5          158.5          158.5          0.0586094     -3.8282783      2.2668525      1.737254       96.188823    
     61340   95.207268      158.5          158.5          158.5         -4.1782036     -4.1887284     -2.7054219     -5.6404605      95.207268    
     61360   104.88404      158.5          158.5          158.5         -1.3199423      0.63945081    -4.4175709     -0.18170667     104.88404    
     61380   96.005178      158.5          158.5          158.5          2.0914874      3.2930948     -0.90028239     3.8816499      96.005178    
     61400   97.754944      158.5          158.5          158.5         -0.060078179    0.83629055    -1.7818314      0.76530631     97.754944    
     61420   97.542948      158.5          158.5          158.5          2.191358       3.6823853      0.22752359     2.664165       97.542948    
     61440   101.5655       158.5          158.5          158.5          3.6851268      5.8249204      1.4920613      3.7383987      101.5655     
     61460   105.8339       158.5          158.5          158.5         -2.5230647     -2.9081103     -2.8065815     -1.8545023      105.8339     
     61480   106.65945      158.5          158.5          158.5          0.16934702    -4.2577963      4.2430787      0.52275872     106.65945    
     61500   107.71121      158.5          158.5          158.5         -2.1444722     -1.4613792     -1.3684136     -3.6036238      107.71121    
     61520   105.79548      158.5          158.5          158.5         -4.5290572     -1.9539819     -8.6563489     -2.9768409      105.79548    
     61540   96.937224      158.5          158.5          158.5          5.8254184      6.2957298      4.1482472      7.0322781      96.937224    
     61560   106.34863      158.5          158.5          158.5          0.35339166     3.9871183     -1.1423594     -1.784584       106.34863    
     61580   98.75299       158.5          158.5          158.5          1.3844437      5.6353507     -2.4792732      0.9972535      98.75299     
     61600   105.18031      158.5          158.5          158.5          4.0526554      7.0144708      2.0098028      3.1336927      105.18031    
     61620   104.14778      158.5          158.5          158.5         -4.1652944     -2.8173698     -3.9893036     -5.6892099      104.14778    
     61640   108.93296      158.5          158.5          158.5          1.5312939      2.9958119      0.80385553     0.79421439     108.93296    
     61660   107.55298      158.5          158.5          158.5          2.2075968      2.6934714      3.4478064      0.48151277     107.55298    
     61680   106.68994      158.5          158.5          158.5         -3.388462      -4.2603988     -0.81184316    -5.093144       106.68994    
     61700   99.241068      158.5          158.5          158.5         -0.51416533    -1.234571      -0.58710752     0.2791825      99.241068    
     61720   104.3389       158.5          158.5          158.5         -1.0845464     -0.14565948    -3.2351681      0.12718842     104.3389     
     61740   103.24261      158.5          158.5          158.5         -1.5590473     -0.73260183    -3.9847544      0.04021436     103.24261    
     61760   95.475555      158.5          158.5          158.5          2.6521673      1.1149289      3.4240791      3.4174939      95.475555    
     61780   106.27985      158.5          158.5          158.5          0.58839375    -2.8123503      3.3099939      1.2675376      106.27985    
     61800   97.149057      158.5          158.5          158.5         -0.010272982   -0.84426916     2.2762529     -1.4628027      97.149057    
     61820   105.57037      158.5          158.5          158.5          1.2165836      3.5175682      1.1331506     -1.000968       105.57037    
     61840   99.353941      158.5          158.5          158.5         -1.2136625     -2.187274      -0.56918929    -0.88452432     99.353941    
     61860   86.431665      158.5          158.5          158.5         -0.72211982    -2.4571509      0.12448532     0.16630613     86.431665    
     61880   101.55066      158.5          158.5          158.5          2.5569141      0.97108981     3.3153772      3.3842751      101.55066    
     61900   101.59242      158.5          158.5          158.5          0.29351394    -3.5907801      0.81361389     3.657708       101.59242    
     61920   95.080571      158.5          158.5          158.5         -0.094093561   -0.60678824    -1.4892568      1.8137643      95.080571    
     61940   96.444446      158.5          158.5          158.5          0.63017503     3.0176317     -0.32064526    -0.8064613      96.444446    
     61960   92.04182       158.5          158.5          158.5         -0.44139942     0.38615154    -0.51623021    -1.1941196      92.04182     
     61980   97.660175      158.5          158.5          158.5          0.76593248     1.1057557      2.5345448     -1.342503       97.660175    
     62000   91.851335      158.5          158.5          158.5          0.25665825     0.034860004    3.5599792     -2.8248644      91.851335    
     62020   96.887899      158.5          158.5          158.5          0.80496818     1.2868727      1.6933282     -0.56529637     96.887899    
     62040   98.14966       158.5          158.5          158.5         -1.4956057     -0.83872545    -1.4426902     -2.2054014      98.14966     
     62060   109.80424      158.5          158.5          158.5         -1.8108943     -1.2196308      1.8610103     -6.0740625      109.80424    
     62080   99.762079      158.5          158.5          158.5          0.31999309     1.4310379      0.39786215    -0.86892076     99.762079    
     62100   111.16571      158.5          158.5          158.5         -0.17581525     0.31969076    -3.4427394      2.5956029      111.16571    
     62120   98.090364      158.5          158.5          158.5          1.879032       2.3509474      3.8249619     -0.53881336     98.090364    
     62140   113.66704      158.5          158.5          158.5         -1.1019829      1.7466971     -0.19810698    -4.8545387      113.66704    
     62160   102.54614      158.5          158.5          158.5          0.46188186     0.10777721    -2.1931373      3.4710057      102.54614    
     62180   109.68793      158.5          158.5          158.5         -0.79930059    -0.61293812    -3.7553532      1.9703895      109.68793    
     62200   99.165284      158.5          158.5          158.5         -2.9374354     -0.72439905    -4.7340992     -3.3538079      99.165284    
     62220   102.24932      158.5          158.5          158.5          0.28734526     0.41557431    -0.54636746     0.99282892     102.24932    
     62240   105.55597      158.5          158.5          158.5         -0.52739217    -2.0603351     -0.41262619     0.89078479     105.55597    
     62260   106.88694      158.5          158.5          158.5          1.3375567     -0.30686715     0.28160211     4.0379352      106.88694    
     62280   109.29221      158.5          158.5          158.5          1.9340021      2.6467316      0.3966239      2.7586509      109.29221    
     62300   104.10804      158.5          158.5          158.5          0.13733352     1.5948939      0.45157397    -1.6344673      104.10804    
     62320   115.88641      158.5          158.5          158.5          0.66648349     0.083485634    2.0496503     -0.13368545     115.88641    
     62340   109.07232      158.5          158.5          158.5         -0.25670385     0.0053428245  -1.1040114      0.32855701     109.07232    
     62360   113.59505      158.5          158.5          158.5         -1.5129449     -2.4519719     -0.76725937    -1.3196034      113.59505    
     62380   107.50134      158.5          158.5          158.5         -1.5452843     -1.8100943     -0.25325604    -2.5725025      107.50134    
     62400   114.89767      158.5          158.5          158.5          0.97767699     3.5979998     -1.9900495      1.3250806      114.89767    
     62420   103.40208      158.5          158.5          158.5          0.25994269     1.9853966     -2.5039204      1.2983518      103.40208    
     62440   103.85429      158.5          158.5          158.5         -0.74208292     0.5705477      0.096734289   -2.8935307      103.85429    
     62460   106.56602      158.5          158.5          158.5          3.2783157      2.1661876      5.3848593      2.2839001      106.56602    
     62480   115.35552      158.5          158.5          158.5         -1.2271042     -4.1363912      0.74651372    -0.29143509     115.35552    
     62500   106.97185      158.5          158.5          158.5          0.089844137   -1.4433502      2.5721658     -0.85928315     106.97185    
     62520   110.30857      158.5          158.5          158.5          0.27659363     1.831346      -0.44568793    -0.55587722     110.30857    
     62540   101.91014      158.5          158.5          158.5         -1.7956513     -1.9866458     -4.6079547      1.2076467      101.91014    
     62560   114.71171      158.5          158.5          158.5          1.9395828      1.7802672      3.6844896      0.35399161     114.71171    
     62580   104.83076      158.5          158.5          158.5          0.31713994     2.3317693      0.29519576    -1.6755452      104.83076    
     62600   110.8436       158.5          158.5          158.5          0.32343075     2.9927779     -3.2082583      1.1857727      110.8436     
     62620   114.74586      158.5          158.5          158.5          0.044499642    0.49109544    -0.044883162   -0.31271335     114.74586    
     62640   106.05095      158.5          158.5          158.5          0.16594905    -0.16366737     2.4628228     -1.8013083      106.05095    
     62660   110.39251      158.5          158.5          158.5          2.104263       4.6291327      1.8959708     -0.21231442     110.39251    
     62680   108.06561      158.5          158.5          158.5         -0.044357358   -0.50075313    -2.3019175      2.6695985      108.06561    
     62700   107.16859      158.5          158.5          158.5          2.0644783     -0.08537257     2.3767944      3.902013       107.16859    
     62720   106.00732      158.5          158.5          158.5         -0.89751306     1.6857005     -0.8307134     -3.5475263      106.00732    
     62740   97.937879      158.5          158.5          158.5         -1.2450822      2.6752215     -5.0858325     -1.3246355      97.937879    
     62760   103.47185      158.5          158.5          158.5          0.7468705      1.0519121     -2.3271518      3.5158512      103.47185    
     62780   95.621672      158.5          158.5          158.5         -1.8244204     -1.4627194     -0.078203598   -3.9323382      95.621672    
     62800   97.020503      158.5          158.5          158.5         -0.01612223     2.3336053      0.27518144    -2.6571534      97.020503    
     62820   97.967827      158.5          158.5          158.5          1.6986783      2.5972712      1.5389117      0.95985203     97.967827    
     62840   98.893432      158.5          158.5          158.5         -1.9059594     -3.6244339     -1.0582945     -1.0351499      98.893432    
     62860   90.805504      158.5          158.5          158.5          0.57726928    -1.4890547      0.21272694     3.0081356      90.805504    
     62880   101.08945      158.5          158.5          158.5         -0.16504675     0.81901702    -0.45570083    -0.85845644     101.08945    
     62900   101.40093      158.5          158.5          158.5         -0.93734326     1.6662942     -0.059874389   -4.4184496      101.40093    
     62920   102.11562      158.5          158.5          158.5          2.3648078      1.6460739      1.2800474      4.168302       102.11562    
     62940   99.769773      158.5          158.5          158.5         -2.2701021     -5.6746523     -2.6071001      1.4714461      99.769773    
     62960   95.717283      158.5          158.5          158.5         -1.7879497     -1.5621979     -0.48970037    -3.3119509      95.717283    
     62980   103.01073      158.5          158.5          158.5          2.5452518      4.5078242      2.7058386      0.4220927      103.01073    
     63000   101.87173      158.5          158.5          158.5         -2.7399077     -3.5357741     -2.8994145     -1.7845346      101.87173    
     63020   112.64778      158.5          158.5          158.5         -0.57473058    -3.3171505     -0.86650393     2.4594627      112.64778    
     63040   102.65278      158.5          158.5          158.5          0.75854628    -0.010216397    0.68819594     1.5976593      102.65278    
     63060   100.94479      158.5          158.5          158.5         -3.5116139     -1.8757749     -2.7505744     -5.9084925      100.94479    
     63080   95.846205      158.5          158.5          158.5          2.99203        2.3699454      2.3818477      4.2242969      95.846205    
     63100   99.585318      158.5          158.5          158.5          1.7921483      0.13513166    -0.25732706     5.4986404      99.585318    
     63120   111.81385      158.5          158.5          158.5          0.8322732      2.7894496      1.5046445     -1.7972746      111.81385    
     63140   103.6757       158.5          158.5          158.5          6.5009292      9.5352476      8.8892762      1.0782637      103.6757     
     63160   104.50035      158.5          158.5          158.5          0.50104633    -2.161272       0.084002299    3.5804086      104.50035    
     63180   98.32868       158.5          158.5          158.5         -0.96298392    -1.1295485     -4.8964649      3.1370617      98.32868     
     63200   106.70647      158.5          158.5          158.5          0.50363191     4.9644416     -1.5128493     -1.9406965      106.70647    
     63220   105.92682      158.5          158.5          158.5         -4.8313333     -3.4436144     -4.0690413     -6.9813443      105.92682    
     63240   102.74731      158.5          158.5          158.5         -0.25893542    -2.4732796      0.4278574      1.268616       102.74731    
     63260   97.294161      158.5          158.5          158.5          2.2004096      1.0582727      2.809177       2.7337791      97.294161    
     63280   101.9318       158.5          158.5          158.5         -1.2976699     -0.19751344    -0.20233615    -3.4931603      101.9318     
     63300   98.086265      158.5          158.5          158.5          4.1316093      3.7136484      4.6005197      4.08066        98.086265    
     63320   92.849625      158.5          158.5          158.5         -2.1672062     -4.8208504     -2.6657864      0.9850183      92.849625    
     63340   106.81422      158.5          158.5          158.5         -1.7400332     -2.3805853     -1.4287648     -1.4107495      106.81422    
     63360   91.505043      158.5          158.5          158.5          0.35752592     0.18866608     0.76447985     0.11943183     91.505043    
     63380   99.060432      158.5          158.5          158.5         -2.6811461     -3.0893356     -2.9071995     -2.0469033      99.060432    
     63400   101.32093      158.5          158.5          158.5          1.0955879      1.2140993     -1.1467161      3.2193804      101.32093    
     63420   99.122861      158.5          158.5          158.5          1.4421388      2.989239      -1.5551436      2.892321       99.122861    
     63440   99.474983      158.5          158.5          158.5         -1.1432206     -2.4811095      1.6202647     -2.568817       99.474983    
     63460   100.10095      158.5          158.5          158.5         -1.4786132     -3.7572162      2.9467674     -3.6253907      100.10095    
     63480   98.760081      158.5          158.5          158.5         -1.0601092     -3.2625207     -1.0179152      1.1001084      98.760081    
     63500   104.94606      158.5          158.5          158.5         -0.056948837   -3.0691462     -0.51649948     3.4147991      104.94606    
     63520   106.16746      158.5          158.5          158.5          0.12631915    -1.0178235      0.93872936     0.45805158     106.16746    
     63540   99.995139      158.5          158.5          158.5          0.62320999     0.69924653     0.98249965     0.18788379     99.995139    
     63560   100.71606      158.5          158.5          158.5          0.38106433    -0.2733922     -1.8780414      3.2946266      100.71606    
     63580   99.080847      158.5          158.5          158.5          0.07841751    -0.73447778    -0.96216032     1.9318906      99.080847    
     63600   109.28026      158.5          158.5          158.5          0.44320083     0.30081207     0.47028984     0.55850057     109.28026    
     63620   99.008501      158.5          158.5          158.5         -1.053815      -2.150526      -1.2654864      0.25456745     99.008501    
     63640   99.839613      158.5          158.5          158.5         -0.69749139    -0.21688681    -2.9569847      1.0813974      99.839613    
     63660   106.58424      158.5          158.5          158.5          1.1528731      1.4993532     -0.84192743     2.8011936      106.58424    
     63680   102.79593      158.5          158.5          158.5         -3.472665      -4.5088881     -1.073165      -4.8359418      102.79593    
     63700   90.035249      158.5          158.5          158.5         -0.0080113196   0.40270375     0.85536545    -1.2821032      90.035249    
     63720   95.35161       158.5          158.5          158.5          0.23729424    -0.26545164    -0.46798686     1.4453212      95.35161     
     63740   92.151048      158.5          158.5          158.5         -2.8017446     -2.1977424     -4.1861509     -2.0213404      92.151048    
     63760   93.911878      158.5          158.5          158.5          1.2395258      3.0127539      1.1030322     -0.39720857     93.911878    
     63780   101.20385      158.5          158.5          158.5         -0.19984354     1.2041145      0.074001958   -1.8776471      101.20385    
     63800   90.921785      158.5          158.5          158.5         -0.23714864     1.1637919     -0.39256334    -1.4826745      90.921785    
     63820   98.623238      158.5          158.5          158.5          0.55533202     1.8486743     -0.57174748     0.3890692      98.623238    
     63840   94.904154      158.5          158.5          158.5         -0.35511743    -0.0054773925  -0.40171412    -0.65816076     94.904154    
     63860   96.514763      158.5          158.5          158.5         -0.57801104     0.38757494    -0.036505793   -2.0851023      96.514763    
     63880   97.542832      158.5          158.5          158.5          1.2206664     -0.48073161     3.3846775      0.75805336     97.542832    
     63900   98.348196      158.5          158.5          158.5         -0.90281007    -2.2394229      1.6383207     -2.107328       98.348196    
     63920   96.440511      158.5          158.5          158.5         -1.384768      -0.23996092    -4.8512312      0.93688809     96.440511    
     63940   107.98362      158.5          158.5          158.5          1.2854022     -0.49881531     0.56390272     3.7911192      107.98362    
     63960   105.75081      158.5          158.5          158.5         -2.3722775     -2.8292282      1.5668153     -5.8544195      105.75081    
     63980   103.18958      158.5          158.5          158.5          2.6934448      5.0484167      1.3591617      1.6727561      103.18958    
     64000   117.42816      158.5          158.5          158.5          2.2296755      1.6523186     -0.79032822     5.8270361      117.42816    
     64020   104.57982      158.5          158.5          158.5         -2.8108295     -4.8837436     -1.3485209     -2.2002238      104.57982    
     64040   110.02951      158.5          158.5          158.5          4.0887437      4.2034709      5.6052233      2.4575368      110.02951    
     64060   110.50429      158.5          158.5          158.5         -3.8751187     -4.095683      -6.2054101     -1.3242629      110.50429    
     64080   108.41432      158.5          158.5          158.5         -1.4640637     -4.4945878     -2.4851532      2.5875498      108.41432    
     64100   111.1127       158.5          158.5          158.5          1.258363       0.31397254     0.37240576     3.0887106      111.1127     
     64120   114.6323       158.5          158.5          158.5         -4.4459594     -3.2107997     -6.7113342     -3.4157443      114.6323     
     64140   102.87146      158.5          158.5          158.5          0.91571682     0.68785404    -1.2540653      3.3133618      102.87146    
     64160   113.10943      158.5          158.5          158.5         -2.9529953     -3.3077347     -4.0950885     -1.4561628      113.10943    
     64180   106.36183      158.5          158.5          158.5         -0.36678965    -1.3089434     -0.082244883    0.29081935     106.36183    
     64200   90.54451       158.5          158.5          158.5          1.4451153      0.02583856     2.5558741      1.7536331      90.54451     
     64220   106.9997       158.5          158.5          158.5         -1.2305889      1.2845205     -1.9946152     -2.9816721      106.9997     
     64240   99.28633       158.5          158.5          158.5          3.6861271      4.6809617      3.7575221      2.6198976      99.28633     
     64260   101.85505      158.5          158.5          158.5         -3.2410655     -3.6773635     -2.1720485     -3.8737843      101.85505    
     64280   92.54961       158.5          158.5          158.5          2.0804979      1.9876359      3.8024765      0.45138128     92.54961     
     64300   98.755649      158.5          158.5          158.5          0.55102587    -0.2180586      1.6344611      0.23667509     98.755649    
     64320   103.03945      158.5          158.5          158.5         -3.3286804     -1.5716632     -5.0066153     -3.4077628      103.03945    
     64340   96.847996      158.5          158.5          158.5          4.1196396      5.2988674      3.8785776      3.1814739      96.847996    
     64360   98.723353      158.5          158.5          158.5         -0.68199999    -0.0046290907  -0.41181454    -1.6295563      98.723353    
     64380   92.889106      158.5          158.5          158.5          2.1172955      3.7217681      3.3336039     -0.70348557     92.889106    
     64400   101.5688       158.5          158.5          158.5          1.6945704      2.5089135      3.3018151     -0.72701751     101.5688     
     64420   91.961615      158.5          158.5          158.5         -4.465689      -6.8902129     -2.0077935     -4.4990607      91.961615    
     64440   98.229532      158.5          158.5          158.5          1.2568543      0.0058363738   2.3804993      1.3842273      98.229532    
     64460   93.0336        158.5          158.5          158.5         -0.38761692     0.60176885    -0.56456654    -1.2000531      93.0336      
     64480   101.47725      158.5          158.5          158.5         -0.87494642    -1.5569274     -1.8165449      0.74863308     101.47725    
     64500   96.570817      158.5          158.5          158.5          4.2620435      4.2901496      2.1897694      6.3062115      96.570817    
     64520   107.81146      158.5          158.5          158.5         -0.061998133    1.3679432     -0.43215348    -1.1217841      107.81146    
     64540   108.46918      158.5          158.5          158.5         -0.30432817    -0.48889369    -0.80312196     0.37903113     108.46918    
     64560   105.94858      158.5          158.5          158.5         -1.1683237     -1.4127228     -1.6686345     -0.42361368     105.94858    
     64580   102.6541       158.5          158.5          158.5          0.03587729     0.67654469    -0.3010198     -0.26789302     102.6541     
     64600   105.65914      158.5          158.5          158.5         -0.43463316    -1.0794373     -1.485939       1.2614769      105.65914    
     64620   97.063182      158.5          158.5          158.5         -1.2700904     -0.38695998    -3.913516       0.49020486     97.063182    
     64640   100.33855      158.5          158.5          158.5          0.57278321     3.0824657     -0.0075236824  -1.3565924      100.33855    
     64660   93.762204      158.5          158.5          158.5         -0.74931426     0.57462945    -1.8101441     -1.0124282      93.762204    
     64680   106.09302      158.5          158.5          158.5         -0.8475643     -0.94732891    -3.0035143      1.4081503      106.09302    
     64700   99.908583      158.5          158.5          158.5         -0.75973688    -0.7691839     -1.5781269      0.068100118    99.908583    
     64720   103.79912      158.5          158.5          158.5          0.8713324      2.289316       0.83014193    -0.50546074     103.79912    
     64740   95.255582      158.5          158.5          158.5          0.77960375     2.8953999     -1.0205473      0.46395874     95.255582    
     64760   103.66442      158.5          158.5          158.5          0.61067421    -0.11778805     1.4350479      0.51476273     103.66442    
     64780   94.639064      158.5          158.5          158.5          2.2370962     -0.79939203     6.6946711      0.8160095      94.639064    
     64800   96.562552      158.5          158.5          158.5         -1.0476064     -2.0857581     -0.060623792   -0.99643739     96.562552    
     64820   101.99914      158.5          158.5          158.5          1.3063913      2.1033394      1.1457036      0.67013083     101.99914    
     64840   106.24793      158.5          158.5          158.5          1.0559911     -0.2857721      2.9723715      0.48137375     106.24793    
     64860   105.8488       158.5          158.5          158.5          0.7012814      0.73853436     2.1621161     -0.79680623     105.8488     
     64880   100.49001      158.5          158.5          158.5          1.8927885      3.0071254      4.6614227     -1.9901826      100.49001    
     64900   97.322471      158.5          158.5          158.5         -1.5396042     -3.1157051      0.17884005    -1.6819475      97.322471    
     64920   100.39658      158.5          158.5          158.5          2.4047684      1.5906784      1.3708448      4.2527821      100.39658    
     64940   97.735777      158.5          158.5          158.5          0.94538782     4.1986243     -0.97992633    -0.38253446     97.735777    
     64960   106.71837      158.5          158.5          158.5         -0.85527793     1.0202712     -0.73549749    -2.8506075      106.71837    
     64980   96.938701      158.5          158.5          158.5          3.7854663      4.5225366      2.0017644      4.832098       96.938701    
     65000   101.39401      158.5          158.5          158.5         -4.0784865     -1.7837049     -7.4513477     -3.0004069      101.39401    
     65020   100.86511      158.5          158.5          158.5         -5.1175557     -5.9189783     -5.659326      -3.774363       100.86511    
     65040   106.24911      158.5          158.5          158.5          0.41415968    -1.302114       1.9850814      0.55951169     106.24911    
     65060   99.254707      158.5          158.5          158.5         -4.017789      -3.8283455     -5.7678608     -2.4571606      99.254707    
     65080   96.179554      158.5          158.5          158.5          0.21337909     1.6367361     -2.3502419      1.3536431      96.179554    
     65100   115.40458      158.5          158.5          158.5          2.6017806      4.8075028      0.074141447    2.9236975      115.40458    
     65120   100.70033      158.5          158.5          158.5         -1.0365442      0.5662595     -1.5259386     -2.1499536      100.70033    
     65140   97.236086      158.5          158.5          158.5          2.5336563      3.0260188      3.2994978      1.2754523      97.236086    
     65160   102.41495      158.5          158.5          158.5          0.082153813    0.48030465    -1.1451608      0.91131763     102.41495    
     65180   99.682113      158.5          158.5          158.5         -4.3608841     -5.7603627     -4.8743299     -2.4479596      99.682113    
     65200   92.33624       158.5          158.5          158.5         -1.4040239     -4.9372356      0.68514093     0.040022849    92.33624     
     65220   90.658149      158.5          158.5          158.5          0.0035115364   0.87973369    -0.85420964    -0.01498944     90.658149    
     65240   92.284527      158.5          158.5          158.5          1.7178322      4.0917671     -0.27855547     1.3402849      92.284527    
     65260   88.342286      158.5          158.5          158.5          2.8412497      1.5731391      2.3841064      4.5665036      88.342286    
     65280   89.254059      158.5          158.5          158.5          1.4688271      0.92696947     1.135693       2.3438188      89.254059    
     65300   85.589392      158.5          158.5          158.5          0.97428925     2.9732832      2.7330704     -2.7834859      85.589392    
     65320   88.701969      158.5          158.5          158.5          0.5741953      0.64151779     1.726713      -0.64564486     88.701969    
     65340   92.062746      158.5          158.5          158.5         -1.1947908     -2.642544      -1.4672656      0.52543736     92.062746    
     65360   86.190452      158.5          158.5          158.5         -1.1648983      1.3711115     -1.281552      -3.5842544      86.190452    
     65380   89.30089       158.5          158.5          158.5          2.0143366      3.645595       1.2134616      1.183953       89.30089     
     65400   93.011272      158.5          158.5          158.5          1.6927063     -1.9209225      1.8320559      5.1669856      93.011272    
     65420   88.042525      158.5          158.5          158.5          3.0815425      0.49012198     4.8320025      3.9225031      88.042525    
     65440   98.823024      158.5          158.5          158.5          2.1225771      4.2272794      3.3868397     -1.2463879      98.823024    
     65460   97.007992      158.5          158.5          158.5         -1.3047851     -1.7885859      0.45239316    -2.5781627      97.007992    
     65480   95.628211      158.5          158.5          158.5          0.26593133    -0.76295633     1.8791806     -0.31843031     95.628211    
     65500   106.10497      158.5          158.5          158.5         -2.0566217     -0.51078051    -0.98605977    -4.6730248      106.10497    
     65520   97.30493       158.5          158.5          158.5         -2.8585021     -4.6486852     -3.6288316     -0.29798955     97.30493     
     65540   96.984135      158.5          158.5          158.5          1.0944015     -0.54850734     0.20072945     3.6309825      96.984135    
     65560   103.64714      158.5          158.5          158.5          0.1142704      0.79104021     0.82532288    -1.2735519      103.64714    
     65580   98.702864      158.5          158.5          158.5         -1.1141634     -0.78996662    -0.79723719    -1.7552863      98.702864    
     65600   95.923881      158.5          158.5          158.5         -0.65782658    -1.8416362      0.20384073    -0.3356843      95.923881    
     65620   99.857011      158.5          158.5          158.5         -2.8171663     -1.2582841     -3.036947      -4.1562676      99.857011    
     65640   100.23965      158.5          158.5          158.5         -0.29346747    -0.14309522     0.61623063    -1.3535378      100.23965    
     65660   99.400602      158.5          158.5          158.5          1.2530566     -0.38613053     2.2467998      1.8985006      99.400602    
     65680   105.8499       158.5          158.5          158.5          0.098358904    2.9200232     -0.9145035     -1.710443       105.8499     
     65700   101.22744      158.5          158.5          158.5          0.41753816     3.1138302      0.61399523    -2.475211       101.22744    
     65720   97.693404      158.5          158.5          158.5          1.6852558      0.43461323     1.2229117      3.3982425      97.693404    
     65740   91.853164      158.5          158.5          158.5         -1.1702357     -1.2683935     -4.0376655      1.7953521      91.853164    
     65760   101.77754      158.5          158.5          158.5          0.64827333     2.2418507     -0.1245555     -0.17247525     101.77754    
     65780   100.62971      158.5          158.5          158.5          3.5851604      3.0128678      4.5670625      3.1755509      100.62971    
     65800   98.026369      158.5          158.5          158.5         -0.40184306    -1.1543681      0.60060736    -0.65176844     98.026369    
     65820   99.217909      158.5          158.5          158.5          3.4819132      3.2330479      2.9385706      4.2741212      99.217909    
     65840   91.002652      158.5          158.5          158.5          1.9306555      2.2740557      1.2606186      2.2572922      91.002652    
     65860   101.16068      158.5          158.5          158.5         -2.7033853     -2.2655838     -3.1039281     -2.740644       101.16068    
     65880   99.458133      158.5          158.5          158.5          2.2038236      0.51789417     2.8455231      3.2480535      99.458133    
     65900   88.432427      158.5          158.5          158.5          0.61062896    -0.99335741     1.1339089      1.6913354      88.432427    
     65920   90.424437      158.5          158.5          158.5          0.99183761     0.36431661     1.6866483      0.92454795     90.424437    
     65940   91.77252       158.5          158.5          158.5          0.28762555    -0.88410558     1.8604829     -0.11350072     91.77252     
     65960   94.129562      158.5          158.5          158.5         -0.82051456    -1.862777      -0.71401337     0.11524664     94.129562    
     65980   102.33235      158.5          158.5          158.5         -2.5243933     -2.4673653     -4.4162042     -0.68961047     102.33235    
     66000   99.387945      158.5          158.5          158.5         -1.4758059     -1.9011736     -1.0004972     -1.525747       99.387945    
     66020   85.069874      158.5          158.5          158.5          1.1017398     -1.1597893      4.1890793      0.27592927     85.069874    
     66040   92.180336      158.5          158.5          158.5         -3.6477127     -2.6447602     -3.6485694     -4.6498085      92.180336    
     66060   91.379819      158.5          158.5          158.5         -0.095317114    1.5716542     -0.37749305    -1.4801125      91.379819    
     66080   94.087848      158.5          158.5          158.5          0.8465848      0.48898544     2.1724233     -0.12165435     94.087848    
     66100   102.11209      158.5          158.5          158.5         -2.4173739     -1.7505223     -2.0190538     -3.4825457      102.11209    
     66120   95.532681      158.5          158.5          158.5          1.670531       2.1661624      1.6486811      1.1967497      95.532681    
     66140   102.99813      158.5          158.5          158.5         -0.46499418     1.1644098     -1.4515037     -1.1078887      102.99813    
     66160   106.67594      158.5          158.5          158.5         -2.4221544     -0.49618559    -3.8201912     -2.9500864      106.67594    
     66180   104.17881      158.5          158.5          158.5          2.0716582      1.5826645      0.030349095    4.601961       104.17881    
     66200   110.51537      158.5          158.5          158.5         -0.60144213     0.14758227    -0.28411805    -1.6677906      110.51537    
     66220   99.88708       158.5          158.5          158.5          0.6981505      2.8557891     -0.98859472     0.22725708     99.88708     
     66240   110.89331      158.5          158.5          158.5          4.0836898      0.59259534     4.3598643      7.2986099      110.89331    
     66260   102.50743      158.5          158.5          158.5         -0.72235472    -1.7018994      2.3640063     -2.8291711      102.50743    
     66280   106.79403      158.5          158.5          158.5          1.4371462      4.600261       2.0378507     -2.3266733      106.79403    
     66300   107.86218      158.5          158.5          158.5          1.978035       2.7554858      0.85726945     2.3213499      107.86218    
     66320   111.67469      158.5          158.5          158.5         -2.0816796     -3.7822181     -2.2444283     -0.2183923      111.67469    
     66340   100.50643      158.5          158.5          158.5          3.3850574      3.0479603      5.5626702      1.5445418      100.50643    
     66360   102.60463      158.5          158.5          158.5          1.4506308      3.2043232      2.3032378     -1.1556686      102.60463    
     66380   101.72442      158.5          158.5          158.5         -0.64738878     0.059850411   -2.5716676      0.56965086     101.72442    
     66400   106.90457      158.5          158.5          158.5          2.3961596     -1.7277691      4.3459401      4.5703077      106.90457    
     66420   107.81187      158.5          158.5          158.5         -1.7496751     -4.9703684      1.2127961     -1.4914529      107.81187    
     66440   98.332947      158.5          158.5          158.5          0.820101       1.6933883      0.88081378    -0.1138991      98.332947    
     66460   100.78234      158.5          158.5          158.5          1.6163631      0.91522009    -0.1539598      4.0878291      100.78234    
     66480   99.115056      158.5          158.5          158.5         -1.1290306     -3.4301972     -1.8592602      1.9023655      99.115056    
     66500   99.889892      158.5          158.5          158.5         -0.19062067    -0.19893741     1.8409745     -2.2138991      99.889892    
     66520   94.067622      158.5          158.5          158.5         -2.5002599      1.2270962     -3.0305203     -5.6973556      94.067622    
     66540   101.53553      158.5          158.5          158.5         -1.255905       0.92512957    -4.4591856     -0.23365899     101.53553    
     66560   89.909741      158.5          158.5          158.5          0.99110557     1.0517504     -0.73697881     2.6585451      89.909741    
     66580   100.57854      158.5          158.5          158.5          0.50783305     0.51195627     3.3163476     -2.3048047      100.57854    
     66600   91.84317       158.5          158.5          158.5          0.065723424   -0.67306119     0.11451455     0.75571692     91.84317     
     66620   98.844171      158.5          158.5          158.5         -0.44612057     1.6240961     -3.6969824      0.73452458     98.844171    
     66640   96.344115      158.5          158.5          158.5         -0.89980466     0.76311955    -1.276525      -2.1860085      96.344115    
     66660   96.80794       158.5          158.5          158.5         -0.37895149    -3.7632255     -0.49247964     3.1188506      96.80794     
     66680   94.210715      158.5          158.5          158.5          0.24493009    -0.048398786   -0.092433195    0.87562225     94.210715    
     66700   98.348871      158.5          158.5          158.5         -1.1377426      1.3400023     -2.0592134     -2.6940165      98.348871    
     66720   94.991929      158.5          158.5          158.5          3.4872359      0.52173165     4.0668449      5.8731312      94.991929    
     66740   100.78047      158.5          158.5          158.5          0.86538516    -1.4224724      3.237542       0.78108586     100.78047    
     66760   104.67423      158.5          158.5          158.5         -1.9938289      1.0647654     -3.2513896     -3.7948625      104.67423    
     66780   100.85742      158.5          158.5          158.5          1.3859021      3.4624094     -0.1142815      0.80957841     100.85742    
     66800   94.331261      158.5          158.5          158.5         -0.77394206    -2.5025202     -0.12002106     0.30071512     94.331261    
     66820   103.49818      158.5          158.5          158.5          1.2803084      0.87531051     1.9849672      0.98064744     103.49818    
     66840   92.463517      158.5          158.5          158.5          1.6586415      1.6964481      1.4731717      1.8063047      92.463517    
     66860   110.58314      158.5          158.5          158.5         -3.1727807     -3.7724153     -5.0655985     -0.68032843     110.58314    
     66880   85.258796      158.5          158.5          158.5          2.8396935      3.1835333      4.372009       0.96353822     85.258796    
     66900   101.93112      158.5          158.5          158.5         -2.2876407     -2.4850553     -2.8308381     -1.5470289      101.93112    
     66920   93.341018      158.5          158.5          158.5         -1.0346857     -1.4981004     -4.3410421      2.7350855      93.341018    
     66940   93.381359      158.5          158.5          158.5          2.9178625      4.3617549      2.1763537      2.2154788      93.381359    
     66960   93.471561      158.5          158.5          158.5         -3.4743259     -2.6386624     -3.6391118     -4.1452035      93.471561    
     66980   89.531195      158.5          158.5          158.5          2.1032483      2.1832013      2.7003978      1.4261457      89.531195    
     67000   94.001041      158.5          158.5          158.5         -2.1140536     -3.7400275     -1.7110009     -0.89113247     94.001041    
     67020   87.710198      158.5          158.5          158.5         -2.1540103     -1.2843939     -3.2374818     -1.9401551      87.710198    
     67040   85.263228      158.5          158.5          158.5          3.2276336      5.8574411      2.6342179      1.1912417      85.263228    
     67060   97.218471      158.5          158.5          158.5         -3.366485      -4.4305882     -3.9474279     -1.721439       97.218471    
     67080   86.976812      158.5          158.5          158.5          2.3753717      1.9601038      2.5019217      2.6640897      86.976812    
     67100   88.366144      158.5          158.5          158.5         -1.7862012      1.3936934     -3.5155331     -3.2367639      88.366144    
     67120   83.590463      158.5          158.5          158.5         -2.8850372     -3.6617859     -2.7203615     -2.2729642      83.590463    
     67140   91.85302       158.5          158.5          158.5          1.2484845     -0.78629204     2.3290964      2.2026492      91.85302     
     67160   95.883481      158.5          158.5          158.5         -3.3503052     -3.0025137     -3.0859407     -3.9624611      95.883481    
     67180   93.111507      158.5          158.5          158.5          2.6676833      2.2869053      2.8510857      2.8650589      93.111507    
     67200   92.79167       158.5          158.5          158.5          0.12398908     0.27116305    -0.32662136     0.42742555     92.79167     
     67220   94.102769      158.5          158.5          158.5         -1.3891058     -1.576525      -1.4475035     -1.143289       94.102769    
     67240   97.216623      158.5          158.5          158.5          3.475959       2.0957697      4.7655306      3.5665768      97.216623    
     67260   90.81849       158.5          158.5          158.5         -0.83320474    -1.9402935     -0.92605299     0.36673227     90.81849     
     67280   104.49985      158.5          158.5          158.5          1.1000444      4.8571035     -0.99727885    -0.55969137     104.49985    
     67300   105.31899      158.5          158.5          158.5          2.4372979      5.4561428      2.2777259     -0.42197487     105.31899    
     67320   99.330205      158.5          158.5          158.5         -0.46001113    -1.279729       0.65038439    -0.75068879     99.330205    
     67340   108.48738      158.5          158.5          158.5          0.0022024221   1.9619441     -3.1850458      1.229709       108.48738    
     67360   99.485595      158.5          158.5          158.5         -0.73408077     3.5679313     -3.7800566     -1.990117       99.485595    
     67380   105.97396      158.5          158.5          158.5         -1.6116389     -0.36701321    -0.0058013365  -4.4621022      105.97396    
     67400   105.60805      158.5          158.5          158.5         -2.5774036     -4.2616337     -3.7998509      0.32927376     105.60805    
     67420   95.977776      158.5          158.5          158.5          1.9500623      2.0012946     -1.3923911      5.2412833      95.977776    
     67440   102.68893      158.5          158.5          158.5         -0.14284823     1.0820838      2.1976191     -3.7082475      102.68893    
     67460   102.05494      158.5          158.5          158.5          0.35225769    -0.50392829     3.8066932     -2.2459919      102.05494    
     67480   101.35079      158.5          158.5          158.5          2.3010705      0.067806254    1.8379743      4.997431       101.35079    
     67500   94.006321      158.5          158.5          158.5         -1.4356969     -1.5622546     -1.3633087     -1.3815274      94.006321    
     67520   106.20605      158.5          158.5          158.5         -2.3441852     -4.0909639     -0.87118415    -2.0704076      106.20605    
     67540   95.654881      158.5          158.5          158.5         -0.26724056    -3.0461044      0.8608082      1.3835745      95.654881    
     67560   97.829847      158.5          158.5          158.5         -2.7435759     -4.4273644      0.051606474   -3.8549697      97.829847    
     67580   101.9378       158.5          158.5          158.5          0.52369       -1.0387833      1.2780749      1.3317784      101.9378     
     67600   96.861132      158.5          158.5          158.5          0.80284951    -0.45995867    -0.21916531     3.0876725      96.861132    
     67620   101.1077       158.5          158.5          158.5         -0.045307303   -3.2612665      1.2472329      1.8781117      101.1077     
     67640   95.890906      158.5          158.5          158.5          1.3764556     -0.31493399     0.99815986     3.4461411      95.890906    
     67660   86.006163      158.5          158.5          158.5         -2.296373      -0.99881319    -4.778149      -1.1121569      86.006163    
     67680   86.903068      158.5          158.5          158.5         -1.2004535     -1.7204767     -1.3667232     -0.51416069     86.903068    
     67700   85.450365      158.5          158.5          158.5         -0.65080528    -3.6438052      0.87493748     0.81645191     85.450365    
     67720   85.39645       158.5          158.5          158.5          0.76129124     2.6326633     -1.7796247      1.4308351      85.39645     
     67740   83.327787      158.5          158.5          158.5          1.9183206      2.5482844      0.86469737     2.34198        83.327787    
     67760   86.114507      158.5          158.5          158.5          1.3423224     -2.6088234      1.70601        4.9297806      86.114507    
     67780   82.847795      158.5          158.5          158.5          3.2036985      2.7084285      3.6940506      3.2086163      82.847795    
     67800   83.612109      158.5          158.5          158.5         -2.9177094      1.2872266     -3.0031231     -7.0372316      83.612109    
     67820   92.478863      158.5          158.5          158.5          1.8511725      4.5038448      1.178073      -0.12840034     92.478863    
     67840   84.13228       158.5          158.5          158.5         -0.48166995    -1.3940373     -0.16331566     0.11234313     84.13228     
     67860   100.94378      158.5          158.5          158.5         -3.0075602     -2.0334747     -3.1874673     -3.8017386      100.94378    
     67880   96.149136      158.5          158.5          158.5          3.3897811      6.1390033      2.8869115      1.1434286      96.149136    
     67900   93.873735      158.5          158.5          158.5         -1.5229541     -1.1161162     -0.52255728    -2.9301889      93.873735    
     67920   92.198076      158.5          158.5          158.5          0.85143395     2.7180675      1.0187837     -1.1825493      92.198076    
     67940   92.232876      158.5          158.5          158.5         -1.0379252      0.50557138     0.45944208    -4.078789       92.232876    
     67960   100.44151      158.5          158.5          158.5         -1.7060182     -1.1332273     -0.35486994    -3.6299574      100.44151    
     67980   96.585457      158.5          158.5          158.5          0.73843788    -0.2102973      1.451735       0.97387593     96.585457    
     68000   102.34737      158.5          158.5          158.5         -1.9903748     -4.1242786      0.10811307    -1.9549589      102.34737    
     68020   99.876233      158.5          158.5          158.5          0.37570308    -1.0203274      1.536093       0.61134371     99.876233    
     68040   101.85628      158.5          158.5          158.5         -0.10855427     1.6997489     -2.5182052      0.49279349     101.85628    
     68060   102.51059      158.5          158.5          158.5         -0.50143363    -2.5757909      1.6113999     -0.53990992     102.51059    
     68080   101.12356      158.5          158.5          158.5         -1.2785832     -5.3469933      2.5030406     -0.99179701     101.12356    
     68100   94.605772      158.5          158.5          158.5         -1.3737466     -0.44063488    -4.9218767      1.2412717      94.605772    
     68120   94.346516      158.5          158.5          158.5          0.33376135    -0.56273671    -1.8352737      3.3992944      94.346516    
     68140   97.732674      158.5          158.5          158.5         -1.9864507     -4.0263363     -0.22221532    -1.7108006      97.732674    
     68160   94.480645      158.5          158.5          158.5          1.4110954      0.93299164     0.25611205     3.0441824      94.480645    
     68180   105.41852      158.5          158.5          158.5          0.82969235     2.346275      -0.88633939     1.0291415      105.41852    
     68200   94.465094      158.5          158.5          158.5          1.6793104      2.4329956      2.1582223      0.44671337     94.465094    
     68220   98.156818      158.5          158.5          158.5          0.66259353    -0.96870976     0.27738412     2.6791062      98.156818    
     68240   100.31649      158.5          158.5          158.5         -0.65851436    -1.1729705     -1.6680932      0.8655206      100.31649    
     68260   94.778612      158.5          158.5          158.5          0.41549855     1.0755524      1.6168143     -1.445871       94.778612    
     68280   95.476971      158.5          158.5          158.5         -0.92935937     1.5835795     -0.34651258    -4.025145       95.476971    
     68300   96.646365      158.5          158.5          158.5          1.5667315      1.8123301      1.1919748      1.6958897      96.646365    
     68320   94.495247      158.5          158.5          158.5          1.1250605      1.3131805      1.4575056      0.60449546     94.495247    
     68340   94.926653      158.5          158.5          158.5          0.17856193     2.3181111     -0.67351232    -1.108913       94.926653    
     68360   89.893982      158.5          158.5          158.5         -0.34785177    -1.7932972      1.99042       -1.2406781      89.893982    
     68380   87.474962      158.5          158.5          158.5         -1.7387286     -2.1067555     -0.10226427    -3.007166       87.474962    
     68400   85.749111      158.5          158.5          158.5         -0.41670736    -1.2199621     -0.74760732     0.71744734     85.749111    
     68420   85.016113      158.5          158.5          158.5         -1.7542595     -2.7488625     -0.42058516    -2.0933308      85.016113    
     68440   88.070512      158.5          158.5          158.5         -1.3368177     -1.5717672     -0.50703859    -1.9316474      88.070512    
     68460   94.891705      158.5          158.5          158.5          0.56392258     0.40454335    -0.83346196     2.1206863      94.891705    
     68480   101.76725      158.5          158.5          158.5         -2.0216382     -3.5649625     -3.2269966      0.72704435     101.76725    
     68500   91.020502      158.5          158.5          158.5          2.0321277      1.1048088      1.2928216      3.6987527      91.020502    
     68520   97.374877      158.5          158.5          158.5          1.244645       0.18206174     1.9148024      1.6370709      97.374877    
     68540   87.898135      158.5          158.5          158.5         -3.4513972     -4.5406052     -2.4920884     -3.321498       87.898135    
     68560   98.122352      158.5          158.5          158.5          2.1316962      1.732148       1.910093       2.7528475      98.122352    
     68580   94.020111      158.5          158.5          158.5         -2.2698513     -1.555254      -2.4012331     -2.8530667      94.020111    
     68600   91.758185      158.5          158.5          158.5         -2.0298221     -3.1375653      1.2202512     -4.1721522      91.758185    
     68620   104.67996      158.5          158.5          158.5          2.6716207      4.2373108      3.4887598      0.28879156     104.67996    
     68640   101.60208      158.5          158.5          158.5         -2.9031457     -0.71022855    -4.4335087     -3.5656997      101.60208    
     68660   100.57738      158.5          158.5          158.5         -0.15806747    -0.64563014     0.66014998    -0.48872225     100.57738    
     68680   97.05665       158.5          158.5          158.5          0.06671786     1.814801       1.9267331     -3.5413805      97.05665     
     68700   107.57731      158.5          158.5          158.5         -0.66931813     1.7698458      1.088949      -4.8667492      107.57731    
     68720   100.40693      158.5          158.5          158.5          2.1934622      0.24703933     0.87136327     5.4619839      100.40693    
     68740   111.33         158.5          158.5          158.5         -0.21337866     0.55308792    -1.6422233      0.44899945     111.33       
     68760   94.35044       158.5          158.5          158.5          0.98029039     3.6436936      1.7202894     -2.4231119      94.35044     
     68780   103.29042      158.5          158.5          158.5          1.8091728      3.6174782      1.2616934      0.5483467      103.29042    
     68800   99.022364      158.5          158.5          158.5          0.58299333     0.76184216    -2.0708123      3.0579502      99.022364    
     68820   105.80918      158.5          158.5          158.5         -0.28032088    -0.49525815    -1.3437032      0.99799871     105.80918    
     68840   97.677521      158.5          158.5          158.5         -0.011824029    0.8251422      0.27950649    -1.1401208      97.677521    
     68860   92.162164      158.5          158.5          158.5          0.45411427     2.0229208     -2.0173448      1.3567668      92.162164    
     68880   95.875027      158.5          158.5          158.5         -0.7791269     -2.4400739     -3.0843391      3.1870322      95.875027    
     68900   93.668723      158.5          158.5          158.5          0.093363762   -0.94475162    -0.034911106    1.259754       93.668723    
     68920   93.040171      158.5          158.5          158.5         -0.43223029     1.363106      -0.82763054    -1.8321663      93.040171    
     68940   94.486015      158.5          158.5          158.5         -0.78639241    -1.859147      -2.1933656      1.6933353      94.486015    
     68960   90.570433      158.5          158.5          158.5          1.8657546     -0.86554882     1.5999529      4.8628596      90.570433    
     68980   89.098832      158.5          158.5          158.5         -0.56138609    -2.3185437      0.37703169     0.25735378     89.098832    
     69000   94.462645      158.5          158.5          158.5         -1.0286101     -0.72195545     1.1421394     -3.5060143      94.462645    
     69020   88.78711       158.5          158.5          158.5          2.8571423      3.1363192      3.8243057      1.6108019      88.78711     
     69040   90.219149      158.5          158.5          158.5         -1.0829347     -2.5203797      0.30344329    -1.0318676      90.219149    
     69060   90.713041      158.5          158.5          158.5         -0.96005882    -0.79894277     0.9117384     -2.9929721      90.713041    
     69080   87.924227      158.5          158.5          158.5          1.8468186      1.2042142      2.7858997      1.5503419      87.924227    
     69100   95.221289      158.5          158.5          158.5         -0.29645761    -0.010117155   -0.16927356    -0.70998213     95.221289    
     69120   89.348915      158.5          158.5          158.5          1.1184454      2.4514282     -0.20493088     1.1088389      89.348915    
     69140   98.961083      158.5          158.5          158.5         -0.85420426     2.0327989     -4.8738978      0.27848615     98.961083    
     69160   99.609062      158.5          158.5          158.5         -1.7305997      1.5818507     -0.91388519    -5.8597647      99.609062    
     69180   102.88508      158.5          158.5          158.5         -1.5057794     -2.0718924     -1.1894424     -1.2560035      102.88508    
     69200   96.359767      158.5          158.5          158.5         -1.3858825     -2.9708096     -2.6938921      1.5070542      96.359767    
     69220   104.15836      158.5          158.5          158.5          2.0449377      2.1440562      2.7619519      1.228805       104.15836    
     69240   99.997601      158.5          158.5          158.5          1.2137378      1.7860987     -0.46555049     2.3206652      99.997601    
     69260   93.711585      158.5          158.5          158.5          1.0324909      1.7295684     -0.39551032     1.7634146      93.711585    
     69280   97.247179      158.5          158.5          158.5          0.9956274      2.1400366      0.93134557    -0.0845         97.247179    
     69300   101.47324      158.5          158.5          158.5          0.6714368     -0.19388364    -2.1558921      4.3640861      101.47324    
     69320   85.888566      158.5          158.5          158.5         -0.80963008    -0.051878581   -3.1154338      0.73842216     85.888566    
     69340   89.481614      158.5          158.5          158.5          1.1756868      2.9472328      1.1672842     -0.58745665     89.481614    
     69360   95.936165      158.5          158.5          158.5          1.1998517      2.1025497     -0.97995953     2.476965       95.936165    
     69380   91.416277      158.5          158.5          158.5         -0.97636875    -3.1363896     -1.3421289      1.5494122      91.416277    
     69400   88.307332      158.5          158.5          158.5         -1.4645681     -4.0156936      1.1313934     -1.5094042      88.307332    
     69420   95.391362      158.5          158.5          158.5         -1.2648595     -1.0498388     -0.6656949     -2.0790448      95.391362    
     69440   85.632088      158.5          158.5          158.5         -1.4533388     -2.7078934     -0.56164513    -1.0904778      85.632088    
     69460   88.656017      158.5          158.5          158.5         -1.7206035     -2.7722974     -1.031773      -1.3577401      88.656017    
     69480   93.118111      158.5          158.5          158.5          1.0214488     -0.44703589     1.3902496      2.1211326      93.118111    
     69500   93.772672      158.5          158.5          158.5         -1.1162942     -2.8187163     -1.0264225      0.49625628     93.772672    
     69520   85.213064      158.5          158.5          158.5         -0.89074957    -0.12458557    -0.39412354    -2.1535396      85.213064    
     69540   90.831406      158.5          158.5          158.5          2.0955355      4.0487238      2.7423721     -0.50448944     90.831406    
     69560   85.624012      158.5          158.5          158.5         -1.4909595     -2.4115089     -1.5848643     -0.47650535     85.624012    
     69580   84.563235      158.5          158.5          158.5          3.067382       4.9639203      0.45051944     3.7877064      84.563235    
     69600   93.668851      158.5          158.5          158.5          2.4259498      7.2656135      1.3083836     -1.2961477      93.668851    
     69620   94.930884      158.5          158.5          158.5         -3.7999978     -3.0237264     -5.7354115     -2.6408554      94.930884    
     69640   101.13104      158.5          158.5          158.5          4.4673973      2.106656       1.9300822      9.3654538      101.13104    
     69660   97.931581      158.5          158.5          158.5         -0.77123767     0.2349036     -0.21550183    -2.3331148      97.931581    
     69680   98.033156      158.5          158.5          158.5         -1.7419301      2.3009305     -2.2989587     -5.227762       98.033156    
     69700   107.1438       158.5          158.5          158.5          4.6320118      4.7771029      2.1145576      7.004375       107.1438     
     69720   103.08062      158.5          158.5          158.5         -2.0484712     -2.72798       -3.1881619     -0.2292717      103.08062    
     69740   101.62033      158.5          158.5          158.5          1.8010152      4.2983744      0.041111225    1.0635599      101.62033    
     69760   103.30035      158.5          158.5          158.5          1.5598615      4.1756744      1.7149747     -1.2110645      103.30035    
     69780   103.66683      158.5          158.5          158.5         -3.9943974     -5.8683874     -1.7639022     -4.3509027      103.66683    
     69800   104.37922      158.5          158.5          158.5          2.3598975      0.23739397     2.2442901      4.5980085      104.37922    
     69820   101.53969      158.5          158.5          158.5         -2.0142402     -1.8558521     -1.8355838     -2.3512845      101.53969    
     69840   104.91049      158.5          158.5          158.5         -2.3743292     -2.986817       1.5126006     -5.6487712      104.91049    
     69860   93.866952      158.5          158.5          158.5          2.2914938      0.31862393     3.743048       2.8128095      93.866952    
     69880   104.5205       158.5          158.5          158.5         -3.5095086     -4.1077248     -5.0127734     -1.4080278      104.5205     
     69900   91.859207      158.5          158.5          158.5          1.3351062      1.3859206      3.6064483     -0.98705027     91.859207    
     69920   98.51917       158.5          158.5          158.5          0.25468882    -1.7283119      3.8182667     -1.3258884      98.51917     
     69940   89.583841      158.5          158.5          158.5         -0.94615294    -0.32393649    -2.358504      -0.15601835     89.583841    
     69960   102.61671      158.5          158.5          158.5          5.1144157      6.596313       2.128068       6.6188661      102.61671    
     69980   99.919664      158.5          158.5          158.5         -1.7421659     -3.0965831     -2.4626778      0.33276315     99.919664    
     70000   93.900996      158.5          158.5          158.5          0.75405052     0.22667003     1.557171       0.47831047     93.900996    
     70020   91.73013       158.5          158.5          158.5         -0.3070809      2.5121597     -1.859153      -1.5742494      91.73013     
     70040   99.169864      158.5          158.5          158.5         -4.2198284     -3.0162758     -7.6561548     -1.9870546      99.169864    
     70060   105.9759       158.5          158.5          158.5          2.029426       4.4748049     -0.93984694     2.5533202      105.9759     
     70080   92.042804      158.5          158.5          158.5         -3.454972      -0.035193785   -3.3625533     -6.9671689      92.042804    
     70100   93.317731      158.5          158.5          158.5          0.77302748     0.93065528     0.91991738     0.46850978     93.317731    
     70120   91.191092      158.5          158.5          158.5          0.80999956     1.4434946     -2.3014391      3.2879431      91.191092    
     70140   94.215913      158.5          158.5          158.5         -1.7771687     -0.2120454     -2.1825763     -2.9368844      94.215913    
     70160   99.643377      158.5          158.5          158.5          2.1274395      1.0917085      6.1496495     -0.85903948     99.643377    
     70180   98.060613      158.5          158.5          158.5         -0.26534707    -1.2605118      2.7805476     -2.3160769      98.060613    
     70200   94.780905      158.5          158.5          158.5          2.3653054      3.7906706     -0.20540277     3.5106484      94.780905    
     70220   100.80278      158.5          158.5          158.5         -0.25053297    -1.4865343      0.87677456    -0.14183917     100.80278    
     70240   95.200222      158.5          158.5          158.5          0.92651656    -2.0969981      5.0481317     -0.17158391     95.200222    
     70260   95.000974      158.5          158.5          158.5          1.7108882      1.4107238      1.1451631      2.5767778      95.000974    
     70280   102.2144       158.5          158.5          158.5         -0.24429616    -1.1568148      0.29631771     0.12760862     102.2144     
     70300   108.73641      158.5          158.5          158.5          2.6479576     -0.42586326     5.9422519      2.4274842      108.73641    
     70320   111.67012      158.5          158.5          158.5         -1.8077841     -4.2468954      0.62956644    -1.8060234      111.67012    
     70340   100.09595      158.5          158.5          158.5          2.4217567      1.2797701      1.7538703      4.2316296      100.09595    
     70360   97.623062      158.5          158.5          158.5         -2.3333509     -3.0426529     -2.2016288     -1.7557711      97.623062    
     70380   104.00047      158.5          158.5          158.5         -3.9504389     -2.6251247     -5.8891612     -3.3370308      104.00047    
     70400   100.21523      158.5          158.5          158.5          3.0679481      4.3280486      2.1454983      2.7302975      100.21523    
     70420   103.49176      158.5          158.5          158.5         -4.5069309     -5.7963298     -3.1524779     -4.5719851      103.49176    
     70440   92.03063       158.5          158.5          158.5         -1.1611604     -2.1369436     -0.066788392   -1.2797492      92.03063     
     70460   95.921118      158.5          158.5          158.5         -0.64010704    -1.6559145      0.69764039    -0.96204702     95.921118    
     70480   101.72172      158.5          158.5          158.5         -3.5267195     -6.7156805      0.019998046   -3.8844761      101.72172    
     70500   93.046339      158.5          158.5          158.5          2.3398025      1.1616149      0.86220251     4.99559        93.046339    
     70520   88.0137        158.5          158.5          158.5         -0.27731031     0.81336467    -4.6123724      2.9670768      88.0137      
     70540   96.979924      158.5          158.5          158.5          0.32578234    -1.315093       2.7865929     -0.49415288     96.979924    
     70560   88.84848       158.5          158.5          158.5          2.920005       3.113143       5.2736731      0.37319886     88.84848     
     70580   91.15415       158.5          158.5          158.5         -4.1881226     -0.44976162    -6.5553475     -5.5592585      91.15415     
     70600   90.957844      158.5          158.5          158.5          0.44020865     3.0496399      0.28587957    -2.0148935      90.957844    
     70620   91.556188      158.5          158.5          158.5          0.034077482    0.0040578241   2.8427152     -2.7445405      91.556188    
     70640   92.9555        158.5          158.5          158.5         -1.6631978     -2.8175448     -0.77163542    -1.4004131      92.9555      
     70660   94.165752      158.5          158.5          158.5          5.2194518      5.9513991      2.4978028      7.2091535      94.165752    
     70680   96.523216      158.5          158.5          158.5          1.0970892      3.4928851     -0.43131131     0.22969381     96.523216    
     70700   94.320999      158.5          158.5          158.5          0.09689091    -0.9189032      2.4988021     -1.2892262      94.320999    
     70720   95.372754      158.5          158.5          158.5         -0.56210414    -0.87137427    -0.41937734    -0.3955608      95.372754    
     70740   92.816136      158.5          158.5          158.5         -2.8549814     -2.6245519     -5.3747113     -0.56568107     92.816136    
     70760   100.11467      158.5          158.5          158.5          3.2603319      3.6486846      2.3125517      3.8197596      100.11467    
     70780   92.563668      158.5          158.5          158.5         -0.00031040668 -3.9136265      2.3002378      1.6124575      92.563668    
     70800   93.918916      158.5          158.5          158.5          3.2668489     -0.50574778     4.0386885      6.2676059      93.918916    
     70820   109.42471      158.5          158.5          158.5          2.2330244      3.6118685      0.72929766     2.3579071      109.42471    
     70840   92.961823      158.5          158.5          158.5         -2.4686773     -2.3135669     -2.1913449     -2.90112        92.961823    
     70860   100.31037      158.5          158.5          158.5          2.1759176     -0.31286448     4.2605021      2.5801153      100.31037    
     70880   100.06044      158.5          158.5          158.5         -0.83936288    -2.0858186     -0.16320614    -0.26906391     100.06044    
     70900   102.40493      158.5          158.5          158.5         -3.2830163     -4.4941667     -1.8098796     -3.5450025      102.40493    
     70920   98.928035      158.5          158.5          158.5         -2.4312437     -1.6936463     -2.2242633     -3.3758216      98.928035    
     70940   98.643362      158.5          158.5          158.5         -0.92206639    -1.2391846      2.4176739     -3.9446884      98.643362    
     70960   98.775574      158.5          158.5          158.5         -3.3984921     -4.2008447     -0.041663923   -5.9529678      98.775574    
     70980   99.437897      158.5          158.5          158.5         -1.2612039      1.1795446     -2.7712196     -2.1919366      99.437897    
     71000   94.728623      158.5          158.5          158.5          1.4080244      1.7253746      0.85789452     1.6408041      94.728623    
     71020   94.188795      158.5          158.5          158.5         -3.0080431     -4.5994522     -2.4784857     -1.9461914      94.188795    
     71040   90.106263      158.5          158.5          158.5          3.891552       4.7641385      3.9128421      2.9976753      90.106263    
     71060   89.926514      158.5          158.5          158.5          0.13682232     2.580348      -0.30943784    -1.8604432      89.926514    
     71080   82.054664      158.5          158.5          158.5         -2.2322105     -2.2424754     -2.7644635     -1.6896925      82.054664    
     71100   91.434595      158.5          158.5          158.5          2.6127254      1.9731284      3.7124532      2.1525947      91.434595    
     71120   87.985713      158.5          158.5          158.5         -4.5559242     -5.2890429     -4.5412251     -3.8375045      87.985713    
     71140   83.097547      158.5          158.5          158.5          1.2612829      0.51402733     0.31258297     2.9572383      83.097547    
     71160   90.91223       158.5          158.5          158.5          2.3705178      1.3751514      3.0280833      2.7083187      90.91223     
     71180   83.719207      158.5          158.5          158.5          0.67876343    -0.68371018     0.64159364     2.0784068      83.719207    
     71200   97.944417      158.5          158.5          158.5          5.9143419      5.3307349      3.6602456      8.752045       97.944417    
     71220   97.159329      158.5          158.5          158.5         -1.5614478     -1.709379      -2.1265119     -0.84845258     97.159329    
     71240   85.365835      158.5          158.5          158.5         -0.76986576    -1.1865309      1.0764157     -2.1994821      85.365835    
     71260   94.148895      158.5          158.5          158.5         -0.39244844    -0.49952301    -0.24110355    -0.43671876     94.148895    
     71280   98.06047       158.5          158.5          158.5         -5.4342487     -7.1060478     -4.2191687     -4.9775296      98.06047     
     71300   93.400954      158.5          158.5          158.5         -1.6716949     -0.26104712    -2.6518728     -2.1021649      93.400954    
     71320   94.55968       158.5          158.5          158.5         -0.3925242     -0.46272215    -0.013010573   -0.70183986     94.55968     
     71340   108.98825      158.5          158.5          158.5          1.521997      -1.0193275      3.1532463      2.4320721      108.98825    
     71360   100.81374      158.5          158.5          158.5          2.0767344      3.0676129     -0.11063756     3.2732278      100.81374    
     71380   107.1573       158.5          158.5          158.5          1.7952853      3.3664289      1.2297766      0.78965031     107.1573     
     71400   101.8437       158.5          158.5          158.5          1.1906895      1.4089959      2.7189967     -0.55592422     101.8437     
     71420   110.38949      158.5          158.5          158.5         -2.2283622     -0.58900269    -3.6778388     -2.418245       110.38949    
     71440   99.177982      158.5          158.5          158.5         -1.197894       1.0168717     -2.9451521     -1.6654017      99.177982    
     71460   103.53357      158.5          158.5          158.5         -1.709929       1.477129      -1.1141188     -5.4927972      103.53357    
     71480   101.72703      158.5          158.5          158.5         -0.49088106    -0.53808263     1.6111983     -2.5457588      101.72703    
     71500   97.747849      158.5          158.5          158.5          0.450563      -0.48037636    -0.36872892     2.2007943      97.747849    
     71520   106.4687       158.5          158.5          158.5         -0.35029365     1.6782169     -1.5657042     -1.1633936      106.4687     
     71540   101.12108      158.5          158.5          158.5         -1.0809764     -2.1600765     -0.046864815   -1.0359879      101.12108    
     71560   84.606719      158.5          158.5          158.5         -0.12289318    -1.364875       0.47396071     0.52223475     84.606719    
     71580   91.743849      158.5          158.5          158.5          1.3345597      1.9704829     -0.2252787      2.258475       91.743849    
     71600   96.844709      158.5          158.5          158.5          0.33503849    -0.4462307     -2.0287856      3.4801318      96.844709    
     71620   88.484655      158.5          158.5          158.5          1.691828       1.8339868      2.8428117      0.39868559     88.484655    
     71640   85.829668      158.5          158.5          158.5         -0.20525265     1.0284557     -0.24603858    -1.3981751      85.829668    
     71660   90.350558      158.5          158.5          158.5         -1.5628387     -0.9551363     -3.2300769     -0.50330294     90.350558    
     71680   89.087344      158.5          158.5          158.5         -0.80547901    -2.9310944      0.32308749     0.19156988     89.087344    
     71700   83.522216      158.5          158.5          158.5          0.26429359    -3.267849       2.7647821      1.2959477      83.522216    
     71720   94.370136      158.5          158.5          158.5          1.4751199      0.59364972     1.0351723      2.7965377      94.370136    
     71740   97.217561      158.5          158.5          158.5          0.76619243     0.24426612    -1.7658581      3.8201693      97.217561    
     71760   78.912742      158.5          158.5          158.5         -0.36993846    -2.6260904      0.34481679     1.1714583      78.912742    
     71780   96.43662       158.5          158.5          158.5          0.52462988     0.77570474     2.6395911     -1.8414062      96.43662     
     71800   85.021967      158.5          158.5          158.5         -3.6057304     -2.000688      -4.0506638     -4.7658395      85.021967    
     71820   89.659187      158.5          158.5          158.5         -0.82833043     0.23786085    -3.296315       0.57346282     89.659187    
     71840   83.217376      158.5          158.5          158.5          1.2136548      1.799638       1.4887867      0.3525396      83.217376    
     71860   96.563204      158.5          158.5          158.5          1.4544902      0.20084244     2.9891156      1.1735124      96.563204    
     71880   94.633687      158.5          158.5          158.5          1.9970727      2.6430656      0.1804588      3.1676936      94.633687    
     71900   104.14054      158.5          158.5          158.5          0.37982176     4.163208      -2.94609       -0.077652774    104.14054    
     71920   102.81821      158.5          158.5          158.5         -0.45708292    -1.1056432      1.3550768     -1.6206824      102.81821    
     71940   104.8525       158.5          158.5          158.5         -1.3805149     -3.2678674      1.2700757     -2.1437528      104.8525     
     71960   98.450354      158.5          158.5          158.5         -0.42699233     0.59903427    -1.1392442     -0.74076704     98.450354    
     71980   94.966202      158.5          158.5          158.5         -0.013782277    3.0634876     -2.1447503     -0.96008418     94.966202    
     72000   100.30271      158.5          158.5          158.5         -0.83959793    -3.0494459      2.3125684     -1.7819162      100.30271    
     72020   97.882309      158.5          158.5          158.5         -0.50979442    -1.2770767      1.3479366     -1.6002432      97.882309    
     72040   102.26015      158.5          158.5          158.5         -0.90179257     1.5056397     -0.19696974    -4.0140477      102.26015    
     72060   98.32365       158.5          158.5          158.5         -1.6697876     -1.6893077      0.87754719    -4.1976023      98.32365     
     72080   98.226929      158.5          158.5          158.5          1.2560822      3.3390997      0.032037887    0.39710894     98.226929    
     72100   110.76312      158.5          158.5          158.5          0.29767718     1.6970314     -1.6130804      0.8090805      110.76312    
     72120   94.579711      158.5          158.5          158.5         -0.94621868    -2.8573549      1.6867682     -1.6680693      94.579711    
     72140   97.148908      158.5          158.5          158.5         -0.71645039    -1.3794678      1.442561      -2.2124443      97.148908    
     72160   86.725942      158.5          158.5          158.5         -2.2091916     -1.6991416     -1.4270821     -3.501351       86.725942    
     72180   88.528144      158.5          158.5          158.5         -0.89205087    -0.23664542    -2.004908      -0.43459918     88.528144    
     72200   86.696787      158.5          158.5          158.5         -1.160327      -3.1321169     -1.225815       0.87695098     86.696787    
     72220   87.146792      158.5          158.5          158.5          0.48510658    -1.1469678      2.5166794      0.085608154    87.146792    
     72240   83.090498      158.5          158.5          158.5          2.7015224      3.0860455      3.6010393      1.4174824      83.090498    
     72260   84.607794      158.5          158.5          158.5         -1.4992443     -1.8398896     -4.0390906      1.3812474      84.607794    
     72280   86.923956      158.5          158.5          158.5          0.20189441    -0.65782643    -2.0503672      3.3138768      86.923956    
     72300   91.368693      158.5          158.5          158.5          0.80145221     0.44328403     0.42168584     1.5393868      91.368693    
     72320   79.219888      158.5          158.5          158.5         -0.45000095     0.94772334    -1.6887814     -0.60894477     79.219888    
     72340   82.20266       158.5          158.5          158.5         -0.056209952    1.1291659      0.54105681    -1.8388525      82.20266     
     72360   84.934276      158.5          158.5          158.5         -1.2949494     -1.1012241     -0.41661903    -2.367005       84.934276    
     72380   80.736977      158.5          158.5          158.5         -1.2059398     -2.4104357     -0.33771164    -0.86967191     80.736977    
     72400   88.193338      158.5          158.5          158.5         -1.766203      -3.2552101      0.053359203   -2.0967583      88.193338    
     72420   85.091986      158.5          158.5          158.5         -0.19723089    -0.28452476     2.9864571     -3.2936251      85.091986    
     72440   86.932049      158.5          158.5          158.5          1.3497406      3.4723774     -0.10767807     0.68452245     86.932049    
     72460   90.447062      158.5          158.5          158.5          0.58515981     2.4626487      0.44283989    -1.1500092      90.447062    
     72480   91.702915      158.5          158.5          158.5          0.77176515    -1.0922877      3.6406063     -0.23302315     91.702915    
     72500   80.849629      158.5          158.5          158.5          0.80749819     2.0369101     -0.37773633     0.7633208      80.849629    
     72520   90.667688      158.5          158.5          158.5          0.59953006     4.2126462     -1.2486734     -1.1653827      90.667688    
     72540   92.805518      158.5          158.5          158.5         -1.8876695     -2.7812806     -1.6968341     -1.1848939      92.805518    
     72560   90.421445      158.5          158.5          158.5         -0.44791668     0.97896748     0.79484332    -3.1175608      90.421445    
     72580   85.453382      158.5          158.5          158.5          1.2244231      3.60438       -0.28894989     0.3578392      85.453382    
     72600   90.751115      158.5          158.5          158.5         -0.23439408     0.65928718    -1.4856682      0.12319881     90.751115    
     72620   85.272968      158.5          158.5          158.5          1.4241809      0.9972828      1.2121192      2.0631407      85.272968    
     72640   91.217645      158.5          158.5          158.5         -2.5085196     -4.7817751     -1.127583      -1.6162007      91.217645    
     72660   86.720927      158.5          158.5          158.5         -1.9105345     -2.5783548     -2.1190991     -1.0341496      86.720927    
     72680   90.913098      158.5          158.5          158.5          0.0019592901  -0.15806184    -0.58407505     0.74801476     90.913098    
     72700   90.06909       158.5          158.5          158.5         -1.6441798     -3.6518233      2.0297097     -3.3104258      90.06909     
     72720   82.14796       158.5          158.5          158.5          1.146556      -0.49614848     2.5953452      1.3404712      82.14796     
     72740   73.399673      158.5          158.5          158.5         -1.2878687     -2.2765456     -2.7448891      1.1578287      73.399673    
     72760   81.160288      158.5          158.5          158.5          0.33351752    -1.4563548      0.68326081     1.7736466      81.160288    
     72780   76.217022      158.5          158.5          158.5         -0.079744874   -1.3918054      1.2618238     -0.10925299     76.217022    
     72800   73.90833       158.5          158.5          158.5         -2.1134561     -2.119014      -1.2954252     -2.9259291      73.90833     
     72820   82.294795      158.5          158.5          158.5          1.2884938      4.0019759      1.0425408     -1.1790354      82.294795    
     72840   74.620287      158.5          158.5          158.5         -0.52897087    -0.70480808    -1.5217721      0.63966761     74.620287    
     72860   70.610037      158.5          158.5          158.5         -2.6634025     -5.6728949     -2.280211      -0.037101723    70.610037    
     72880   71.711868      158.5          158.5          158.5          0.89896525     1.167502       0.94773264     0.58166112     71.711868    
     72900   80.245208      158.5          158.5          158.5         -1.1307385      1.8724385     -2.2818996     -2.9827543      80.245208    
     72920   88.819497      158.5          158.5          158.5         -0.6146064      0.2588585     -0.9517668     -1.1509109      88.819497    
     72940   68.581122      158.5          158.5          158.5          2.6692527      2.7086228      3.0788644      2.2202707      68.581122    
     72960   79.502784      158.5          158.5          158.5         -0.26976831     3.644703      -1.8132436     -2.6407644      79.502784    
     72980   85.664714      158.5          158.5          158.5          0.71480129     6.0392623     -1.9966002     -1.8982583      85.664714    
     73000   81.154932      158.5          158.5          158.5         -0.96490329    -0.043932966   -3.6495111      0.79873417     81.154932    
     73020   89.204205      158.5          158.5          158.5          1.9531424      2.6962485      1.6247541      1.5384246      89.204205    
     73040   81.090046      158.5          158.5          158.5         -0.1343017      2.1687391      0.78978431    -3.3614285      81.090046    
     73060   91.921624      158.5          158.5          158.5         -2.4760915     -2.5083793     -3.6739387     -1.2459565      91.921624    
     73080   81.661459      158.5          158.5          158.5          2.627866       0.5776329      3.5843986      3.7215666      81.661459    
     73100   93.67647       158.5          158.5          158.5          0.26132146    -1.0143633      2.97962       -1.1812922      93.67647     
     73120   101.31158      158.5          158.5          158.5          0.96187186     0.8643426      2.0400883     -0.018815323    101.31158    
     73140   89.80126       158.5          158.5          158.5          5.0911269      6.3017519      4.4054216      4.5662072      89.80126     
     73160   79.898952      158.5          158.5          158.5         -2.888618      -2.7017849     -3.6563564     -2.3077128      79.898952    
     73180   85.051079      158.5          158.5          158.5         -1.7120348     -3.9389039     -3.3857741      2.1885736      85.051079    
     73200   92.575716      158.5          158.5          158.5          0.23228477    -2.3573978      1.1878757      1.8663764      92.575716    
     73220   92.057616      158.5          158.5          158.5         -2.5410635     -4.3319669     -1.7222951     -1.5689284      92.057616    
     73240   84.519136      158.5          158.5          158.5         -0.073162827   -1.6051455     -2.4718502      3.8575072      84.519136    
     73260   88.839857      158.5          158.5          158.5          2.0393342      0.56511223     3.4751076      2.0777828      88.839857    
     73280   83.097809      158.5          158.5          158.5         -2.7707982     -4.3480465     -1.5303588     -2.4339892      83.097809    
     73300   83.874808      158.5          158.5          158.5          2.2100196      0.80131701     1.2897846      4.5389573      83.874808    
     73320   86.266294      158.5          158.5          158.5          2.5570352      5.5028292      1.4540759      0.71420035     86.266294    
     73340   82.676789      158.5          158.5          158.5         -2.8906189     -1.9181004     -4.7915394     -1.962217       82.676789    
     73360   76.266109      158.5          158.5          158.5          2.9362355      4.2432333     -0.37253882     4.9380121      76.266109    
     73380   83.045781      158.5          158.5          158.5          0.283333       0.36339476     0.49493732    -0.0083330718   83.045781    
     73400   85.731992      158.5          158.5          158.5         -1.1423642     -2.1120569      1.37534       -2.6903757      85.731992    
     73420   83.609178      158.5          158.5          158.5          4.5033968      6.4692941      3.8450984      3.1957979      83.609178    
     73440   82.955228      158.5          158.5          158.5         -3.070342       0.2456553     -4.6481666     -4.8085148      82.955228    
     73460   74.933345      158.5          158.5          158.5         -1.0085681     -0.91492824    -3.9163206      1.8055444      74.933345    
     73480   78.92384       158.5          158.5          158.5          2.7677313      1.8606861      2.102021       4.340487       78.92384     
     73500   80.943554      158.5          158.5          158.5         -4.3012828     -4.5985028     -2.0283884     -6.2769571      80.943554    
     73520   79.265541      158.5          158.5          158.5          1.645442       0.41474772     1.7565684      2.7650099      79.265541    
     73540   87.950963      158.5          158.5          158.5          0.90336768    -0.41291162     2.2972233      0.82579133     87.950963    
     73560   87.643784      158.5          158.5          158.5         -0.11644819    -0.69879327     2.0349218     -1.6854731      87.643784    
     73580   88.884514      158.5          158.5          158.5          2.6831308      2.0699478      2.7295829      3.2498617      88.884514    
     73600   93.309611      158.5          158.5          158.5         -1.9917458     -1.0984327     -3.1404947     -1.73631        93.309611    
     73620   85.388759      158.5          158.5          158.5          0.07358594    -0.11666138    -0.79035255     1.1277717      85.388759    
     73640   90.827911      158.5          158.5          158.5         -1.2834498     -3.6152505      0.34786249    -0.58296125     90.827911    
     73660   93.537573      158.5          158.5          158.5         -0.2352695     -0.26855312     1.0719051     -1.5091604      93.537573    
     73680   102.88628      158.5          158.5          158.5          1.8489596      1.894525       2.629235       1.0231187      102.88628    
     73700   100.70523      158.5          158.5          158.5         -0.84486443    -3.8387218      0.12971461     1.1744138      100.70523    
     73720   93.039514      158.5          158.5          158.5          2.3978804      3.3193397      0.30373091     3.5705705      93.039514    
     73740   88.142676      158.5          158.5          158.5         -2.2371287     -1.0694303     -1.2474308     -4.3945249      88.142676    
     73760   85.631411      158.5          158.5          158.5          1.6956043      0.95928354     2.71936        1.4081693      85.631411    
     73780   105.31612      158.5          158.5          158.5          1.153115       1.985823      -1.621368       3.09489        105.31612    
     73800   92.753394      158.5          158.5          158.5          0.47154027    -1.3829996      2.2652801      0.53234033     92.753394    
     73820   91.036876      158.5          158.5          158.5          3.646805       6.4439313      2.3479399      2.1485437      91.036876    
     73840   82.995309      158.5          158.5          158.5         -2.8885436      0.705299      -6.163081      -3.2078489      82.995309    
     73860   94.643845      158.5          158.5          158.5          0.61414795     1.2340166     -0.23049802     0.83892531     94.643845    
     73880   89.849416      158.5          158.5          158.5         -1.7961568     -2.0694279     -0.97830239    -2.3407401      89.849416    
     73900   88.117773      158.5          158.5          158.5         -0.277138      -0.96997785     0.060062673    0.078501177    88.117773    
     73920   88.557851      158.5          158.5          158.5          5.7890365      5.925472       4.3283675      7.1132701      88.557851    
     73940   89.410956      158.5          158.5          158.5         -2.4010149      0.33891305    -5.4151015     -2.1268563      89.410956    
     73960   88.322268      158.5          158.5          158.5          3.6108222      5.6743346      2.6772887      2.4808433      88.322268    
     73980   80.763872      158.5          158.5          158.5          1.7535413      0.22715487     4.1380418      0.89542727     80.763872    
     74000   89.315504      158.5          158.5          158.5         -2.1887424     -1.7905256     -3.4828702     -1.2928316      89.315504    
     74020   82.673977      158.5          158.5          158.5          5.8164947      5.4146076      3.0488377      8.9860387      82.673977    
     74040   78.35131       158.5          158.5          158.5         -1.6650989     -5.6441123      1.1255562     -0.47674069     78.35131     
     74060   78.853871      158.5          158.5          158.5         -0.7802008     -2.7458165      0.16909105     0.236123       78.853871    
     74080   84.028393      158.5          158.5          158.5          1.9788802      4.7786023     -1.5014706      2.6595089      84.028393    
     74100   80.721329      158.5          158.5          158.5         -3.9741821     -2.7577121     -2.5533059     -6.6115282      80.721329    
     74120   84.61306       158.5          158.5          158.5          0.12891731    -2.2719738      2.9210556     -0.2623298      84.61306     
     74140   80.930678      158.5          158.5          158.5         -0.76407981    -4.0506182     -1.4381609      3.1965396      80.930678    
     74160   73.343772      158.5          158.5          158.5         -4.0555295     -6.7733363     -3.3114808     -2.0817713      73.343772    
     74180   81.881674      158.5          158.5          158.5         -0.55637485    -1.2851128      0.60394466    -0.98795644     81.881674    
     74200   78.139909      158.5          158.5          158.5         -1.7828028     -0.8748109      1.2499867     -5.7235844      78.139909    
     74220   82.373976      158.5          158.5          158.5          0.59846612    -0.26778505     2.7859816     -0.72279818     82.373976    
     74240   71.683781      158.5          158.5          158.5          0.87391013     0.20392968    -1.0702726      3.4880733      71.683781    
     74260   75.310774      158.5          158.5          158.5          0.93432105     1.6950009      0.8546636      0.25329863     75.310774    
     74280   75.489279      158.5          158.5          158.5         -0.38352447    -0.78846619     2.5183932     -2.8805004      75.489279    
     74300   68.252018      158.5          158.5          158.5          0.041853822    0.12250313    -1.5695746      1.5726329      68.252018    
     74320   76.041705      158.5          158.5          158.5          3.8628961      5.6842475      1.2875628      4.6168781      76.041705    
     74340   72.977799      158.5          158.5          158.5         -2.8818699     -1.9310477     -1.7804551     -4.9341069      72.977799    
     74360   78.08127       158.5          158.5          158.5          2.49075        1.7930947      1.7753779      3.9037775      78.08127     
     74380   71.629131      158.5          158.5          158.5          2.6046044      1.8478155      1.0546802      4.9113176      71.629131    
     74400   73.997521      158.5          158.5          158.5         -2.0843941     -3.3063189     -2.6109461     -0.33591714     73.997521    
     74420   73.023458      158.5          158.5          158.5          4.3358687      6.5047877      3.382103       3.1207154      73.023458    
     74440   75.312463      158.5          158.5          158.5         -2.1597566      2.0846391     -4.4864646     -4.0774443      75.312463    
     74460   80.210786      158.5          158.5          158.5         -1.429712      -2.0282199     -2.1424475     -0.11846873     80.210786    
     74480   83.972175      158.5          158.5          158.5          0.31394392    -1.9290478      1.3888056      1.482074       83.972175    
     74500   82.694409      158.5          158.5          158.5         -2.8974609     -0.14301846    -4.0709421     -4.4784221      82.694409    
     74520   87.062908      158.5          158.5          158.5          2.218647       3.808689       0.31594791     2.5313042      87.062908    
     74540   79.15599       158.5          158.5          158.5          2.2877375      1.5094687      2.1533096      3.2004343      79.15599     
     74560   88.250691      158.5          158.5          158.5          0.35589734    -0.27130799     0.83080633     0.50819368     88.250691    
     74580   86.364474      158.5          158.5          158.5          0.31398243    -0.57135327     2.3303254     -0.81702479     86.364474    
     74600   90.383377      158.5          158.5          158.5         -1.8581408     -1.6797183     -0.43552942    -3.4591747      90.383377    
     74620   90.214055      158.5          158.5          158.5         -0.72325715    -1.6246412     -0.54668527     0.0015549729   90.214055    
     74640   87.962076      158.5          158.5          158.5         -2.4093092     -3.1145095     -2.7444992     -1.3689188      87.962076    
     74660   84.318396      158.5          158.5          158.5         -1.5821126     -0.42148635    -2.5012291     -1.8236225      84.318396    
     74680   87.050866      158.5          158.5          158.5         -0.33361314    -0.80929239    -0.02322463    -0.16832241     87.050866    
     74700   79.126203      158.5          158.5          158.5          0.43513227    -2.8675015      3.003229       1.1696694      79.126203    
     74720   91.518964      158.5          158.5          158.5          2.2219222      1.0637874      1.5824143      4.0195651      91.518964    
     74740   86.495078      158.5          158.5          158.5          1.360582       2.2202993      0.2778036      1.5836431      86.495078    
     74760   75.181226      158.5          158.5          158.5          1.4338629      2.9050789      2.2871557     -0.89064574     75.181226    
     74780   81.12062       158.5          158.5          158.5          0.82036585     1.1307889     -0.97715693     2.3074656      81.12062     
     74800   78.932998      158.5          158.5          158.5         -0.89184553    -4.5779459     -1.0010843      2.9034936      78.932998    
     74820   74.50585       158.5          158.5          158.5          0.27677634     0.52373514     2.3905155     -2.0839216      74.50585     
     74840   82.153015      158.5          158.5          158.5          1.1337488      4.9263724     -1.4489189     -0.076207238    82.153015    
     74860   79.200748      158.5          158.5          158.5          0.96997207     0.90302976    -0.92628925     2.9331757      79.200748    
     74880   81.592316      158.5          158.5          158.5         -1.4835409     -3.2525932     -3.8621076      2.664078       81.592316    
     74900   79.137682      158.5          158.5          158.5          0.97333636     4.6484502     -1.4047316     -0.32370951     79.137682    
     74920   84.756454      158.5          158.5          158.5          0.70628099     4.0805253     -0.21894154    -1.7427408      84.756454    
     74940   85.989331      158.5          158.5          158.5         -2.0079236     -3.4295491     -2.6451072      0.050885473    85.989331    
     74960   85.837046      158.5          158.5          158.5          0.19752774    -1.2267755      1.1558593      0.6634994      85.837046    
     74980   89.192574      158.5          158.5          158.5         -1.3793924     -0.82460408     0.11851725    -3.4320905      89.192574    
     75000   86.641127      158.5          158.5          158.5         -3.4962073     -1.9098211     -4.2404174     -4.3383834      86.641127    
     75020   83.450154      158.5          158.5          158.5          0.81790108    -1.293412       0.81534498     2.9317703      83.450154    
     75040   87.590705      158.5          158.5          158.5         -3.8154217     -6.4778767     -1.6270979     -3.3412906      87.590705    
     75060   79.643953      158.5          158.5          158.5          3.5645324      4.7672529      5.0193883      0.90695608     79.643953    
     75080   84.084056      158.5          158.5          158.5          3.0723354      8.1725442      1.9344643     -0.89000235     84.084056    
     75100   76.001927      158.5          158.5          158.5         -3.7672731     -2.9753793     -4.2945556     -4.0318843      76.001927    
     75120   92.504109      158.5          158.5          158.5          2.5729677     -0.22727438     3.8191936      4.1269839      92.504109    
     75140   85.216452      158.5          158.5          158.5         -2.4929576     -4.0521249     -0.2489758     -3.177772       85.216452    
     75160   80.852218      158.5          158.5          158.5          0.13573236     3.1450458      1.1378747     -3.8757234      80.852218    
     75180   86.94907       158.5          158.5          158.5          0.83193659     1.4569071      1.0114982      0.027404524    86.94907     
     75200   78.965456      158.5          158.5          158.5         -2.4098562     -4.2825944     -1.4829216     -1.4640527      78.965456    
     75220   86.666273      158.5          158.5          158.5          0.53652968    -2.4354018      0.49785063     3.5471403      86.666273    
     75240   89.309571      158.5          158.5          158.5         -1.275084      -0.80107164    -3.5725847      0.54840416     89.309571    
     75260   79.071732      158.5          158.5          158.5          0.87517843     3.932114      -0.10647952    -1.2000992      79.071732    
     75280   82.609546      158.5          158.5          158.5          0.33464804     0.24121678    -0.10686885     0.86959618     82.609546    
     75300   81.753482      158.5          158.5          158.5          0.58016199    -2.1575537      0.74342749     3.1546122      81.753482    
     75320   79.710556      158.5          158.5          158.5         -0.35377892     2.2323869     -2.7347938     -0.55892982     79.710556    
     75340   79.967922      158.5          158.5          158.5         -2.8923655     -1.692017      -3.4431708     -3.5419088      79.967922    
     75360   82.562733      158.5          158.5          158.5          1.3363155     -1.3355265      2.2785694      3.0659035      82.562733    
     75380   72.441629      158.5          158.5          158.5         -2.2187743     -3.2036095     -2.5339792     -0.9187342      72.441629    
     75400   74.571561      158.5          158.5          158.5          1.78102        5.9063939      1.2530079     -1.8163418      74.571561    
     75420   71.08688       158.5          158.5          158.5          0.64559575     2.5311449      0.55780717    -1.1521648      71.08688     
     75440   68.105272      158.5          158.5          158.5         -2.3649269     -3.4818325     -2.1577818     -1.4551664      68.105272    
     75460   78.968624      158.5          158.5          158.5          1.0995836      0.10346855     3.537596      -0.34231378     78.968624    
     75480   79.895525      158.5          158.5          158.5          1.1125874      2.4908156      1.4629151     -0.61596842     79.895525    
     75500   86.136465      158.5          158.5          158.5          2.3236074      3.6461161      3.208808       0.11589819     86.136465    
     75520   79.101038      158.5          158.5          158.5          0.78926623    -1.0984624      2.2010909      1.2651701      79.101038    
     75540   86.906831      158.5          158.5          158.5          0.41087409    -0.74418911     1.0486391      0.92817226     86.906831    
     75560   81.170184      158.5          158.5          158.5          0.44940757     2.4979001      0.85590744    -2.0055849      81.170184    
     75580   82.088848      158.5          158.5          158.5         -0.33258875     0.4666623     -0.8968284     -0.56760016     82.088848    
     75600   83.237228      158.5          158.5          158.5          1.0622353     -4.4384137      2.4959905      5.129129       83.237228    
     75620   89.527364      158.5          158.5          158.5         -1.5355159     -2.2530588     -1.50725       -0.84623894     89.527364    
     75640   94.667321      158.5          158.5          158.5         -1.9364802      1.8185837     -4.2159278     -3.4120965      94.667321    
     75660   85.619658      158.5          158.5          158.5         -0.3888298     -1.2583754      0.48200847    -0.39012249     85.619658    
     75680   96.94116       158.5          158.5          158.5         -0.85037115    -4.8519601      0.20868895     2.0921577      96.94116     
     75700   87.789455      158.5          158.5          158.5          0.53802053     2.1872032     -0.98071894     0.40757729     87.789455    
     75720   87.264931      158.5          158.5          158.5          0.66601845     6.0459566     -1.5481324     -2.4997689      87.264931    
     75740   90.091297      158.5          158.5          158.5          0.33374344     1.9192234     -2.9306686      2.0126754      90.091297    
     75760   80.558285      158.5          158.5          158.5         -0.72547494    -3.7867806     -0.92987097     2.5402267      80.558285    
     75780   102.94714      158.5          158.5          158.5         -0.80667213    -1.3643113     -0.40509553    -0.65060955     102.94714    
     75800   85.44114       158.5          158.5          158.5          0.24057751     0.97093153     1.019872      -1.269071       85.44114     
     75820   71.004433      158.5          158.5          158.5         -0.77031601     1.6414771     -1.156025      -2.7964001      71.004433    
     75840   81.487799      158.5          158.5          158.5          1.3452287      3.9663336     -1.6464152      1.7157677      81.487799    
     75860   89.658087      158.5          158.5          158.5          1.3567822      1.7060054      0.8660181      1.4983233      89.658087    
     75880   78.091893      158.5          158.5          158.5         -2.9399712     -3.392573       1.3549866     -6.7823271      78.091893    
     75900   80.323023      158.5          158.5          158.5          3.5466676      2.944233       3.4798048      4.215965       80.323023    
     75920   81.991179      158.5          158.5          158.5         -1.5949832     -2.3101634     -4.4091916      1.9344054      81.991179    
     75940   87.289953      158.5          158.5          158.5         -0.51180657    -2.0971133      1.4828529     -0.92115926     87.289953    
     75960   80.50675       158.5          158.5          158.5          3.2537783      5.000295       3.710792       1.0502479      80.50675     
     75980   81.86931       158.5          158.5          158.5         -3.4943968     -4.6814015     -3.0252388     -2.7765501      81.86931     
     76000   85.881935      158.5          158.5          158.5          2.7530148      0.069084934    4.0482845      4.1416748      85.881935    
     76020   84.386277      158.5          158.5          158.5          1.052884       0.73747076     4.1225311     -1.7013498      84.386277    
     76040   90.026633      158.5          158.5          158.5         -3.0689037     -4.5412405      0.048736669   -4.7142072      90.026633    
     76060   84.932074      158.5          158.5          158.5          2.3469994      2.50771       -0.74375087     5.2770392      84.932074    
     76080   87.784839      158.5          158.5          158.5         -0.028555534    1.4690136     -3.8017192      2.247039       87.784839    
     76100   91.275089      158.5          158.5          158.5         -0.59671751     0.073890872    1.8759902     -3.7400336      91.275089    
     76120   97.530617      158.5          158.5          158.5          0.55592909    -0.92533728     2.4781446      0.11497995     97.530617    
     76140   92.0025        158.5          158.5          158.5         -0.84255715    -2.9988466     -3.4082791      3.8794543      92.0025      
     76160   93.980984      158.5          158.5          158.5         -0.9894804      0.84670285    -2.7339026     -1.0812414      93.980984    
     76180   93.325943      158.5          158.5          158.5         -0.5851935      3.1764937     -0.75455568    -4.1775185      93.325943    
     76200   94.120429      158.5          158.5          158.5         -2.379132      -3.4325527     -1.7647323     -1.9401111      94.120429    
     76220   92.184185      158.5          158.5          158.5         -0.93283745    -4.8308121     -1.2628995      3.2951992      92.184185    
     76240   93.697506      158.5          158.5          158.5         -0.16257013     0.93914713    -0.95636924    -0.47048829     93.697506    
     76260   93.658924      158.5          158.5          158.5          0.78332454     1.9531593      0.0046422807   0.39217203     93.658924    
     76280   80.752478      158.5          158.5          158.5          1.3274374      1.7854559      0.47673263     1.7201238      80.752478    
     76300   83.940566      158.5          158.5          158.5         -1.5864195     -3.813757      -1.2075403      0.26203867     83.940566    
     76320   84.517071      158.5          158.5          158.5         -1.7570855     -1.7844542     -1.8343117     -1.6524907      84.517071    
     76340   83.848484      158.5          158.5          158.5         -1.8796357     -0.23318561    -0.9032549     -4.5024667      83.848484    
     76360   84.410389      158.5          158.5          158.5          0.96148762     1.1011922      2.3280037     -0.54473305     84.410389    
     76380   87.577477      158.5          158.5          158.5          3.6827416      2.5749942      3.8896779      4.5835527      87.577477    
     76400   84.65376       158.5          158.5          158.5          3.0627805      4.4994909      3.6043763      1.0844744      84.65376     
     76420   84.832116      158.5          158.5          158.5          1.6312045      2.8137631      1.674975       0.4048754      84.832116    
     76440   79.228866      158.5          158.5          158.5          0.4502841     -0.026816027   -0.36433703     1.7420054      79.228866    
     76460   76.495099      158.5          158.5          158.5         -2.5011609     -7.128489      -0.92011179     0.54511823     76.495099    
     76480   72.191145      158.5          158.5          158.5          1.0833354     -2.0699845      4.6250953      0.6948954      72.191145    
     76500   82.354508      158.5          158.5          158.5          1.3989261      4.5009168      2.1645423     -2.4686809      82.354508    
     76520   79.6916        158.5          158.5          158.5         -0.81916672    -0.97065518    -0.033103506   -1.4537415      79.6916      
     76540   84.006705      158.5          158.5          158.5          1.2355967      0.075483746    0.037560057    3.5937464      84.006705    
     76560   78.347481      158.5          158.5          158.5          1.1213116      3.0853053      2.0107987     -1.7321692      78.347481    
     76580   88.046917      158.5          158.5          158.5         -2.2454336     -1.531129      -1.678303      -3.5268689      88.046917    
     76600   85.204688      158.5          158.5          158.5          1.7935564      4.5030449     -1.931915       2.8095393      85.204688    
     76620   79.669855      158.5          158.5          158.5         -1.9035407     -1.12253       -3.3195832     -1.2685089      79.669855    
     76640   82.415851      158.5          158.5          158.5         -0.28434566    -1.7788941     -1.4913834      2.4172405      82.415851    
     76660   85.00729       158.5          158.5          158.5          0.40165365     1.3626752     -2.4868441      2.3291299      85.00729     
     76680   87.224645      158.5          158.5          158.5         -1.5833232     -0.51483185    -2.1666968     -2.0684411      87.224645    
     76700   102.14646      158.5          158.5          158.5          0.01218232    -0.77126825    -1.1777108      1.985526       102.14646    
     76720   95.92651       158.5          158.5          158.5         -1.8210067     -1.5424358     -3.6859658     -0.23461835     95.92651     
     76740   89.648705      158.5          158.5          158.5         -0.30538518     2.3318747     -0.80603206    -2.4419982      89.648705    
     76760   93.37653       158.5          158.5          158.5         -2.2397723     -1.8034268     -1.948558      -2.9673319      93.37653     
     76780   97.854972      158.5          158.5          158.5         -3.031815      -7.3311798     -2.2050925      0.44082732     97.854972    
     76800   87.080574      158.5          158.5          158.5         -0.65216383    -1.9597244      0.25050211    -0.24726922     87.080574    
     76820   89.314249      158.5          158.5          158.5         -0.76508473    -1.1895558      2.9829911     -4.0886895      89.314249    
     76840   85.66784       158.5          158.5          158.5         -0.08393788    -1.4209697      1.8098406     -0.64068455     85.66784     
     76860   86.000642      158.5          158.5          158.5         -1.5587909     -3.0453197      1.246571      -2.877624       86.000642    
     76880   80.32327       158.5          158.5          158.5         -0.03047406     0.96774089     1.8359406     -2.8951036      80.32327     
     76900   81.375497      158.5          158.5          158.5          2.9134455      3.5681242      3.7614393      1.410773       81.375497    
     76920   87.25209       158.5          158.5          158.5          1.0408488     -1.33046        3.1957654      1.257241       87.25209     
     76940   86.51504       158.5          158.5          158.5          2.0162695      0.22976348     1.6627615      4.1562836      86.51504     
     76960   90.694796      158.5          158.5          158.5          2.2919282      3.0768084      0.67224924     3.1267271      90.694796    
     76980   70.495492      158.5          158.5          158.5          0.86768236     0.99708627     1.2040358      0.40192504     70.495492    
     77000   82.643794      158.5          158.5          158.5          1.3604206      2.8692197      2.3528807     -1.1408385      82.643794    
     77020   85.569841      158.5          158.5          158.5          0.24633342     2.3111908     -0.53656282    -1.0356277      85.569841    
     77040   68.661959      158.5          158.5          158.5          0.32140149     0.21800646    -0.36741616     1.1136142      68.661959    
     77060   80.74446       158.5          158.5          158.5         -2.1121628     -2.4101186     -0.066790577   -3.8595793      80.74446     
     77080   68.003959      158.5          158.5          158.5         -2.337095      -1.1486222     -3.2042628     -2.6584         68.003959    
     77100   83.193777      158.5          158.5          158.5          0.46249158     0.91892823    -3.0209688      3.4895153      83.193777    
     77120   80.298023      158.5          158.5          158.5         -1.0282967     -1.8549601     -0.21913266    -1.0107973      80.298023    
     77140   84.590492      158.5          158.5          158.5         -0.50069148    -0.45458881     1.5327709     -2.5802565      84.590492    
     77160   81.438636      158.5          158.5          158.5          0.27488725     2.1000087      0.36214746    -1.6374944      81.438636    
     77180   62.513691      158.5          158.5          158.5         -1.3367344      0.019420002   -4.117832       0.088208783    62.513691    
     77200   81.63027       158.5          158.5          158.5         -0.96867987    -2.3855073     -0.040499085   -0.48003324     81.63027     
     77220   82.132893      158.5          158.5          158.5         -2.4251078     -2.5655021      0.2315322     -4.9413536      82.132893    
     77240   84.770485      158.5          158.5          158.5          1.019129       2.7531669     -0.80851816     1.1127384      84.770485    
     77260   79.697688      158.5          158.5          158.5         -0.93366176    -0.94367143    -1.6888039     -0.16850993     79.697688    
     77280   75.047236      158.5          158.5          158.5          1.5855597      0.60642496     2.7514255      1.3988288      75.047236    
     77300   84.583653      158.5          158.5          158.5          1.8521833     -0.54904713     3.5667655      2.5388317      84.583653    
     77320   80.404624      158.5          158.5          158.5         -2.7769111     -4.3330019     -1.9398542     -2.0578773      80.404624    
     77340   86.619851      158.5          158.5          158.5          1.9743336      2.7490193      2.2062788      0.96770267     86.619851    
     77360   82.003315      158.5          158.5          158.5         -0.089917597   -1.3520423      0.25036655     0.83192293     82.003315    
     77380   78.69749       158.5          158.5          158.5          1.0512602     -2.1772577      1.4870217      3.8440165      78.69749     
     77400   86.441959      158.5          158.5          158.5          0.89499461    -0.48118049     2.4269421      0.73922219     86.441959    
     77420   89.656749      158.5          158.5          158.5         -0.50559559     1.9796119     -1.6029376     -1.893461       89.656749    
     77440   88.015822      158.5          158.5          158.5          3.4949668      4.1944689      2.0982982      4.1921332      88.015822    
     77460   89.079491      158.5          158.5          158.5         -2.7078199     -4.3446237     -1.2649378     -2.5138983      89.079491    
     77480   94.947398      158.5          158.5          158.5          0.85560137     1.9059568      0.59909159     0.061755683    94.947398    
     77500   91.625273      158.5          158.5          158.5         -0.11821688     1.9634623      0.80399146    -3.1221044      91.625273    
     77520   99.289753      158.5          158.5          158.5         -4.2424897     -6.6329475     -1.5374593     -4.5570621      99.289753    
     77540   95.702984      158.5          158.5          158.5          4.250223       4.4117269      4.6049371      3.7340049      95.702984    
     77560   87.187748      158.5          158.5          158.5         -3.7537802     -0.12170955    -5.0996324     -6.0399988      87.187748    
     77580   92.3101        158.5          158.5          158.5         -1.2446015      0.29743734    -3.2937278     -0.73751391     92.3101      
     77600   87.042439      158.5          158.5          158.5          1.4874865      2.1149958     -0.24946243     2.5969262      87.042439    
     77620   87.39512       158.5          158.5          158.5         -5.0311333     -6.198075      -4.3420546     -4.5532701      87.39512     
     77640   87.311074      158.5          158.5          158.5          2.1193678      1.978862       3.3825046      0.99673678     87.311074    
     77660   86.145435      158.5          158.5          158.5          0.8060004      2.0935148     -3.1155093      3.4399958      86.145435    
     77680   79.814413      158.5          158.5          158.5         -0.092988021   -0.48516632     0.39548053    -0.18927827     79.814413    
     77700   73.685587      158.5          158.5          158.5         -0.1466108      0.75403875     1.3432132     -2.5370844      73.685587    
     77720   86.28329       158.5          158.5          158.5         -1.0359145     -0.72093703    -3.9784232      1.5916167      86.28329     
     77740   76.89256       158.5          158.5          158.5          1.0289702     -0.41839108    -0.22095906     3.7262608      76.89256     
     77760   83.512667      158.5          158.5          158.5         -1.1689816     -1.6991434     -0.14351686    -1.6642845      83.512667    
     77780   76.10661       158.5          158.5          158.5          2.3337243      2.6903307      4.0923086      0.2185336      76.10661     
     77800   82.321139      158.5          158.5          158.5          1.2133245      1.8793309      1.9495027     -0.1888601      82.321139    
     77820   81.004294      158.5          158.5          158.5          1.0243279      2.0960452      0.11877045     0.85816792     81.004294    
     77840   82.199467      158.5          158.5          158.5          1.366002       1.2230559     -0.14093697     3.0158872      82.199467    
     77860   83.908822      158.5          158.5          158.5          0.35475582    -1.1685609      1.1088249      1.1240034      83.908822    
     77880   80.213187      158.5          158.5          158.5          1.42442        0.57836326     1.8017046      1.8931921      80.213187    
     77900   84.624392      158.5          158.5          158.5         -0.31999465     1.2444468     -2.3376971      0.13326634     84.624392    
     77920   84.088303      158.5          158.5          158.5          1.9314417      1.5076052      2.7761571      1.5105627      84.088303    
     77940   90.134817      158.5          158.5          158.5         -0.53281832    -2.6575542      2.7819474     -1.7228481      90.134817    
     77960   89.865625      158.5          158.5          158.5         -1.3377393      1.8254553     -3.1807581     -2.6579151      89.865625    
     77980   77.694581      158.5          158.5          158.5          0.17701541     2.7759586     -3.3028346      1.0579222      77.694581    
     78000   85.451968      158.5          158.5          158.5         -0.78156335    -1.6099587     -0.0074799593  -0.72725143     85.451968    
     78020   83.135897      158.5          158.5          158.5         -3.5611643     -5.7987588      0.42192301    -5.3066572      83.135897    
     78040   79.325146      158.5          158.5          158.5         -0.5192521      0.74468268    -0.057646618   -2.2447923      79.325146    
     78060   99.9056        158.5          158.5          158.5         -0.46553332     2.2591831     -2.8248095     -0.83097357     99.9056      
     78080   78.831484      158.5          158.5          158.5         -1.291279      -1.8960406     -1.7272246     -0.250572       78.831484    
     78100   88.054091      158.5          158.5          158.5          2.4425691      3.45748        2.2300146      1.6402126      88.054091    
     78120   89.184688      158.5          158.5          158.5          0.038493104    1.4755081      1.0670996     -2.4271284      89.184688    
     78140   80.55733       158.5          158.5          158.5         -2.0072332     -3.5387958     -1.5318205     -0.95108343     80.55733     
     78160   85.537224      158.5          158.5          158.5         -1.8118475     -2.268997      -2.3466419     -0.81990353     85.537224    
     78180   73.157113      158.5          158.5          158.5         -2.4643034     -2.7222715     -1.9915468     -2.679092       73.157113    
     78200   92.073831      158.5          158.5          158.5         -0.81578015    -2.2975957      0.48603833    -0.63578312     92.073831    
     78220   102.50051      158.5          158.5          158.5         -0.33016145    -0.76045978     0.096743571   -0.32676814     102.50051    
     78240   74.755226      158.5          158.5          158.5          0.53431426    -0.25275085    -0.39332285     2.2490165      74.755226    
     78260   81.41969       158.5          158.5          158.5         -0.87767294    -1.0195754     -0.55085039    -1.062593       81.41969     
     78280   77.637682      158.5          158.5          158.5          1.6726249      0.41943086     2.6974225      1.9010213      77.637682    
     78300   78.06676       158.5          158.5          158.5         -1.5980534     -4.2964879      1.4890325     -1.9867048      78.06676     
     78320   75.772442      158.5          158.5          158.5         -2.7155708     -2.0658086     -1.8251153     -4.2557885      75.772442    
     78340   72.861251      158.5          158.5          158.5          2.8234908      2.2704527      2.6723312      3.5276886      72.861251    
     78360   65.897471      158.5          158.5          158.5         -0.83729267    -3.7298546      1.9272415     -0.70926493     65.897471    
     78380   77.295729      158.5          158.5          158.5          1.3220951      1.6923368      1.6786324      0.59531624     77.295729    
     78400   75.245546      158.5          158.5          158.5          2.720143       3.6710883     -0.37277398     4.8621147      75.245546    
     78420   67.446214      158.5          158.5          158.5         -0.84307366    -2.1990985     -0.41282118     0.082698731    67.446214    
     78440   80.120469      158.5          158.5          158.5          0.441593       0.76104741     2.0044883     -1.4407567      80.120469    
     78460   69.934323      158.5          158.5          158.5          0.32878649     1.6869108     -0.15603871    -0.54451265     69.934323    
     78480   67.878063      158.5          158.5          158.5          2.0458391      3.0690591      0.79254708     2.2759112      67.878063    
     78500   69.608129      158.5          158.5          158.5         -0.50821881     0.9114661     -1.7369706     -0.69915191     69.608129    
     78520   75.059518      158.5          158.5          158.5         -1.9663816     -2.010762      -1.9446121     -1.9437708      75.059518    
     78540   79.442871      158.5          158.5          158.5          1.7478835      0.94571992     3.0452788      1.2526516      79.442871    
     78560   72.609651      158.5          158.5          158.5          0.58621895     2.9503529     -1.1421828     -0.04951329     72.609651    
     78580   72.985963      158.5          158.5          158.5          1.3763874      2.155209      -1.7183988      3.692352       72.985963    
     78600   63.679962      158.5          158.5          158.5          1.5313107      0.74710393     3.6886531      0.15817509     63.679962    
     78620   77.370504      158.5          158.5          158.5         -2.4847438     -0.88805603    -1.7744549     -4.7917205      77.370504    
     78640   79.832553      158.5          158.5          158.5          0.58271417    -0.29522416    -1.5232664      3.5666331      79.832553    
     78660   83.540346      158.5          158.5          158.5         -1.8357573     -2.4126879     -2.3877732     -0.70681082     83.540346    
     78680   77.754267      158.5          158.5          158.5          0.10978637     2.5248116      2.1676309     -4.3630835      77.754267    
     78700   67.660341      158.5          158.5          158.5         -0.47499048    -0.96175251     1.1057565     -1.5689754      67.660341    
     78720   82.795558      158.5          158.5          158.5         -3.9135702     -5.9653617     -5.597725      -0.17762386     82.795558    
     78740   75.143461      158.5          158.5          158.5          2.8413777      4.9700231      0.39183678     3.1622732      75.143461    
     78760   78.969653      158.5          158.5          158.5         -1.582792       1.360938       0.62737584    -6.7366899      78.969653    
     78780   77.83065       158.5          158.5          158.5         -2.9145918     -5.1035193     -0.33701469    -3.3032414      77.83065     
     78800   85.481771      158.5          158.5          158.5          1.5281508     -2.9449399      2.7327722      4.79662        85.481771    
     78820   84.19344       158.5          158.5          158.5         -1.0750153     -0.94062639    -0.087544981   -2.1968746      84.19344     
     78840   75.735723      158.5          158.5          158.5          1.9369984      2.0710656      3.4906712      0.24925835     75.735723    
     78860   86.858587      158.5          158.5          158.5          2.0016824      0.79815044     1.7018384      3.5050584      86.858587    
     78880   86.116229      158.5          158.5          158.5         -0.95946564     1.7058021     -1.1133138     -3.4708851      86.116229    
     78900   81.329709      158.5          158.5          158.5          1.0546203      2.3208052      1.0526259     -0.20957014     81.329709    
     78920   82.175754      158.5          158.5          158.5          1.7007734     -0.73333872     1.9132736      3.9223852      82.175754    
     78940   78.013345      158.5          158.5          158.5          0.58067713     0.19294206     1.5476385      0.0014508669   78.013345    
     78960   91.592304      158.5          158.5          158.5         -0.3478483      1.4765569     -0.7424022     -1.7776996      91.592304    
     78980   86.290922      158.5          158.5          158.5          1.1743713      1.6583918      0.4713977      1.3933244      86.290922    
     79000   86.673657      158.5          158.5          158.5         -1.8342576     -3.003155      -2.1127385     -0.38687915     86.673657    
     79020   82.281607      158.5          158.5          158.5          1.4705764      3.1835362      0.62789874     0.60029415     82.281607    
     79040   89.501723      158.5          158.5          158.5          0.19946809     0.74419677    -1.0817179      0.93592543     89.501723    
     79060   79.339366      158.5          158.5          158.5          0.23128273    -1.2355476     -0.10297999     2.0323758      79.339366    
     79080   88.551686      158.5          158.5          158.5          0.5491536      1.2716097     -0.41121647     0.78706753     88.551686    
     79100   77.783682      158.5          158.5          158.5         -3.368416      -1.3503688     -5.6303683     -3.1245108      77.783682    
     79120   79.351599      158.5          158.5          158.5          1.1355116     -1.9549356      4.8270867      0.53438371     79.351599    
     79140   80.047346      158.5          158.5          158.5         -3.699474      -7.3370508     -1.1175342     -2.6438371      80.047346    
     79160   84.316901      158.5          158.5          158.5          0.26801813     2.6360209     -2.6526415      0.82067495     84.316901    
     79180   70.931313      158.5          158.5          158.5          3.2696972      5.9486669      1.757306       2.1031188      70.931313    
     79200   71.218322      158.5          158.5          158.5         -6.9428188     -8.2472852     -6.2096442     -6.371527       71.218322    
     79220   74.540401      158.5          158.5          158.5          6.2388889      4.6366571      7.0075491      7.0724606      74.540401    
     79240   76.793973      158.5          158.5          158.5          0.26161527     1.3389708     -0.89650574     0.34238073     76.793973    
     79260   76.521364      158.5          158.5          158.5         -4.2065334     -0.29453727    -6.1551547     -6.1699083      76.521364    
     79280   78.485307      158.5          158.5          158.5          4.0355189      5.4621063      3.2964456      3.3480046      78.485307    
     79300   72.385265      158.5          158.5          158.5         -4.357158      -5.756197      -2.3587792     -4.9564978      72.385265    
     79320   69.260026      158.5          158.5          158.5          0.79908424     2.3476074      1.5075219     -1.4578766      69.260026    
     79340   73.494635      158.5          158.5          158.5          2.0020914      5.1824132      1.6327259     -0.80886503     73.494635    
     79360   75.010162      158.5          158.5          158.5         -4.3861871     -5.9647175     -2.355514      -4.8383299      75.010162    
     79380   77.820563      158.5          158.5          158.5          0.32354632    -1.5352093      3.058216      -0.55236768     77.820563    
     79400   81.686264      158.5          158.5          158.5         -0.24632533    -0.21644547    -0.41732302    -0.1052075      81.686264    
     79420   75.407673      158.5          158.5          158.5         -1.5271808     -2.2265644     -0.82751984    -1.5274581      75.407673    
     79440   69.801448      158.5          158.5          158.5          0.66078034     1.6809972      2.4987498     -2.1974059      69.801448    
     79460   80.344281      158.5          158.5          158.5         -0.29308941    -1.1135648     -0.85115997     1.0854565      80.344281    
     79480   82.611399      158.5          158.5          158.5          0.079000217   -2.1812748     -1.6595558      4.0778312      82.611399    
     79500   85.245279      158.5          158.5          158.5          0.95635011    -0.05970963    -0.51623358     3.4449936      85.245279    
     79520   86.722839      158.5          158.5          158.5          1.5080576      0.62847131     1.074802       2.8208994      86.722839    
     79540   78.725459      158.5          158.5          158.5         -0.99704748    -0.09888545    -1.2566689     -1.6355881      78.725459    
     79560   81.175104      158.5          158.5          158.5         -1.3095853     -1.7132572     -0.89452911    -1.3209697      81.175104    
     79580   84.800255      158.5          158.5          158.5         -0.43987681    -2.0746598      0.44966588     0.30536346     84.800255    
     79600   94.717527      158.5          158.5          158.5         -0.60711453     1.4057582     -1.5040455     -1.7230563      94.717527    
     79620   84.833782      158.5          158.5          158.5          0.084295377    1.0215597     -1.1305246      0.36185108     84.833782    
     79640   73.556058      158.5          158.5          158.5          0.73866902    -3.1272357      1.7959496      3.5472932      73.556058    
     79660   86.700236      158.5          158.5          158.5          2.3616318      2.815793       1.5222911      2.7468112      86.700236    
     79680   83.178407      158.5          158.5          158.5          1.1993565      5.4479268     -0.80777201    -1.0420854      83.178407    
     79700   68.776204      158.5          158.5          158.5          1.0710028      0.58179538    -0.34175814     2.9729711      68.776204    
     79720   75.892758      158.5          158.5          158.5          0.60562959     0.24043724     1.3639028      0.21254869     75.892758    
     79740   71.153098      158.5          158.5          158.5         -1.0367746     -0.52572259     1.2149208     -3.7995221      71.153098    
     79760   71.553937      158.5          158.5          158.5         -2.8237834     -4.7489516     -1.2407661     -2.4816326      71.553937    
     79780   71.518953      158.5          158.5          158.5         -2.6319465     -2.59224       -1.5792197     -3.7243798      71.518953    
     79800   80.204959      158.5          158.5          158.5         -0.34988936    -1.5675109     -0.013630105    0.53147294     80.204959    
     79820   69.874589      158.5          158.5          158.5          1.2074429     -1.7693173      4.1886772      1.2029687      69.874589    
     79840   73.877919      158.5          158.5          158.5          0.76896851     0.25859537     1.8999214      0.14838878     73.877919    
     79860   70.716329      158.5          158.5          158.5          1.0772667      2.7896988     -1.3693083      1.8114095      70.716329    
     79880   63.407448      158.5          158.5          158.5          1.1549635      2.4905127      0.32078929     0.65358842     63.407448    
     79900   74.793197      158.5          158.5          158.5         -0.60828586    -0.21886686     1.3225015     -2.9284923      74.793197    
     79920   78.15709       158.5          158.5          158.5          1.6381257      4.8374051      0.51300915    -0.43603718     78.15709     
     79940   71.879988      158.5          158.5          158.5          0.62753353     2.5508002     -0.6382929     -0.02990669     71.879988    
     79960   77.894498      158.5          158.5          158.5          0.74678218    -2.0865147      2.5330584      1.7938028      77.894498    
     79980   69.735419      158.5          158.5          158.5          0.040053527   -1.3197227      0.44087368     0.99900964     69.735419    
     80000   81.382607      158.5          158.5          158.5          0.086991448    1.2871936     -0.16413469    -0.86208459     81.382607    
     80020   72.94476       158.5          158.5          158.5          1.0864324      4.1572995     -1.0303916      0.13238924     72.94476     
     80040   75.539798      158.5          158.5          158.5          1.0874565      2.6364005      0.70188604    -0.075917166    75.539798    
     80060   80.531191      158.5          158.5          158.5         -0.95909166    -0.2031677      0.84446689    -3.5185742      80.531191    
     80080   71.759954      158.5          158.5          158.5          0.14915314    -0.99540341     0.95319823     0.48966461     71.759954    
     80100   87.736675      158.5          158.5          158.5         -0.88227836    -0.7368277     -2.9875408      1.0775335      87.736675    
     80120   81.392646      158.5          158.5          158.5         -1.0720114     -1.2017874     -1.5769187     -0.43732826     81.392646    
     80140   78.431228      158.5          158.5          158.5          1.0153033     -1.1160484      1.8079674      2.3539908      78.431228    
     80160   76.297077      158.5          158.5          158.5         -2.340973      -2.5497516     -2.1866882     -2.2864793      76.297077    
     80180   79.046243      158.5          158.5          158.5          0.13671388     0.22579577    -1.7333388      1.9176847      79.046243    
     80200   80.541581      158.5          158.5          158.5          0.30960013    -1.891859      -2.153591       4.9742504      80.541581    
     80220   72.984183      158.5          158.5          158.5         -0.8468941      0.7628445      0.2518551     -3.5553819      72.984183    
     80240   73.838738      158.5          158.5          158.5          2.8912538      5.1457903      4.5710565     -1.0430855      73.838738    
     80260   77.220532      158.5          158.5          158.5         -0.93667543    -2.5492991     -1.5611481      1.300421       77.220532    
     80280   70.20294       158.5          158.5          158.5          2.4785534     -0.27484818     3.3303127      4.3801955      70.20294     
     80300   70.727818      158.5          158.5          158.5         -0.20958321    -0.17751217     1.832341      -2.2835784      70.727818    
     80320   66.352762      158.5          158.5          158.5         -1.8865796     -1.1352326     -1.6821759     -2.8423303      66.352762    
     80340   61.413883      158.5          158.5          158.5          3.3209451      2.6479285      2.8278804      4.4870265      61.413883    
     80360   68.278962      158.5          158.5          158.5          0.39293788     1.5543648      0.10780653    -0.48335774     68.278962    
     80380   69.770292      158.5          158.5          158.5          1.8594179      4.2966492      2.5888219     -1.3072173      69.770292    
     80400   56.209264      158.5          158.5          158.5          0.66177463    -0.55234855     0.56939744     1.968275       56.209264    
     80420   72.319261      158.5          158.5          158.5         -1.9928267     -3.3870634     -2.921127       0.32971023     72.319261    
     80440   66.251486      158.5          158.5          158.5          0.23316597     2.700554      -0.66542521    -1.3356309      66.251486    
     80460   69.838164      158.5          158.5          158.5          1.5460958      2.8591222      1.3857761      0.39338912     69.838164    
     80480   64.134921      158.5          158.5          158.5         -1.1164289     -4.2254736      1.5380127     -0.66182574     64.134921    
     80500   71.568002      158.5          158.5          158.5         -1.4055916     -2.1551141     -0.98145808    -1.0802027      71.568002    
     80520   75.093509      158.5          158.5          158.5          0.31550186     0.43160487    -1.5042335      2.0191342      75.093509    
     80540   67.508915      158.5          158.5          158.5          0.87862926    -0.71429734     1.447859       1.9023261      67.508915    
     80560   74.162813      158.5          158.5          158.5          0.42379004     1.2778894      1.1784849     -1.1850041      74.162813    
     80580   84.322667      158.5          158.5          158.5         -0.15406393     2.3082201     -3.0366044      0.2661925      84.322667    
     80600   75.434515      158.5          158.5          158.5         -0.18481758    -4.2221757      0.70489851     2.9628244      75.434515    
     80620   70.632994      158.5          158.5          158.5         -3.7631741     -8.1881878     -0.70215272    -2.3991818      70.632994    
     80640   80.931449      158.5          158.5          158.5         -3.6315301     -2.8994308     -4.710291      -3.2848686      80.931449    
     80660   73.891308      158.5          158.5          158.5          1.2116583      0.65142496     0.32408144     2.6594686      73.891308    
     80680   77.090774      158.5          158.5          158.5         -2.3129794     -4.8728187     -1.449381      -0.61673842     77.090774    
     80700   80.494776      158.5          158.5          158.5         -0.73866199     0.87704476    -1.0777006     -2.0153301      80.494776    
     80720   76.865701      158.5          158.5          158.5          1.7438208      3.9200363      1.150576       0.16085011     76.865701    
     80740   84.747669      158.5          158.5          158.5         -2.0419139     -2.354551      -2.5050152     -1.2661755      84.747669    
     80760   83.14933       158.5          158.5          158.5          2.8086852      1.6208401      1.6056411      5.1995743      83.14933     
     80780   79.453103      158.5          158.5          158.5          3.3836469      4.17616        3.3500096      2.6247709      79.453103    
     80800   87.954275      158.5          158.5          158.5         -1.1077451     -0.46283989    -0.21178444    -2.6486111      87.954275    
     80820   77.241386      158.5          158.5          158.5          1.9045949      1.3755095      2.6495523      1.6887229      77.241386    
     80840   91.483894      158.5          158.5          158.5         -2.6101536     -0.53113415    -4.6329308     -2.6663959      91.483894    
     80860   80.703979      158.5          158.5          158.5          0.61747965     4.0546331     -0.48278064    -1.7194135      80.703979    
     80880   92.123661      158.5          158.5          158.5          1.5712492      2.2534873      2.7222652     -0.26200502     92.123661    
     80900   89.397108      158.5          158.5          158.5         -0.28916701     2.4019304     -0.8731075     -2.3963239      89.397108    
     80920   88.397643      158.5          158.5          158.5          3.7565248      3.1473129      4.5154593      3.6068023      88.397643    
     80940   86.449491      158.5          158.5          158.5         -0.53143748    -2.8218568      1.2358208     -0.0082764289   86.449491    
     80960   93.265603      158.5          158.5          158.5         -0.25442145    -0.026465616    0.86855921    -1.6053579      93.265603    
     80980   85.367485      158.5          158.5          158.5         -1.0547835     -1.072887      -0.43085321    -1.6606103      85.367485    
     81000   101.96589      158.5          158.5          158.5         -0.78608673    -2.0700377     -0.76578929     0.47756682     101.96589    
     81020   92.454872      158.5          158.5          158.5          2.3986271     -0.64997155     5.1102301      2.7356228      92.454872    
     81040   92.298702      158.5          158.5          158.5         -0.63561027    -1.0229921      0.70166943    -1.5855082      92.298702    
     81060   80.151115      158.5          158.5          158.5          1.6407733      1.4256499      3.0759364      0.42073362     80.151115    
     81080   97.352645      158.5          158.5          158.5          0.39874943    -3.8040548      1.3062396      3.6940635      97.352645    
     81100   87.459166      158.5          158.5          158.5         -3.7465396     -5.044336      -6.0970564     -0.09822633     87.459166    
     81120   78.805888      158.5          158.5          158.5         -0.45348754     0.64471395    -1.2049204     -0.80025622     78.805888    
     81140   76.867516      158.5          158.5          158.5         -1.6223388     -3.2188811      0.65798325    -2.3061186      76.867516    
     81160   78.830542      158.5          158.5          158.5          0.12509546    -0.4400385     -0.88934215     1.704667       78.830542    
     81180   80.628676      158.5          158.5          158.5          1.5864223      1.3146479     -0.67390307     4.1185221      80.628676    
     81200   85.688637      158.5          158.5          158.5         -4.1940997     -3.634463      -2.5153413     -6.4324946      85.688637    
     81220   65.417089      158.5          158.5          158.5          1.6460665      2.5453208      3.3946703     -1.0017916      65.417089    
     81240   79.548611      158.5          158.5          158.5          0.48997261    -0.70403684    -0.048941455    2.2228961      79.548611    
     81260   75.693025      158.5          158.5          158.5         -3.5939958     -4.8098968     -4.6863018     -1.2857889      75.693025    
     81280   78.612746      158.5          158.5          158.5          3.4883071      4.5455884      1.3512873      4.5680456      78.612746    
     81300   75.076869      158.5          158.5          158.5          0.35505463     3.1680327     -1.0126706     -1.0901982      75.076869    
     81320   80.119894      158.5          158.5          158.5         -0.53103238    -0.53279414     1.9301109     -2.9904139      80.119894    
     81340   75.999429      158.5          158.5          158.5          2.130614       4.7111531     -1.3264592      3.007148       75.999429    
     81360   77.928999      158.5          158.5          158.5          0.68869524     3.9537581     -3.4188318      1.5311594      77.928999    
     81380   75.861513      158.5          158.5          158.5          0.84717846    -1.659354       5.0540114     -0.85312199     75.861513    
     81400   70.160718      158.5          158.5          158.5          1.9595842     -0.4111665      3.7392567      2.5506625      70.160718    
     81420   79.663716      158.5          158.5          158.5          0.062921031    2.6340699     -3.2958341      0.85052726     79.663716    
     81440   68.779793      158.5          158.5          158.5         -1.864737       1.1400934     -1.4164967     -5.3178076      68.779793    
     81460   89.090787      158.5          158.5          158.5         -0.91305927    -2.2701848      2.3587582     -2.8277512      89.090787    
     81480   78.373039      158.5          158.5          158.5         -0.66395245    -2.7124812      0.48125493     0.23936888     78.373039    
     81500   82.825836      158.5          158.5          158.5          0.85968571     1.9019112     -2.6936804      3.3708263      82.825836    
     81520   81.235725      158.5          158.5          158.5          2.5584052      4.7535234     -0.34531851     3.2670108      81.235725    
     81540   89.293657      158.5          158.5          158.5         -2.2886918     -3.5709993     -0.46756262    -2.8275134      89.293657    
     81560   83.207501      158.5          158.5          158.5          2.325545       1.3997317      2.6247171      2.9521863      83.207501    
     81580   90.843716      158.5          158.5          158.5         -4.1569775     -3.5874008     -5.4314655     -3.4520663      90.843716    
     81600   83.098052      158.5          158.5          158.5         -0.050854279    0.64190154    -0.66624806    -0.12821632     83.098052    
     81620   91.249004      158.5          158.5          158.5          2.6421712     -0.14403671     3.7374487      4.3331016      91.249004    
     81640   84.132868      158.5          158.5          158.5         -2.3571415     -5.3145741     -1.7121184     -0.044731994    84.132868    
     81660   82.956165      158.5          158.5          158.5          3.347126       2.9853792      2.3089673      4.7470314      82.956165    
     81680   86.579073      158.5          158.5          158.5         -3.2277825     -5.6813861     -1.11573       -2.8862314      86.579073    
     81700   77.02054       158.5          158.5          158.5         -2.6720916     -4.3489771     -0.3061559     -3.3611417      77.02054     
     81720   79.520389      158.5          158.5          158.5          2.9242485      2.6144727      5.071488       1.0867848      79.520389    
     81740   86.330207      158.5          158.5          158.5         -5.6269018     -6.2605486     -3.1594035     -7.4607533      86.330207    
     81760   85.955296      158.5          158.5          158.5          1.8705164      1.7955498      2.8324383      0.98356119     85.955296    
     81780   80.900867      158.5          158.5          158.5          0.43481022     1.4452846      1.8603893     -2.0012433      80.900867    
     81800   80.070349      158.5          158.5          158.5          0.094476023    1.0639221      1.1236        -1.904094       80.070349    
     81820   83.096352      158.5          158.5          158.5          1.3814353      2.529753      -0.15931951     1.7738723      83.096352    
     81840   71.77233       158.5          158.5          158.5         -1.6030359     -0.42058237    -2.318215      -2.0703104      71.77233     
     81860   73.486508      158.5          158.5          158.5         -0.0018289754  -0.19211878     0.46312884    -0.27649698     73.486508    
     81880   80.294354      158.5          158.5          158.5         -0.006045015    0.16476381     1.2618709     -1.4447698      80.294354    
     81900   77.395884      158.5          158.5          158.5         -1.0223121     -0.76301407    -0.96122232    -1.3427         77.395884    
     81920   74.600523      158.5          158.5          158.5         -1.6210585     -2.7959713     -2.6307274      0.56352313     74.600523    
     81940   69.50223       158.5          158.5          158.5         -1.1840578     -2.0554835     -2.3822411      0.8855512      69.50223     
     81960   71.869302      158.5          158.5          158.5         -0.17601398     2.6004225     -1.0633553     -2.0651092      71.869302    
     81980   65.191985      158.5          158.5          158.5         -1.1854802      1.2562882     -5.1918993      0.37917044     65.191985    
     82000   81.767547      158.5          158.5          158.5          1.3699099      1.3744977     -2.5727619      5.307994       81.767547    
     82020   82.890005      158.5          158.5          158.5          0.97357625     2.7008324     -1.0388259      1.2587222      82.890005    
     82040   79.304052      158.5          158.5          158.5          0.48281153     2.4819467     -1.4299368      0.3964247      79.304052    
     82060   80.019357      158.5          158.5          158.5          0.146982      -1.0565986     -0.11025363     1.6077983      80.019357    
     82080   75.026999      158.5          158.5          158.5          0.090879999   -1.2897151     -0.15472176     1.7170768      75.026999    
     82100   81.638708      158.5          158.5          158.5         -0.20103749     1.5390794     -1.7032134     -0.43897849     81.638708    
     82120   80.486105      158.5          158.5          158.5         -0.099027563   -0.90233188     1.1979058     -0.59265665     80.486105    
     82140   80.643393      158.5          158.5          158.5          1.5841582      0.46584076     1.8038815      2.4827523      80.643393    
     82160   85.897806      158.5          158.5          158.5          1.0165119      2.3302488      1.1367729     -0.41748594     85.897806    
     82180   77.460798      158.5          158.5          158.5         -1.3217923     -2.9774023      0.19473656    -1.1827113      77.460798    
     82200   96.418174      158.5          158.5          158.5          0.18676417     1.2667682      1.1627458     -1.8692216      96.418174    
     82220   81.99442       158.5          158.5          158.5          3.0190446      6.0991708      4.4354019     -1.477439       81.99442     
     82240   104.75566      158.5          158.5          158.5         -1.172883      -1.2558167     -1.3484249     -0.91440738     104.75566    
     82260   91.89974       158.5          158.5          158.5          1.5748406      0.06706378     1.506237       3.1512209      91.89974     
     82280   105.70934      158.5          158.5          158.5          1.9970335     -0.061185435    3.8929263      2.1593595      105.70934    
     82300   93.526834      158.5          158.5          158.5         -1.174071      -2.1091335      0.83880256    -2.2518819      93.526834    
     82320   102.12676      158.5          158.5          158.5          2.4045742     -0.57470287     3.8599669      3.9284587      102.12676    
     82340   91.039587      158.5          158.5          158.5         -1.0910774      1.510915      -2.4149163     -2.3692308      91.039587    
     82360   92.440545      158.5          158.5          158.5          1.5710424      8.036201       0.76701166    -4.0900856      92.440545    
     82380   98.785272      158.5          158.5          158.5         -0.043020104   -0.50773527    -0.74749926     1.1261742      98.785272    
     82400   96.336182      158.5          158.5          158.5          0.087831343   -2.0824772     -2.3188288      4.6648001      96.336182    
     82420   79.70154       158.5          158.5          158.5          1.2950201      4.2362258      0.0085649535  -0.35973029     79.70154     
     82440   104.83427      158.5          158.5          158.5         -2.0580769     -1.4300349     -1.0984205     -3.6457753      104.83427    
     82460   88.579981      158.5          158.5          158.5         -2.4957922     -7.5255133     -1.8012278      1.8393646      88.579981    
     82480   90.643015      158.5          158.5          158.5         -4.2693178     -6.8328627     -5.1071308     -0.86796007     90.643015    
     82500   79.017303      158.5          158.5          158.5         -1.9022731     -1.1963746     -3.4797302     -1.0307146      79.017303    
     82520   80.626827      158.5          158.5          158.5         -0.99294772     0.59851805    -3.0363553     -0.54100596     80.626827    
     82540   80.897433      158.5          158.5          158.5          1.4575673     -0.25704223     1.9954979      2.6342462      80.897433    
     82560   72.10035       158.5          158.5          158.5          2.8597173      2.1329163      4.0543235      2.3919121      72.10035     
     82580   85.163709      158.5          158.5          158.5         -4.220699      -1.9678368     -6.8500137     -3.8442465      85.163709    
     82600   73.305114      158.5          158.5          158.5          2.9597145      3.2620092      1.6545811      3.9625532      73.305114    
     82620   73.389698      158.5          158.5          158.5         -0.20946038    -2.0753661      2.40408       -0.95709503     73.389698    
     82640   71.258146      158.5          158.5          158.5         -1.7473791     -4.0576902     -1.0819976     -0.10244964     71.258146    
     82660   81.48331       158.5          158.5          158.5          3.9356318      4.1967934      4.0610946      3.5490074      81.48331     
     82680   73.662046      158.5          158.5          158.5         -4.6323012     -2.6930651     -3.5065892     -7.6972493      73.662046    
     82700   83.345676      158.5          158.5          158.5          0.25282986    -1.6696925     -0.094613583    2.5227957      83.345676    
     82720   76.868042      158.5          158.5          158.5          4.1278308      2.0110357      6.5281078      3.8443489      76.868042    
     82740   88.916532      158.5          158.5          158.5         -0.50967154     1.7117429      0.66571176    -3.9064693      88.916532    
     82760   81.74812       158.5          158.5          158.5          4.3235277      5.3135996      2.4385658      5.2184176      81.74812     
     82780   87.582511      158.5          158.5          158.5          0.71649741    -1.2165699      1.2911903      2.0748718      87.582511    
     82800   74.851375      158.5          158.5          158.5         -4.064894      -6.8912908     -1.119321      -4.1840702      74.851375    
     82820   81.187137      158.5          158.5          158.5          3.319863       2.3038265      3.6193712      4.0363913      81.187137    
     82840   75.578634      158.5          158.5          158.5          0.14155428     0.15733799    -0.9819682      1.2492931      75.578634    
     82860   102.95125      158.5          158.5          158.5          0.42622502    -0.57852693    -1.1982674      3.0554694      102.95125    
     82880   88.920978      158.5          158.5          158.5          2.7719238      5.0517261      0.12360464     3.1404408      88.920978    
     82900   97.333856      158.5          158.5          158.5         -4.0522396     -3.0109701     -2.4127572     -6.7329914      97.333856    
     82920   84.597579      158.5          158.5          158.5         -0.91774916    -3.012962       0.6645911     -0.40487663     84.597579    
     82940   88.135568      158.5          158.5          158.5          0.45513338     0.36511849    -1.970724       2.9710056      88.135568    
     82960   91.741411      158.5          158.5          158.5          0.16102307     1.0379712      0.56429303    -1.119195       91.741411    
     82980   95.678719      158.5          158.5          158.5          0.49919552     1.5129855      0.46069588    -0.47609482     95.678719    
     83000   86.082577      158.5          158.5          158.5         -0.23132227     1.3875396     -2.0012541     -0.080252247    86.082577    
     83020   105.02522      158.5          158.5          158.5         -3.3883479     -2.5961556     -1.7619288     -5.8069591      105.02522    
     83040   88.776485      158.5          158.5          158.5         -0.22281704     1.0293116      1.5633074     -3.2610701      88.776485    
     83060   90.564499      158.5          158.5          158.5          3.3031631      4.0216754      3.6588729      2.228941       90.564499    
     83080   93.830305      158.5          158.5          158.5         -1.5304634     -2.994414       0.23593367    -1.83291        93.830305    
     83100   92.102766      158.5          158.5          158.5          3.8990068      5.6851368      3.4911693      2.5207142      92.102766    
     83120   78.881648      158.5          158.5          158.5         -0.61865517    -0.61897799    -1.3999106      0.16292306     78.881648    
     83140   94.767255      158.5          158.5          158.5         -4.891533      -6.9274714     -1.7964145     -5.9507131      94.767255    
     83160   86.74735       158.5          158.5          158.5          4.8331187      3.6698646      6.9808376      3.848654       86.74735     
     83180   85.714667      158.5          158.5          158.5          0.90949005     2.075556      -0.5651456      1.2180598      85.714667    
     83200   86.6369        158.5          158.5          158.5          1.0099959      0.19182752     0.8119674      2.0261927      86.6369      
     83220   85.618411      158.5          158.5          158.5          4.9891647      3.7552111      7.6917932      3.5204899      85.618411    
     83240   75.896976      158.5          158.5          158.5         -1.8722239     -3.7634836     -1.0716151     -0.78157286     75.896976    
     83260   79.46656       158.5          158.5          158.5         -2.1350721     -2.9933183     -4.191151       0.77925285     79.46656     
     83280   76.641167      158.5          158.5          158.5         -0.013346898   -1.0057289     -0.89590362     1.8615919      76.641167    
     83300   81.476837      158.5          158.5          158.5         -3.7565917     -4.0235531     -1.9978231     -5.248399       81.476837    
     83320   77.091661      158.5          158.5          158.5          1.8923039      1.3366155      0.25690393     4.0833923      77.091661    
     83340   78.146857      158.5          158.5          158.5          1.0961724      1.8488968     -0.97764508     2.4172654      78.146857    
     83360   77.531952      158.5          158.5          158.5         -1.2993955      0.85351502    -1.4192707     -3.3324309      77.531952    
     83380   81.539875      158.5          158.5          158.5          2.2507241      0.25632202     2.9859425      3.5099079      81.539875    
     83400   79.699889      158.5          158.5          158.5         -0.90647678    -2.8344379     -1.0284436      1.1434511      79.699889    
     83420   74.701488      158.5          158.5          158.5          0.39986801     3.1342797     -0.2520469     -1.6826287      74.701488    
     83440   78.127505      158.5          158.5          158.5         -0.28471116     0.26083979    -0.5450297     -0.56994358     78.127505    
     83460   75.802885      158.5          158.5          158.5         -2.7262525     -5.8550569     -1.2307359     -1.0929646      75.802885    
     83480   81.780648      158.5          158.5          158.5         -1.7893883     -1.9356329     -1.0294063     -2.4031256      81.780648    
     83500   84.013805      158.5          158.5          158.5         -0.18651011     2.7950562     -1.8099977     -1.5445888      84.013805    
     83520   91.245922      158.5          158.5          158.5          0.1259543      2.4131326     -2.0310819     -0.0041878166   91.245922    
     83540   90.520623      158.5          158.5          158.5         -0.69922645    -0.42623109    -0.55071996    -1.1207283      90.520623    
     83560   89.541298      158.5          158.5          158.5         -0.69517002    -1.7729868      1.6405311     -1.9530543      89.541298    
     83580   85.644336      158.5          158.5          158.5          0.30352347     0.77013504     1.3629455     -1.2225102      85.644336    
     83600   93.190413      158.5          158.5          158.5         -0.28107948    -0.24603483    -1.4017423      0.80453865     93.190413    
     83620   93.21384       158.5          158.5          158.5         -2.2248612     -4.79937       -1.3765593     -0.49865408     93.21384     
     83640   83.314265      158.5          158.5          158.5          0.19552282    -3.7448699      3.4214016      0.91003672     83.314265    
     83660   89.022675      158.5          158.5          158.5          0.31389539     0.78398248    -0.49616612     0.65386981     89.022675    
     83680   85.23332       158.5          158.5          158.5         -2.8226541     -3.5650918     -4.6685648     -0.23430559     85.23332     
     83700   95.082477      158.5          158.5          158.5          3.1250267      1.0100775      2.6391366      5.7258661      95.082477    
     83720   96.190026      158.5          158.5          158.5          0.47413092     0.21550145     0.22997615     0.97691515     96.190026    
     83740   88.015063      158.5          158.5          158.5         -1.1675451     -0.10263614     0.11526253    -3.5152618      88.015063    
     83760   92.114816      158.5          158.5          158.5          1.0333957      1.7767052     -0.57073114     1.894213       92.114816    
     83780   78.356187      158.5          158.5          158.5         -1.7926404     -3.8244725     -3.2378093      1.6843606      78.356187    
     83800   82.99436       158.5          158.5          158.5         -1.6054866     -3.4398233      0.1702852     -1.5469217      82.99436     
     83820   94.006291      158.5          158.5          158.5         -1.0511081      1.7474867     -1.2361568     -3.6646542      94.006291    
     83840   79.446384      158.5          158.5          158.5          1.3053145      1.4988844      0.61967896     1.7973802      79.446384    
     83860   78.914916      158.5          158.5          158.5          1.0000478     -0.61786042     1.1561431      2.4618608      78.914916    
     83880   80.496986      158.5          158.5          158.5         -0.49663985     2.4848841     -1.9467193     -2.0280843      80.496986    
     83900   74.158818      158.5          158.5          158.5          0.82647907     5.3564508      0.072101234   -2.9491148      74.158818    
     83920   76.956235      158.5          158.5          158.5          0.0055728943  -1.7055558      1.5843354      0.13793903     76.956235    
     83940   86.378888      158.5          158.5          158.5         -0.39670762    -2.409699      -0.84951539     2.0690915      86.378888    
     83960   81.78421       158.5          158.5          158.5          1.7628093      7.3323681     -0.26659739    -1.7773427      81.78421     
     83980   81.159645      158.5          158.5          158.5          0.17552631     1.6818262      0.74020645    -1.8954537      81.159645    
     84000   79.397156      158.5          158.5          158.5          1.648191      -3.1397182      2.9394932      5.144798       79.397156    
     84020   78.339912      158.5          158.5          158.5         -0.089622585   -3.5263552      0.56732062     2.6901668      78.339912    
     84040   88.468594      158.5          158.5          158.5         -2.6420882     -3.0754562     -1.9751437     -2.8756648      88.468594    
     84060   77.108491      158.5          158.5          158.5          0.430562       0.85370975     1.8132559     -1.3752796      77.108491    
     84080   78.489157      158.5          158.5          158.5          0.7107547     -1.9143045      1.7338709      2.3126977      78.489157    
     84100   78.168439      158.5          158.5          158.5         -3.1282027     -3.3829911     -3.7518068     -2.2498103      78.168439    
     84120   86.91398       158.5          158.5          158.5          2.5397052      5.6386575     -0.24633604     2.2267943      86.91398     
     84140   80.441554      158.5          158.5          158.5         -1.0687307     -1.728052      -0.19498855    -1.2831515      80.441554    
     84160   86.569791      158.5          158.5          158.5         -1.2751809     -4.4353993      0.23125976     0.37859695     86.569791    
     84180   84.406127      158.5          158.5          158.5          2.9587146      2.7328048      3.0434149      3.0999243      84.406127    
     84200   87.582274      158.5          158.5          158.5         -1.4399683      0.49234203    -2.2756559     -2.5365908      87.582274    
     84220   86.798029      158.5          158.5          158.5          2.0188988      0.88881015     2.0301304      3.1377559      86.798029    
     84240   97.085208      158.5          158.5          158.5         -0.29229241    -1.8916906      0.89727874     0.11753467     97.085208    
     84260   89.42495       158.5          158.5          158.5         -0.57922122     1.8502491     -0.70106833    -2.8868444      89.42495     
     84280   84.502465      158.5          158.5          158.5          3.1630245      4.2263071      1.128147       4.1346194      84.502465    
     84300   85.292075      158.5          158.5          158.5         -0.50493909    -2.4910575      0.021956361    0.95428385     85.292075    
     84320   90.145107      158.5          158.5          158.5         -0.62514831     0.97668696    -0.24377688    -2.608355       90.145107    
     84340   93.295293      158.5          158.5          158.5         -0.25272602     1.7075453     -1.6314572     -0.83426616     93.295293    
     84360   92.099793      158.5          158.5          158.5          0.72999866     1.2378891      0.054384349    0.89772253     92.099793    
     84380   89.429458      158.5          158.5          158.5         -0.24883645     0.045603305    0.54252162    -1.3346343      89.429458    
     84400   89.681934      158.5          158.5          158.5         -0.24050362     0.46017553    -0.67717705    -0.50450933     89.681934    
     84420   83.22817       158.5          158.5          158.5         -0.81902635    -1.7801374     -1.9442108      1.2672692      83.22817     
     84440   99.480396      158.5          158.5          158.5         -4.0585752     -6.8567931     -2.0944566     -3.224476       99.480396    
     84460   87.098047      158.5          158.5          158.5         -1.009855      -3.7893426      1.1908663     -0.43108861     87.098047    
     84480   94.9301        158.5          158.5          158.5         -0.6398947     -0.66554966    -0.9762642     -0.27787024     94.9301      
     84500   88.573186      158.5          158.5          158.5          1.0806003      1.5712587      2.0213564     -0.35081432     88.573186    
     84520   85.416302      158.5          158.5          158.5          0.72783445     1.0412275      0.93125534     0.21102053     85.416302    
     84540   85.468331      158.5          158.5          158.5          2.233831       4.1657074     -2.0460863      4.5818721      85.468331    
     84560   80.608121      158.5          158.5          158.5         -0.96929854    -0.013742698   -0.95590857    -1.9382443      80.608121    
     84580   80.882421      158.5          158.5          158.5          0.6291996     -2.2189007      3.8097022      0.29679726     80.882421    
     84600   87.398667      158.5          158.5          158.5         -1.0664043     -3.6295376      0.30574564     0.12457907     87.398667    
     84620   88.295658      158.5          158.5          158.5         -0.73575279    -1.1683343     -2.6282506      1.5893265      88.295658    
     84640   81.581433      158.5          158.5          158.5          1.7993073      3.1221507     -0.053072874    2.3288441      81.581433    
     84660   89.258813      158.5          158.5          158.5         -0.28880953     2.8611401      0.80599867    -4.5335674      89.258813    
     84680   80.910562      158.5          158.5          158.5          2.2330728      4.6975046      2.3784881     -0.37677411     80.910562    
     84700   83.125692      158.5          158.5          158.5          0.77522133     3.2221436     -3.4078289      2.5113493      83.125692    
     84720   82.617697      158.5          158.5          158.5          2.8436931      4.327239       1.4248361      2.7790042      82.617697    
     84740   89.041983      158.5          158.5          158.5          2.0693754     -0.29117592     6.4133126      0.085989518    89.041983    
     84760   82.579294      158.5          158.5          158.5         -3.1062986     -5.7551686     -4.4552124      0.89148506     82.579294    
     84780   92.732657      158.5          158.5          158.5          0.055103079   -0.1961451     -1.4882648      1.8497191      92.732657    
     84800   83.30988       158.5          158.5          158.5         -2.219348      -2.3823171      0.051646621   -4.3273735      83.30988     
     84820   85.779507      158.5          158.5          158.5         -0.39177906    -0.98565912     0.15640837    -0.34608643     85.779507    
     84840   85.24112       158.5          158.5          158.5          2.1690693      1.3079733      3.8727582      1.3264766      85.24112     
     84860   88.062613      158.5          158.5          158.5         -0.35341919     0.86259761     0.10263903    -2.0254942      88.062613    
     84880   83.80916       158.5          158.5          158.5         -1.2107614      0.41486615    -2.1370884     -1.910062       83.80916     
     84900   101.25667      158.5          158.5          158.5          0.59249208     1.1946118      2.1421182     -1.5592537      101.25667    
     84920   87.669213      158.5          158.5          158.5          0.7439157     -0.11145754     3.7136222     -1.3704175      87.669213    
     84940   109.08085      158.5          158.5          158.5         -2.7370327     -6.0542342     -2.4889274      0.33206336     109.08085    
     84960   93.295067      158.5          158.5          158.5          0.57950655    -2.9651429      0.52498533     4.1786772      93.295067    
     84980   98.419691      158.5          158.5          158.5         -0.93616709    -2.6772834      2.3401439     -2.4713618      98.419691    
     85000   89.134193      158.5          158.5          158.5         -1.146653      -0.44594432     0.30505857    -3.2990733      89.134193    
     85020   97.205841      158.5          158.5          158.5          0.66426443     3.1264629     -2.0981409      0.96447129     97.205841    
     85040   96.564766      158.5          158.5          158.5         -3.1182393     -1.9506961     -6.1980947     -1.2059272      96.564766    
     85060   86.70342       158.5          158.5          158.5          2.775679       3.3657105      1.7236429      3.2376837      86.70342     
     85080   94.041502      158.5          158.5          158.5         -0.13829546     3.3336414     -0.77137078    -2.977157       94.041502    
     85100   89.798822      158.5          158.5          158.5         -0.035403644    1.5330174     -1.8703128      0.23108453     89.798822    
     85120   73.486105      158.5          158.5          158.5          2.9968321      4.2604018      0.53856619     4.1915282      73.486105    
     85140   89.087349      158.5          158.5          158.5         -2.2720982     -1.932639      -1.5941626     -3.2894929      89.087349    
     85160   83.807099      158.5          158.5          158.5         -0.53910048    -1.7085696      0.015780881    0.075487269    83.807099    
     85180   77.341457      158.5          158.5          158.5         -1.0569118     -0.42772499    -2.4131708     -0.32983957     77.341457    
     85200   76.627623      158.5          158.5          158.5         -2.0828721     -2.1513352     -1.624662      -2.472619       76.627623    
     85220   84.901128      158.5          158.5          158.5          0.34491273    -1.2438608      1.3341854      0.94441361     84.901128    
     85240   75.734594      158.5          158.5          158.5          0.39751759     0.11505052     1.6556821     -0.5781799      75.734594    
     85260   86.304646      158.5          158.5          158.5         -0.39946407    -0.012825309   -0.044873951   -1.1406929      86.304646    
     85280   84.55204       158.5          158.5          158.5         -0.15992245     0.29217308    -1.8928716      1.1209312      84.55204     
     85300   74.785362      158.5          158.5          158.5          3.109441       2.4755705      4.0914201      2.7613325      74.785362    
     85320   75.367864      158.5          158.5          158.5         -0.26372283    -1.9036156      0.8935829      0.21886419     75.367864    
     85340   83.169401      158.5          158.5          158.5         -1.1596864     -1.3735045     -4.1933859      2.0878311      83.169401    
     85360   80.255518      158.5          158.5          158.5          1.0189572      0.68663014     1.6024314      0.76781005     80.255518    
     85380   80.040593      158.5          158.5          158.5         -0.014870018   -1.8966976      3.9961449     -2.1440574      80.040593    
     85400   79.417594      158.5          158.5          158.5         -0.81865593    -2.2454819     -1.484932       1.2744461      79.417594    
     85420   80.030297      158.5          158.5          158.5          1.7468108      1.1367811     -0.98655494     5.0902062      80.030297    
     85440   78.900302      158.5          158.5          158.5         -2.4898838     -3.2502132     -0.29256511    -3.926873       78.900302    
     85460   72.513887      158.5          158.5          158.5         -0.83412939    -1.6668428     -0.18978647    -0.64575888     72.513887    
     85480   86.634677      158.5          158.5          158.5          2.0113656      4.0392963     -0.80742233     2.8022228      86.634677    
     85500   88.737472      158.5          158.5          158.5         -1.577611       0.89781173    -2.4036781     -3.2269666      88.737472    
     85520   82.350636      158.5          158.5          158.5          2.37142        4.3467517      1.7276603      1.0398481      82.350636    
     85540   84.601441      158.5          158.5          158.5          1.9176488      1.7871524      0.87182109     3.0939728      84.601441    
     85560   88.54327       158.5          158.5          158.5         -3.4201147     -3.3239311     -3.1495413     -3.7868718      88.54327     
     85580   89.881574      158.5          158.5          158.5          2.625472       6.3597811      1.9926306     -0.47599557     89.881574    
     85600   90.470334      158.5          158.5          158.5          4.1302186      3.8515355      4.2943269      4.2447934      90.470334    
     85620   101.15157      158.5          158.5          158.5         -3.5639399     -7.277956      -2.8497063     -0.56415735     101.15157    
     85640   84.033084      158.5          158.5          158.5          0.7347841     -2.1785528      1.7660664      2.6168387      84.033084    
     85660   83.988232      158.5          158.5          158.5          0.76291182     1.5098763      0.05187041     0.7269887      83.988232    
     85680   87.969874      158.5          158.5          158.5         -4.6280998     -3.1780956     -5.4983906     -5.2078132      87.969874    
     85700   94.810549      158.5          158.5          158.5          1.0570213     -1.1661546      3.2601768      1.0770416      94.810549    
     85720   87.375259      158.5          158.5          158.5         -0.91030982    -1.666299       0.30173798    -1.3663684      87.375259    
     85740   75.050855      158.5          158.5          158.5         -3.8038919     -3.6674794     -2.9774201     -4.7667761      75.050855    
     85760   72.498059      158.5          158.5          158.5          2.9485088      1.5597555      3.5175839      3.7681871      72.498059    
     85780   71.419137      158.5          158.5          158.5         -0.65767559    -1.6986406      1.5049082     -1.7792943      71.419137    
     85800   73.95559       158.5          158.5          158.5         -1.7545009     -1.2372538     -0.59065201    -3.4355968      73.95559     
     85820   81.293237      158.5          158.5          158.5          0.43181809     2.5548597     -2.5723861      1.3129807      81.293237    
     85840   66.209645      158.5          158.5          158.5         -0.16044515    -1.1562789      0.9099351     -0.23499163     66.209645    
     85860   74.891756      158.5          158.5          158.5         -0.74979574    -1.041942       2.2253375     -3.4327828      74.891756    
     85880   75.540022      158.5          158.5          158.5          3.3319193      5.6011071      1.7396932      2.6549577      75.540022    
     85900   72.411823      158.5          158.5          158.5         -0.36160794     1.8434082     -2.3636198     -0.56461226     72.411823    
     85920   74.526672      158.5          158.5          158.5         -2.009976      -3.717639      -3.0655122      0.75322305     74.526672    
     85940   72.579201      158.5          158.5          158.5          0.99626543    -0.3303032      1.7948039      1.5242956      72.579201    
     85960   84.367204      158.5          158.5          158.5         -3.9081201     -2.2739412     -4.3180796     -5.1323394      84.367204    
     85980   74.929561      158.5          158.5          158.5          2.4405898      3.3847854      1.805992       2.130992       74.929561    
     86000   78.034791      158.5          158.5          158.5          2.2280853     -1.0791015      3.3154191      4.4479383      78.034791    
     86020   83.346856      158.5          158.5          158.5         -0.8307213     -2.082903      -0.83843425     0.42917333     83.346856    
     86040   78.513901      158.5          158.5          158.5          4.871556       6.3429537      2.0796526      6.1920617      78.513901    
     86060   93.635216      158.5          158.5          158.5         -0.743238       0.94887383    -3.7299878      0.55139994     93.635216    
     86080   93.264709      158.5          158.5          158.5          0.58875312     1.0619957      0.89567988    -0.19141623     93.264709    
     86100   84.33311       158.5          158.5          158.5          3.2344429      4.228673       3.5743725      1.9002833      84.33311     
     86120   86.358646      158.5          158.5          158.5         -0.041580424    1.560055       0.21339238    -1.8981886      86.358646    
     86140   84.119031      158.5          158.5          158.5         -1.4527654     -2.2722411     -3.5665262      1.4804712      84.119031    
     86160   92.105992      158.5          158.5          158.5         -0.78755329    -3.0450463     -0.827473       1.5098595      92.105992    
     86180   87.688317      158.5          158.5          158.5         -4.2835255     -5.7059086     -3.6985077     -3.4461603      87.688317    
     86200   93.378227      158.5          158.5          158.5         -1.4011535     -1.6638714     -1.3992856     -1.1403034      93.378227    
     86220   90.92188       158.5          158.5          158.5          0.50067091     2.1580251      0.0041860517  -0.66019837     90.92188     
     86240   77.703867      158.5          158.5          158.5         -2.6101823     -3.9290729     -0.95677077    -2.9447031      77.703867    
     86260   94.172999      158.5          158.5          158.5          4.7694767      1.9128813      6.248798       6.1467509      94.172999    
     86280   87.541144      158.5          158.5          158.5         -1.3043067     -1.0883244     -0.42019192    -2.4044037      87.541144    
     86300   76.814663      158.5          158.5          158.5         -3.894736      -2.2174694     -4.6195584     -4.8471802      76.814663    
     86320   81.662702      158.5          158.5          158.5          0.89866082     0.92434484     0.61117823     1.1604594      81.662702    
     86340   88.908147      158.5          158.5          158.5         -3.8135557     -5.8371066     -0.063856712   -5.5397038      88.908147    
     86360   77.448029      158.5          158.5          158.5          1.2112218      1.1956594      1.5361204      0.90188568     77.448029    
     86380   86.195768      158.5          158.5          158.5          2.636992       4.304095       0.92616639     2.6807148      86.195768    
     86400   78.301783      158.5          158.5          158.5          0.011784909   -0.8956013      0.021173046    0.90978298     78.301783    
     86420   79.702645      158.5          158.5          158.5          2.7807847      1.3747903      2.3647443      4.6028195      79.702645    
     86440   83.37797       158.5          158.5          158.5         -0.73726355    -0.12316255    -2.6293475      0.5407194      83.37797     
     86460   80.401668      158.5          158.5          158.5         -0.040025915   -2.174006      -0.021798681    2.0757269      80.401668    
     86480   75.966453      158.5          158.5          158.5          0.47066672    -0.56029228     0.57550643     1.396786       75.966453    
     86500   81.586323      158.5          158.5          158.5         -3.2480374     -0.87005372    -5.3527543     -3.5213043      81.586323    
     86520   78.625139      158.5          158.5          158.5          1.7186163      2.7145119      3.0351125     -0.59377544     78.625139    
     86540   85.585915      158.5          158.5          158.5         -0.17988037    -1.9779754      1.9379032     -0.49956885     85.585915    
     86560   72.381437      158.5          158.5          158.5         -0.70305662    -2.0389948     -0.62447856     0.55430353     72.381437    
     86580   85.283414      158.5          158.5          158.5          1.4899443      3.4427778      0.37351779     0.6535374      85.283414    
     86600   79.128744      158.5          158.5          158.5         -3.0566585     -1.821015      -4.0732872     -3.2756733      79.128744    
     86620   75.161979      158.5          158.5          158.5          1.1657813     -2.5471303      3.0182627      3.0262116      75.161979    
     86640   87.82044       158.5          158.5          158.5         -0.11008535    -1.9217578      1.2274669      0.36403484     87.82044     
     86660   79.710051      158.5          158.5          158.5          0.61370849     2.7774123      0.74477252    -1.6810594      79.710051    
     86680   80.678186      158.5          158.5          158.5          1.8294633      2.0480009      4.1409002     -0.70051132     80.678186    
     86700   89.520976      158.5          158.5          158.5         -2.8042552     -4.5215403     -1.289967      -2.6012582      89.520976    
     86720   75.747709      158.5          158.5          158.5          4.9273831      7.3656298      3.7405223      3.6759973      75.747709    
     86740   90.718628      158.5          158.5          158.5          0.82436453     1.3377514      1.2259704     -0.090628271    90.718628    
     86760   89.414716      158.5          158.5          158.5          0.61215383     1.3472644      2.9139346     -2.4247375      89.414716    
     86780   89.043958      158.5          158.5          158.5          3.1151012      2.9203659      2.3398024      4.0851352      89.043958    
     86800   95.837071      158.5          158.5          158.5         -3.6858471     -2.9686551     -5.3932446     -2.6956417      95.837071    
     86820   86.704532      158.5          158.5          158.5          3.8728527      7.713039       3.6723828      0.23313632     86.704532    
     86840   81.659633      158.5          158.5          158.5          0.057315963    2.8625203     -2.288251      -0.40232138     81.659633    
     86860   97.498821      158.5          158.5          158.5         -2.1145749     -4.9594857     -2.6221657      1.2379266      97.498821    
     86880   87.556926      158.5          158.5          158.5          3.5247929      2.7595413      2.8281389      4.9866986      87.556926    
     86900   90.913888      158.5          158.5          158.5         -0.4228409      1.9071827     -2.4847941     -0.69091134     90.913888    
     86920   88.459357      158.5          158.5          158.5          2.1772876      2.780615       1.4427204      2.3085273      88.459357    
     86940   79.027713      158.5          158.5          158.5         -0.64633739    -3.4779066      1.0715438      0.46735061     79.027713    
     86960   88.692759      158.5          158.5          158.5         -0.17491213    -0.29891422     0.16095641    -0.38677857     88.692759    
     86980   78.459256      158.5          158.5          158.5          0.20839675     0.51760933     1.3612397     -1.2536588      78.459256    
     87000   82.026329      158.5          158.5          158.5         -2.7116282     -4.4918664     -0.82835112    -2.8146671      82.026329    
     87020   83.416364      158.5          158.5          158.5          2.0262468      2.1418737      1.4019039      2.5349627      83.416364    
     87040   76.251657      158.5          158.5          158.5         -0.47046568    -0.34433273    -1.6700029      0.60293858     76.251657    
     87060   88.876061      158.5          158.5          158.5         -2.4503009     -4.5209516     -2.0504392     -0.77951197     88.876061    
     87080   80.410315      158.5          158.5          158.5          1.0660254      0.82465647     2.439527      -0.066107383    80.410315    
     87100   90.776598      158.5          158.5          158.5         -4.0696243     -2.7618739     -3.7637555     -5.6832436      90.776598    
     87120   79.572172      158.5          158.5          158.5         -1.3588315     -3.0431685     -0.66207429    -0.37125187     79.572172    
     87140   90.822415      158.5          158.5          158.5         -1.8951109     -5.51425       -0.59844322     0.42736061     90.822415    
     87160   86.104712      158.5          158.5          158.5         -2.2729411     -3.9957867     -1.0431608     -1.7798759      86.104712    
     87180   78.838067      158.5          158.5          158.5          2.5877507      5.2512099      1.4052633      1.1067788      78.838067    
     87200   76.14833       158.5          158.5          158.5          0.18555401    -2.0762048      3.3794345     -0.7465677      76.14833     
     87220   77.650641      158.5          158.5          158.5         -2.7252563     -4.5462242      0.31831632    -3.9478611      77.650641    
     87240   81.147944      158.5          158.5          158.5         -1.2295603     -0.67105615    -3.8724602      0.85483555     81.147944    
     87260   70.141815      158.5          158.5          158.5         -0.67114401    -2.35828       -0.98847117     1.3333191      70.141815    
     87280   78.633583      158.5          158.5          158.5          1.6958541     -0.73732419     3.6076698      2.2172168      78.633583    
     87300   85.371854      158.5          158.5          158.5          2.0914372      2.5856327      1.2057725      2.4829065      85.371854    
     87320   88.905113      158.5          158.5          158.5          0.96610051     3.1583969     -3.4307485      3.1706532      88.905113    
     87340   74.287507      158.5          158.5          158.5          1.2913963      5.138755      -1.8341501      0.56958401     74.287507    
     87360   85.508787      158.5          158.5          158.5          1.6435187      2.8680638      1.5196498      0.54284252     85.508787    
     87380   83.351445      158.5          158.5          158.5          0.2402494     -0.42400954    -0.56120751     1.7059652      83.351445    
     87400   74.295222      158.5          158.5          158.5          0.87233882     3.6783007     -1.950739       0.88945473     74.295222    
     87420   73.122755      158.5          158.5          158.5          1.2240011      4.9893198     -0.64224619    -0.67507025     73.122755    
     87440   79.154471      158.5          158.5          158.5         -0.76217753    -4.7252494      1.9572692      0.48144761     79.154471    
     87460   77.678471      158.5          158.5          158.5          0.022562003   -1.3873114     -0.38355321     1.8385507      77.678471    
     87480   76.550657      158.5          158.5          158.5         -0.50310781     4.9915049     -4.3346775     -2.1661509      76.550657    
     87500   69.078103      158.5          158.5          158.5         -0.38799038     1.8014307      1.1519265     -4.1173283      69.078103    
     87520   87.801371      158.5          158.5          158.5          0.49795298    -2.9426197      3.2711263      1.1653523      87.801371    
     87540   79.317447      158.5          158.5          158.5         -0.74976222     1.0367043     -2.4650635     -0.82092743     79.317447    
     87560   82.742486      158.5          158.5          158.5         -0.90724472     3.319471      -1.2956948     -4.7455104      82.742486    
     87580   85.316743      158.5          158.5          158.5          1.9369486      0.27703195     5.4204657      0.11334814     85.316743    
     87600   82.030537      158.5          158.5          158.5         -0.53259713    -6.9205929      2.3511098      2.9716917      82.030537    
     87620   84.437845      158.5          158.5          158.5         -1.2688286     -4.0630406     -1.6487343      1.9052892      84.437845    
     87640   86.412322      158.5          158.5          158.5          0.2953545     -1.0040895      2.7907488     -0.90059584     86.412322    
     87660   81.813165      158.5          158.5          158.5         -3.4441337     -6.3247479     -1.0578503     -2.9498028      81.813165    
     87680   90.714115      158.5          158.5          158.5          3.7025799      3.0403549      1.9125688      6.1548159      90.714115    
     87700   81.356453      158.5          158.5          158.5          1.027861       1.3393813      0.21475414     1.5294476      81.356453    
     87720   89.570952      158.5          158.5          158.5         -3.3554122     -3.1584841     -4.4363106     -2.471442       89.570952    
     87740   77.227212      158.5          158.5          158.5          4.2606344      2.1163547      5.1598875      5.505661       77.227212    
     87760   88.706038      158.5          158.5          158.5         -3.4971781     -3.3110977     -4.4331389     -2.7472977      88.706038    
     87780   77.889206      158.5          158.5          158.5          1.0928324      2.4777799     -0.84872532     1.6494426      77.889206    
     87800   90.622351      158.5          158.5          158.5          1.5551615      0.30531492     3.8625768      0.49759278     90.622351    
     87820   79.18944       158.5          158.5          158.5         -2.1339173     -1.1200488     -1.4390017     -3.8427014      79.18944     
     87840   76.606781      158.5          158.5          158.5          2.1477311      4.4845478      0.31580576     1.6428397      76.606781    
     87860   73.715827      158.5          158.5          158.5          0.26089515     0.96579348     1.1242183     -1.3073263      73.715827    
     87880   79.619104      158.5          158.5          158.5         -3.5246746     -1.6140663     -3.1523834     -5.8075742      79.619104    
     87900   79.278811      158.5          158.5          158.5          0.53676079     1.6250623     -0.33931541     0.32453545     79.278811    
     87920   74.540051      158.5          158.5          158.5         -1.9347364     -0.81438522    -3.0624288     -1.9273952      74.540051    
     87940   63.364735      158.5          158.5          158.5         -2.5890739     -1.0285498     -3.7196107     -3.0190611      63.364735    
     87960   81.258126      158.5          158.5          158.5          1.7298467      3.7187116     -2.2548542      3.7256827      81.258126    
     87980   70.405779      158.5          158.5          158.5         -1.9959995     -0.31197251    -3.0850405     -2.5909854      70.405779    
     88000   72.660199      158.5          158.5          158.5          1.8682355     -0.33102346     5.4574771      0.47825301     72.660199    
     88020   75.087863      158.5          158.5          158.5          0.34136886    -1.7208021      1.9753319      0.76957677     75.087863    
     88040   69.681824      158.5          158.5          158.5         -2.3553995     -2.5977154     -1.5256093     -2.9428737      69.681824    
     88060   69.911091      158.5          158.5          158.5         -0.043741318   -0.46358451     0.15967942     0.17268114     69.911091    
     88080   67.249765      158.5          158.5          158.5         -2.1245502     -4.8496861     -0.42933264    -1.094632       67.249765    
     88100   84.723218      158.5          158.5          158.5         -1.9609071     -3.342136      -0.22812041    -2.3124649      84.723218    
     88120   87.321359      158.5          158.5          158.5          2.62662        3.5369824      0.94104765     3.4018301      87.321359    
     88140   74.377591      158.5          158.5          158.5          3.3874722      0.75732802     5.9112205      3.4938681      74.377591    
     88160   65.751345      158.5          158.5          158.5         -1.0037114     -1.4273434      1.6983502     -3.2821411      65.751345    
     88180   78.279069      158.5          158.5          158.5          1.9451351      4.6509184     -1.0547503      2.2392373      78.279069    
     88200   78.725481      158.5          158.5          158.5          2.0228332      1.1260744      1.8572231      3.0852022      78.725481    
     88220   83.940983      158.5          158.5          158.5          1.8776807     -0.0033198032   3.1153358      2.5210261      83.940983    
     88240   88.877781      158.5          158.5          158.5          3.0431943      2.0178179      2.2612304      4.8505347      88.877781    
     88260   92.527748      158.5          158.5          158.5          0.059287901   -0.67723995    -0.23049022     1.0855939      92.527748    
     88280   84.455254      158.5          158.5          158.5         -1.058777      -1.7885858     -2.0529905      0.66524519     84.455254    
     88300   94.884465      158.5          158.5          158.5          0.907892       2.8313794     -1.8102161      1.7025128      94.884465    
     88320   88.95971       158.5          158.5          158.5         -0.83315849     1.0715479     -0.44495506    -3.1260683      88.95971     
     88340   91.59529       158.5          158.5          158.5          1.0134873      1.8202439      0.41152829     0.80868963     91.59529     
     88360   88.928273      158.5          158.5          158.5          0.41355098     4.2674549     -2.7340773     -0.29272465     88.928273    
     88380   85.270558      158.5          158.5          158.5         -3.7247612     -0.098612698   -4.5764762     -6.4991948      85.270558    
     88400   102.42684      158.5          158.5          158.5          4.1082588      2.5545852      4.0594407      5.7107504      102.42684    
     88420   96.001771      158.5          158.5          158.5         -2.6175571     -2.0821242     -2.4776128     -3.2929343      96.001771    
     88440   82.61258       158.5          158.5          158.5         -2.1953878      1.5604361     -1.2082514     -6.9383481      82.61258     
     88460   80.054809      158.5          158.5          158.5         -1.0315444     -1.676561      -3.4580172      2.039945       80.054809    
     88480   75.609083      158.5          158.5          158.5         -4.4927865     -7.5185683     -5.3097941     -0.64999715     75.609083    
     88500   77.3603        158.5          158.5          158.5          5.8773612      8.6981162      4.9086601      4.0253073      77.3603      
     88520   80.416632      158.5          158.5          158.5         -1.4819694      1.510632      -3.5826714     -2.3738687      80.416632    
     88540   77.671035      158.5          158.5          158.5         -1.5411944     -5.7503299      0.91509849     0.21164805     77.671035    
     88560   85.462157      158.5          158.5          158.5          1.7246245     -1.1507011      3.5513228      2.7732519      85.462157    
     88580   77.718409      158.5          158.5          158.5         -5.731871      -5.0171712     -6.7646802     -5.4137617      77.718409    
     88600   76.25945       158.5          158.5          158.5          3.5703408      3.6310399      4.0347781      3.0452042      76.25945     
     88620   79.92095       158.5          158.5          158.5          2.0527711      1.1096394      3.9506229      1.0980509      79.92095     
     88640   78.405378      158.5          158.5          158.5          0.43405316    -2.752048      -0.3209348      4.3751423      78.405378    
     88660   84.022152      158.5          158.5          158.5          0.048979689   -1.1719825     -0.533711       1.8526326      84.022152    
     88680   81.882243      158.5          158.5          158.5         -0.95634404    -0.11454179     2.66745       -5.4219404      81.882243    
     88700   76.646912      158.5          158.5          158.5          1.6541371     -2.4162458      3.011715       4.366942       76.646912    
     88720   84.439833      158.5          158.5          158.5          0.22090331    -1.280467      -1.5048171      3.447994       84.439833    
     88740   81.285626      158.5          158.5          158.5          0.32151405     2.1304261      0.15898373    -1.3248677      81.285626    
     88760   83.395365      158.5          158.5          158.5         -1.5617017     -2.1725736     -1.3642859     -1.1482457      83.395365    
     88780   81.903706      158.5          158.5          158.5         -0.65380828     0.74755081    -2.489103      -0.2198727      81.903706    
     88800   76.707352      158.5          158.5          158.5          0.037259184    1.0500244      0.090158944   -1.0284058      76.707352    
     88820   87.894479      158.5          158.5          158.5         -1.1342646      1.3805658     -2.0118168     -2.7715429      87.894479    
     88840   84.505395      158.5          158.5          158.5          3.0072543      5.4081437      2.4652399      1.1483793      84.505395    
     88860   78.857772      158.5          158.5          158.5         -1.3658465     -1.7985285     -0.70780749    -1.5912034      78.857772    
     88880   93.345613      158.5          158.5          158.5          0.059475844    3.543936      -3.4155122      0.050003733    93.345613    
     88900   90.838838      158.5          158.5          158.5          3.1639455      6.4306415      1.0572077      2.0039874      90.838838    
     88920   83.205326      158.5          158.5          158.5         -0.31491743     0.13481776     2.1636934     -3.2432635      83.205326    
     88940   79.145815      158.5          158.5          158.5          0.61837097     0.36835741     0.59186596     0.89488954     79.145815    
     88960   85.563043      158.5          158.5          158.5          0.9493918      0.31249542    -0.74006209     3.2757421      85.563043    
     88980   77.209058      158.5          158.5          158.5         -2.782801      -1.3399225     -1.4440624     -5.5644181      77.209058    
     89000   67.019754      158.5          158.5          158.5         -0.012118825   -1.0973491      3.0531521     -1.9921595      67.019754    
     89020   79.04059       158.5          158.5          158.5         -1.7301972     -6.112962       0.89836442     0.024005828    79.04059     
     89040   75.99669       158.5          158.5          158.5         -2.1380068     -5.035485      -1.7858765      0.4073411      75.99669     
     89060   71.058737      158.5          158.5          158.5          3.5009269      3.1289194      3.6646967      3.7091646      71.058737    
     89080   71.853905      158.5          158.5          158.5         -2.6401469     -3.1515334     -1.4984599     -3.2704475      71.853905    
     89100   62.823747      158.5          158.5          158.5          0.81590122    -3.4701148      3.0151179      2.9027005      62.823747    
     89120   76.796646      158.5          158.5          158.5          0.41617983    -0.91109367     0.58966517     1.569968       76.796646    
     89140   75.002263      158.5          158.5          158.5         -3.0725295     -0.64487435    -4.1862741     -4.3864401      75.002263    
     89160   75.421544      158.5          158.5          158.5          1.9003925     -0.03165126     1.0002808      4.732548       75.421544    
     89180   65.184601      158.5          158.5          158.5         -2.3486805     -4.1122817     -3.2353817      0.30162191     65.184601    
     89200   77.933575      158.5          158.5          158.5          1.7624894      4.1012724     -0.69223614     1.8784321      77.933575    
     89220   69.116044      158.5          158.5          158.5          0.79340899     0.5805894      2.1237225     -0.32408495     69.116044    
     89240   82.842721      158.5          158.5          158.5          1.9489984      1.3815792      3.245978       1.2194381      82.842721    
     89260   75.305651      158.5          158.5          158.5          1.4788537      2.7459243      0.060802535    1.6298344      75.305651    
     89280   84.794235      158.5          158.5          158.5         -3.2997869      1.1726158     -7.070524      -4.0014526      84.794235    
     89300   78.467376      158.5          158.5          158.5          3.1675808      5.6762952      0.84890535     2.9775419      78.467376    
     89320   89.776397      158.5          158.5          158.5          0.050865962    0.67027699    -1.3995513      0.88187218     89.776397    
     89340   82.080464      158.5          158.5          158.5         -0.78132887     0.87255628    -2.2765939     -0.93994896     82.080464    
     89360   82.878767      158.5          158.5          158.5          1.8206954      3.8644821      0.74179815     0.85580593     82.878767    
     89380   78.064511      158.5          158.5          158.5         -1.4874117     -2.1965898     -1.2599883     -1.0056571      78.064511    
     89400   91.179481      158.5          158.5          158.5          0.67086038    -0.99797173     0.072064863    2.938488       91.179481    
     89420   86.160606      158.5          158.5          158.5          1.1027073     -1.185017       2.234351       2.2587879      86.160606    
     89440   88.336531      158.5          158.5          158.5          0.15288631     1.1469363      1.1960006     -1.8842779      88.336531    
     89460   74.384721      158.5          158.5          158.5         -0.79965215    -0.81360635    -2.1106207      0.5252706      74.384721    
     89480   82.630592      158.5          158.5          158.5         -1.4076511     -2.8114404     -0.73203325    -0.67947969     82.630592    
     89500   77.2299        158.5          158.5          158.5         -1.4749669      1.144525      -0.24134016    -5.3280855      77.2299      
     89520   88.375709      158.5          158.5          158.5         -0.2419509     -0.16756328     1.3496459     -1.9079353      88.375709    
     89540   90.595336      158.5          158.5          158.5         -1.2035669     -4.2722495      2.0754718     -1.413923       90.595336    
     89560   92.685779      158.5          158.5          158.5          0.71223411    -1.2455866      2.3883467      0.99394221     92.685779    
     89580   72.568812      158.5          158.5          158.5         -1.3442101     -3.0600491     -0.89533608    -0.077245215    72.568812    
     89600   83.884249      158.5          158.5          158.5          0.18274024     0.75566593     0.92104454    -1.1284898      83.884249    
     89620   79.62829       158.5          158.5          158.5          1.600168       3.0810075      2.1281115     -0.40861504     79.62829     
     89640   76.956565      158.5          158.5          158.5         -0.99571836     0.070527959   -2.343533      -0.71415005     76.956565    
     89660   79.938463      158.5          158.5          158.5          1.2183319      1.7762801     -0.066870515    1.9455862      79.938463    
     89680   76.716078      158.5          158.5          158.5         -0.25317772    -0.038124496    0.19046027    -0.91186893     76.716078    
     89700   72.740229      158.5          158.5          158.5          2.8979796      4.0349489      2.3021156      2.3568742      72.740229    
     89720   76.270772      158.5          158.5          158.5          1.387221       1.751516      -1.3088188      3.7189656      76.270772    
     89740   68.570867      158.5          158.5          158.5         -0.65150339    -0.49120565    -0.39122851    -1.072076       68.570867    
     89760   67.41604       158.5          158.5          158.5          0.31343329     0.0055464387   2.4044567     -1.4697033      67.41604     
     89780   75.686563      158.5          158.5          158.5         -2.966127       0.1332547     -5.9188921     -3.1127435      75.686563    
     89800   73.619656      158.5          158.5          158.5          0.5153503      2.4732156     -2.6078769      1.6807122      73.619656    
     89820   71.310421      158.5          158.5          158.5          0.18171534    -0.33930986     1.0999027     -0.21544681     71.310421    
     89840   70.475836      158.5          158.5          158.5          0.13522497     0.057841646    1.773909      -1.4260757      70.475836    
     89860   60.403868      158.5          158.5          158.5         -0.19115322    -2.1847924      0.079255125    1.5320776      60.403868    
     89880   67.366546      158.5          158.5          158.5         -1.5034715     -4.0674865     -1.1125505      0.6696224      67.366546    
     89900   72.287864      158.5          158.5          158.5          0.35353827     1.0605372      1.0932998     -1.0932222      72.287864    
     89920   76.453064      158.5          158.5          158.5          0.36533163    -0.59851878     1.5878198      0.10669383     76.453064    
     89940   70.152379      158.5          158.5          158.5          1.8881313     -1.4065233      4.4210634      2.6498537      70.152379    
     89960   66.086439      158.5          158.5          158.5         -0.19788912    -0.64552849    -0.22263304     0.27449419     66.086439    
     89980   88.256427      158.5          158.5          158.5         -1.9150733      0.15983426    -3.5548533     -2.350201       88.256427    
     90000   83.78798       158.5          158.5          158.5          0.091752239   -0.40673217     0.51081743     0.17117146     83.78798     
     90020   80.805482      158.5          158.5          158.5          0.71266915    -2.3946368      2.6877885      1.8448558      80.805482    
     90040   70.015447      158.5          158.5          158.5         -0.2604187      1.0278168     -0.65457659    -1.1544963      70.015447    
     90060   80.040442      158.5          158.5          158.5          1.3066268      3.4467946      0.18379851     0.28928721     80.040442    
     90080   87.452472      158.5          158.5          158.5         -1.8708332     -3.4874406      0.58428805    -2.7093469      87.452472    
     90100   84.987831      158.5          158.5          158.5         -0.8329241     -0.7369969     -0.2188213     -1.5429541      84.987831    
     90120   83.471263      158.5          158.5          158.5          1.402266       3.1102071      0.26535271     0.83123812     83.471263    
     90140   77.525369      158.5          158.5          158.5         -2.6018164     -2.4289579     -2.5002184     -2.8762729      77.525369    
     90160   79.114811      158.5          158.5          158.5          1.895979       1.6379066      0.62957112     3.4204594      79.114811    
     90180   83.841522      158.5          158.5          158.5         -0.37863464     0.35779417    -4.2069226      2.7132245      83.841522    
     90200   86.848001      158.5          158.5          158.5         -1.6231076      0.47766985    -4.1449289     -1.2020636      86.848001    
     90220   76.950123      158.5          158.5          158.5          1.4880259      1.9885945      0.83165849     1.6438246      76.950123    
     90240   75.721847      158.5          158.5          158.5          0.50953161    -0.26313422     0.75631177     1.0354173      75.721847    
     90260   74.875656      158.5          158.5          158.5          0.074982098   -0.8476601      0.073633124    0.99897327     74.875656    
     90280   79.730289      158.5          158.5          158.5         -4.4193533     -6.485516      -2.7430466     -4.0294973      79.730289    
     90300   74.296047      158.5          158.5          158.5          0.91516066     0.35987164     0.29738505     2.0882253      74.296047    
     90320   71.065337      158.5          158.5          158.5         -2.6273815     -2.8701488     -4.9683861     -0.043609708    71.065337    
     90340   67.549455      158.5          158.5          158.5         -0.41291612    -1.9131413     -0.55842468     1.2328177      67.549455    
     90360   68.298371      158.5          158.5          158.5          1.0512632     -0.25985166     1.7393833      1.674258       68.298371    
     90380   74.402569      158.5          158.5          158.5         -1.8793728     -2.8050334     -1.4841127     -1.3489723      74.402569    
     90400   56.617732      158.5          158.5          158.5          0.5191602      1.8746983      2.500655      -2.8178727      56.617732    
     90420   66.078969      158.5          158.5          158.5          0.62900416    -0.65087597     3.0468949     -0.50900648     66.078969    
     90440   63.104868      158.5          158.5          158.5          2.4817815      3.5429245      0.39523183     3.507188       63.104868    
     90460   64.905992      158.5          158.5          158.5          2.4730282      5.5625322      0.5143176      1.3422346      64.905992    
     90480   62.434305      158.5          158.5          158.5         -0.50391386     0.75896424     0.19862613    -2.469332       62.434305    
     90500   66.453915      158.5          158.5          158.5         -2.3666174     -0.61931645    -2.2359069     -4.2446289      66.453915    
     90520   67.617356      158.5          158.5          158.5         -1.0515012      0.82797208    -1.6784296     -2.304046       67.617356    
     90540   56.868039      158.5          158.5          158.5          1.2125289      2.3635511     -0.91570323     2.1897388      56.868039    
     90560   76.2579        158.5          158.5          158.5         -2.0651329      1.1169204     -4.2238368     -3.0884822      76.2579      
     90580   69.346857      158.5          158.5          158.5          5.2818768      6.4424114      7.8575418      1.5456772      69.346857    
     90600   61.984913      158.5          158.5          158.5         -1.4949345     -2.0689446     -1.3622855     -1.0535734      61.984913    
     90620   69.016661      158.5          158.5          158.5         -1.9377435     -1.4231676     -2.5600933     -1.8299697      69.016661    
     90640   76.897474      158.5          158.5          158.5          4.5804524      4.5837442      4.8133241      4.3442888      76.897474    
     90660   73.791326      158.5          158.5          158.5         -3.8206504     -4.8955557     -4.7375303     -1.8288652      73.791326    
     90680   70.83755       158.5          158.5          158.5          2.785809       2.0062861      0.9368759      5.414265       70.83755     
     90700   56.603119      158.5          158.5          158.5          3.135336       1.3160871      4.1704325      3.9194882      56.603119    
     90720   83.857983      158.5          158.5          158.5         -4.6127009     -6.215724      -1.2409095     -6.3814693      83.857983    
     90740   77.011757      158.5          158.5          158.5          0.62663226    -1.01983        5.1857199     -2.2859931      77.011757    
     90760   81.400617      158.5          158.5          158.5         -1.6683311      0.40503718    -0.43750457    -4.972526       81.400617    
     90780   78.825625      158.5          158.5          158.5         -0.90874388    -1.1276492     -2.1682942      0.56971171     78.825625    
     90800   78.550918      158.5          158.5          158.5          1.1513342     -2.2885816      1.7810907      3.9614935      78.550918    
     90820   68.452678      158.5          158.5          158.5         -0.57638391    -2.3145907      1.9408881     -1.3554492      68.452678    
     90840   77.59817       158.5          158.5          158.5         -1.3092762      0.32197239    -2.9033029     -1.3464981      77.59817     
     90860   76.355501      158.5          158.5          158.5         -0.36466797    -1.5831137     -2.6560759      3.1451857      76.355501    
     90880   83.725955      158.5          158.5          158.5          0.97895805    -3.3884281      3.4962421      2.8290601      83.725955    
     90900   77.467133      158.5          158.5          158.5          1.0850311      3.5835814      1.1050692     -1.4335571      77.467133    
     90920   86.483721      158.5          158.5          158.5          0.75947344     3.8960255     -3.6123457      1.9947406      86.483721    
     90940   76.998285      158.5          158.5          158.5          0.043313244   -3.1694518      1.2081851      2.0912065      76.998285    
     90960   78.432606      158.5          158.5          158.5         -3.2720561     -1.8470433     -1.709326      -6.2597989      78.432606    
     90980   75.39354       158.5          158.5          158.5          1.5689923      6.4251964     -0.83871651    -0.87950285     75.39354     
     91000   87.627688      158.5          158.5          158.5          0.93506216     2.2828382      0.8870038     -0.36465554     87.627688    
     91020   77.827762      158.5          158.5          158.5          0.12862693     0.34072326     1.4588858     -1.4137283      77.827762    
     91040   72.455846      158.5          158.5          158.5          1.8906108      2.44007        0.63139426     2.6003682      72.455846    
     91060   69.298917      158.5          158.5          158.5         -1.0765895      2.9288196     -3.5217643     -2.6368236      69.298917    
     91080   79.184365      158.5          158.5          158.5          0.37902283     2.7495238      1.5529347     -3.16539        79.184365    
     91100   71.445776      158.5          158.5          158.5          1.5965285     -0.032140527    0.2725722      4.5491539      71.445776    
     91120   72.147192      158.5          158.5          158.5          1.0316669     -1.762869       1.1364629      3.7214068      72.147192    
     91140   71.871827      158.5          158.5          158.5         -1.5108447     -1.8850105      1.0735617     -3.7210854      71.871827    
     91160   66.098565      158.5          158.5          158.5         -0.17132335    -2.1322992     -0.038282515    1.6566117      66.098565    
     91180   67.969919      158.5          158.5          158.5          0.62077271    -5.8576088      3.5048295      4.2150974      67.969919    
     91200   70.669889      158.5          158.5          158.5         -1.8239761     -4.8649525      2.0760304     -2.6830063      70.669889    
     91220   68.162212      158.5          158.5          158.5          0.29226973     2.2244954     -0.11115578    -1.2365304      68.162212    
     91240   77.810712      158.5          158.5          158.5         -4.4491721     -5.716514      -5.750019      -1.8809834      77.810712    
     91260   77.739625      158.5          158.5          158.5          1.5566158     -0.82721903     4.1122011      1.3848653      77.739625    
     91280   78.955814      158.5          158.5          158.5          1.1347451      0.30743752     5.0946633     -1.9978655      78.955814    
     91300   75.972264      158.5          158.5          158.5          1.2967818      2.6419946     -1.1856128      2.4339638      75.972264    
     91320   70.842014      158.5          158.5          158.5          5.0864436      6.6561542      0.66849818     7.9346785      70.842014    
     91340   67.359718      158.5          158.5          158.5         -3.746398      -6.9982798     -1.0368043     -3.2041099      67.359718    
     91360   77.818501      158.5          158.5          158.5         -0.87197562    -1.045202      -0.0616969     -1.5090279      77.818501    
     91380   84.431192      158.5          158.5          158.5          0.1022314      2.0082078     -3.6959817      1.9944682      84.431192    
     91400   75.347813      158.5          158.5          158.5         -0.49434078    -3.0780697      0.73226815     0.86277924     75.347813    
     91420   71.581555      158.5          158.5          158.5          3.0549659      2.1862055      4.352592       2.6261003      71.581555    
     91440   71.672426      158.5          158.5          158.5          1.1290368      4.7975339     -0.55547494    -0.85494864     71.672426    
     91460   75.893729      158.5          158.5          158.5         -2.2242585      1.2640147     -4.309393      -3.6273973      75.893729    
     91480   79.623889      158.5          158.5          158.5          0.26920716     2.2313391     -1.3562206     -0.067497033    79.623889    
     91500   71.610312      158.5          158.5          158.5          1.6911227      3.2539578      1.7868632      0.032547231    71.610312    
     91520   70.917294      158.5          158.5          158.5         -0.004939924    0.70022447    -0.43704281    -0.27800143     70.917294    
     91540   60.044873      158.5          158.5          158.5          0.43423134     1.9338979      0.21420524    -0.84540917     60.044873    
     91560   68.053024      158.5          158.5          158.5         -2.0538632     -2.34212       -3.7164346     -0.10303517     68.053024    
     91580   74.843609      158.5          158.5          158.5         -2.7877307     -2.4555755     -2.0655303     -3.8420864      74.843609    
     91600   64.927247      158.5          158.5          158.5          1.2282936      3.3574725      1.3229055     -0.99549722     64.927247    
     91620   63.704272      158.5          158.5          158.5          0.31747268    -3.1805101     -0.98626985     5.119198       63.704272    
     91640   59.434247      158.5          158.5          158.5          1.2505234     -3.2991161      0.28227534     6.7684108      59.434247    
     91660   70.226612      158.5          158.5          158.5          3.1349423      5.0229259      3.577881       0.80402006     70.226612    
     91680   61.707422      158.5          158.5          158.5          0.34646631     0.51481295     2.1928457     -1.6682597      61.707422    
     91700   73.410308      158.5          158.5          158.5          1.3803094     -1.1518818      2.9711338      2.3216762      73.410308    
     91720   61.89071       158.5          158.5          158.5         -0.0019670681  -1.4726846     -1.2008311      2.6676144      61.89071     
     91740   61.662631      158.5          158.5          158.5         -0.70329292    -0.22808137    -1.9504304      0.068633034    61.662631    
     91760   70.249768      158.5          158.5          158.5          1.2949441      0.25637826     4.4942429     -0.86578884     70.249768    
     91780   59.603918      158.5          158.5          158.5          0.047598668   -1.5114681     -0.22991151     1.8841756      59.603918    
     91800   73.842062      158.5          158.5          158.5         -1.3990962     -1.6035733     -3.7442755      1.1505602      73.842062    
     91820   62.608764      158.5          158.5          158.5         -0.28758849     1.7561058     -0.11574607    -2.5031252      62.608764    
     91840   70.171965      158.5          158.5          158.5          0.68288065     2.867768      -0.32631407    -0.49281196     70.171965    
     91860   71.905086      158.5          158.5          158.5         -3.7714459     -2.7881258     -5.8372472     -2.6889647      71.905086    
     91880   68.000189      158.5          158.5          158.5         -0.41543437     1.1324913     -1.123233      -1.2555613      68.000189    
     91900   62.632642      158.5          158.5          158.5          0.68567735     3.6460474     -0.43428372    -1.1547316      62.632642    
     91920   72.432481      158.5          158.5          158.5         -3.0632628     -1.7241333     -2.4243232     -5.0413318      72.432481    
     91940   64.875162      158.5          158.5          158.5          4.0035586      3.5442796      5.8751522      2.5912442      64.875162    
     91960   77.529286      158.5          158.5          158.5         -0.39414263    -2.1916561     -0.82609054     1.8353188      77.529286    
     91980   69.551096      158.5          158.5          158.5         -1.6516881      1.408363      -3.596824      -2.7666034      69.551096    
     92000   76.568324      158.5          158.5          158.5          2.7215749      7.0719581      3.2900013     -2.1972348      76.568324    
     92020   85.588745      158.5          158.5          158.5         -2.8811613     -4.9642926      0.56285259    -4.2420439      85.588745    
     92040   80.404635      158.5          158.5          158.5          1.1558926     -1.1426058      0.056780476    4.5535032      80.404635    
     92060   64.890155      158.5          158.5          158.5          0.6204093      3.2151135     -1.6369683      0.28308273     64.890155    
     92080   85.433038      158.5          158.5          158.5         -2.2771456     -2.5933858     -3.4590711     -0.77897991     85.433038    
     92100   71.957789      158.5          158.5          158.5          3.9892738     -1.1262854      4.6378186      8.4562881      71.957789    
     92120   69.229683      158.5          158.5          158.5         -0.5549329     -1.7774759     -1.8663448      1.979022       69.229683    
     92140   72.783113      158.5          158.5          158.5          2.0216748      2.5896666      1.3215984      2.1537593      72.783113    
     92160   72.609316      158.5          158.5          158.5          1.6064375     -0.51793184     2.4435178      2.8937265      72.609316    
     92180   60.754812      158.5          158.5          158.5          1.0027001     -0.65215648     2.6789921      0.98126469     60.754812    
     92200   60.500595      158.5          158.5          158.5          1.4445264      1.5765666      0.32828906     2.4287235      60.500595    
     92220   60.500801      158.5          158.5          158.5          0.26041836    -0.87182308    -0.66447907     2.3175572      60.500801    
     92240   60.826721      158.5          158.5          158.5         -0.048364694   -1.5328036     -0.29786553     1.685575       60.826721    
     92260   53.753308      158.5          158.5          158.5         -4.1958094     -2.4841361     -5.3800347     -4.7232574      53.753308    
     92280   69.34243       158.5          158.5          158.5         -2.5179617      1.2905584     -2.7542579     -6.0901856      69.34243     
     92300   64.289784      158.5          158.5          158.5         -0.99182293    -0.69154124    -0.098464903   -2.1854627      64.289784    
     92320   56.016632      158.5          158.5          158.5         -1.4133713     -1.5034308     -1.0575126     -1.6791705      56.016632    
     92340   61.199389      158.5          158.5          158.5         -1.1268641     -0.91552065    -1.1110772     -1.3539943      61.199389    
     92360   61.049595      158.5          158.5          158.5         -2.8886519     -1.1021079     -5.5152127     -2.0486351      61.049595    
     92380   66.52607       158.5          158.5          158.5         -0.21635385    -0.45085879     0.35799       -0.55619277     66.52607     
     92400   55.206714      158.5          158.5          158.5          0.10250652    -2.7946451      3.1176475     -0.015482813    55.206714    
     92420   64.783507      158.5          158.5          158.5          1.1176612      1.8747336     -0.065516049    1.5437662      64.783507    
     92440   54.587838      158.5          158.5          158.5          1.6029615      2.1837301      2.3894949      0.23565945     54.587838    
     92460   59.048373      158.5          158.5          158.5          0.057418507   -3.3917794      1.5356746      2.0283604      59.048373    
     92480   76.461189      158.5          158.5          158.5         -1.8439389     -3.9669145      0.12197095    -1.6868732      76.461189    
     92500   60.413066      158.5          158.5          158.5          1.4576721      0.21582565     3.1290843      1.0281064      60.413066    
     92520   70.230525      158.5          158.5          158.5         -2.0296775     -5.4158411     -1.1934393      0.52024787     70.230525    
     92540   70.19454       158.5          158.5          158.5         -0.38385519     0.71140996    -1.8508345     -0.01214101     70.19454     
     92560   67.161352      158.5          158.5          158.5          4.2758483      6.3097522      2.1947364      4.3230565      67.161352    
     92580   68.751557      158.5          158.5          158.5         -2.0006951     -3.6870285      0.46269113    -2.7777478      68.751557    
     92600   74.059671      158.5          158.5          158.5          2.1659239      0.77994216     3.576899       2.1409306      74.059671    
     92620   70.738184      158.5          158.5          158.5          4.3077547      8.2899428     -0.19839582     4.8317171      70.738184    
     92640   75.574788      158.5          158.5          158.5         -1.0086516      0.056885903   -4.9118179      1.8289773      75.574788    
     92660   67.68311       158.5          158.5          158.5          1.497126      -1.3643087      5.4811977      0.37448901     67.68311     
     92680   77.57436       158.5          158.5          158.5         -2.9374862     -3.0869545      0.72179541    -6.4472996      77.57436     
     92700   85.209174      158.5          158.5          158.5         -1.3118167      1.0496937     -4.7139367     -0.2712072      85.209174    
     92720   86.291891      158.5          158.5          158.5          0.21179       -0.43876416     0.68605348     0.38808069     86.291891    
     92740   82.62935       158.5          158.5          158.5         -0.39222041    -2.5397338      4.2046863     -2.8416137      82.62935     
     92760   64.973804      158.5          158.5          158.5          1.8441522      4.4788044     -0.70422672     1.7578789      64.973804    
     92780   61.649134      158.5          158.5          158.5          0.087074784    2.816996      -4.3691045      1.8133328      61.649134    
     92800   64.112454      158.5          158.5          158.5         -2.8060137     -2.4308662     -1.330951      -4.6562238      64.112454    
     92820   64.600425      158.5          158.5          158.5          0.52377858     0.028463845    2.0214007     -0.47852877     64.600425    
     92840   60.33007       158.5          158.5          158.5          1.2635352      2.2592511     -2.5935812      4.1249357      60.33007     
     92860   53.073331      158.5          158.5          158.5         -1.5936127     -1.6083655     -3.2562708      0.083798226    53.073331    
     92880   59.596504      158.5          158.5          158.5          1.3844394      0.65951021     2.2836665      1.2101416      59.596504    
     92900   56.865874      158.5          158.5          158.5         -0.77834677    -1.6916189      1.4375672     -2.0809887      56.865874    
     92920   57.335736      158.5          158.5          158.5         -1.0845834      0.039085989   -0.30787461    -2.9849615      57.335736    
     92940   66.220071      158.5          158.5          158.5          4.2369689      5.407655       3.1201253      4.1831263      66.220071    
     92960   62.818409      158.5          158.5          158.5          0.70328561     0.66238607     0.13869303     1.3087777      62.818409    
     92980   54.461527      158.5          158.5          158.5          0.46331516     0.98394161     3.4132627     -3.0072588      54.461527    
     93000   58.275178      158.5          158.5          158.5          1.5681263      2.34822        3.7830392     -1.4268803      58.275178    
     93020   52.927777      158.5          158.5          158.5         -0.68597977    -0.52456262    -2.726402       1.1930253      52.927777    
     93040   51.87708       158.5          158.5          158.5          0.77823094     0.4900224     -2.1243648      3.9690352      51.87708     
     93060   59.087739      158.5          158.5          158.5          1.6545667      1.6992917      4.1991868     -0.93477861     59.087739    
     93080   55.191415      158.5          158.5          158.5          0.85463503    -0.70250162     2.0543145      1.2120922      55.191415    
     93100   61.404285      158.5          158.5          158.5         -1.8980545     -0.037672057   -6.2049477      0.54845611     61.404285    
     93120   63.044854      158.5          158.5          158.5          0.88619853     2.4683843     -1.5260265      1.7162378      63.044854    
     93140   67.440593      158.5          158.5          158.5         -0.73574519    -3.4285442      0.77864872     0.44265993     67.440593    
     93160   63.237044      158.5          158.5          158.5         -1.2661103     -0.062668241   -2.2403511     -1.4953116      63.237044    
     93180   69.905191      158.5          158.5          158.5         -0.73356326     3.6296251     -4.8915815     -0.93873337     69.905191    
     93200   62.529629      158.5          158.5          158.5         -0.32865244    -1.9863516     -1.2007426      2.2011369      62.529629    
     93220   74.530838      158.5          158.5          158.5          2.317096       0.54268464     5.0747215      1.3338819      74.530838    
     93240   70.778685      158.5          158.5          158.5          1.4656121      3.9518459      0.2718538      0.17313651     70.778685    
     93260   77.22592       158.5          158.5          158.5         -3.1522814     -5.0320161     -5.5178421      1.0930142      77.22592     
     93280   64.139523      158.5          158.5          158.5         -0.89773267    -3.1843436      0.14739846     0.34374707     64.139523    
     93300   68.991363      158.5          158.5          158.5         -2.2327826     -3.7933137      1.3734165     -4.2784506      68.991363    
     93320   77.211217      158.5          158.5          158.5         -1.861711      -3.4150186      0.18818796    -2.3583024      77.211217    
     93340   66.008281      158.5          158.5          158.5          1.4251411      2.1098843      0.85842144     1.3071174      66.008281    
     93360   82.821613      158.5          158.5          158.5         -1.9335651     -3.5909128     -1.506223      -0.70355955     82.821613    
     93380   83.208158      158.5          158.5          158.5         -0.21900835    -4.5486324      3.2810531      0.61055426     83.208158    
     93400   68.679952      158.5          158.5          158.5          1.4225045     -0.30468944     1.6951463      2.8770566      68.679952    
     93420   76.861004      158.5          158.5          158.5         -1.6475583     -1.5787549     -5.5743858      2.2104657      76.861004    
     93440   61.704558      158.5          158.5          158.5         -0.39080523    -1.336558       1.8628885     -1.6987462      61.704558    
     93460   74.475545      158.5          158.5          158.5         -0.094794192    0.44980221     5.2668853     -6.0010701      74.475545    
     93480   55.33628       158.5          158.5          158.5         -1.6799187     -1.4814737     -1.403719      -2.1545635      55.33628     
     93500   62.956649      158.5          158.5          158.5          0.79140327    -1.1589668      0.13349194     3.3996847      62.956649    
     93520   62.709605      158.5          158.5          158.5          0.83973342     1.6905955     -0.76819675     1.5968015      62.709605    
     93540   61.678412      158.5          158.5          158.5          0.090526317   -0.28724646     0.88573821    -0.32691279     61.678412    
     93560   58.503303      158.5          158.5          158.5          2.5084271      0.48023129     5.9248006      1.1202495      58.503303    
     93580   56.363424      158.5          158.5          158.5         -1.1831663      2.4931062     -4.0492135     -1.9933914      56.363424    
     93600   53.268323      158.5          158.5          158.5         -1.1888833      4.553669      -4.3501121     -3.7702067      53.268323    
     93620   60.770114      158.5          158.5          158.5          3.8146079      5.1876168      4.8624565      1.3937504      60.770114    
     93640   60.693926      158.5          158.5          158.5         -0.88999295    -1.6989926     -0.37769814    -0.59328814     60.693926    
     93660   50.557118      158.5          158.5          158.5         -0.27344089     1.9659363     -4.6129709      1.8267119      50.557118    
     93680   59.709789      158.5          158.5          158.5          1.4694728      4.6779223     -3.0666968      2.797193       59.709789    
     93700   61.333148      158.5          158.5          158.5         -0.17720645    -4.1898611      4.3957103     -0.73746848     61.333148    
     93720   67.984227      158.5          158.5          158.5          2.0704644      0.26858091     5.4753618      0.46745049     67.984227    
     93740   63.570145      158.5          158.5          158.5         -0.83958385     0.92469988    -3.3055        -0.13795144     63.570145    
     93760   70.650731      158.5          158.5          158.5         -2.9462006     -5.7104284     -4.0030423      0.87486904     70.650731    
     93780   63.696253      158.5          158.5          158.5         -1.0885028     -3.5138143      0.73327581    -0.48496991     63.696253    
     93800   64.521867      158.5          158.5          158.5         -4.039934      -3.9532845     -3.9144993     -4.2520183      64.521867    
     93820   69.873652      158.5          158.5          158.5         -1.2911644     -1.7178738     -0.77196235    -1.3836571      69.873652    
     93840   70.602655      158.5          158.5          158.5          2.4229513      3.8068163      2.7111117      0.75092597     70.602655    
     93860   74.754001      158.5          158.5          158.5         -1.7113952     -0.87751438    -2.1915953     -2.065076       74.754001    
     93880   69.584372      158.5          158.5          158.5          0.88331927     0.48482682     0.42337754     1.7417535      69.584372    
     93900   61.328569      158.5          158.5          158.5         -0.30916963     0.5085978     -1.1562075     -0.27989919     61.328569    
     93920   69.503198      158.5          158.5          158.5         -2.1955367     -3.5337017     -3.5551972      0.50228888     69.503198    
     93940   68.111202      158.5          158.5          158.5         -1.4600724     -3.5097009     -0.48338929    -0.3871271      68.111202    
     93960   76.520489      158.5          158.5          158.5         -2.4282313     -0.95779165    -3.0139097     -3.3129927      76.520489    
     93980   66.22556       158.5          158.5          158.5          1.2006397      2.5216131     -0.1575345      1.2378407      66.22556     
     94000   64.598586      158.5          158.5          158.5          1.4258734      3.2879805      0.95679956     0.032840115    64.598586    
     94020   69.081924      158.5          158.5          158.5          0.35454616     0.2392104      2.9382437     -2.1138157      69.081924    
     94040   60.530495      158.5          158.5          158.5          1.9661954      2.0721316      3.3828497      0.44360502     60.530495    
     94060   65.544345      158.5          158.5          158.5          1.0904087      3.5728088     -0.0039285782  -0.29765413     65.544345    
     94080   72.140164      158.5          158.5          158.5         -0.98373818    -0.037964485   -2.2394682     -0.67378183     72.140164    
     94100   67.939245      158.5          158.5          158.5          2.6374492      3.0102038      2.4299286      2.4722151      67.939245    
     94120   61.634574      158.5          158.5          158.5         -0.79270943    -0.90151063    -0.92505073    -0.55156691     61.634574    
     94140   66.878435      158.5          158.5          158.5          0.8770609     -0.61333182     2.7046286      0.5398859      66.878435    
     94160   64.125145      158.5          158.5          158.5          0.4913815      0.18424462     1.6748906     -0.38499068     64.125145    
     94180   64.27371       158.5          158.5          158.5         -0.66104131    -1.4141099     -2.3748194      1.8058053      64.27371     
     94200   61.295535      158.5          158.5          158.5          2.2101499      1.8922754      1.4089114      3.3292629      61.295535    
     94220   72.492215      158.5          158.5          158.5          2.3056084      2.6151356      4.8611305     -0.55944079     72.492215    
     94240   71.159941      158.5          158.5          158.5          2.3519211      0.15835437     2.5071465      4.3902624      71.159941    
     94260   59.5513        158.5          158.5          158.5         -1.9203996     -2.7348526     -4.2322882      1.2059422      59.5513      
     94280   54.962617      158.5          158.5          158.5          0.37914227     1.7007918     -0.017978571   -0.54538643     54.962617    
     94300   62.297581      158.5          158.5          158.5         -0.1467882     -1.2967579      2.5575879     -1.7011946      62.297581    
     94320   58.295676      158.5          158.5          158.5         -2.535681      -3.1679861     -2.5720807     -1.8669764      58.295676    
     94340   65.419686      158.5          158.5          158.5          1.7403871      2.3479332     -0.35475988     3.2279881      65.419686    
     94360   60.151111      158.5          158.5          158.5         -0.65077256    -1.0336896      3.1884783     -4.1071064      60.151111    
     94380   59.526023      158.5          158.5          158.5         -0.03864678     1.7253578     -2.5112835      0.6699854      59.526023    
     94400   58.829418      158.5          158.5          158.5         -0.46382571     1.6328018     -6.0228007      2.9985217      58.829418    
     94420   60.596379      158.5          158.5          158.5         -0.96923855    -1.5377189      0.54440486    -1.9144016      60.596379    
     94440   68.093601      158.5          158.5          158.5          1.1770597      3.9028941      1.0453811     -1.4170963      68.093601    
     94460   57.394484      158.5          158.5          158.5         -1.7611505      0.23670973    -5.2304507     -0.28971049     57.394484    
     94480   54.394522      158.5          158.5          158.5         -0.097836707    0.28623261    -2.5519944      1.9722516      54.394522    
     94500   57.54922       158.5          158.5          158.5         -0.4363771      1.2611582     -0.37846961    -2.1918199      57.54922     
     94520   64.443023      158.5          158.5          158.5         -0.38859873     0.31681494    -0.4560156     -1.0265955      64.443023    
     94540   58.356909      158.5          158.5          158.5         -0.10127774    -1.3940868     -1.43382        2.5240735      58.356909    
     94560   52.300519      158.5          158.5          158.5         -0.3619696      0.10071181    -0.71146588    -0.47515473     52.300519    
     94580   59.274592      158.5          158.5          158.5          2.9805812      4.7690956      3.4300341      0.74261387     59.274592    
     94600   57.198218      158.5          158.5          158.5         -2.2183758     -3.3934438     -0.45418702    -2.8074964      57.198218    
     94620   58.813178      158.5          158.5          158.5         -1.5050613     -4.8498149     -0.84499658     1.1796277      58.813178    
     94640   54.842678      158.5          158.5          158.5          0.31619315    -0.96045647     2.4444811     -0.53544516     54.842678    
     94660   65.247845      158.5          158.5          158.5         -1.6642873     -2.5004156     -2.7943024      0.30185625     65.247845    
     94680   53.388241      158.5          158.5          158.5          4.6445235      1.9308223      6.032048       5.9707003      53.388241    
     94700   55.402554      158.5          158.5          158.5         -1.1358296     -2.1391521      0.71462841    -1.9829651      55.402554    
     94720   47.419301      158.5          158.5          158.5         -0.47948843    -0.0069539754  -0.74251557    -0.68899574     47.419301    
     94740   47.371072      158.5          158.5          158.5          1.0060439      2.9683312      1.1261504     -1.0763498      47.371072    
     94760   46.174958      158.5          158.5          158.5         -3.351705      -4.5890553     -0.13067385    -5.3353858      46.174958    
     94780   60.955705      158.5          158.5          158.5          2.0093494     -1.3644204      2.9932487      4.3992198      60.955705    
     94800   56.560747      158.5          158.5          158.5         -0.60288523     1.456816      -4.8969004      1.6314288      56.560747    
     94820   56.776708      158.5          158.5          158.5         -0.16314069     1.9336357     -3.1973613      0.7743035      56.776708    
     94840   50.217597      158.5          158.5          158.5          2.9790004      1.1434842      3.0428495      4.7506676      50.217597    
     94860   65.57672       158.5          158.5          158.5         -1.5257934     -2.5961177     -0.90991285    -1.0713497      65.57672     
     94880   59.902674      158.5          158.5          158.5          0.42635817     3.340646      -2.86003        0.79845853     59.902674    
     94900   54.362796      158.5          158.5          158.5          2.4772914      3.9035472      0.45169484     3.0766323      54.362796    
     94920   47.843592      158.5          158.5          158.5          0.14129807    -2.7793715      1.4713456      1.7319201      47.843592    
     94940   59.359687      158.5          158.5          158.5         -0.64272908    -1.7235422     -2.5920438      2.3873988      59.359687    
     94960   63.328518      158.5          158.5          158.5          0.39291635     0.49807348    -0.90774475     1.5884203      63.328518    
     94980   64.625466      158.5          158.5          158.5          0.20909718    -1.2308957      1.5920995      0.26608773     64.625466    
     95000   60.434597      158.5          158.5          158.5         -0.98090065    -1.7855929     -1.7207794      0.56367026     60.434597    
     95020   58.303472      158.5          158.5          158.5         -1.0002201     -4.0648188      1.634382      -0.5702234      58.303472    
     95040   64.198933      158.5          158.5          158.5         -0.59152597    -0.30512511    -1.618959       0.14950618     64.198933    
     95060   64.030527      158.5          158.5          158.5         -0.71708568     0.95668982    -3.3002562      0.19230931     64.030527    
     95080   68.379856      158.5          158.5          158.5         -1.3620738     -4.1045349      3.0283973     -3.0100838      68.379856    
     95100   61.308782      158.5          158.5          158.5         -1.742852      -5.5659706      2.3906737     -2.0532591      61.308782    
     95120   68.084051      158.5          158.5          158.5         -0.13171325     1.039197      -0.073866133   -1.3604706      68.084051    
     95140   61.989552      158.5          158.5          158.5         -0.21017375     1.1725067     -2.3977636      0.59473566     61.989552    
     95160   60.264509      158.5          158.5          158.5         -0.11718913    -0.92396978     2.2445271     -1.6721248      60.264509    
     95180   60.253475      158.5          158.5          158.5          0.34032855     0.58749715     4.6099292     -4.1764407      60.253475    
     95200   63.363818      158.5          158.5          158.5          0.39093828     3.1180796     -1.9033985     -0.041866243    63.363818    
     95220   65.970554      158.5          158.5          158.5         -2.4159797     -2.6143067     -3.9303328     -0.70329977     65.970554    
     95240   60.210748      158.5          158.5          158.5          1.0445608      0.49603441     3.8755756     -1.2379277      60.210748    
     95260   56.978591      158.5          158.5          158.5          2.5554472      4.0584236      1.1505799      2.4573381      56.978591    
     95280   50.958831      158.5          158.5          158.5         -4.0138591     -1.5547669     -8.4220937     -2.0647167      50.958831    
     95300   52.207896      158.5          158.5          158.5          2.9443733      5.7813113      0.49204091     2.5597676      52.207896    
     95320   51.768102      158.5          158.5          158.5         -0.22997819    -1.1424295      0.82357309    -0.37107816     51.768102    
     95340   56.797777      158.5          158.5          158.5         -2.2810592     -4.0383236     -0.66001103    -2.1448429      56.797777    
     95360   46.489558      158.5          158.5          158.5          3.3794115      5.4083563      2.364961       2.3649173      46.489558    
     95380   46.413427      158.5          158.5          158.5         -2.0312641     -1.2011495     -5.0104208      0.11777806     46.413427    
     95400   48.820418      158.5          158.5          158.5          1.1798346     -1.4088661      2.4492537      2.4991163      48.820418    
     95420   53.647017      158.5          158.5          158.5          3.4888335      1.4979238      6.1405235      2.8280533      53.647017    
     95440   47.033994      158.5          158.5          158.5         -2.1526874     -1.8635258     -2.8160391     -1.7784972      47.033994    
     95460   46.150335      158.5          158.5          158.5          0.87748076     2.3837859     -2.3078776      2.556534       46.150335    
     95480   43.458063      158.5          158.5          158.5         -0.3714436     -0.77463822     1.0832176     -1.4229101      43.458063    
     95500   54.545187      158.5          158.5          158.5         -3.3426873     -5.8829756     -1.44965       -2.6954363      54.545187    
     95520   44.58595       158.5          158.5          158.5          3.6549503      1.8412645      3.0507637      6.0728226      44.58595     
     95540   55.52095       158.5          158.5          158.5          3.344762       2.751104       3.7878749      3.4953072      55.52095     
     95560   61.123212      158.5          158.5          158.5         -1.1496541     -0.88528298    -0.59575602    -1.9679234      61.123212    
     95580   61.280884      158.5          158.5          158.5          2.3257123      1.5865211      4.2159289      1.1746868      61.280884    
     95600   65.903211      158.5          158.5          158.5          2.1736462      2.5761291      1.9360529      2.0087567      65.903211    
     95620   65.03721       158.5          158.5          158.5         -2.8371162     -1.0484061     -5.9197513     -1.5431912      65.03721     
     95640   63.633136      158.5          158.5          158.5         -0.31088534    -2.00494        2.8111338     -1.7388499      63.633136    
     95660   67.085256      158.5          158.5          158.5         -1.14773       -4.1560525      2.6916927     -1.9788303      67.085256    
     95680   73.493996      158.5          158.5          158.5         -2.0683917      0.25428386    -7.6998549      1.2403958      73.493996    
     95700   73.238387      158.5          158.5          158.5          1.7739053      4.6965976     -0.96866922     1.5937876      73.238387    
     95720   65.01699       158.5          158.5          158.5         -0.78498647    -0.49676512     2.8386685     -4.6968628      65.01699     
     95740   72.567328      158.5          158.5          158.5         -1.0064737     -1.8457807     -2.2479739      1.0743336      72.567328    
     95760   61.516621      158.5          158.5          158.5          0.85838045     0.04414199    -2.1165847      4.647584       61.516621    
     95780   63.676006      158.5          158.5          158.5         -3.6317145     -1.0946974     -4.4226116     -5.3778346      63.676006    
     95800   71.282483      158.5          158.5          158.5          1.9467407      4.2069191      6.2312253     -4.5979224      71.282483    
     95820   65.99097       158.5          158.5          158.5         -0.14619748    -0.79209854     0.69790985    -0.34440374     65.99097     
     95840   57.458358      158.5          158.5          158.5          0.67861214    -0.48600595    -0.99133846     3.5131808      57.458358    
     95860   61.034408      158.5          158.5          158.5          5.0065877      4.3580284      6.829235       3.8324997      61.034408    
     95880   59.651952      158.5          158.5          158.5         -1.8193024     -4.2335542      1.0345346     -2.2588876      59.651952    
     95900   54.87596       158.5          158.5          158.5          2.3752333     -1.5190506      2.9367394      5.708011       54.87596     
     95920   56.521978      158.5          158.5          158.5         -1.8771413     -1.8817723     -2.6264054     -1.1232464      56.521978    
     95940   57.921649      158.5          158.5          158.5         -1.451878       1.3136143     -0.75527448    -4.9139738      57.921649    
     95960   54.186543      158.5          158.5          158.5          2.4455151      1.2994987      5.2799862      0.75706038     54.186543    
     95980   59.325527      158.5          158.5          158.5         -2.2343011     -4.3246021     -2.269224      -0.10907724     59.325527    
     96000   55.689009      158.5          158.5          158.5          0.85932946     1.0637299     -2.8720021      4.3862607      55.689009    
     96020   47.387901      158.5          158.5          158.5          1.4653838      1.3778502      3.247617      -0.22931593     47.387901    
     96040   48.082265      158.5          158.5          158.5          0.3817836     -0.029070196    4.0503842     -2.8759632      48.082265    
     96060   53.321458      158.5          158.5          158.5         -1.8536841     -0.16427916    -2.5539386     -2.8428346      53.321458    
     96080   57.572635      158.5          158.5          158.5          1.4484453      2.3641646     -0.93939818     2.9205695      57.572635    
     96100   49.996851      158.5          158.5          158.5          0.67887385     0.72494765     1.7153174     -0.40364347     49.996851    
     96120   55.617859      158.5          158.5          158.5         -5.3080932     -6.1905437     -4.2371556     -5.4965803      55.617859    
     96140   52.268096      158.5          158.5          158.5          4.3491051      6.2856523      1.92012        4.8415429      52.268096    
     96160   45.808029      158.5          158.5          158.5         -1.9477087      0.36346794    -3.1359423     -3.0706516      45.808029    
     96180   49.36466       158.5          158.5          158.5         -1.1323249     -0.25825697    -1.390843      -1.7478748      49.36466     
     96200   56.287373      158.5          158.5          158.5          3.4788752      2.2480172      3.1620119      5.0265966      56.287373    
     96220   61.217052      158.5          158.5          158.5         -6.2098167     -7.506545      -7.0430644     -4.0798408      61.217052    
     96240   61.223806      158.5          158.5          158.5          2.3495832      4.0949333      1.672009       1.2818072      61.223806    
     96260   58.809074      158.5          158.5          158.5          1.5824706      2.3208813      2.4083951      0.018135473    58.809074    
     96280   62.989777      158.5          158.5          158.5         -0.96228578    -0.9143243     -0.70267789    -1.2698552      62.989777    
     96300   65.736542      158.5          158.5          158.5          0.92558299     0.44786375     0.56123781     1.7676474      65.736542    
     96320   65.412583      158.5          158.5          158.5         -0.1411249     -2.8645853      2.38852        0.052690578    65.412583    
     96340   72.909849      158.5          158.5          158.5         -2.4062594     -0.82645901    -2.8407541     -3.5515652      72.909849    
     96360   68.825469      158.5          158.5          158.5         -1.9340942     -1.5276391     -1.7663617     -2.5082819      68.825469    
     96380   63.653863      158.5          158.5          158.5          3.1116234     -1.6870572      5.8829315      5.1389958      63.653863    
     96400   70.346618      158.5          158.5          158.5         -2.5140582     -3.1955869     -1.8721458     -2.474442       70.346618    
     96420   60.093886      158.5          158.5          158.5          0.62060687     1.0186504      2.3532113     -1.5100411      60.093886    
     96440   53.999301      158.5          158.5          158.5          3.0304632      3.1178812      3.2894437      2.6840646      53.999301    
     96460   60.583052      158.5          158.5          158.5         -2.2116778     -3.3547199     -2.262131      -1.0181824      60.583052    
     96480   51.419641      158.5          158.5          158.5          3.0457721      2.4753855      4.3907259      2.2712049      51.419641    
     96500   64.888324      158.5          158.5          158.5         -2.2957832     -0.62424362    -3.1881437     -3.0749622      64.888324    
     96520   60.519426      158.5          158.5          158.5         -0.22542131     2.4056211     -1.4192797     -1.6626052      60.519426    
     96540   61.910061      158.5          158.5          158.5          0.53576439     4.2165502      0.32854393    -2.937801       61.910061    
     96560   52.461424      158.5          158.5          158.5         -4.4414124     -1.9750132     -5.0832216     -6.2660026      52.461424    
     96580   47.093655      158.5          158.5          158.5          2.845258       6.2507252     -0.43295559     2.7180043      47.093655    
     96600   54.718718      158.5          158.5          158.5         -2.3930682     -1.0732602     -3.4775378     -2.6284065      54.718718    
     96620   57.497331      158.5          158.5          158.5         -1.4452143     -5.8721325     -0.6549943      2.1914839      57.497331    
     96640   49.841716      158.5          158.5          158.5          2.0639705      0.98925017     1.0769172      4.1257442      49.841716    
     96660   58.901447      158.5          158.5          158.5         -1.4436426      2.3678922     -1.385205      -5.3136148      58.901447    
     96680   53.882558      158.5          158.5          158.5         -0.53469745    -0.16163968     1.1585732     -2.6010259      53.882558    
     96700   50.110987      158.5          158.5          158.5          0.9426739      1.5492869      2.1961907     -0.91745593     50.110987    
     96720   51.152085      158.5          158.5          158.5          0.77436183     0.94931159     2.4555015     -1.0817276      51.152085    
     96740   54.70518       158.5          158.5          158.5         -1.7043353     -1.0617817     -2.4150661     -1.636158       54.70518     
     96760   51.339579      158.5          158.5          158.5          2.0361729      1.9689663      5.0181177     -0.87856539     51.339579    
     96780   47.664464      158.5          158.5          158.5          1.0483671     -1.2443312      5.5455949     -1.1561624      47.664464    
     96800   50.25264       158.5          158.5          158.5         -2.7189079     -4.7347992     -3.6404797      0.21855527     50.25264     
     96820   42.6431        158.5          158.5          158.5          4.0809752      1.0779679      3.5891122      7.5758456      42.6431      
     96840   48.266939      158.5          158.5          158.5          0.59953373    -1.5647573      4.435218      -1.0718595      48.266939    
     96860   45.527594      158.5          158.5          158.5          0.24866049     1.1166491      0.084317399   -0.45498501     45.527594    
     96880   51.023937      158.5          158.5          158.5          1.3516046      1.5057186     -0.99335999     3.5424551      51.023937    
     96900   44.802663      158.5          158.5          158.5         -0.4146312     -1.1681636     -0.11013596     0.034405961    44.802663    
     96920   44.089922      158.5          158.5          158.5          2.3907799      3.6968648      3.804905      -0.32943015     44.089922    
     96940   56.165653      158.5          158.5          158.5          1.9282638      2.8114427      1.9211358      1.0522131      56.165653    
     96960   47.404321      158.5          158.5          158.5          2.589613       0.71720299    -0.63595327     7.6875892      47.404321    
     96980   48.11799       158.5          158.5          158.5         -0.48711813     0.087250591   -1.7469953      0.19839029     48.11799     
     97000   54.732249      158.5          158.5          158.5         -1.8270985      0.73879744    -1.383913      -4.83618        54.732249    
     97020   45.161604      158.5          158.5          158.5         -0.86314945     0.86304403    -4.8729357      1.4204433      45.161604    
     97040   49.455623      158.5          158.5          158.5         -2.3025509     -3.3514339     -4.5385452      0.98232656     49.455623    
     97060   45.756083      158.5          158.5          158.5          2.1310447      2.6306458      2.8066677      0.95582063     45.756083    
     97080   54.372335      158.5          158.5          158.5          1.6997279      5.0523264      0.46368333    -0.41682594     54.372335    
     97100   55.333612      158.5          158.5          158.5          0.17072179     1.9754789     -2.0952832      0.63196963     55.333612    
     97120   63.091808      158.5          158.5          158.5         -0.25572227    -1.4674677     -1.353465       2.0537659      63.091808    
     97140   55.054085      158.5          158.5          158.5         -3.445795      -3.9881028     -2.0790678     -4.2702145      55.054085    
     97160   57.682907      158.5          158.5          158.5         -0.23635775    -0.67728841     2.3833994     -2.4151842      57.682907    
     97180   60.389844      158.5          158.5          158.5          0.57511684     1.0747576      1.5718682     -0.92127529     60.389844    
     97200   53.160794      158.5          158.5          158.5         -0.12084821     0.62617583     0.27528488    -1.2640053      53.160794    
     97220   60.800536      158.5          158.5          158.5          2.4469392      1.1193139      3.6972085      2.5242952      60.800536    
     97240   53.65723       158.5          158.5          158.5          0.53080876    -0.6113009      3.3462213     -1.1424941      53.65723     
     97260   53.267472      158.5          158.5          158.5          1.7421763      2.9633409      1.8351689      0.42801891     53.267472    
     97280   53.842439      158.5          158.5          158.5         -0.56331814    -1.1635809     -1.1144352      0.58806165     53.842439    
     97300   47.153787      158.5          158.5          158.5          2.1581836     -1.3053245      3.6735552      4.1063201      47.153787    
     97320   49.774036      158.5          158.5          158.5          1.6864471      1.2265547      3.506034       0.32675264     49.774036    
     97340   47.99529       158.5          158.5          158.5          0.72711326     2.0796958      0.49757303    -0.39592902     47.99529     
     97360   53.308722      158.5          158.5          158.5          0.91308979     1.2134942      1.1199093      0.40586592     53.308722    
     97380   45.239985      158.5          158.5          158.5          0.43688943    -0.19447181    -0.49421613     1.9993562      45.239985    
     97400   43.698196      158.5          158.5          158.5          0.17166719    -2.0504497     -1.4832762      4.0487275      43.698196    
     97420   49.682374      158.5          158.5          158.5         -1.9607671      1.9195681     -4.1599379     -3.6419316      49.682374    
     97440   46.188818      158.5          158.5          158.5         -2.6871412      0.18295978    -5.1141627     -3.1302208      46.188818    
     97460   52.423718      158.5          158.5          158.5         -0.17376125    -2.0196791     -0.7555986      2.2539939      52.423718    
     97480   39.639619      158.5          158.5          158.5         -0.85378478     2.0344659     -2.6630003     -1.9328199      39.639619    
     97500   41.678617      158.5          158.5          158.5         -1.0027513      4.2513055     -5.0625239     -2.1970354      41.678617    
     97520   41.72913       158.5          158.5          158.5          1.443413       1.1645909     -0.22232251     3.3879708      41.72913     
     97540   37.768366      158.5          158.5          158.5         -1.0116916     -4.9318434      2.1747624     -0.27799374     37.768366    
     97560   40.86505       158.5          158.5          158.5         -0.31163219    -1.4015406      0.72081562    -0.25417163     40.86505     
     97580   45.337654      158.5          158.5          158.5         -0.50894606     1.6139291      0.34481689    -3.4855841      45.337654    
     97600   46.606102      158.5          158.5          158.5          1.406401       1.2770129      3.1093051     -0.16711516     46.606102    
     97620   48.502698      158.5          158.5          158.5          0.84705619    -3.1378022      1.8183577      3.8606132      48.502698    
     97640   36.905375      158.5          158.5          158.5         -2.1126634     -2.7635076      0.59798221    -4.1724648      36.905375    
     97660   38.213029      158.5          158.5          158.5          2.2760714      2.779299       5.8342192     -1.7853042      38.213029    
     97680   37.204366      158.5          158.5          158.5         -2.3656        -4.8730605     -1.8012716     -0.42246779     37.204366    
     97700   41.042724      158.5          158.5          158.5          0.53867419    -2.2574235     -0.45311813     4.3265642      41.042724    
     97720   34.921499      158.5          158.5          158.5          2.9776219      3.7149407      5.0555079      0.16241705     34.921499    
     97740   41.588334      158.5          158.5          158.5         -3.4138938     -1.0522723     -1.8191547     -7.3702544      41.588334    
     97760   39.552963      158.5          158.5          158.5          1.2538492      2.6430237     -0.20074883     1.3192728      39.552963    
     97780   39.120238      158.5          158.5          158.5         -0.16907435    -1.3673294     -0.20675451     1.0668608      39.120238    
     97800   28.726329      158.5          158.5          158.5         -0.7921093      1.7509843     -2.6642804     -1.4630318      28.726329    
     97820   39.653601      158.5          158.5          158.5          0.25630007     4.1065029     -2.1111118     -1.2264908      39.653601    
     97840   32.696835      158.5          158.5          158.5         -1.7491865     -3.4257342     -2.3555345      0.53370917     32.696835    
     97860   33.539126      158.5          158.5          158.5         -0.44947905     0.54947987    -4.8970937      2.9991767      33.539126    
     97880   30.7815        158.5          158.5          158.5         -2.0496978      0.70952603    -6.5015163     -0.35710308     30.7815      
     97900   25.519026      158.5          158.5          158.5         -1.1499234     -1.7244309     -2.2620194      0.53668005     25.519026    
     97920   37.571015      158.5          158.5          158.5         -2.216258      -0.40393476    -3.2747221     -2.9701172      37.571015    
     97940   33.444222      158.5          158.5          158.5          0.010351969   -0.39499473    -1.5896047      2.0156553      33.444222    
     97960   22.558582      158.5          158.5          158.5          0.49228085    -1.0159189      0.62116099     1.8716004      22.558582    
     97980   43.475889      158.5          158.5          158.5         -2.1714396     -1.8154967      1.7222247     -6.4210467      43.475889    
     98000   22.765822      158.5          158.5          158.5          3.466176       3.658848       5.0404442      1.6992357      22.765822    
     98020   42.570344      158.5          158.5          158.5         -0.89454243    -5.5663573     -0.060150043    2.94288        42.570344    
     98040   36.570363      158.5          158.5          158.5          0.24601919    -2.9048844      2.3367437      1.3061982      36.570363    
     98060   38.038858      158.5          158.5          158.5          3.1204544      4.3882786      5.0071738     -0.034089244    38.038858    
     98080   49.157195      158.5          158.5          158.5         -0.10912734     0.70831535     1.7061831     -2.7418805      49.157195    
     98100   47.479659      158.5          158.5          158.5          1.2279834     -0.69748222     2.0855463      2.2958862      47.479659    
     98120   36.426824      158.5          158.5          158.5         -0.68764611    -2.654519      -0.73063371     1.3222144      36.426824    
     98140   48.63498       158.5          158.5          158.5          1.8916652      0.86550039     3.1772446      1.6322506      48.63498     
     98160   39.058915      158.5          158.5          158.5          1.4006604      3.2135227      1.0526581     -0.064199478    39.058915    
     98180   53.075148      158.5          158.5          158.5          0.36940759    -1.0638368      0.049211267    2.1228483      53.075148    
     98200   36.289739      158.5          158.5          158.5          2.7011275      3.5056131      0.48061045     4.117159       36.289739    
     98220   35.109042      158.5          158.5          158.5         -0.30892719     4.872883      -1.5973564     -4.2023081      35.109042    
     98240   45.843437      158.5          158.5          158.5          2.0249534      1.8780158      3.6113319      0.58551244     45.843437    
     98260   38.94076       158.5          158.5          158.5         -2.3082265     -2.6319674     -3.6256018     -0.66711024     38.94076     
     98280   45.713725      158.5          158.5          158.5         -0.45728402    -0.045354598   -3.0352041      1.7087066      45.713725    
     98300   48.094422      158.5          158.5          158.5          1.8270575      3.6656332      2.0588052     -0.24326595     48.094422    
     98320   48.939432      158.5          158.5          158.5         -2.8506075     -1.1671116     -2.9687717     -4.4159392      48.939432    
     98340   47.263809      158.5          158.5          158.5          1.2758959      4.190912      -3.6720416      3.3088173      47.263809    
     98360   42.334594      158.5          158.5          158.5         -4.5369759     -5.7968514     -5.3242576     -2.4898187      42.334594    
     98380   38.935278      158.5          158.5          158.5         -1.863131      -3.2148231      0.70855667    -3.0831265      38.935278    
     98400   32.759678      158.5          158.5          158.5          2.6579754      4.931258       1.3866026      1.6560657      32.759678    
     98420   42.824319      158.5          158.5          158.5         -0.15151924    -0.086860756   -1.4371737      1.0694767      42.824319    
     98440   39.051696      158.5          158.5          158.5          3.6627653      0.74804663     4.432842       5.8074074      39.051696    
     98460   36.501853      158.5          158.5          158.5         -1.6032943     -3.3770452      1.6872804     -3.120118       36.501853    
     98480   24.836697      158.5          158.5          158.5          0.25914333     1.7007298      0.48541957    -1.4087194      24.836697    
     98500   33.633308      158.5          158.5          158.5          2.6142508      2.958058      -0.68783854     5.572533       33.633308    
     98520   38.60999       158.5          158.5          158.5         -2.0894651     -6.1637951     -0.76254796     0.65794778     38.60999     
     98540   28.29881       158.5          158.5          158.5          2.7025595      3.1858214      4.8283437      0.093513577    28.29881     
     98560   33.848865      158.5          158.5          158.5         -2.4668938      1.8288361     -4.4541744     -4.7753431      33.848865    
     98580   31.786338      158.5          158.5          158.5          1.6935548      1.5406823     -0.15427428     3.6942564      31.786338    
     98600   32.898196      158.5          158.5          158.5          2.2079643     -1.4126327      3.967031       4.0694945      32.898196    
     98620   35.989866      158.5          158.5          158.5         -0.74816341    -2.3274059      0.7123079     -0.62939229     35.989866    
     98640   41.422294      158.5          158.5          158.5          2.1361586      5.3276028      0.90039292     0.18047999     41.422294    
     98660   35.415477      158.5          158.5          158.5         -1.7757728     -1.0887658     -3.3964994     -0.84205312     35.415477    
     98680   49.486411      158.5          158.5          158.5          4.0317251      4.110362       2.378776       5.6060373      49.486411    
     98700   37.474086      158.5          158.5          158.5         -0.082427896    0.89762846     0.54720248    -1.6921146      37.474086    
     98720   41.865652      158.5          158.5          158.5         -3.4680556     -3.3225664     -2.7124828     -4.3691176      41.865652    
     98740   48.398206      158.5          158.5          158.5          1.9075944      2.0132881      1.8244937      1.8850014      48.398206    
     98760   44.488214      158.5          158.5          158.5         -3.7040087     -7.5356582     -1.1748438     -2.4015242      44.488214    
     98780   45.630998      158.5          158.5          158.5          0.26602874    -2.1898717      1.6299774      1.3579806      45.630998    
     98800   52.371304      158.5          158.5          158.5         -1.9074165     -1.5753349     -1.1559478     -2.9909667      52.371304    
     98820   42.104137      158.5          158.5          158.5         -1.120187      -4.5560969      1.1344178      0.061117989    42.104137    
     98840   48.029277      158.5          158.5          158.5          0.052092057   -1.0445964      1.9016071     -0.70073454     48.029277    
     98860   44.623801      158.5          158.5          158.5         -2.3801337     -0.60597311    -2.7436707     -3.7907573      44.623801    
     98880   47.808684      158.5          158.5          158.5          0.81604061     2.1785639     -0.18488188     0.45443984     47.808684    
     98900   43.127998      158.5          158.5          158.5         -1.4366498     -1.3499764     -2.0020248     -0.95794822     43.127998    
     98920   50.404696      158.5          158.5          158.5          0.42044284    -1.7827917      3.0953635     -0.051243319    50.404696    
     98940   53.892893      158.5          158.5          158.5          2.4156809      3.1788935      3.6130744      0.45507465     53.892893    
     98960   45.141672      158.5          158.5          158.5         -1.1158235     -1.228862      -1.2352706     -0.88333779     45.141672    
     98980   50.397988      158.5          158.5          158.5          0.52926369     2.2484432     -1.0152701      0.35461798     50.397988    
     99000   58.709291      158.5          158.5          158.5         -0.94135434     1.3587505     -1.1817134     -3.0011001      58.709291    
     99020   51.608742      158.5          158.5          158.5          0.085422094   -1.0554308      0.14083876     1.1708584      51.608742    
     99040   49.888758      158.5          158.5          158.5          0.19680344     1.0047839     -0.53439662     0.12002302     49.888758    
     99060   55.880764      158.5          158.5          158.5          0.41321704     2.6047952     -2.7277575      1.3626134      55.880764    
     99080   52.65809       158.5          158.5          158.5          4.9949331      5.2000865      4.789036       4.9956767      52.65809     
     99100   51.993011      158.5          158.5          158.5         -2.3989907     -2.2224185     -0.23796499    -4.7365885      51.993011    
     99120   54.470495      158.5          158.5          158.5          0.45587038     0.89179346    -0.2515019      0.72731958     54.470495    
     99140   39.484185      158.5          158.5          158.5          0.16697538    -1.1496289      1.5884151      0.062139954    39.484185    
     99160   59.508357      158.5          158.5          158.5         -3.779539      -3.5267339     -2.9987635     -4.8131196      59.508357    
     99180   57.070288      158.5          158.5          158.5          1.0813695      5.4524902     -1.1227366     -1.0856451      57.070288    
     99200   62.584022      158.5          158.5          158.5         -2.1688146     -0.65694159    -1.4892103     -4.3602919      62.584022    
     99220   59.232965      158.5          158.5          158.5         -2.7243079     -5.3915151     -0.16860704    -2.6128016      59.232965    
     99240   57.339086      158.5          158.5          158.5         -0.46297738    -1.5589949      1.3334751     -1.1634123      57.339086    
     99260   51.460555      158.5          158.5          158.5         -1.5062924      0.85522073    -2.4429542     -2.9311437      51.460555    
     99280   58.974034      158.5          158.5          158.5         -1.6923835     -1.7952835     -1.1038898     -2.1779772      58.974034    
     99300   49.200379      158.5          158.5          158.5          1.8475222     -0.15857357     3.5411054      2.1600347      49.200379    
     99320   50.75133       158.5          158.5          158.5         -0.19203782    -1.3791414     -0.27956846     1.0825964      50.75133     
     99340   49.514541      158.5          158.5          158.5         -0.55650515     1.2596205     -1.927848      -1.001288       49.514541    
     99360   53.092838      158.5          158.5          158.5         -0.54231418    -0.45570921    -0.84960349    -0.32162985     53.092838    
     99380   44.877855      158.5          158.5          158.5         -0.015821764   -0.21497846     1.5101758     -1.3426626      44.877855    
     99400   39.627696      158.5          158.5          158.5          1.5946547     -0.050018147    2.6980045      2.1359779      39.627696    
     99420   41.665228      158.5          158.5          158.5          1.9012562      2.343049      -0.58190028     3.9426199      41.665228    
     99440   43.683876      158.5          158.5          158.5          1.0226278      3.343042      -1.8868603      1.6117016      43.683876    
     99460   47.201926      158.5          158.5          158.5          0.75715643     0.52659682     0.7665637      0.97830878     47.201926    
     99480   36.692626      158.5          158.5          158.5         -0.86775671    -0.98225804    -1.700641       0.079628899    36.692626    
     99500   41.513612      158.5          158.5          158.5         -0.49594632    -0.17102525    -1.6256694      0.30885572     41.513612    
     99520   41.429274      158.5          158.5          158.5         -1.3354972      0.79308385    -2.4026597     -2.3969158      41.429274    
     99540   27.475389      158.5          158.5          158.5          0.55291366     4.479744       1.2317928     -4.0527958      27.475389    
     99560   38.568889      158.5          158.5          158.5         -0.51693919    -0.99388836     0.010740044   -0.56766926     38.568889    
     99580   32.416542      158.5          158.5          158.5         -0.89286054    -2.3775485     -0.35985483     0.058821713    32.416542    
     99600   44.887705      158.5          158.5          158.5          0.52901366     3.5314207      0.27618305    -2.2205628      44.887705    
     99620   28.287112      158.5          158.5          158.5          0.6725109      3.4291486     -0.30978563    -1.1018303      28.287112    
     99640   36.477624      158.5          158.5          158.5          1.3845313      0.48233773     2.8713305      0.79992568     36.477624    
     99660   30.347366      158.5          158.5          158.5         -2.030247      -4.7883825      0.57485386    -1.8772124      30.347366    
     99680   45.399971      158.5          158.5          158.5         -1.2111818     -1.9937036      0.85511378    -2.4949555      45.399971    
     99700   38.289393      158.5          158.5          158.5         -1.5056815     -3.188          0.22640084    -1.5554455      38.289393    
     99720   30.081714      158.5          158.5          158.5         -0.91986499     0.16654979    -2.1335497     -0.79259503     30.081714    
     99740   33.237741      158.5          158.5          158.5          4.04319        3.0717442      2.8743515      6.1834742      33.237741    
     99760   39.641375      158.5          158.5          158.5          0.62307966    -1.6424874      1.2595195      2.2522069      39.641375    
     99780   31.739688      158.5          158.5          158.5         -0.23690881    -0.47555642     0.68458788    -0.9197579      31.739688    
     99800   39.198505      158.5          158.5          158.5          2.2976885      2.8371077      2.9128428      1.1431151      39.198505    
     99820   34.846672      158.5          158.5          158.5         -0.20644409    -0.55958216    -1.9231965      1.8634464      34.846672    
     99840   37.845829      158.5          158.5          158.5         -1.5404268     -3.2704294     -0.84087397    -0.50997691     37.845829    
     99860   33.993548      158.5          158.5          158.5         -2.0395273     -4.2681832      0.90888414    -2.7592829      33.993548    
     99880   45.038952      158.5          158.5          158.5         -1.3495363     -1.2983058     -0.47533122    -2.2749718      45.038952    
     99900   34.040367      158.5          158.5          158.5         -0.4094127     -0.39570994    -1.1004897      0.26796151     34.040367    
     99920   35.284468      158.5          158.5          158.5          0.18020957    -0.03019208     3.5431692     -2.9723484      35.284468    
     99940   24.822318      158.5          158.5          158.5         -0.55995721    -0.69146745     0.81579883    -1.804203       24.822318    
     99960   27.176907      158.5          158.5          158.5         -0.55941628    -1.8680919     -3.4381565      3.6279996      27.176907    
     99980   22.497635      158.5          158.5          158.5          1.6521662      1.2916069      1.5309112      2.1339805      22.497635    
    100000   36.513793      158.5          158.5          158.5         -2.768863      -2.1953624     -2.512475      -3.5987515      36.513793    
    100020   31.17731       158.5          158.5          158.5          1.094682       3.2170116     -2.1092892      2.1763236      31.17731     
    100040   27.704524      158.5          158.5          158.5          3.6568253      7.4347341     -1.0170859      4.5528278      27.704524    
    100060   25.14068       158.5          158.5          158.5         -2.7101756     -2.165213      -0.60415898    -5.361155       25.14068     
    100080   31.132114      158.5          158.5          158.5          3.5758631      3.7872387      5.6672153      1.2731353      31.132114    
    100100   21.627058      158.5          158.5          158.5          1.2370329      3.5923246      0.095382673    0.023391437    21.627058    
    100105   16.06229       158.5          158.5          158.5          3.4486845      1.5741703      5.8942362      2.8776469      16.06229     
Loop time of 6.91339 on 1 procs for 100000 steps with 100 atoms

Performance: 1249.748 ns/day, 0.019 hours/ns, 14464.677 timesteps/s, 1.446 Matom-step/s
77.6% CPU use with 1 MPI tasks x no OpenMP threads

MPI task timing breakdown:
Section |  min time  |  avg time  |  max time  |%varavg| %total
---------------------------------------------------------------
Pair    | 2.0855     | 2.0855     | 2.0855     |   0.0 | 30.17
Bond    | 1.5879     | 1.5879     | 1.5879     |   0.0 | 22.97
Neigh   | 0.070272   | 0.070272   | 0.070272   |   0.0 |  1.02
Comm    | 0.027302   | 0.027302   | 0.027302   |   0.0 |  0.39
Output  | 0.6568     | 0.6568     | 0.6568     |   0.0 |  9.50
Modify  | 2.3996     | 2.3996     | 2.3996     |   0.0 | 34.71
Other   |            | 0.08604    |            |       |  1.24

Nlocal:            100 ave         100 max         100 min
Histogram: 1 0 0 0 0 0 0 0 0 0
Nghost:              0 ave           0 max           0 min
Histogram: 1 0 0 0 0 0 0 0 0 0
Neighs:           3348 ave        3348 max        3348 min
Histogram: 1 0 0 0 0 0 0 0 0 0
FullNghs:            0 ave           0 max           0 min
Histogram: 1 0 0 0 0 0 0 0 0 0

Total # of neighbors = 3348
Ave neighs/atom = 33.48
Ave special neighs/atom = 5.88
Neighbor list builds = 786
Dangerous builds = 0

# Access cumulative reaction counts after the simulation
variable react1_count equal f_3[1]
variable react2_count equal f_3[2]
variable react3_count equal f_3[3]
variable react4_count equal f_3[4]

# Output cumulative reaction counts
print "Cumulative reaction count for reac1to2: ${react1_count}"
Cumulative reaction count for reac1to2: 0
print "Cumulative reaction count for reac2to3: ${react2_count}"
Cumulative reaction count for reac2to3: 0
print "Cumulative reaction count for reac3to2: ${react3_count}"
Cumulative reaction count for reac3to2: 0
print "Cumulative reaction count for reac2to1: ${react4_count}"
Cumulative reaction count for reac2to1: 0

#####################################################
print "All done"
All done
Total wall time: 0:00:09
