read_data	InitialFile.txt
Reading data file ...
  orthogonal box = (0 0 0) to (158.5 158.5 158.5)
  1 by 1 by 1 MPI processor grid
WARNING: Atom style in data file atomic differs from currently defined atom style molecular (src/src/read_data.cpp:621)
  reading atoms ...
  4 atoms
  scanning bonds ...
  1 = max bonds/atom
  scanning angles ...
  1 = max angles/atom
  scanning dihedrals ...
  1 = max dihedrals/atom
  reading bonds ...
  3 bonds
  reading angles ...
  2 angles
  reading dihedrals ...
  1 dihedrals
Finding 1-2 1-3 1-4 neighbors ...
  special bond factors lj:    0        0        0       
  special bond factors coul:  0        0        0       
     2 = max # of 1-2 neighbors
     1 = max # of 1-3 neighbors
     2 = max # of 1-4 neighbors
     3 = max # of special neighbors
  special bonds CPU = 0.017 seconds
  read_data CPU = 0.050 seconds

# Dreiding potential information
neighbor	2.0 bin
neigh_modify every 1 delay 0 check yes

bond_style      harmonic
bond_coeff	1 350 1.53
bond_coeff	2 700 1.53

angle_style     harmonic
angle_coeff	1 60 109.5
angle_coeff	2 120 109.5

dihedral_style	multi/harmonic
dihedral_coeff	1 1.73 -4.49 0.776 6.99 0.0
dihedral_coeff	2 1.73 -4.49 0.776 6.99 0.0

pair_style	lj/cut 10.5
pair_coeff	* * 1.0 1.0 10.5
pair_coeff	3 3 2.0 0.5 10.5

compute csym all centro/atom fcc
compute peratom all pe/atom


#####################################################
# Equilibration (Brownian dynamics at 300 K)

velocity 	all create 300.0 1231
fix		1 all nve/limit 0.05
fix 2 all brownian 30.0 12908410 gamma_t 3.0 rng gaussian # Compute a correct 300K simulation, check the value for gamma_t
thermo_style	custom step temp
thermo          10000
timestep	1
run		100000
Generated 0 of 3 mixed pair_coeff terms from geometric mixing rule
WARNING: One or more atoms are time integrated more than once (src/src/modify.cpp:289)
Neighbor list info ...
  update: every = 1 steps, delay = 0 steps, check = yes
  max neighbors/atom: 2000, page size: 100000
  master list distance cutoff = 12.5
  ghost atom cutoff = 12.5
  binsize = 6.25, bins = 26 26 26
  2 neighbor lists, perpetual/occasional/extra = 1 1 0
  (1) pair lj/cut, perpetual
      attributes: half, newton on
      pair build: half/bin/newton
      stencil: half/bin/3d
      bin: standard
  (2) compute centro/atom, occasional
      attributes: full, newton on
      pair build: full/bin
      stencil: full/bin/3d
      bin: standard
Per MPI rank memory allocation (min/avg/max) = 7.93 | 7.93 | 7.93 Mbytes
   Step          Temp     
         0   300          
     10000   383.75651    
     20000   312.90404    
     30000   231.72305    
     40000   593.03791    
     50000   491.66354    
     60000   214.24445    
     70000   221.18579    
     80000   215.31903    
     90000   320.74646    
    100000   214.42123    
Loop time of 0.20293 on 1 procs for 100000 steps with 4 atoms

Performance: 42576.206 ns/day, 0.001 hours/ns, 492780.167 timesteps/s, 1.971 Matom-step/s
74.4% CPU use with 1 MPI tasks x no OpenMP threads

MPI task timing breakdown:
Section |  min time  |  avg time  |  max time  |%varavg| %total
---------------------------------------------------------------
Pair    | 0.010332   | 0.010332   | 0.010332   |   0.0 |  5.09
Bond    | 0.043973   | 0.043973   | 0.043973   |   0.0 | 21.67
Neigh   | 0.0004348  | 0.0004348  | 0.0004348  |   0.0 |  0.21
Comm    | 0.029031   | 0.029031   | 0.029031   |   0.0 | 14.31
Output  | 0.0013831  | 0.0013831  | 0.0013831  |   0.0 |  0.68
Modify  | 0.070169   | 0.070169   | 0.070169   |   0.0 | 34.58
Other   |            | 0.04761    |            |       | 23.46

Nlocal:              4 ave           4 max           4 min
Histogram: 1 0 0 0 0 0 0 0 0 0
Nghost:              4 ave           4 max           4 min
Histogram: 1 0 0 0 0 0 0 0 0 0
Neighs:              0 ave           0 max           0 min
Histogram: 1 0 0 0 0 0 0 0 0 0
FullNghs:            0 ave           0 max           0 min
Histogram: 1 0 0 0 0 0 0 0 0 0

Total # of neighbors = 0
Ave neighs/atom = 0
Ave special neighs/atom = 3
Neighbor list builds = 18
Dangerous builds = 0
unfix 1
unfix 2
write_restart 	restart.${simname}.dreiding1
write_restart 	restart.InitialFile.dreiding1
System init for write_restart ...
Generated 0 of 3 mixed pair_coeff terms from geometric mixing rule

#####################################################
# Define Settings
compute eng all pe/atom
compute eatoms all reduce sum c_eng

#####################################################
# Minimization

dump mydmp all atom 100 dump.lammpstrj

reset_timestep 0
fix 1 all nvt temp 300.0 300.0 100.0
thermo 20
thermo_style custom step pe lx ly lz press pxx pyy pzz c_eatoms
min_style cg
minimize 1e-25 1e-25 500000 1000000
Generated 0 of 3 mixed pair_coeff terms from geometric mixing rule
Per MPI rank memory allocation (min/avg/max) = 9.055 | 9.055 | 9.055 Mbytes
   Step         PotEng           Lx             Ly             Lz           Press           Pxx            Pyy            Pzz          c_eatoms   
         0   0.43860544     158.5          158.5          158.5         -0.16003137    -0.36569328    -0.047067813   -0.067333032    0.43860544   
        20   0.0061350799   158.5          158.5          158.5          0.023682201    0.035341018    0.018049124    0.017656461    0.0061350799 
        40   0.0060020261   158.5          158.5          158.5          0.021719748    0.027597115    0.018782679    0.018779451    0.0060020261 
        56   0.006          158.5          158.5          158.5          0.022012451    0.028520348    0.018743954    0.01877305     0.006        
Loop time of 0.000310215 on 1 procs for 56 steps with 4 atoms

85.4% CPU use with 1 MPI tasks x no OpenMP threads

Minimization stats:
  Stopping criterion = energy tolerance
  Energy initial, next-to-last, final = 
     0.438605443419832 0.00600000000000178 0.00600000000000178
  Force two-norm initial, final = 15.897386 1.7800243e-09
  Force max component initial, final = 9.4031225 1.1766233e-09
  Final line search alpha, max atom move = 1 1.1766233e-09
  Iterations, force evaluations = 56 233

MPI task timing breakdown:
Section |  min time  |  avg time  |  max time  |%varavg| %total
---------------------------------------------------------------
Pair    | 1.8529e-05 | 1.8529e-05 | 1.8529e-05 |   0.0 |  5.97
Bond    | 8.2137e-05 | 8.2137e-05 | 8.2137e-05 |   0.0 | 26.48
Neigh   | 0          | 0          | 0          |   0.0 |  0.00
Comm    | 3.7869e-05 | 3.7869e-05 | 3.7869e-05 |   0.0 | 12.21
Output  | 2.3005e-05 | 2.3005e-05 | 2.3005e-05 |   0.0 |  7.42
Modify  | 0          | 0          | 0          |   0.0 |  0.00
Other   |            | 0.0001487  |            |       | 47.93

Nlocal:              4 ave           4 max           4 min
Histogram: 1 0 0 0 0 0 0 0 0 0
Nghost:              4 ave           4 max           4 min
Histogram: 1 0 0 0 0 0 0 0 0 0
Neighs:              0 ave           0 max           0 min
Histogram: 1 0 0 0 0 0 0 0 0 0
FullNghs:            0 ave           0 max           0 min
Histogram: 1 0 0 0 0 0 0 0 0 0

Total # of neighbors = 0
Ave neighs/atom = 0
Ave special neighs/atom = 3
Neighbor list builds = 0
Dangerous builds = 0

group type1_atoms type 1
2 atoms in group type1_atoms
group type2_atoms type 2
1 atoms in group type2_atoms
group type3_atoms type 3
1 atoms in group type3_atoms

molecule mol1closeTo3PRE mol1closeTo3PRE.txt
Read molecule template mol1closeTo3PRE:
  1 molecules
  0 fragments
  4 atoms with max type 3
  3 bonds with max type 1
  2 angles with max type 1
  1 dihedrals with max type 1
  0 impropers with max type 0
molecule mol1closeTo3POST mol1closeTo3POST.txt
Read molecule template mol1closeTo3POST:
  1 molecules
  0 fragments
  4 atoms with max type 3
  3 bonds with max type 1
  2 angles with max type 1
  1 dihedrals with max type 1
  0 impropers with max type 0
molecule mol3closeTo1POST mol3closeTo1POST.txt
Read molecule template mol3closeTo1POST:
  1 molecules
  0 fragments
  4 atoms with max type 2
  3 bonds with max type 1
  2 angles with max type 1
  1 dihedrals with max type 1
  0 impropers with max type 0
molecule mol2closeTo3PRE mol2closeTo3PRE.txt
Read molecule template mol2closeTo3PRE:
  1 molecules
  0 fragments
  4 atoms with max type 3
  3 bonds with max type 1
  2 angles with max type 1
  1 dihedrals with max type 1
  0 impropers with max type 0
molecule mol2closeTo3POST mol2closeTo3POST.txt
Read molecule template mol2closeTo3POST:
  1 molecules
  0 fragments
  4 atoms with max type 3
  3 bonds with max type 1
  2 angles with max type 1
  1 dihedrals with max type 1
  0 impropers with max type 0
molecule mol3closeTo2POST mol3closeTo2POST.txt
Read molecule template mol3closeTo2POST:
  1 molecules
  0 fragments
  4 atoms with max type 2
  3 bonds with max type 1
  2 angles with max type 1
  1 dihedrals with max type 1
  0 impropers with max type 0
molecule mol2closeTo1PRE mol2closeTo1PRE.txt
Read molecule template mol2closeTo1PRE:
  1 molecules
  0 fragments
  4 atoms with max type 3
  3 bonds with max type 1
  2 angles with max type 1
  1 dihedrals with max type 1
  0 impropers with max type 0
molecule mol2closeTo1POST mol2closeTo1POST.txt
Read molecule template mol2closeTo1POST:
  1 molecules
  0 fragments
  4 atoms with max type 3
  3 bonds with max type 1
  2 angles with max type 1
  1 dihedrals with max type 1
  0 impropers with max type 0

#####################################################
# Do the reactions
fix 3 all bond/react   react reac1to2 all 1 0 10 mol1closeTo3PRE mol1closeTo3POST map_1to2.txt
dynamic group bond_react_MASTER_group defined

#fix 4 all bond/react  # react reac2to3 type2_atoms 1 0 10 mol2closeTo3PRE mol2closeTo3POST map_2to3.txt
#fix 5 all bond/react  # react reac3to2 type3_atoms 1 0 10 mol2closeTo3PRE mol3closeTo2POST map_3to2.txt
#fix 6 all bond/react  # react reac2to1 type2_atoms 1 0 10 mol2closeTo1PRE mol2closeTo1POST map_2to1.txt

run 100000

CITE-CITE-CITE-CITE-CITE-CITE-CITE-CITE-CITE-CITE-CITE-CITE-CITE

Your simulation uses code contributions which should be cited:

- fix bond/react: reacter.org doi:10.1016/j.polymer.2017.09.038, doi:10.1021/acs.macromol.0c02012

@Article{Gissinger17,
 author = {J. R. Gissinger and B. D. Jensen and K. E. Wise},
 title = {Modeling Chemical Reactions in Classical Molecular Dynamics Simulations},
 journal = {Polymer},
 year =    2017,
 volume =  128,
 pages =   {211--217}
}

@Article{Gissinger20,
 author = {J. R. Gissinger, B. D. Jensen, K. E. Wise},
 title = {{REACTER}: A Heuristic Method for Reactive Molecular Dynamics},
 journal = {Macromolecules},
 year =    2020,
 volume =  53,
 number =  22,
 pages =   {9953--9961}
}

CITE-CITE-CITE-CITE-CITE-CITE-CITE-CITE-CITE-CITE-CITE-CITE-CITE

Generated 0 of 3 mixed pair_coeff terms from geometric mixing rule
Neighbor list info ...
  update: every = 1 steps, delay = 0 steps, check = yes
  max neighbors/atom: 2000, page size: 100000
  master list distance cutoff = 12.5
  ghost atom cutoff = 12.5
  binsize = 6.25, bins = 26 26 26
  3 neighbor lists, perpetual/occasional/extra = 1 2 0
  (1) pair lj/cut, perpetual
      attributes: half, newton on
      pair build: half/bin/newton
      stencil: half/bin/3d
      bin: standard
  (2) compute centro/atom, occasional
      attributes: full, newton on
      pair build: full/bin
      stencil: full/bin/3d
      bin: standard
  (3) fix bond/react, occasional, copy from (1)
      attributes: half, newton on
      pair build: copy
      stencil: none
      bin: none
Per MPI rank memory allocation (min/avg/max) = 9.368 | 9.368 | 9.368 Mbytes
   Step         PotEng           Lx             Ly             Lz           Press           Pxx            Pyy            Pzz          c_eatoms   
        56   0.006          158.5          158.5          158.5          0.022012451    0.028520348    0.018743954    0.01877305     0.006        
        60   102.37797      158.5          158.5          158.5         -0.41929376    -1.3442997      0.13840987    -0.0519915      102.37797    
        80   83.11844       158.5          158.5          158.5          0.63822754     1.2093707      0.26230084     0.44301111     83.11844     
       100   95.480213      158.5          158.5          158.5         -0.4078959     -0.045669793   -0.41056181    -0.76745609     95.480213    
       120   89.003731      158.5          158.5          158.5          0.36869958     1.7235455     -0.17032387    -0.44712287     89.003731    
       140   84.661955      158.5          158.5          158.5          0.3996078      0.31238779     0.35028019     0.53615544     84.661955    
       160   91.48476       158.5          158.5          158.5         -0.98422905    -2.6811232     -0.23813655    -0.033427456    91.48476     
       180   82.65088       158.5          158.5          158.5          0.073609787    0.41677753    -0.039883361   -0.15606481     82.65088     
       200   87.813665      158.5          158.5          158.5          0.64331572     1.677251       0.085521415    0.16717473     87.813665    
       220   85.895722      158.5          158.5          158.5         -0.017286838   -0.11629891     0.071764989   -0.0073265917   85.895722    
       240   83.043007      158.5          158.5          158.5         -0.055860899   -0.22135996     0.0076535669   0.046123695    83.043007    
       260   87.135167      158.5          158.5          158.5         -0.30511983    -0.63357292    -0.15046741    -0.13131917     87.135167    
       280   82.443524      158.5          158.5          158.5         -0.1197757     -0.45417057     0.042237953    0.052605527    82.443524    
       300   84.856478      158.5          158.5          158.5          0.19281224     0.33817832     0.072959196    0.1672992      84.856478    
       320   84.484027      158.5          158.5          158.5          0.4380653      1.3029475      0.0061670569   0.0050813867   84.484027    
       340   82.621554      158.5          158.5          158.5         -0.19260099    -0.24555848    -0.064762682   -0.2674818      82.621554    
       360   84.99874       158.5          158.5          158.5         -0.42338749    -1.3915113      0.015135026    0.10621375     84.99874     
       380   83.020784      158.5          158.5          158.5          0.20454525     0.055246557    0.10097506     0.45741411     83.020784    
       400   83.591827      158.5          158.5          158.5         -0.049534533    0.42307834    -0.09864774    -0.4730342      83.591827    
       420   84.516658      158.5          158.5          158.5          0.13056995     0.75463358    -0.064095366   -0.29882837     84.516658    
       440   82.492252      158.5          158.5          158.5          0.21439351     0.26071147     0.068951986    0.31351708     82.492252    
       460   84.561651      158.5          158.5          158.5         -0.28651114    -1.0854246     -0.0062453548   0.23213658     84.561651    
       480   83.392846      158.5          158.5          158.5         -0.34192412    -0.66717979    -0.055059998   -0.30353258     83.392846    
       500   83.375661      158.5          158.5          158.5          0.3131549      0.96671537     0.043716717   -0.070967401    83.375661    
       520   85.394309      158.5          158.5          158.5          0.35727597     0.60586074     0.042128865    0.4238383      85.394309    
       540   82.368834      158.5          158.5          158.5         -0.16240686    -0.28031512    -0.048555955   -0.15834951     82.368834    
       560   85.780397      158.5          158.5          158.5         -0.1430391     -0.2689871      0.051290916   -0.2114211      85.780397    
       580   83.898353      158.5          158.5          158.5         -0.22598839    -0.72058076     0.0061784744   0.036437115    83.898353    
       600   83.898173      158.5          158.5          158.5         -0.0037296433  -0.25322178    -0.012745117    0.25477797     83.898173    
       620   87.115434      158.5          158.5          158.5          0.58511489     1.7152035      0.025861679    0.014279538    87.115434    
       640   82.896168      158.5          158.5          158.5          0.023253518    0.55245546    -0.052977023   -0.42971789     82.896168    
       660   86.451777      158.5          158.5          158.5         -0.51592226    -1.9500039      0.055513231    0.34672384     86.451777    
       680   86.275114      158.5          158.5          158.5         -0.082177926   -0.61616885     0.031677762    0.33795731     86.275114    
       700   83.221779      158.5          158.5          158.5          0.087621471    0.90888181    -0.095393402   -0.550624       83.221779    
       720   88.315092      158.5          158.5          158.5          0.035566175    0.38752616     0.031365141   -0.31219277     88.315092    
       740   84.252119      158.5          158.5          158.5          0.3939066      0.75651783     0.11032575     0.31487621     84.252119    
       760   84.910702      158.5          158.5          158.5          0.02594103    -0.14281769    -0.016942642    0.23758342     84.910702    
       780   87.521188      158.5          158.5          158.5         -0.84213541    -1.9504079     -0.23855708    -0.33744124     87.521188    
       800   82.6049        158.5          158.5          158.5          0.29726627     0.41549082     0.095084522    0.38122348     82.6049      
       820   87.151714      158.5          158.5          158.5          0.68013003     1.4863434      0.15311027     0.40093642     87.151714    
       840   84.245059      158.5          158.5          158.5         -0.27928832    -0.11638178    -0.044233383   -0.67724981     84.245059    
       860   83.633521      158.5          158.5          158.5         -0.17337921    -0.49339067    -0.057812305    0.031065353    83.633521    
       880   85.585346      158.5          158.5          158.5          0.058188366   -0.27100773    -0.012537064    0.45810989     85.585346    
       900   82.547034      158.5          158.5          158.5         -0.30467045    -0.49049712    -0.033672525   -0.38984172     82.547034    
       920   84.888942      158.5          158.5          158.5          0.22600027     0.84248158     0.042394777   -0.20687555     84.888942    
       940   83.428231      158.5          158.5          158.5          0.3848829      0.88390682     0.042835121    0.22790677     83.428231    
       960   83.072904      158.5          158.5          158.5         -0.22501506    -0.88015776     0.024715042    0.18039755     83.072904    
       980   84.588797      158.5          158.5          158.5         -0.39542194    -0.94157105    -0.080034575   -0.16466019     84.588797    
      1000   82.496562      158.5          158.5          158.5          0.16920091     0.55223436    -0.029335482   -0.015296151    82.496562    
      1020   84.367887      158.5          158.5          158.5          0.22453815     0.33799231     0.083438286    0.25218386     84.367887    
      1040   83.621254      158.5          158.5          158.5          0.004407765    0.2483421     -0.0011747006  -0.23394411     83.621254    
      1060   82.955397      158.5          158.5          158.5          0.12315145     0.47631682    -0.0046763119  -0.10218616     82.955397    
      1080   84.858111      158.5          158.5          158.5         -0.38712074    -1.1643386     -0.033754263    0.036730595    84.858111    
      1100   82.842676      158.5          158.5          158.5         -0.19414483    -0.80829005    -0.01609833     0.24195389     82.842676    
      1120   84.106745      158.5          158.5          158.5          0.48228125     1.2544248      0.064614797    0.1278042      84.106745    
      1140   84.788984      158.5          158.5          158.5          0.058447932    0.69815863     0.0015670459  -0.52438188     84.788984    
      1160   82.546564      158.5          158.5          158.5         -0.14245548    -0.52418787    -0.030460791    0.12728223     82.546564    
      1180   85.943901      158.5          158.5          158.5         -0.10113561    -0.57072327    -0.075692704    0.34300914     85.943901    
      1200   83.026518      158.5          158.5          158.5         -0.16435241    -0.26055706     0.023757504   -0.25625769     83.026518    
      1220   84.414351      158.5          158.5          158.5         -0.036733258    0.3304891      0.021899924   -0.4625888      84.414351    
      1240   85.844185      158.5          158.5          158.5          0.46055158     0.987676       0.034896522    0.35908223     85.844185    
      1260   82.385236      158.5          158.5          158.5          0.23524962     0.17021945     0.029000759    0.50652864     82.385236    
      1280   86.984137      158.5          158.5          158.5         -0.81159386    -1.721234      -0.14888428    -0.56466332     86.984137    
      1300   83.469661      158.5          158.5          158.5          0.18465889     0.1895091      0.131932       0.23253556     83.469661    
      1320   84.706565      158.5          158.5          158.5          0.25848935     0.5884314     -0.0077573374   0.194794       84.706565    
      1340   86.614296      158.5          158.5          158.5          0.095918656    0.33228313     0.026014907   -0.070542072    86.614296    
      1360   82.809081      158.5          158.5          158.5          0.12710279     0.6881817      0.016968717   -0.32384205     82.809081    
      1380   86.59823       158.5          158.5          158.5         -0.27984157    -0.77553117    -0.042519633   -0.021473916    86.59823     
      1400   84.894189      158.5          158.5          158.5         -0.45535789    -1.5649706     -0.01681319     0.21571011     84.894189    
      1420   83.661683      158.5          158.5          158.5          0.26439944     0.59692471     0.031496646    0.16477696     83.661683    
      1440   87.420909      158.5          158.5          158.5          0.63574337     1.8030372      0.072904874    0.031288014    87.420909    
      1460   83.105269      158.5          158.5          158.5         -0.36285251    -0.56677409     0.013442381   -0.53522581     83.105269    
      1480   86.092181      158.5          158.5          158.5         -0.19905757    -0.98583962     0.005043043    0.38362388     86.092181    
      1500   84.75959       158.5          158.5          158.5          0.0021361749  -0.059373628   -0.12474932     0.19053147     84.75959     
      1520   83.626534      158.5          158.5          158.5         -0.22619151     0.015380266   -0.054246211   -0.63970858     83.626534    
      1540   85.717519      158.5          158.5          158.5          0.32430186     0.72858263     0.17134142     0.07298153     85.717519    
      1560   82.970963      158.5          158.5          158.5          0.34918457     0.62346652     0.10259163     0.32149555     82.970963    
      1580   84.413636      158.5          158.5          158.5         -0.38507413    -0.96942674    -0.14084062    -0.044955046    84.413636    
      1600   83.6623        158.5          158.5          158.5         -0.33374142    -0.66955325    -0.18083216    -0.15083885     83.6623      
      1620   82.994563      158.5          158.5          158.5          0.38704194     0.73939211     0.11511176     0.30662195     82.994563    
      1640   84.531906      158.5          158.5          158.5          0.19908464     0.36207319     0.16128621     0.073894533    84.531906    
      1660   82.686088      158.5          158.5          158.5         -0.19537538    -0.0045115218  -0.098344607   -0.48327001     82.686088    
      1680   83.854074      158.5          158.5          158.5          0.036668388   -0.046555468   -0.055632379    0.21219301     83.854074    
      1700   83.713368      158.5          158.5          158.5         -0.18913334    -0.82324845     0.014210397    0.24163804     83.713368    
      1720   82.630557      158.5          158.5          158.5         -0.14111465    -0.037726712   -0.027918663   -0.35769858     82.630557    
      1740   84.799704      158.5          158.5          158.5          0.42157454     1.2211969      0.062700199   -0.019173461    84.799704    
      1760   82.88318       158.5          158.5          158.5          0.11281748    -0.0049754867   0.078998893    0.26442902     82.88318     
      1780   83.788577      158.5          158.5          158.5         -0.30663147    -0.93221167    -0.036119944    0.048437211    83.788577    
      1800   85.213046      158.5          158.5          158.5         -0.20145982    -0.17952568    -0.12037767    -0.3044761      85.213046    
      1820   82.377976      158.5          158.5          158.5          0.055570556    0.078418769    0.012555076    0.075737821    82.377976    
      1840   86.434535      158.5          158.5          158.5          0.30195132     0.32730162     0.13015463     0.4483977      86.434535    
      1860   84.202248      158.5          158.5          158.5          0.21766244     1.1071634      0.050176095   -0.50435222     84.202248    
      1880   84.077373      158.5          158.5          158.5         -0.30544608    -0.74536744    -0.045791412   -0.1251794      84.077373    
      1900   87.385031      158.5          158.5          158.5         -0.32182356    -1.3756986     -0.21222212     0.62245007     87.385031    
      1920   82.851139      158.5          158.5          158.5          0.13579339     0.66264921     0.023553945   -0.27882298     82.851139    
      1940   88.206578      158.5          158.5          158.5          0.26400385     0.9464284      0.17398618    -0.32840303     88.206578    
      1960   84.291652      158.5          158.5          158.5         -0.031069512   -0.055620251   -0.19129999     0.15371171     84.291652    
      1980   85.620699      158.5          158.5          158.5          0.042288705   -0.11051607    -0.0016067171   0.2389889      85.620699    
      2000   86.544473      158.5          158.5          158.5         -0.3340416     -0.82620663     0.16654396    -0.34246212     86.544473    
      2020   83.64866       158.5          158.5          158.5         -0.19998445    -0.18903954    -0.18570679    -0.22520704     83.64866     
      2040   88.07151       158.5          158.5          158.5          0.71341762     1.2146755      0.20287297     0.72270441     88.07151     
      2060   82.736452      158.5          158.5          158.5          0.15848323     0.48262421     0.08155526    -0.088729768    82.736452    
      2080   86.71084       158.5          158.5          158.5         -0.72202448    -1.4962318     -0.19507059    -0.47477108     86.71084     
      2100   84.683798      158.5          158.5          158.5          0.15948982    -0.11130601     0.056285601    0.53348988     84.683798    
      2120   83.916618      158.5          158.5          158.5          0.17506466     0.57951224    -0.048443956   -0.0058742982   83.916618    
      2140   86.710039      158.5          158.5          158.5          0.027056101    0.28890882     0.090834472   -0.29857498     86.710039    
      2160   82.591132      158.5          158.5          158.5          0.10945866     0.5093059      0.0080878827  -0.18901781     82.591132    
      2180   85.592873      158.5          158.5          158.5         -0.080797296   -0.47592692    -0.068303634    0.30183867     85.592873    
      2200   84.560024      158.5          158.5          158.5         -0.45923476    -1.3294877     -0.072166821    0.023950246    84.560024    
      2220   83.162541      158.5          158.5          158.5          0.082756235    0.58875439    -0.039825391   -0.30066029     83.162541    
      2240   85.301958      158.5          158.5          158.5          0.54539341     1.1762367      0.1871089      0.27283463     85.301958    
      2260   83.189977      158.5          158.5          158.5         -0.14164928    -0.51241996     0.086754594    0.00071752452  83.189977    
      2280   83.621257      158.5          158.5          158.5         -0.15546978    -0.36490461    -0.099654388   -0.0018503513   83.621257    
      2300   83.981247      158.5          158.5          158.5         -0.070774356    0.045010408   -0.19803843    -0.059295051    83.981247    
      2320   82.600453      158.5          158.5          158.5         -0.11622164    -0.31369852     0.036382343   -0.071348752    82.600453    
      2340   83.859813      158.5          158.5          158.5          0.25284644     0.37314028     0.19942564     0.18597341     83.859813    
      2360   82.927927      158.5          158.5          158.5          0.17651441     0.64163371    -0.043959663   -0.068130807    82.927927    
      2380   83.158938      158.5          158.5          158.5         -0.23086075    -0.55201478    -0.07234253    -0.068224943    83.158938    
      2400   83.55669       158.5          158.5          158.5         -0.22167498    -0.65468483    -0.063084489    0.052744367    83.55669     
      2420   82.583615      158.5          158.5          158.5          0.22961573     0.47875261     0.053114564    0.15698002     82.583615    
      2440   83.959029      158.5          158.5          158.5          0.06726789     0.32111257     0.065855924   -0.18516483     83.959029    
      2460   82.930864      158.5          158.5          158.5         -0.072757873   -0.011043713    0.0045878688  -0.21181777     82.930864    
      2480   83.500495      158.5          158.5          158.5          0.18350338     0.1409963      0.06471611     0.34479771     83.500495    
      2500   84.121612      158.5          158.5          158.5         -0.38375142    -0.79720439    -0.22342981    -0.13062004     84.121612    
      2520   82.653324      158.5          158.5          158.5         -0.096699055   -0.095055108   -0.021067337   -0.17397472     82.653324    
      2540   84.889646      158.5          158.5          158.5          0.48551906     1.048723       0.17358512     0.23424904     84.889646    
      2560   83.446521      158.5          158.5          158.5          0.098878855    0.04274576     0.16067296     0.093217848    83.446521    
      2580   83.627466      158.5          158.5          158.5         -0.29746179    -0.69151951    -0.10249607    -0.098369793    83.627466    
      2600   85.480841      158.5          158.5          158.5         -0.17105854    -0.040865891   -0.34701712    -0.12529263     85.480841    
      2620   82.521872      158.5          158.5          158.5          0.11230037    -0.023175115    0.13420966     0.22586655     82.521872    
      2640   85.41488       158.5          158.5          158.5          0.0031432828  -0.081759787    0.15423649    -0.063046853    85.41488     
      2660   84.519701      158.5          158.5          158.5          0.34460277     1.2158706      0.020686075   -0.20274838     84.519701    
      2680   83.074471      158.5          158.5          158.5         -0.0073675365  -0.16190826     0.0099637766   0.12984188     83.074471    
      2700   87.001228      158.5          158.5          158.5         -0.67753701    -1.8426233     -0.23060915     0.040621381    87.001228    
      2720   82.965681      158.5          158.5          158.5          0.26807335     0.44935463     0.10774466     0.24712075     82.965681    
      2740   85.561466      158.5          158.5          158.5          0.19530277     0.977133       0.051604621   -0.4428293      85.561466    
      2760   86.122376      158.5          158.5          158.5         -0.063914508   -0.23797852     0.016349814    0.029885184    86.122376    
      2780   83.059006      158.5          158.5          158.5          0.26112307     0.38908783     0.037215698    0.35706569     83.059006    
      2800   87.695214      158.5          158.5          158.5         -0.35017065    -0.4792366     -0.10428209    -0.46699325     87.695214    
      2820   83.710694      158.5          158.5          158.5         -0.38701818    -1.061225      -0.027438125   -0.072391446    83.710694    
      2840   86.466598      158.5          158.5          158.5          0.46489656     0.97293667     0.053775708    0.36797729     86.466598    
      2860   86.252618      158.5          158.5          158.5          0.57715818     1.1961954      0.21042716     0.32485197     86.252618    
      2880   84.022635      158.5          158.5          158.5         -0.4969956     -1.1489371     -0.065144996   -0.27690469     84.022635    
      2900   88.007587      158.5          158.5          158.5         -0.36241461    -0.60737843    -0.25342415    -0.22644126     88.007587    
      2920   83.13184       158.5          158.5          158.5          0.41624448     0.63993262     0.11913605     0.48966478     83.13184     
      2940   87.182852      158.5          158.5          158.5         -0.17309371    -0.13871771     0.00040628985 -0.38096969     87.182852    
      2960   85.302199      158.5          158.5          158.5          0.15067653     0.64613465     0.13311808    -0.32722315     85.302199    
      2980   83.641306      158.5          158.5          158.5          0.34083871     0.46099983     0.088961638    0.47255466     83.641306    
      3000   86.838424      158.5          158.5          158.5         -0.67722213    -1.4863642     -0.38690196    -0.15840022     86.838424    
      3020   82.898603      158.5          158.5          158.5         -0.058822411   -0.17762533     0.05510774    -0.053949641    82.898603    
      3040   84.671659      158.5          158.5          158.5          0.42547514     1.1104608      0.13735742     0.028607235    84.671659    
      3060   84.583592      158.5          158.5          158.5          0.08243048    -0.054508513    0.11531409     0.18648586     84.583592    
      3080   82.553686      158.5          158.5          158.5         -0.065661905   -0.20082216     0.0056182406  -0.0017817966   82.553686    
      3100   85.209755      158.5          158.5          158.5         -0.18508398     0.019712743   -0.26521508    -0.30974961     85.209755    
      3120   83.003804      158.5          158.5          158.5         -0.11588344    -0.49954332    -0.011203934    0.16309693     83.003804    
      3140   83.622484      158.5          158.5          158.5          0.020141005   -0.10604257     0.10814174     0.05832385     83.622484    
      3160   84.694537      158.5          158.5          158.5          0.42410303     1.1134898      0.14652211     0.012297212    84.694537    
      3180   82.481846      158.5          158.5          158.5         -0.045992618   -0.069087828    0.019913049   -0.088803076    82.481846    
      3200   84.888117      158.5          158.5          158.5         -0.44719745    -1.1196899     -0.19884411    -0.023058357    84.888117    
      3220   83.667227      158.5          158.5          158.5          0.17467748     0.22253047    -0.016566424    0.3180684      83.667227    
      3240   83.646176      158.5          158.5          158.5         -0.053652566    0.29334325    -0.013812824   -0.44048813     83.646176    
      3260   85.657111      158.5          158.5          158.5          0.10191734     0.15145157     0.24842128    -0.094120841    85.657111    
      3280   83.038405      158.5          158.5          158.5          0.3456614      0.54936205     0.16796378     0.31965839     83.038405    
      3300   85.728203      158.5          158.5          158.5         -0.3365463     -0.63687472    -0.35697277    -0.015791412    85.728203    
      3320   85.066637      158.5          158.5          158.5         -0.48634292    -0.94071892    -0.29784657    -0.22046326     85.066637    
      3340   84.323593      158.5          158.5          158.5          0.38934919     0.83650614     0.16888872     0.16265269     84.323593    
      3360   87.740491      158.5          158.5          158.5          0.5795777      0.75426061     0.41677057     0.56770193     87.740491    
      3380   83.311868      158.5          158.5          158.5         -0.31951032    -0.43191582    -0.027418958   -0.49919618     83.311868    
      3400   86.908776      158.5          158.5          158.5         -0.13289798    -0.051383422   -0.33073033    -0.016580185    86.908776    
      3420   85.370984      158.5          158.5          158.5         -0.23659945    -0.42467055    -0.26537283    -0.019754988    85.370984    
      3440   83.955445      158.5          158.5          158.5         -0.1119936     -0.50634828     0.11876326     0.051604222    83.955445    
      3460   87.331754      158.5          158.5          158.5          0.56461531     1.1692161      0.33038893     0.19424088     87.331754    
      3480   83.400331      158.5          158.5          158.5          0.20511373     0.71432983     0.14385418    -0.24284281     83.400331    
      3500   85.873139      158.5          158.5          158.5         -0.53024483    -1.4269352     -0.27597062     0.11217136     85.873139    
      3520   86.118152      158.5          158.5          158.5         -0.23534052    -0.44748836    -0.40034692     0.14181372     86.118152    
      3540   82.945734      158.5          158.5          158.5          0.37927511     0.767611       0.2705683      0.099646031    82.945734    
      3560   87.259661      158.5          158.5          158.5         -0.12745376     0.058775868    0.16481006    -0.60594719     87.259661    
      3580   83.334362      158.5          158.5          158.5          0.202392       0.40885262     0.069828108    0.12849527     83.334362    
      3600   84.726601      158.5          158.5          158.5          0.16411947     0.098618163   -0.056772648    0.45051289     84.726601    
      3620   85.936592      158.5          158.5          158.5         -0.70610646    -1.2032796     -0.38220974    -0.53283001     85.936592    
      3640   82.650867      158.5          158.5          158.5          0.16735504     0.19033139     0.19994818     0.11178555     82.650867    
      3660   86.182464      158.5          158.5          158.5          0.49616887     0.99893074     0.16404989     0.32552598     86.182464    
      3680   83.549899      158.5          158.5          158.5          0.010627611   -0.1157525      0.029411126    0.11822421     83.549899    
      3700   83.820369      158.5          158.5          158.5         -0.27745711    -0.43165372    -0.043228006   -0.35748961     83.820369    
      3720   85.207256      158.5          158.5          158.5         -0.078235657   -0.022634481   -0.14239691    -0.069675578    85.207256    
      3740   82.721038      158.5          158.5          158.5         -0.024615041   -0.33749986    -0.081979867    0.3456346      82.721038    
      3760   84.517765      158.5          158.5          158.5          0.040642259    0.27826437     0.13933963    -0.29567723     84.517765    
      3780   83.618941      158.5          158.5          158.5          0.33719881     0.79088547     0.2654888     -0.044777856    83.618941    
      3800   82.954108      158.5          158.5          158.5         -0.11751654    -0.48537492    -0.13649989     0.26932519     82.954108    
      3820   84.177867      158.5          158.5          158.5         -0.35298801    -0.69433712    -0.27913973    -0.085487179    84.177867    
      3840   82.824938      158.5          158.5          158.5          0.13960391     0.41344042     0.082727378   -0.077356067    82.824938    
      3860   83.47056       158.5          158.5          158.5          0.048396603    0.12325402     0.096477288   -0.074541497    83.47056     
      3880   83.589594      158.5          158.5          158.5          0.11323422     0.02073545     0.10957885     0.20938836     83.589594    
      3900   82.666232      158.5          158.5          158.5          0.14022132     0.40317292     0.050984579   -0.033493551    82.666232    
      3920   84.003996      158.5          158.5          158.5         -0.35281684    -0.5083691     -0.26853474    -0.28154669     84.003996    
      3940   82.946561      158.5          158.5          158.5         -0.10685943    -0.50592241    -0.11111644     0.29646055     82.946561    
      3960   83.458603      158.5          158.5          158.5          0.30431544     0.61066325     0.21485641     0.087426649    83.458603    
      3980   84.357002      158.5          158.5          158.5          0.14404491     0.44443203     0.20089555    -0.21319285     84.357002    
      4000   82.615903      158.5          158.5          158.5         -0.18037461    -0.44163938    -0.045482336   -0.054002109    82.615903    
      4020   85.610896      158.5          158.5          158.5         -0.055508859   -0.16087468    -0.18464882     0.17899692     85.610896    
      4040   83.663805      158.5          158.5          158.5         -0.14048472    -0.16177814    -0.20975771    -0.049918292    83.663805    
      4060   84.149823      158.5          158.5          158.5         -0.19956607    -0.17531533     0.063783041   -0.48716591     84.149823    
      4080   86.415563      158.5          158.5          158.5          0.5866588      0.8791501      0.42254029     0.458286       86.415563    
      4100   82.637116      158.5          158.5          158.5          0.26052003     0.2388645      0.17690426     0.36579133     82.637116    
      4120   86.521809      158.5          158.5          158.5         -0.76643353    -1.1484472     -0.64229327    -0.50856007     86.521809    
      4140   84.755967      158.5          158.5          158.5          0.071396319    0.14653882    -0.17292159     0.24057172     84.755967    
      4160   83.797809      158.5          158.5          158.5          0.21634765     0.31233772     0.25111497     0.085590259    83.797809    
      4180   87.562338      158.5          158.5          158.5          0.10499276     0.057394378    0.22627282     0.031311076    87.562338    
      4200   83.353453      158.5          158.5          158.5          0.16568325     0.66344912     0.22715116    -0.39355055     83.353453    
      4220   85.669281      158.5          158.5          158.5         -0.10242519    -0.18713683    -0.18719987     0.06706113     85.669281    
      4240   86.64305       158.5          158.5          158.5         -0.66700512    -1.374496      -0.61996241    -0.0065569601   86.64305     
      4260   82.833798      158.5          158.5          158.5          0.24408929     0.30387524     0.13412087     0.29427175     82.833798    
      4280   87.81037       158.5          158.5          158.5          0.63699287     1.1685196      0.60706931     0.13538973     87.81037     
      4300   84.450288      158.5          158.5          158.5         -0.25930578    -0.15685965    -0.050176143   -0.57088156     84.450288    
      4320   84.768377      158.5          158.5          158.5         -0.14207328    -0.45651542    -0.28438174     0.31467732     84.768377    
      4340   86.919471      158.5          158.5          158.5         -0.11587127    -0.19213876    -0.22710693     0.071631873    86.919471    
      4360   83.260953      158.5          158.5          158.5         -0.20925623    -0.21629948     0.057220657   -0.46868987     83.260953    
      4380   86.584349      158.5          158.5          158.5          0.23438892     0.52728293     0.30924627    -0.13336245     86.584349    
      4400   84.374092      158.5          158.5          158.5          0.50971334     0.76591068     0.23504509     0.52818424     84.374092    
      4420   83.955767      158.5          158.5          158.5         -0.29354525    -0.68285832    -0.34200007     0.14422264     83.955767    
      4440   85.719645      158.5          158.5          158.5         -0.51984344    -0.74929717    -0.31872693    -0.49150622     85.719645    
      4460   82.845622      158.5          158.5          158.5          0.390679       0.52454602     0.33700356     0.31048742     82.845622    
      4480   85.175669      158.5          158.5          158.5          0.051161042    0.12027628    -0.034373598    0.067580448    85.175669    
      4500   83.601192      158.5          158.5          158.5          0.077380035    0.17344378     0.15476506    -0.096068733    83.601192    
      4520   83.350347      158.5          158.5          158.5          0.093569204    0.24337122     0.19005199    -0.15271559     83.350347    
      4540   84.706143      158.5          158.5          158.5         -0.38242037    -0.67163375    -0.45189211    -0.023735248    84.706143    
      4560   82.738817      158.5          158.5          158.5         -0.090481091   -0.33845952    -0.21282016     0.27983641     82.738817    
      4580   84.26578       158.5          158.5          158.5          0.32638847     0.71627822     0.42470176    -0.16181457     84.26578     
      4600   83.90172       158.5          158.5          158.5          0.16111343     0.27272048     0.20965039     0.00096940452  83.90172     
      4620   82.791891      158.5          158.5          158.5         -0.22028413    -0.47895009    -0.24726303     0.065360739    82.791891    
      4640   84.988531      158.5          158.5          158.5         -0.040623134   -0.047703545   -0.10741838     0.033252521    84.988531    
      4660   83.037024      158.5          158.5          158.5         -0.14281685    -0.068511042   -0.12616958    -0.23376992     83.037024    
      4680   84.219748      158.5          158.5          158.5         -0.10245429    -0.14177181     0.0092936384  -0.17488469     84.219748    
      4700   85.958018      158.5          158.5          158.5          0.63441892     0.76453749     0.5648616      0.57385767     85.958018    
      4720   82.41508       158.5          158.5          158.5          0.080424958    0.14284384     0.10417251    -0.0057414784   82.41508     
      4740   87.955919      158.5          158.5          158.5         -0.84515084    -1.1124686     -0.98494707    -0.43803683     87.955919    
      4760   84.420033      158.5          158.5          158.5          0.25074212     0.18760952     0.044625536    0.51999129     84.420033    
      4780   84.928804      158.5          158.5          158.5          0.31362455     0.3923029      0.51354794     0.03502281     84.928804    
      4800   88.732338      158.5          158.5          158.5         -0.11233775     0.054554722    0.063287816   -0.45485578     88.732338    
      4820   82.632953      158.5          158.5          158.5          0.17572946     0.39644117     0.30908526    -0.17833806     82.632953    
      4840   88.179155      158.5          158.5          158.5         -0.10285683    -0.3585155     -0.28047955     0.33042455     88.179155    
      4860   85.020937      158.5          158.5          158.5         -0.58669534    -0.88779815    -0.75224068    -0.1200472      85.020937    
      4880   84.869319      158.5          158.5          158.5          0.26023704     0.6171374      0.48550423    -0.3219305      84.869319    
      4900   87.417779      158.5          158.5          158.5          0.65573358     0.74329043     0.65117338     0.57273693     87.417779    
      4920   83.132916      158.5          158.5          158.5         -0.19041418    -0.51118113    -0.27619639     0.21613498     83.132916    
      4940   86.392503      158.5          158.5          158.5         -0.38183528    -0.29613446    -0.38325684    -0.46611453     86.392503    
      4960   84.760592      158.5          158.5          158.5          0.026440114    0.15501839     0.015299717   -0.090997763    84.760592    
      4980   83.82144       158.5          158.5          158.5         -0.12916563    -0.28468907    -0.1911059      0.088298063    83.82144     
      5000   85.874142      158.5          158.5          158.5          0.36463213     0.43173499     0.39760339     0.26455799     85.874142    
      5020   83.300893      158.5          158.5          158.5          0.27571053     0.56400313     0.5126315     -0.24950303     83.300893    
      5040   84.621835      158.5          158.5          158.5         -0.46394044    -0.7083114     -0.62019785    -0.063312079    84.621835    
      5060   84.707876      158.5          158.5          158.5         -0.20203759    -0.45123749    -0.48489667     0.3300214      84.707876    
      5080   82.910057      158.5          158.5          158.5          0.24740754     0.46401471     0.38825222    -0.1100443      82.910057    
      5100   85.495141      158.5          158.5          158.5          0.090711411    0.18854298     0.29954726    -0.21595601     85.495141    
      5120   83.143457      158.5          158.5          158.5         -0.00018917451  0.10037297    -0.082110964   -0.018829535    83.143457    
      5140   84.083279      158.5          158.5          158.5          0.14409948     0.065065017    0.030357155    0.33687628     84.083279    
      5160   84.866238      158.5          158.5          158.5         -0.46134915    -0.63713736    -0.39349984    -0.35341024     84.866238    
      5180   82.560772      158.5          158.5          158.5         -0.091516469   -0.059976708   -0.033808519   -0.18076418     82.560772    
      5200   85.808798      158.5          158.5          158.5          0.61533225     0.69729452     0.53748423     0.61121801     85.808798    
      5220   83.522908      158.5          158.5          158.5          0.064409679    0.13199672     0.0080823857   0.053149929    83.522908    
      5240   84.392576      158.5          158.5          158.5         -0.42096159    -0.58635949    -0.30505921    -0.37146605     84.392576    
      5260   87.104129      158.5          158.5          158.5         -0.1017808     -0.1199916     -0.062339703   -0.12301111     87.104129    
      5280   82.675171      158.5          158.5          158.5          0.016755451   -0.0072136905  -0.17926028     0.23674032     82.675171    
      5300   87.702509      158.5          158.5          158.5          0.073622662    0.094875709    0.14763161    -0.021639331    87.702509    
      5320   86.513142      158.5          158.5          158.5          0.44116953     0.84486322     0.8579388     -0.37929343     86.513142    
      5340   83.672053      158.5          158.5          158.5         -0.022792553   -0.20659606    -0.20530598     0.34352438     83.672053    
      5360   90.126785      158.5          158.5          158.5         -0.86320356    -1.3375784     -1.1941229     -0.057909408    90.126785    
      5380   83.0535        158.5          158.5          158.5          0.34769569     0.47049703     0.33047121     0.24211882     83.0535      
      5400   87.536633      158.5          158.5          158.5          0.29599867     0.62714304     0.65420131    -0.39334833     87.536633    
      5420   87.084908      158.5          158.5          158.5         -0.1140516     -0.30188848     0.060480994   -0.10074732     87.084908    
      5440   83.412708      158.5          158.5          158.5          0.26971132     0.19050811     0.22886788     0.38975795     83.412708    
      5460   87.805977      158.5          158.5          158.5         -0.37558988    -0.11491339    -0.61845888    -0.39339736     87.805977    
      5480   83.36532       158.5          158.5          158.5         -0.36880653    -0.40171093    -0.53582816    -0.1688805      83.36532     
      5500   85.746506      158.5          158.5          158.5          0.46573593     0.35366972     0.63494475     0.40859331     85.746506    
      5520   85.077964      158.5          158.5          158.5          0.47097495     0.4630992      0.63365355     0.31617211     85.077964    
      5540   83.395619      158.5          158.5          158.5         -0.40067964    -0.38501848    -0.52322252    -0.29379793     83.395619    
      5560   85.855386      158.5          158.5          158.5         -0.27976854    -0.22045172    -0.42402877    -0.19482512     85.855386    
      5580   83.182735      158.5          158.5          158.5          0.21654091     0.14555597     0.14185543     0.36221133     83.182735    
      5600   84.586741      158.5          158.5          158.5         -0.16306864    -0.16602583    -0.038434257   -0.28474583     84.586741    
      5620   84.955254      158.5          158.5          158.5          0.23817743     0.36588814     0.51928338    -0.17063924     84.955254    
      5640   82.749265      158.5          158.5          158.5          0.30702368     0.29539377     0.28776253     0.33791474     82.749265    
      5660   85.725769      158.5          158.5          158.5         -0.57376647    -0.68414381    -0.97860341    -0.058552201    85.725769    
      5680   83.544528      158.5          158.5          158.5         -0.14807815    -0.20826966    -0.15641456    -0.079550228    83.544528    
      5700   83.914643      158.5          158.5          158.5          0.37243072     0.54387493     0.6674677     -0.09405047     83.914643    
      5720   86.022702      158.5          158.5          158.5          0.10375526     0.010336871   -0.019989839    0.32091876     86.022702    
      5740   82.460375      158.5          158.5          158.5          0.016775075    0.053098349    0.024242287   -0.027015412    82.460375    
      5760   86.07553       158.5          158.5          158.5         -0.10412204    -0.049803534    0.15591381    -0.41847641     86.07553     
      5780   84.371248      158.5          158.5          158.5         -0.3525515     -0.53068044    -0.60436875     0.077394677    84.371248    
      5800   83.812497      158.5          158.5          158.5          0.057464719    0.11447484    -0.17574945     0.23366877     83.812497    
      5820   87.45638       158.5          158.5          158.5          0.65621282     0.71802643     1.0827307      0.16788135     87.45638     
      5840   82.916662      158.5          158.5          158.5         -0.12740186    -0.12049065    -0.066531292   -0.19518365     82.916662    
      5860   87.007267      158.5          158.5          158.5         -0.54652767    -0.59650857    -1.0593052      0.016230774    87.007267    
      5880   86.079037      158.5          158.5          158.5          0.21964026     0.13428282     0.22742095     0.29721702     86.079037    
      5900   85.055867      158.5          158.5          158.5         -0.1676802      0.12199158     0.18950646    -0.81453864     85.055867    
      5920   91.452953      158.5          158.5          158.5          0.13864414     0.04151701     0.35070664     0.023708755    91.452953    
      5940   84.935118      158.5          158.5          158.5          0.77434158     0.64240978     1.0818846      0.59873037     84.935118    
      5960   89.929037      158.5          158.5          158.5         -0.59935182    -0.48378438    -1.1197431     -0.19452798     89.929037    
      5980   90.572361      158.5          158.5          158.5         -0.86319146    -0.67640782    -1.6476037     -0.26556287     90.572361    
      6000   85.139915      158.5          158.5          158.5          0.68525664     0.55028398     1.088672       0.41681391     85.139915    
      6020   91.903934      158.5          158.5          158.5          0.57850874     0.30319123     0.78991159     0.64242339     91.903934    
      6040   85.096168      158.5          158.5          158.5         -0.28459221    -0.2011592     -0.036432162   -0.61618526     85.096168    
      6060   87.374795      158.5          158.5          158.5         -0.070143024    0.24209924    -0.22517947    -0.22734884     87.374795    
      6080   87.453759      158.5          158.5          158.5         -0.24189191    -0.20379493    -0.67714995     0.15526914     87.453759    
      6100   83.959388      158.5          158.5          158.5         -0.33579204    -0.42536913    -0.37775358    -0.20425342     83.959388    
      6120   88.48428       158.5          158.5          158.5          0.69053725     0.5647272      1.2191507      0.28773386     88.48428     
      6140   83.737628      158.5          158.5          158.5          0.25836018     0.23944937     0.56973308    -0.034101915    83.737628    
      6160   85.320415      158.5          158.5          158.5         -0.526757      -0.53099868    -1.1984874      0.14921505     85.320415    
      6180   86.270775      158.5          158.5          158.5         -0.18698281    -0.096950166   -0.41857411    -0.045424144    86.270775    
      6200   82.830731      158.5          158.5          158.5          0.13497277     0.21310852     0.5020587     -0.31024892     82.830731    
      6220   86.156122      158.5          158.5          158.5          0.017977493   -0.056636979    0.095858624    0.014710834    86.156122    
      6240   84.311774      158.5          158.5          158.5          0.23866575     0.233449       0.35728786     0.12526038     84.311774    
      6260   83.349205      158.5          158.5          158.5          0.2125112      0.084012221    0.25961943     0.29390194     83.349205    
      6280   86.185404      158.5          158.5          158.5         -0.73502268    -0.49035705    -1.1029421     -0.61176893     86.185404    
      6300   82.549587      158.5          158.5          158.5          0.10634477     0.028304205    0.043531274    0.24719883     82.549587    
      6320   84.966518      158.5          158.5          158.5          0.50329188     0.3526208      0.72254867     0.43470618     84.966518    
      6340   84.761638      158.5          158.5          158.5         -0.092792626   -0.034277865   -0.010307235   -0.23379278     84.761638    
      6360   82.788757      158.5          158.5          158.5         -0.061791509   -0.079942752    0.040132746   -0.14556452     82.788757    
      6380   85.952117      158.5          158.5          158.5         -0.095051584    0.010019976   -0.20958436    -0.085590372    85.952117    
      6400   83.149743      158.5          158.5          158.5         -0.2457256     -0.22891905    -0.6499426      0.14168484     83.149743    
      6420   84.384463      158.5          158.5          158.5          0.094239875    0.093564043    0.36274303    -0.17358744     84.384463    
      6440   85.648058      158.5          158.5          158.5          0.49946281     0.37015316     1.0386025      0.089632726    85.648058    
      6460   82.941088      158.5          158.5          158.5         -0.059330725   -0.16366671    -0.46436789     0.45004242     82.941088    
      6480   86.586326      158.5          158.5          158.5         -0.5865063     -0.30820106    -1.0750314     -0.37628644     86.586326    
      6500   84.935295      158.5          158.5          158.5          0.1828646      0.17473393     0.47341851    -0.099558637    84.935295    
      6520   84.425149      158.5          158.5          158.5         -0.041083728    0.0014444862   0.10580913    -0.2305048      84.425149    
      6540   88.45944       158.5          158.5          158.5          0.18902589    -0.0083232238   0.2124327      0.36296818     88.45944     
      6560   83.637589      158.5          158.5          158.5          0.57426753     0.41727318     1.1163766      0.18915278     83.637589    
      6580   88.036498      158.5          158.5          158.5         -0.69378082    -0.27650312    -1.1949253     -0.60991405     88.036498    
      6600   86.407924      158.5          158.5          158.5         -0.39675972    -0.3364307     -1.2352843      0.38143587     86.407924    
      6620   84.905996      158.5          158.5          158.5          0.54393772     0.212269       1.1068047      0.31273943     84.905996    
      6640   89.072571      158.5          158.5          158.5          0.32670881     0.23244623     0.76750655    -0.019826337    89.072571    
      6660   83.631739      158.5          158.5          158.5         -0.26171916    -0.147333      -0.26707546    -0.37074901     83.631739    
      6680   87.310618      158.5          158.5          158.5         -0.011547989   -0.023567548   -0.077533046    0.066456627    87.310618    
      6700   85.549096      158.5          158.5          158.5         -0.21688906    -0.06685001    -0.65991252     0.07609534     85.549096    
      6720   84.133485      158.5          158.5          158.5         -0.34651132    -0.14672403    -0.30286536    -0.58994456     84.133485    
      6740   87.407942      158.5          158.5          158.5          0.69364549     0.31494777     1.2642109      0.50177781     87.407942    
      6760   83.239914      158.5          158.5          158.5          0.29045726     0.077859322    0.38468335     0.40882912     83.239914    
      6780   85.425263      158.5          158.5          158.5         -0.64444429    -0.30113552    -1.3302265     -0.30197083     85.425263    
      6800   85.925751      158.5          158.5          158.5         -0.093211857    0.010115185   -0.12964937    -0.16010139     85.925751    
      6820   82.769679      158.5          158.5          158.5          0.13879314     0.12041914     0.42490417    -0.12894389     82.769679    
      6840   87.010118      158.5          158.5          158.5          0.10825935    -0.051617723   -0.041467962    0.41786373     87.010118    
      6860   84.061898      158.5          158.5          158.5          0.22078035     0.20835832     0.72656989    -0.27258717     84.061898    
      6880   83.97203       158.5          158.5          158.5          0.038253453   -0.030435394    0.13901694     0.0061788161   83.97203     
      6900   86.64509       158.5          158.5          158.5         -0.66966888    -0.35152803    -1.5367368     -0.1207418      86.64509     
      6920   82.537017      158.5          158.5          158.5          0.16178616     0.10895239     0.14204897     0.23435713     82.537017    
      6940   86.344188      158.5          158.5          158.5          0.57294642     0.2333631      1.2499279      0.23554824     86.344188    
      6960   84.981872      158.5          158.5          158.5         -0.25010479    -0.032258804   -0.28185028    -0.43620528     84.981872    
      6980   83.45339       158.5          158.5          158.5          0.0065289506  -0.056218127   -0.22234427     0.29814925     83.45339     
      7000   86.799208      158.5          158.5          158.5         -0.13366671    -0.038856193   -0.17777222    -0.18437173     86.799208    
      7020   83.060318      158.5          158.5          158.5         -0.33531079    -0.13658834    -0.50718014    -0.36216389     83.060318    
      7040   85.73359       158.5          158.5          158.5          0.32372112     0.11078809     0.61610701     0.24426826     85.73359     
      7060   85.472495      158.5          158.5          158.5          0.50871429     0.232405       0.95330827     0.3404296      85.472495    
      7080   83.479233      158.5          158.5          158.5         -0.22267443    -0.16433143    -0.71909936     0.21540748     83.479233    
      7100   87.254989      158.5          158.5          158.5         -0.65050426    -0.15426455    -1.0720289     -0.72521933     87.254989    
      7120   83.723516      158.5          158.5          158.5          0.40795019     0.15395963     0.71966329     0.35022767     83.723516    
      7140   85.837718      158.5          158.5          158.5         -0.030424823   -0.04147335    -0.055824498    0.006023378    85.837718    
      7160   86.602818      158.5          158.5          158.5          0.092698274    0.043264126    0.41131823    -0.17648754     86.602818    
      7180   83.580125      158.5          158.5          158.5          0.43209074     0.2462417      0.93919278     0.11083773     83.580125    
      7200   88.916902      158.5          158.5          158.5         -0.73321558    -0.35426431    -1.5226041     -0.32277834     88.916902    
      7220   84.211839      158.5          158.5          158.5         -0.21378634    -0.1223675     -0.91938118     0.40038966     84.211839    
      7240   87.222132      158.5          158.5          158.5          0.57633557     0.23373785     1.5639419     -0.068672983    87.222132    
      7260   88.199716      158.5          158.5          158.5          0.24590055     0.075552968    0.51926112     0.14288756     88.199716    
      7280   83.036435      158.5          158.5          158.5         -0.27895223    -0.19548548    -0.61021674    -0.031154453    83.036435    
      7300   89.544311      158.5          158.5          158.5         -0.078728868    0.044825304   -0.074408509   -0.2066034      89.544311    
      7320   83.804254      158.5          158.5          158.5         -0.20310249     0.05393026    -0.52324955    -0.13998819     83.804254    
      7340   85.664206      158.5          158.5          158.5         -0.16481595    -0.11241503    -0.17983038    -0.20220244     85.664206    
      7360   86.887853      158.5          158.5          158.5          0.7337735      0.18253686     1.4315027      0.58728092     86.887853    
      7380   82.382909      158.5          158.5          158.5          0.063657002    0.018203543    0.10339536     0.069372106    82.382909    
      7400   86.248447      158.5          158.5          158.5         -0.72646585    -0.17049124    -1.5563106     -0.4525957      86.248447    
      7420   84.00174       158.5          158.5          158.5          0.20213095     0.075665228    0.22445012     0.3062775      84.00174     
      7440   83.420205      158.5          158.5          158.5          0.11087025     0.03653445     0.42471345    -0.12863716     83.420205    
      7460   85.766525      158.5          158.5          158.5          0.015411708   -0.055549037    0.039183595    0.062600565    85.766525    
      7480   82.76964       158.5          158.5          158.5          0.21112288     0.098581737    0.65064355    -0.11585664     82.76964     
      7500   84.580133      158.5          158.5          158.5         -0.1074071     -0.0073341688  -0.37227189     0.057384765    84.580133    
      7520   84.643981      158.5          158.5          158.5         -0.51263926    -0.16597097    -1.2992861     -0.072660697    84.643981    
      7540   82.957453      158.5          158.5          158.5          0.21057724     0.087617476    0.64132046    -0.097206205    82.957453    
      7560   85.62979       158.5          158.5          158.5          0.53369431     0.10820426     1.0544814      0.43839724     85.62979     
      7580   83.517963      158.5          158.5          158.5         -0.25824474    -0.039343168   -0.61769547    -0.11769558     83.517963    
      7600   84.380359      158.5          158.5          158.5         -0.09140002    -0.045713345   -0.14760751    -0.080879204    84.380359    
      7620   85.2029        158.5          158.5          158.5         -0.08526096    -0.024045297    0.0048005474  -0.23653813     85.2029      
      7640   83.265232      158.5          158.5          158.5         -0.2638499     -0.053768056   -0.61921116    -0.11857049     83.265232    
      7660   86.5639        158.5          158.5          158.5          0.49069276     0.092340131    0.86952635     0.51021181     86.5639      
      7680   83.996737      158.5          158.5          158.5          0.36791991     0.15961018     1.026472      -0.082322416    83.996737    
      7700   85.533617      158.5          158.5          158.5         -0.54211467    -0.22802411    -1.3640758     -0.034244059    85.533617    
      7720   86.784753      158.5          158.5          158.5         -0.38271282    -0.057963653   -0.98173528    -0.10843951     86.784753    
      7740   83.229382      158.5          158.5          158.5          0.479712       0.17878466     1.0411708      0.21918052     83.229382    
      7760   88.724876      158.5          158.5          158.5         -0.0040229358  -0.061285583    0.23923511    -0.19001833     88.724876    
      7780   84.844147      158.5          158.5          158.5          0.012715429   -0.011056402    0.39204409    -0.3428414      84.844147    
      7800   85.741438      158.5          158.5          158.5          0.37683734     0.12686644     0.47361621     0.53002938     85.741438    
      7820   89.744718      158.5          158.5          158.5         -0.97338173    -0.18596188    -2.0273501     -0.70683323     89.744718    
      7840   82.859632      158.5          158.5          158.5          0.077170697    0.027431028   -0.096694636    0.3007757      82.859632    
      7860   89.063339      158.5          158.5          158.5          0.66450216     0.11075434     1.6418386      0.24091351     89.063339    
      7880   86.15149       158.5          158.5          158.5          0.13511953    -0.01040555     0.12333396     0.29243017     86.15149     
      7900   83.176523      158.5          158.5          158.5         -0.28512545    -0.051519753   -0.56763953    -0.23621708     83.176523    
      7920   86.87816       158.5          158.5          158.5         -0.085295217    0.035181731   -0.057150277   -0.2339171      86.87816     
      7940   82.665015      158.5          158.5          158.5         -0.10705201    -0.0076276956  -0.40279053     0.089262208    82.665015    
      7960   84.860837      158.5          158.5          158.5         -0.028374872   -0.050486716    0.052941407   -0.087579309    84.860837    
      7980   84.639072      158.5          158.5          158.5          0.56121202     0.09815456     1.2590444      0.32643707     84.639072    
      8000   82.64579       158.5          158.5          158.5         -0.17008427    -0.028584701   -0.33843822    -0.14322988     82.64579     
      8020   85.192925      158.5          158.5          158.5         -0.47911921    -0.062440998   -1.2765616     -0.098354998    85.192925    
      8040   83.01052       158.5          158.5          158.5          0.20871578     0.061111866    0.38704453     0.17799093     83.01052     
      8060   83.848145      158.5          158.5          158.5          0.076401264   -0.0084427564   0.45276002    -0.21511347     83.848145    
      8080   84.751688      158.5          158.5          158.5          0.052339931   -0.041954781    0.069773503    0.12920107     84.751688    
      8100   82.809671      158.5          158.5          158.5          0.17301173     0.058512871    0.4708492     -0.010326866    82.809671    
      8120   84.992969      158.5          158.5          158.5         -0.19681561    -0.00021985503 -0.59844173     0.0082147557   84.992969    
      8140   83.89344       158.5          158.5          158.5         -0.51426227    -0.072354334   -1.1292977     -0.34113475     83.89344     
      8160   83.718393      158.5          158.5          158.5          0.43829769     0.069897734    0.99230249     0.25269286     83.718393    
      8180   85.887954      158.5          158.5          158.5          0.47497089     0.055550105    0.86837987     0.50098268     85.887954    
      8200   83.276541      158.5          158.5          158.5         -0.38921888    -0.05409315    -0.74993181    -0.36363167     83.276541    
      8220   86.299916      158.5          158.5          158.5         -0.075504588   -0.016152767   -0.066770357   -0.14359064     86.299916    
      8240   84.864146      158.5          158.5          158.5         -0.11233008     0.016220507   -0.20073524    -0.15247551     84.864146    
      8260   84.50577       158.5          158.5          158.5         -0.17042258    -0.06440422    -0.55899905     0.11213552     84.50577     
      8280   88.132004      158.5          158.5          158.5          0.50977151     0.086431585    1.3766078      0.066275128    88.132004    
      8300   82.936411      158.5          158.5          158.5          0.2891255      0.10622073     0.70587774     0.055278035    82.936411    
      8320   87.99933       158.5          158.5          158.5         -0.64301531    -0.23798505    -1.9499228      0.2588619      87.99933     
      8340   85.326943      158.5          158.5          158.5         -0.20981931    -0.017084146   -0.31086995    -0.30150383     85.326943    
      8360   84.269302      158.5          158.5          158.5          0.48328627     0.1210693      1.3561075     -0.027317958    84.269302    
      8380   88.829396      158.5          158.5          158.5         -0.028164897   -0.044132945   -0.25204133     0.21167959     88.829396    
      8400   82.883461      158.5          158.5          158.5          0.15446392     0.020787474    0.48631089    -0.043706592    82.883461    
      8420   86.53646       158.5          158.5          158.5          0.040703066    0.027586145    0.21628324    -0.12176018     86.53646     
      8440   86.295098      158.5          158.5          158.5         -0.76131816    -0.026193384   -1.7929142     -0.46484684     86.295098    
      8460   82.894823      158.5          158.5          158.5          0.26710054     0.01885648     0.24975953     0.53268562     82.894823    
      8480   86.536505      158.5          158.5          158.5          0.57113158     0.031767023    1.4771913      0.20443642     86.536505    
      8500   83.703563      158.5          158.5          158.5         -0.17205099    -0.021012042   -0.28643929    -0.20870164     83.703563    
      8520   83.639746      158.5          158.5          158.5         -0.18125154     0.0011756286  -0.57947046     0.03454021     83.639746    
      8540   85.12413       158.5          158.5          158.5         -0.023054426   -0.0046231728   0.037408892   -0.101949       85.12413     
      8560   82.657928      158.5          158.5          158.5         -0.1537458     -0.0088234714  -0.36032967    -0.092084248    82.657928    
      8580   84.548506      158.5          158.5          158.5          0.097598576   -0.00057354133  0.33502649    -0.04165722     84.548506    
      8600   83.694813      158.5          158.5          158.5          0.43468357     0.034609152    0.99315747     0.2762841      83.694813    
      8620   83.125308      158.5          158.5          158.5         -0.19874104    -0.0079488101  -0.66732229     0.079047973    83.125308    
      8640   84.779081      158.5          158.5          158.5         -0.48235376    -0.057497334   -1.0115784     -0.37798557     84.779081    
      8660   82.840796      158.5          158.5          158.5          0.33255594     0.040491799    0.73126431     0.22591172     82.840796    
      8680   84.539551      158.5          158.5          158.5          0.082382331    0.00033472386  0.20612206     0.040690208    84.539551    
      8700   84.011679      158.5          158.5          158.5          0.017414007   -0.00082050882  0.04949458     0.0035679497   84.011679    
      8720   83.267825      158.5          158.5          158.5          0.17093857     0.010893301    0.57300038    -0.071077978    83.267825    
      8740   85.304542      158.5          158.5          158.5         -0.39891516    -0.02234319    -0.93188842    -0.24251386     85.304542    
      8760   83.125612      158.5          158.5          158.5         -0.22241475     0.0061991126  -0.87045289     0.19700953     83.125612    
      8780   84.920088      158.5          158.5          158.5          0.43153412     0.015011949    1.1881499      0.091440543    84.920088    
      8800   85.117882      158.5          158.5          158.5          0.33254198     0.0018352599   0.81244468     0.18334601     85.117882    
      8820   83.078574      158.5          158.5          158.5         -0.40070789    -0.007133982   -0.92085489    -0.27413478     83.078574    
      8840   86.896123      158.5          158.5          158.5         -0.041796202    0.017095055   -0.26986995     0.12738629     86.896123    
      8860   83.590887      158.5          158.5          158.5         -0.19020761    -0.0004748307  -0.26790332    -0.3022447      83.590887    
      8880   84.948071      158.5          158.5          158.5         -0.12524845    -0.01572305    -0.10278215    -0.25724014     84.948071    
      8900   87.178092      158.5          158.5          158.5          0.61630863     0.044187983    1.3257855      0.47895244     87.178092    
      8920   82.690241      158.5          158.5          158.5          0.21141804     0.030556105    0.29425117     0.30944684     82.690241    
      8940   87.810648      158.5          158.5          158.5         -0.75151115    -0.11377052    -1.8505367     -0.29022622     87.810648    
      8960   84.585032      158.5          158.5          158.5         -0.049657631    0.0017773242   0.08120171    -0.23195193     84.585032    
      8980   84.428985      158.5          158.5          158.5          0.49687129     0.058704895    1.0165131      0.41539583     84.428985    
      9000   88.294799      158.5          158.5          158.5         -0.071341784   -0.0063615054  -0.22333806     0.015674213    88.294799    
      9020   82.870709      158.5          158.5          158.5          0.16089948     0.039596641    0.73426476    -0.29116297     82.870709    
      9040   86.810601      158.5          158.5          158.5         -0.082991416   -0.0059566617  -0.1736054     -0.069412184    86.810601    
      9060   85.673256      158.5          158.5          158.5         -0.65716576    -0.060298475   -1.7846727     -0.12652616     85.673256    
      9080   83.404461      158.5          158.5          158.5          0.36575297     0.023267353    0.66012041     0.41387116     83.404461    
      9100   86.938664      158.5          158.5          158.5          0.46786474     0.013669631    1.4786508     -0.0887262      86.938664    
      9120   83.389126      158.5          158.5          158.5         -0.16207448     0.004797683   -0.5832287      0.092207581    83.389126    
      9140   84.115148      158.5          158.5          158.5         -0.17600479     0.0025666535  -0.53139536     0.00081433147  84.115148    
      9160   84.496414      158.5          158.5          158.5         -0.03303467    -0.0045404103   0.11299207    -0.20755567     84.496414    
      9180   82.80093       158.5          158.5          158.5         -0.16508445    -0.00019036186 -0.37048539    -0.1245776      82.80093     
      9200   84.352066      158.5          158.5          158.5          0.16524636     0.0067977229   0.38143033     0.10751102     84.352066    
      9220   83.29361       158.5          158.5          158.5          0.43020474     0.013653217    0.9319017      0.34505931     83.29361     
      9240   83.275205      158.5          158.5          158.5         -0.34261099    -0.0107248     -0.79618761    -0.22092056     83.275205    
      9260   84.212655      158.5          158.5          158.5         -0.33004517    -0.021347645   -0.77133391    -0.19745396     84.212655    
      9280   82.762603      158.5          158.5          158.5          0.32297731     0.0092404806   0.67044695     0.28924451     82.762603    
      9300   84.369099      158.5          158.5          158.5          0.016835314    0.011423312    0.089499905   -0.050417274    84.369099    
      9320   83.72034       158.5          158.5          158.5          0.028924636    0.014064935    0.17651789    -0.10380892     83.72034     
      9340   83.250345      158.5          158.5          158.5          0.15912976    -0.0046974256   0.48797443    -0.005887735    83.250345    
      9360   85.322783      158.5          158.5          158.5         -0.37920523    -0.034583386   -1.1030464      1.41071e-05    85.322783    
      9380   82.799847      158.5          158.5          158.5         -0.23530787     0.00018636306 -0.6591464     -0.046963577    82.799847    
      9400   85.463634      158.5          158.5          158.5          0.48762178     0.015554659    1.4556261     -0.008315394    85.463634    
      9420   85.11462       158.5          158.5          158.5          0.27063518     0.023429221    0.37317004     0.41530628     85.11462     
      9440   83.008421      158.5          158.5          158.5         -0.33042008    -0.001852091   -0.89057143    -0.098836725    83.008421    
      9460   87.270385      158.5          158.5          158.5         -0.086489469   -0.027926458    0.060242129   -0.29178408     87.270385    
      9480   83.282005      158.5          158.5          158.5         -0.19699346    -0.0038174918  -0.29445723    -0.29270566     83.282005    
      9500   85.231969      158.5          158.5          158.5         -0.034805445    0.017797572   -0.35901795     0.23680404     85.231969    
      9520   86.952804      158.5          158.5          158.5          0.66148305     0.018194543    1.5271576      0.43909701     86.952804    
      9540   82.551923      158.5          158.5          158.5          0.05248269     0.013657959    0.33580698    -0.19201687     82.551923    
      9560   87.292043      158.5          158.5          158.5         -0.72878278    -0.027589015   -1.9375504     -0.22120891     87.292043    
      9580   84.960611      158.5          158.5          158.5          0.07328801    -0.019496991   -0.021349025    0.26071005     84.960611    
      9600   83.636341      158.5          158.5          158.5          0.28293429     0.017551647    0.82118245     0.010068775    83.636341    
      9620   88.0777        158.5          158.5          158.5         -0.076457105    0.024967436    0.095004619   -0.34934337     88.0777      
      9640   82.891831      158.5          158.5          158.5          0.25679803     0.015501625    0.71691869     0.037973779    82.891831    
      9660   86.06239       158.5          158.5          158.5         -0.025566966   -0.034327231   -0.37433089     0.33195723     86.06239     
      9680   86.023483      158.5          158.5          158.5         -0.75897228    -0.067112289   -1.704102      -0.50570258     86.023483    
      9700   83.191395      158.5          158.5          158.5          0.36615867     0.049879268    0.88848139     0.16011537     83.191395    
      9720   86.9475        158.5          158.5          158.5          0.49898597     0.019786872    1.1514113      0.32575975     86.9475      
      9740   83.868628      158.5          158.5          158.5         -0.11058812    -0.007436917   -0.5060513      0.18172387     83.868628    
      9760   84.264535      158.5          158.5          158.5         -0.17698227    -0.0011396543  -0.23460224    -0.29520493     84.264535    
      9780   85.493829      158.5          158.5          158.5         -0.12662309    -0.0013331304  -0.062768183   -0.31576796     85.493829    
      9800   82.817944      158.5          158.5          158.5         -0.17712147    -0.0037647279  -0.60732669     0.079727008    82.817944    
      9820   84.676523      158.5          158.5          158.5          0.2423991      0.012442652    0.50290555     0.21184911     84.676523    
      9840   83.656518      158.5          158.5          158.5          0.409667       0.019193335    1.0575134      0.15229424     83.656518    
      9860   83.105592      158.5          158.5          158.5         -0.3494349     -0.011706852   -0.78000244    -0.25659542     83.105592    
      9880   84.368118      158.5          158.5          158.5         -0.24897925    -0.018543265   -0.76215753     0.033763056    84.368118    
      9900   82.701783      158.5          158.5          158.5          0.19176189     0.0023016089   0.42348418     0.14949989     82.701783    
      9920   83.953156      158.5          158.5          158.5         -0.022903518    0.011453188    0.13277761    -0.21294135     83.953156    
      9940   83.73566       158.5          158.5          158.5          0.11097358     0.019792659    0.32188175    -0.0087536704   83.73566     
      9960   82.869083      158.5          158.5          158.5          0.19869564     0.0092321904   0.39135668     0.19549804     82.869083    
      9980   84.646809      158.5          158.5          158.5         -0.37526351    -0.037345111   -1.0221569     -0.066288537    84.646809    
     10000   82.991008      158.5          158.5          158.5         -0.27143839    -0.025246012   -0.512166      -0.27690316     82.991008    
     10020   84.095143      158.5          158.5          158.5          0.48191806     0.030517282    1.1660004      0.2492365      84.095143    
     10040   85.207139      158.5          158.5          158.5          0.19252528     0.041138671    0.20017869     0.33625849     85.207139    
     10060   82.628269      158.5          158.5          158.5         -0.21217614    -0.0017018703  -0.39906672    -0.23575982     82.628269    
     10080   86.292001      158.5          158.5          158.5         -0.043830555   -0.060886733    0.18022043    -0.25082536     86.292001    
     10100   84.008927      158.5          158.5          158.5         -0.29556649    -0.028197162   -0.74602947    -0.11247284     84.008927    
     10120   83.969587      158.5          158.5          158.5         -0.0030400781   0.037268006   -0.34357251     0.29718427     83.969587    
     10140   87.151409      158.5          158.5          158.5          0.56327959     0.040568174    1.6235191      0.02575144     87.151409    
     10160   82.735577      158.5          158.5          158.5          0.080465906    0.014535327    0.19171947     0.035142924    82.735577    
     10180   85.953566      158.5          158.5          158.5         -0.55566732    -0.041013139   -1.6983762      0.072387394    85.953566    
     10200   85.754219      158.5          158.5          158.5         -0.014545729   -0.019678613    0.081103923   -0.1050625      85.754219    
     10220   82.989512      158.5          158.5          158.5          0.11636869     0.023717037    0.56668312    -0.24129409     82.989512    
     10240   87.466034      158.5          158.5          158.5         -0.064265001    0.016673495   -0.19166456    -0.017803933    87.466034    
     10260   83.993349      158.5          158.5          158.5          0.49340356     0.033554745    1.0832432      0.36341273     83.993349    
     10280   84.369115      158.5          158.5          158.5         -0.059052604    0.0024777694  -0.13364337    -0.045992207    84.369115    
     10300   87.280011      158.5          158.5          158.5         -0.83440054    -0.08634601    -1.9035568     -0.51329883     87.280011    
     10320   82.808066      158.5          158.5          158.5          0.39922912     0.020200502    0.67036758     0.50711929     82.808066    
     10340   86.726617      158.5          158.5          158.5          0.47790235     0.042807657    1.12938        0.2615194      86.726617    
     10360   85.453963      158.5          158.5          158.5         -0.19488796     0.021803476   -0.33343118    -0.27303618     85.453963    
     10380   83.464586      158.5          158.5          158.5         -0.018453222    0.010553515    0.097770668   -0.16368385     83.464586    
     10400   87.324888      158.5          158.5          158.5         -0.13222001    -0.0593303     -0.31461605    -0.022713689    87.324888    
     10420   83.368642      158.5          158.5          158.5         -0.40528618    -0.040670006   -1.1034099     -0.071778667    83.368642    
     10440   85.589999      158.5          158.5          158.5          0.32038412     0.059969682    0.92868322    -0.027500531    85.589999    
     10460   85.597476      158.5          158.5          158.5          0.56318797     0.066940958    1.279104       0.34351899     85.597476    
     10480   83.247867      158.5          158.5          158.5         -0.30566101    -0.029922577   -1.0211078      0.13404734     83.247867    
     10500   86.031404      158.5          158.5          158.5         -0.37924016    -0.068234081   -0.8159071     -0.25357931     86.031404    
     10520   83.675686      158.5          158.5          158.5          0.12910631    -0.0052248659   0.52418536    -0.13164157     83.675686    
     10540   84.148695      158.5          158.5          158.5         -0.070267089    0.024890996   -0.13874382    -0.096948446    84.148695    
     10560   85.182929      158.5          158.5          158.5          0.25288813     0.060346721    0.41911178     0.27920588     85.182929    
     10580   82.848943      158.5          158.5          158.5          0.31121498     0.025995721    0.80987041     0.097778814    82.848943    
     10600   84.929645      158.5          158.5          158.5         -0.49717056    -0.093428826   -1.0789521     -0.3191308      84.929645    
     10620   83.611769      158.5          158.5          158.5         -0.24362933    -0.047482992   -0.69759611     0.014191105    83.611769    
     10640   83.353554      158.5          158.5          158.5          0.40676462     0.055327783    0.83795314     0.32701294     83.353554    
     10660   84.932581      158.5          158.5          158.5          0.11173429     0.055807311    0.3060426     -0.026647029    84.932581    
     10680   82.825078      158.5          158.5          158.5         -0.11225292     0.0094584328  -0.049524654   -0.29669254     82.825078    
     10700   84.360468      158.5          158.5          158.5          0.076856978   -0.035174449    0.11775628     0.14798911     84.360468    
     10720   84.279989      158.5          158.5          158.5         -0.36099568    -0.070180173   -0.90391232    -0.10889454     84.279989    
     10740   82.80541       158.5          158.5          158.5         -0.080830684    0.018812976   -0.1974197     -0.063885331    82.80541     
     10760   85.921402      158.5          158.5          158.5          0.52073369     0.083214395    1.3555789      0.12340776     85.921402    
     10780   83.413488      158.5          158.5          158.5          0.15064852     0.044830219    0.13886612     0.26824922     83.413488    
     10800   84.429687      158.5          158.5          158.5         -0.46582606    -0.076223485   -1.2455349     -0.07571979     84.429687    
     10820   87.229351      158.5          158.5          158.5         -0.10133164    -0.066789816    0.014352368   -0.25155749     87.229351    
     10840   82.563767      158.5          158.5          158.5          0.0029615763   0.019542656    0.23567784    -0.24633576     82.563767    
     10860   87.790213      158.5          158.5          158.5         -0.034484822    0.034396923   -0.20996695     0.072115561    87.790213    
     10880   86.104628      158.5          158.5          158.5          0.64017081     0.10860751     1.4048356      0.40706931     86.104628    
     10900   83.258347      158.5          158.5          158.5          0.010469459    0.022499394    0.025964837   -0.017055854    83.258347    
     10920   89.283456      158.5          158.5          158.5         -0.9417465     -0.22241112    -2.1649895     -0.43783889     89.283456    
     10940   83.344621      158.5          158.5          158.5          0.33651529     0.011408751    0.51785178     0.48028534     83.344621    
     10960   86.251509      158.5          158.5          158.5          0.43123195     0.099857544    1.0707748      0.12306352     86.251509    
     10980   87.589954      158.5          158.5          158.5         -0.17016033     0.054693843   -0.23902455    -0.32615028     87.589954    
     11000   82.683072      158.5          158.5          158.5          0.1286771      0.036819047    0.4203645     -0.071152238    82.683072    
     11020   87.707918      158.5          158.5          158.5         -0.11396821    -0.096885499   -0.34573693     0.10071779     87.707918    
     11040   84.29967       158.5          158.5          158.5         -0.58346695    -0.13523505    -1.3708186     -0.24434724     84.29967     
     11060   84.464192      158.5          158.5          158.5          0.33230559     0.11639679     0.87553687     0.004983105    84.464192    
     11080   86.444222      158.5          158.5          158.5          0.5880785      0.1379364      1.1692008      0.45709835     86.444222    
     11100   82.967322      158.5          158.5          158.5         -0.22577867    -0.051391198   -0.75369081     0.127746       82.967322    
     11120   85.566632      158.5          158.5          158.5         -0.33463611    -0.10256569    -0.48320048    -0.41814217     85.566632    
     11140   84.265892      158.5          158.5          158.5          0.053557809   -0.019238512    0.26752492    -0.087612985    84.265892    
     11160   83.547512      158.5          158.5          158.5         -0.099173673   -0.0048605877  -0.44130703     0.1486466      83.547512    
     11180   85.358109      158.5          158.5          158.5          0.25642837     0.10953979     0.58477256     0.074972762    85.358109    
     11200   83.114776      158.5          158.5          158.5          0.31808651     0.10133876     0.92789725    -0.074976488    83.114776    
     11220   84.356618      158.5          158.5          158.5         -0.42395217    -0.14473495    -1.1107896     -0.016331986    84.356618    
     11240   84.341468      158.5          158.5          158.5         -0.24315244    -0.11338552    -0.74660031     0.1305285      84.341468    
     11260   82.862792      158.5          158.5          158.5          0.26704122     0.081002014    0.79094778    -0.070826148    82.862792    
     11280   84.736984      158.5          158.5          158.5          0.052714598    0.074268699    0.20493677    -0.12106167     84.736984    
     11300   83.083226      158.5          158.5          158.5          0.051791664    0.050723313   -0.0096321781   0.11428386     83.083226    
     11320   83.290429      158.5          158.5          158.5          0.11780214    -0.007402593    0.24170014     0.11910888     83.290429    
     11340   84.022901      158.5          158.5          158.5         -0.37069989    -0.14674722    -0.66693592    -0.29841654     84.022901    
     11360   82.439208      158.5          158.5          158.5         -0.095956562   -0.022144539   -0.23860313    -0.027122013    82.439208    
     11380   83.855429      158.5          158.5          158.5          0.40542908     0.12591921     0.74600616     0.34436186     83.855429    
     11400   83.125144      158.5          158.5          158.5          0.079216872    0.052268387    0.15862838     0.026753848    83.125144    
     11420   82.775         158.5          158.5          158.5         -0.23793833    -0.067326986   -0.40009506    -0.24639296     82.775       
     11440   84.014202      158.5          158.5          158.5         -0.024514129   -0.055613021   -0.020673764    0.0027443971   84.014202    
     11460   82.564633      158.5          158.5          158.5         -0.070011056   -0.031466567   -0.25952013     0.080953525    82.564633    
     11480   83.606279      158.5          158.5          158.5         -0.011390172    0.041685654   -0.012798342   -0.063057827    83.606279    
     11500   84.112459      158.5          158.5          158.5          0.35061143     0.1408317      0.93789495    -0.026892369    84.112459    
     11520   82.446074      158.5          158.5          158.5          0.035045347   -0.0089622603  -0.059869548    0.17396785     82.446074    
     11540   85.177166      158.5          158.5          158.5         -0.5231382     -0.2156314     -1.2879634     -0.065819793    85.177166    
     11560   83.454437      158.5          158.5          158.5          0.066941494    0.0096973032   0.18253745     0.0085897258   83.454437    
     11580   83.589537      158.5          158.5          158.5          0.19156364     0.12369929     0.64854495    -0.19755331     83.589537    
     11600   86.038064      158.5          158.5          158.5         -0.0063518559   0.024074923   -0.077595159    0.034464668    86.038064    
     11620   82.783589      158.5          158.5          158.5          0.29969561     0.059883061    0.57245453     0.26674924     82.783589    
     11640   85.379677      158.5          158.5          158.5         -0.19405306    -0.045800876   -0.35305292    -0.1833054      85.379677    
     11660   85.204242      158.5          158.5          158.5         -0.60629652    -0.17749802    -1.2661092     -0.37528234     85.204242    
     11680   83.34207       158.5          158.5          158.5          0.38015867     0.065297148    0.64426882     0.43091006     83.34207     
     11700   87.067395      158.5          158.5          158.5          0.54337201     0.15844818     0.99997774     0.47169011     87.067395    
     11720   83.791577      158.5          158.5          158.5         -0.21491129     0.018975093   -0.29614216    -0.36756681     83.791577    
     11740   85.358169      158.5          158.5          158.5         -0.24105725    -0.035574236   -0.37064626    -0.31695126     85.358169    
     11760   86.485048      158.5          158.5          158.5         -0.040487102   -0.11156706    -0.20917211     0.19927786     86.485048    
     11780   83.502347      158.5          158.5          158.5         -0.28158479    -0.13867462    -0.58864959    -0.11743017     83.502347    
     11800   87.682221      158.5          158.5          158.5          0.39417963     0.26230888     1.0023949     -0.082164852    87.682221    
     11820   84.355384      158.5          158.5          158.5          0.50059792     0.24082659     1.0761976      0.18476955     84.355384    
     11840   85.321007      158.5          158.5          158.5         -0.5026146     -0.28845324    -1.43925        0.21985945     85.321007    
     11860   87.306705      158.5          158.5          158.5         -0.42265614    -0.25783188    -0.90466582    -0.10547073     87.306705    
     11880   83.365951      158.5          158.5          158.5          0.29994843     0.15785622     0.97772119    -0.23573212     83.365951    
     11900   87.190132      158.5          158.5          158.5          0.038839436    0.10495337     0.04656339    -0.034998446    87.190132    
     11920   85.30416       158.5          158.5          158.5          0.17736176     0.17268626     0.20709986     0.15229917     85.30416     
     11940   83.727745      158.5          158.5          158.5          0.27900861     0.066064444    0.69051219     0.08044918     83.727745    
     11960   87.003246      158.5          158.5          158.5         -0.66495116    -0.44208601    -1.1789799     -0.37378754     87.003246    
     11980   82.791355      158.5          158.5          158.5         -0.12585111    -0.073146579   -0.49394132     0.18953456     82.791355    
     12000   85.131023      158.5          158.5          158.5          0.58941725     0.30563904     1.0876616      0.37495109     85.131023    
     12020   84.642082      158.5          158.5          158.5          0.030933649    0.1116438      0.17015502    -0.18899788     84.642082    
     12040   82.700994      158.5          158.5          158.5         -0.23190972    -0.10529101    -0.45145057    -0.13898758     82.700994    
     12060   85.338175      158.5          158.5          158.5          0.033919206   -0.082805479    0.065834717    0.11872838     85.338175    
     12080   82.862675      158.5          158.5          158.5         -0.20870594    -0.10799982    -0.39566275    -0.12245524     82.862675    
     12100   83.812811      158.5          158.5          158.5         -0.035676485    0.056144998   -0.029794093   -0.13338036     83.812811    
     12120   84.702477      158.5          158.5          158.5          0.45558941     0.25761157     0.93811735     0.17103931     84.702477    
     12140   82.477689      158.5          158.5          158.5          0.064518334   -0.0021809423  -0.086069038    0.28180498     82.477689    
     12160   84.889051      158.5          158.5          158.5         -0.54391535    -0.30797144    -1.0402395     -0.28353508     84.889051    
     12180   83.722557      158.5          158.5          158.5          0.07005384     0.010314911    0.28303702    -0.08319041     83.722557    
     12200   83.137735      158.5          158.5          158.5          0.20920945     0.11120295     0.32688647     0.18953894     83.137735    
     12220   85.741641      158.5          158.5          158.5         -0.040068334    0.033293506   -0.1242206     -0.029277904    85.741641    
     12240   83.002654      158.5          158.5          158.5          0.30444308     0.24135719     0.76774592    -0.095773877    83.002654    
     12260   84.999153      158.5          158.5          158.5         -0.21664733    -0.14624975    -0.36968016    -0.13401208     84.999153    
     12280   85.777082      158.5          158.5          158.5         -0.56743934    -0.46656867    -1.3644566      0.12870721     85.777082    
     12300   82.996799      158.5          158.5          158.5          0.36931803     0.18658501     0.66156719     0.2598019      82.996799    
     12320   87.44645       158.5          158.5          158.5          0.41370734     0.37493742     1.0312187     -0.16503412     87.44645     
     12340   84.248279      158.5          158.5          158.5         -0.17272229    -0.080774421   -0.37651829    -0.060874146    84.248279    
     12360   85.190977      158.5          158.5          158.5         -0.093412531   -0.21714445    -0.16762706     0.10453392     85.190977    
     12380   86.568531      158.5          158.5          158.5         -0.14097638    -0.016839807   -0.30132981    -0.10475952     86.568531    
     12400   83.588689      158.5          158.5          158.5         -0.35268777    -0.044134691   -0.47803452    -0.53589409     83.588689    
     12420   87.258199      158.5          158.5          158.5          0.4965586      0.25369157     0.82978838     0.40619586     87.258199    
     12440   84.395621      158.5          158.5          158.5          0.55434182     0.21593595     0.88436149     0.56272801     84.395621    
     12460   84.876678      158.5          158.5          158.5         -0.61079304    -0.3285019     -1.1389412     -0.36493599     84.876678    
     12480   86.661281      158.5          158.5          158.5         -0.31976596    -0.19702728    -0.61461297    -0.14765763     86.661281    
     12500   82.982817      158.5          158.5          158.5          0.29115037     0.10295066     0.62781945     0.14268099     82.982817    
     12520   86.712028      158.5          158.5          158.5          0.0584605      0.1281212     -0.056121279    0.10338158     86.712028    
     12540   84.559391      158.5          158.5          158.5          0.1377613      0.2275734      0.47554711    -0.2898366      84.559391    
     12560   83.644999      158.5          158.5          158.5          0.20268394     0.041390566    0.46001689     0.10664437     83.644999    
     12580   86.712006      158.5          158.5          158.5         -0.64870332    -0.50662892    -1.2920099     -0.14747111     86.712006    
     12600   82.68313       158.5          158.5          158.5         -0.058709029   -0.055434844   -0.30635132     0.18565907     82.68313     
     12620   85.461406      158.5          158.5          158.5          0.56072398     0.38416989     1.1221745      0.17582753     85.461406    
     12640   85.029786      158.5          158.5          158.5         -0.023848982    0.17082874     0.017795043   -0.26017073     85.029786    
     12660   82.706971      158.5          158.5          158.5         -0.1416093     -0.077330277   -0.40306122     0.05556361     82.706971    
     12680   86.002355      158.5          158.5          158.5         -0.023084444   -0.2152984      0.085126812    0.060918257    86.002355    
     12700   83.003396      158.5          158.5          158.5         -0.26123552    -0.18351439    -0.3745107     -0.22568147     83.003396    
     12720   84.012538      158.5          158.5          158.5          0.028000457    0.14868581     0.017425374   -0.082109814    84.012538    
     12740   84.896216      158.5          158.5          158.5          0.50195166     0.35439531     0.8458292      0.30563048     84.896216    
     12760   82.458464      158.5          158.5          158.5         -0.009063734   -0.02045071    -0.15461459     0.1478741      82.458464    
     12780   84.758295      158.5          158.5          158.5         -0.53488957    -0.42244608    -0.82030355    -0.36191908     84.758295    
     12800   83.353381      158.5          158.5          158.5          0.1728481      0.0032049645   0.33927259     0.17606673     83.353381    
     12820   83.128361      158.5          158.5          158.5          0.10417328     0.12950882     0.10099664     0.082014371    83.128361    
     12840   84.443191      158.5          158.5          158.5         -0.025899865    0.12536429    -0.042963994   -0.16009989     84.443191    
     12860   82.692255      158.5          158.5          158.5          0.25113954     0.1735216      0.5843986     -0.0045015691   82.692255    
     12880   83.96567       158.5          158.5          158.5         -0.2055624     -0.23831632    -0.39830269     0.019931812    83.96567     
     12900   83.798882      158.5          158.5          158.5         -0.3608258     -0.30392637    -0.84755025     0.068999211    83.798882    
     12920   82.954986      158.5          158.5          158.5          0.25078036     0.224538       0.61649197    -0.088688898    82.954986    
     12940   84.795459      158.5          158.5          158.5          0.30107781     0.27450538     0.55795201     0.070776038    84.795459    
     12960   83.27174       158.5          158.5          158.5         -0.11665096    -0.097930504   -0.42787482     0.17585245     83.27174     
     12980   84.482755      158.5          158.5          158.5         -0.084090151   -0.084227374    0.051686839   -0.21972992     84.482755    
     13000   85.438231      158.5          158.5          158.5         -0.16326033    -0.065952475   -0.21693897    -0.20688955     85.438231    
     13020   83.298218      158.5          158.5          158.5         -0.28485882    -0.24679728    -0.61299824     0.0052190462   83.298218    
     13040   86.951639      158.5          158.5          158.5          0.54827217     0.37203643     0.90088328     0.37189681     86.951639    
     13060   84.135131      158.5          158.5          158.5          0.44413126     0.43451139     0.81878892     0.079093463    84.135131    
     13080   85.374277      158.5          158.5          158.5         -0.72931362    -0.62002216    -1.2483653     -0.31955341     85.374277    
     13100   87.058547      158.5          158.5          158.5         -0.067373567   -0.22122744    -0.34144659     0.36055333     87.058547    
     13120   82.84656       158.5          158.5          158.5          0.24456785     0.19476007     0.67609573    -0.13715226     82.84656     
     13140   88.390318      158.5          158.5          158.5         -0.11264412     0.2016113     -0.20085357    -0.33869009     88.390318    
     13160   84.184316      158.5          158.5          158.5          0.31667917     0.27860707     0.60024948     0.071180957    84.184316    
     13180   84.759649      158.5          158.5          158.5          0.14153473    -0.07686253     0.31223962     0.18922711     84.759649    
     13200   87.909635      158.5          158.5          158.5         -0.76763236    -0.62337639    -1.4985831     -0.18093761     87.909635    
     13220   82.400277      158.5          158.5          158.5          0.013531059    0.007712802    0.087737432   -0.054857057    82.400277    
     13240   87.059018      158.5          158.5          158.5          0.72127658     0.53126356     1.1710257      0.46154047     87.059018    
     13260   84.991401      158.5          158.5          158.5         -0.046679135    0.13047875    -0.24718494    -0.023331214    84.991401    
     13280   83.232198      158.5          158.5          158.5         -0.25444693    -0.20174135    -0.3018488     -0.25975063     83.232198    
     13300   86.83661       158.5          158.5          158.5         -0.016760408   -0.27482896     0.18322966     0.041318072    86.83661     
     13320   82.919045      158.5          158.5          158.5         -0.33224298    -0.22302027    -0.57126907    -0.20243959     82.919045    
     13340   84.608281      158.5          158.5          158.5          0.21225954     0.29725593     0.14412787     0.19539484     84.608281    
     13360   84.930897      158.5          158.5          158.5          0.44337317     0.41015794     0.8712792      0.048682366    84.930897    
     13380   82.687287      158.5          158.5          158.5         -0.14424023    -0.098273906   -0.33232123    -0.0021255557   82.687287    
     13400   84.860721      158.5          158.5          158.5         -0.43818618    -0.48951325    -0.73125601    -0.093789273    84.860721    
     13420   83.125475      158.5          158.5          158.5          0.19687521     0.027643837    0.37866144     0.18432036     83.125475    
     13440   83.608037      158.5          158.5          158.5          0.069987792    0.21277845     0.12689432    -0.12970939     83.608037    
     13460   84.294239      158.5          158.5          158.5         -0.033135679    0.18762316    -0.055997267   -0.23103293     84.294239    
     13480   82.778512      158.5          158.5          158.5          0.3146866      0.17173844     0.46709418     0.30522719     82.778512    
     13500   84.46028       158.5          158.5          158.5         -0.35093768    -0.44003277    -0.48976164    -0.12301864     84.46028     
     13520   83.290782      158.5          158.5          158.5         -0.30641999    -0.28423387    -0.53967868    -0.095347427    83.290782    
     13540   83.741137      158.5          158.5          158.5          0.40724184     0.36311261     0.69263935     0.16597356     83.741137    
     13560   85.07189       158.5          158.5          158.5          0.27909809     0.34051333     0.32717889     0.16960206     85.07189     
     13580   82.943528      158.5          158.5          158.5         -0.24131993    -0.08906755    -0.48329084    -0.15160141     82.943528    
     13600   86.910164      158.5          158.5          158.5         -0.14470483    -0.32011568     0.096927292   -0.21092611     86.910164    
     13620   85.052072      158.5          158.5          158.5         -0.15119396    -0.26831985    -0.22761412     0.042352081    85.052072    
     13640   84.433609      158.5          158.5          158.5         -0.30271305    -0.12253198    -0.59386295    -0.19174422     84.433609    
     13660   88.277962      158.5          158.5          158.5          0.68953086     0.70601401     1.0724366      0.290142       88.277962    
     13680   83.117669      158.5          158.5          158.5          0.35475221     0.31321165     0.58342306     0.16762193     83.117669    
     13700   87.381606      158.5          158.5          158.5         -0.84930871    -0.98616387    -1.3986004     -0.16316187     87.381606    
     13720   86.042417      158.5          158.5          158.5          0.051318283   -0.01709854    -0.075745813    0.2467992      86.042417    
     13740   83.552692      158.5          158.5          158.5          0.30059753     0.34816259     0.71858971    -0.1649597      83.552692    
     13760   88.6437        158.5          158.5          158.5         -0.12195171     0.074594138   -0.28792246    -0.15252681     88.6437      
     13780   82.985186      158.5          158.5          158.5          0.26474589     0.31580514     0.56003162    -0.081599105    82.985186    
     13800   85.90925       158.5          158.5          158.5         -0.0063889256  -0.089076852   -0.0094690256   0.079379101    85.90925     
     13820   85.582349      158.5          158.5          158.5         -0.61994931    -0.72780538    -1.12438       -0.0076625047   85.582349    
     13840   83.24589       158.5          158.5          158.5          0.20870365     0.25255823     0.44023527    -0.066682549    83.24589     
     13860   86.378499      158.5          158.5          158.5          0.60315486     0.65561781     0.83939862     0.31444814     86.378499    
     13880   83.18291       158.5          158.5          158.5         -0.21240289    -0.28129939    -0.40592563     0.05001635     83.18291     
     13900   84.760531      158.5          158.5          158.5         -0.2872003     -0.27019648    -0.29561455    -0.29578989     84.760531    
     13920   84.586319      158.5          158.5          158.5          0.10305138     0.090823616    0.1234493      0.094881216    84.586319    
     13940   83.284779      158.5          158.5          158.5         -0.21607888    -0.26491516    -0.32226984    -0.061051643    83.284779    
     13960   85.104125      158.5          158.5          158.5          0.24726097     0.40314985     0.34754209    -0.0089090125   85.104125    
     13980   83.188245      158.5          158.5          158.5          0.39442133     0.50605026     0.63110948     0.046104239    83.188245    
     14000   84.25767       158.5          158.5          158.5         -0.4606508     -0.62786685    -0.74843193    -0.0056536175   84.25767     
     14020   84.568316      158.5          158.5          158.5         -0.23669817    -0.45343132    -0.43524226     0.17857906     84.568316    
     14040   82.983616      158.5          158.5          158.5          0.25543089     0.35978782     0.56953698    -0.16303215     82.983616    
     14060   85.28372       158.5          158.5          158.5          0.064891355    0.24364469     0.01633314    -0.065303762    85.28372     
     14080   83.430807      158.5          158.5          158.5          0.086382977    0.21306016    -0.031768078    0.077856847    83.430807    
     14100   84.329658      158.5          158.5          158.5          0.090504793   -0.03876629     0.33531428    -0.025033614    84.329658    
     14120   86.194096      158.5          158.5          158.5         -0.49202611    -0.85057582    -0.53265987    -0.092842641    86.194096    
     14140   82.825421      158.5          158.5          158.5         -0.15164765    -0.060510634   -0.42526554     0.030833236    82.825421    
     14160   88.394727      158.5          158.5          158.5          0.8160965      0.95329916     0.93696785     0.55802247     88.394727    
     14180   84.75444       158.5          158.5          158.5          0.078113591    0.36437272     0.14135373    -0.27138568     84.75444     
     14200   85.396973      158.5          158.5          158.5         -0.64064221    -0.80590219    -0.72759829    -0.38842614     85.396973    
     14220   89.191729      158.5          158.5          158.5          0.17996489    -0.31935681     0.18711207     0.6721394      89.191729    
     14240   83.094397      158.5          158.5          158.5         -0.23721102     0.097641303   -0.21053886    -0.59873549     83.094397    
     14260   89.414341      158.5          158.5          158.5          0.15386115     0.474549       0.29296962    -0.30593517     89.414341    
     14280   85.350021      158.5          158.5          158.5          0.50302929     0.7779819      0.58021264     0.15089333     85.350021    
     14300   84.863012      158.5          158.5          158.5         -0.13708427    -0.45806319    -0.32020051     0.36701087     84.863012    
     14320   87.953989      158.5          158.5          158.5         -0.87918064    -1.2737006     -0.9556492     -0.40819206     87.953989    
     14340   83.216038      158.5          158.5          158.5          0.48935781     0.59903324     0.42828685     0.44075335     83.216038    
     14360   86.263354      158.5          158.5          158.5          0.30828687     0.60947355     0.42640895    -0.1110219      86.263354    
     14380   84.893977      158.5          158.5          158.5         -0.19299761    -0.11889741    -0.032737732   -0.4273577      84.893977    
     14400   83.877501      158.5          158.5          158.5          0.14314487     0.10853849     0.058071136    0.26282498     83.877501    
     14420   85.866624      158.5          158.5          158.5         -0.27155978    -0.39841117    -0.38586131    -0.030406863    85.866624    
     14440   83.249012      158.5          158.5          158.5         -0.3373148     -0.4283106     -0.29179468    -0.29183911     83.249012    
     14460   85.476428      158.5          158.5          158.5          0.44078764     0.64260364     0.49620155     0.18355773     85.476428    
     14480   84.263379      158.5          158.5          158.5          0.46653542     0.56133627     0.42699103     0.41127895     84.263379    
     14500   83.751606      158.5          158.5          158.5         -0.5226847     -0.7875201     -0.47666589    -0.3038681      83.751606    
     14520   85.755649      158.5          158.5          158.5         -0.17671708    -0.16240782    -0.35239758    -0.01534584     85.755649    
     14540   82.714515      158.5          158.5          158.5          0.27093484     0.32739957     0.18955053     0.29585441     82.714515    
     14560   85.744712      158.5          158.5          158.5         -0.19197188    -0.28883855     0.061926718   -0.34900382     85.744712    
     14580   84.484527      158.5          158.5          158.5          0.29106238     0.71534207     0.34893386    -0.1910888      84.484527    
     14600   83.167852      158.5          158.5          158.5          0.22066805     0.28712219     0.092644932    0.28223704     83.167852    
     14620   86.661625      158.5          158.5          158.5         -0.67373537    -1.4092166     -0.66775475     0.055765193    86.661625    
     14640   82.789455      158.5          158.5          158.5         -0.010899543    0.096221673   -0.012336139   -0.11658416     82.789455    
     14660   85.248402      158.5          158.5          158.5          0.51818394     1.0002266      0.47565221     0.078672994    85.248402    
     14680   85.81282       158.5          158.5          158.5         -0.012139352   -0.26120762    -0.034983913    0.25977348     85.81282     
     14700   82.83573       158.5          158.5          158.5         -0.090227937    0.045135646    0.03826233    -0.35408179     82.83573     
     14720   86.799709      158.5          158.5          158.5         -0.095498554   -0.068614921   -0.077888883   -0.13999186     86.799709    
     14740   83.863982      158.5          158.5          158.5         -0.30185211    -0.86212941    -0.45089587     0.40746897     83.863982    
     14760   84.899135      158.5          158.5          158.5          0.17445657     0.51792037     0.30617985    -0.30073051     84.899135    
     14780   86.106925      158.5          158.5          158.5          0.46355879     0.95705433     0.50569801    -0.072075963    86.106925    
     14800   83.47929       158.5          158.5          158.5         -0.17969583    -0.54849269    -0.492268       0.50167319     83.47929     
     14820   86.935731      158.5          158.5          158.5         -0.36146012    -0.54949542    -0.16229206    -0.37259288     86.935731    
     14840   83.388991      158.5          158.5          158.5          0.07631119     0.087657689    0.29499659    -0.15372071     83.388991    
     14860   86.133381      158.5          158.5          158.5          0.05743435     0.00023692796 -0.2396092      0.41167532     86.133381    
     14880   85.798207      158.5          158.5          158.5          0.32665135     0.80922278     0.35045194    -0.17972067     85.798207    
     14900   83.142522      158.5          158.5          158.5          0.055728541    0.0064925475   0.3017212     -0.14102812     83.142522    
     14920   87.773508      158.5          158.5          158.5         -0.58397815    -1.1376419     -0.84496474     0.23067219     87.773508    
     14940   82.768207      158.5          158.5          158.5          0.10508342     0.18723152     0.060374114    0.067644626    82.768207    
     14960   85.874727      158.5          158.5          158.5          0.33352648     0.7592783      0.51486063    -0.27355948     85.874727    
     14980   86.048859      158.5          158.5          158.5         -0.10581584    -0.10489827    -0.16924617    -0.043303092    86.048859    
     15000   82.852474      158.5          158.5          158.5          0.23052148     0.25203698     0.10254294     0.33698451     82.852474    
     15020   86.335705      158.5          158.5          158.5         -0.28109925    -0.40641504    -0.084380003   -0.3525027      86.335705    
     15040   83.247365      158.5          158.5          158.5         -0.39803756    -0.78458475    -0.32012676    -0.089401172    83.247365    
     15060   84.201278      158.5          158.5          158.5          0.46538612     0.61996296     0.23221781     0.54397759     84.201278    
     15080   84.542182      158.5          158.5          158.5          0.26850687     0.79266881     0.2560395     -0.24318772     84.542182    
     15100   82.844538      158.5          158.5          158.5         -0.27880499    -0.54218228    -0.10273665    -0.19149603     82.844538    
     15120   84.45052       158.5          158.5          158.5         -0.10887593    -0.40779406    -0.19112173     0.272288       84.45052     
     15140   83.2203        158.5          158.5          158.5         -0.0074249029   0.063393425   -0.068341839   -0.017326295    83.2203      
     15160   83.482806      158.5          158.5          158.5         -0.068839682   -0.034021397    0.077374352   -0.249872       83.482806    
     15180   84.248956      158.5          158.5          158.5          0.16219633     0.40692546     0.18317359    -0.10351007     84.248956    
     15200   82.766262      158.5          158.5          158.5          0.34720834     0.45917364     0.1661212      0.41633017     82.766262    
     15220   84.254347      158.5          158.5          158.5         -0.46168893    -0.88853202    -0.33811247    -0.15842228     84.254347    
     15240   83.609119      158.5          158.5          158.5         -0.2403487     -0.35273541    -0.2338489     -0.1344618      83.609119    
     15260   83.186296      158.5          158.5          158.5          0.45873703     0.72955986     0.24649996     0.40015128     83.186296    
     15280   85.458051      158.5          158.5          158.5         -0.040501996   -0.060173711    0.16320714    -0.22453941     85.458051    
     15300   82.872411      158.5          158.5          158.5          0.087014495    0.28547959     0.11199729    -0.13643339     82.872411    
     15320   85.285081      158.5          158.5          158.5         -0.06317421     0.076443298   -0.2595818     -0.0063841278   85.285081    
     15340   85.05258       158.5          158.5          158.5         -0.37340412    -0.87220213    -0.32089557     0.072885339    85.05258     
     15360   83.27047       158.5          158.5          158.5         -0.047699145   -0.26268235     0.12748571    -0.0079007943   83.27047     
     15380   87.534116      158.5          158.5          158.5          0.64348379     1.2366772      0.39795709     0.29581707     87.534116    
     15400   83.466658      158.5          158.5          158.5          0.095266621    0.41302571     0.1449669     -0.27219274     83.466658    
     15420   85.556928      158.5          158.5          158.5         -0.59850244    -1.1184111     -0.37906678    -0.29802947     85.556928    
     15440   87.007626      158.5          158.5          158.5          0.05816693    -0.34408025    -0.14640184     0.66498288     87.007626    
     15460   82.982567      158.5          158.5          158.5         -0.12699475     0.051186514    0.066688682   -0.49885945     82.982567    
     15480   88.06795       158.5          158.5          158.5          0.2451688      0.83107697     0.34441395    -0.43998453     88.06795     
     15500   84.170773      158.5          158.5          158.5          0.31071568     0.74912756     0.15787126     0.025148227    84.170773    
     15520   85.415552      158.5          158.5          158.5         -0.14671818    -0.68758831    -0.25624711     0.50368088     85.415552    
     15540   86.923069      158.5          158.5          158.5         -0.73854061    -1.381069      -0.5529187     -0.28163417     86.923069    
     15560   83.444261      158.5          158.5          158.5          0.53066067     0.85591516     0.40992553     0.32614132     83.444261    
     15580   87.018541      158.5          158.5          158.5          0.082982723    0.63281905     0.15799684    -0.54186772     87.018541    
     15600   84.354863      158.5          158.5          158.5          0.044472503    0.10500177    -0.018569545    0.046985281    84.354863    
     15620   84.408001      158.5          158.5          158.5          0.037319516   -0.052380067   -0.057879357    0.22221797     84.408001    
     15640   85.477053      158.5          158.5          158.5         -0.30276382    -0.71880944    -0.076649346   -0.11283266     85.477053    
     15660   82.837324      158.5          158.5          158.5         -0.21796413    -0.33185176    -0.095599544   -0.22644108     82.837324    
     15680   85.121304      158.5          158.5          158.5          0.39321242     0.76909021     0.16052812     0.25001894     85.121304    
     15700   83.51354       158.5          158.5          158.5          0.37786678     0.60862211     0.20347938     0.32149885     83.51354     
     15720   83.443074      158.5          158.5          158.5         -0.49624309    -0.74978835    -0.23857062    -0.50037029     83.443074    
     15740   84.48787       158.5          158.5          158.5         -0.048540895   -0.33269908    -0.047343417    0.23441981     84.48787     
     15760   82.542109      158.5          158.5          158.5          0.12145223     0.098080982    0.019059596    0.24721612     82.542109    
     15780   84.208394      158.5          158.5          158.5         -0.13130261     0.06276619    -0.019061982   -0.43761203     84.208394    
     15800   83.77294       158.5          158.5          158.5          0.30963166     0.73367943     0.22742203    -0.032206464    83.77294     
     15820   82.838549      158.5          158.5          158.5          0.065815421   -0.013790558    0.021057314    0.19017951     82.838549    
     15840   84.853618      158.5          158.5          158.5         -0.43226533    -1.0878449     -0.33462633     0.12567528     84.853618    
     15860   82.847007      158.5          158.5          158.5         -0.062417071    0.014609985   -0.013604511   -0.18825669     82.847007    
     15880   83.891625      158.5          158.5          158.5          0.31464881     0.69309449     0.23695261     0.013899321    83.891625    
     15900   84.917552      158.5          158.5          158.5          0.13867591     0.067241114    0.029725968    0.31906065     84.917552    
     15920   82.675691      158.5          158.5          158.5         -0.095040103    0.098114183    0.034976019   -0.41821051     82.675691    
     15940   85.214116      158.5          158.5          158.5         -0.10346166    -0.16596125    -0.15275719     0.0083334513   85.214116    
     15960   83.667671      158.5          158.5          158.5         -0.2464774     -0.88954893    -0.21134562     0.36146235     83.667671    
     15980   83.787617      158.5          158.5          158.5          0.11329039     0.39252711     0.18168639    -0.23434234     83.787617    
     16000   85.838435      158.5          158.5          158.5          0.46918754     1.2232571      0.25760647    -0.073300938    85.838435    
     16020   82.922621      158.5          158.5          158.5         -0.21435321    -0.67976064    -0.027183731    0.06388474     82.922621    
     16040   85.777499      158.5          158.5          158.5         -0.25313321    -0.68296529    -0.24300028     0.16656592     85.777499    
     16060   84.197315      158.5          158.5          158.5          0.052875472    0.39553934    -0.12585619    -0.11105673     84.197315    
     16080   84.657104      158.5          158.5          158.5         -0.15874818    -0.24585987     0.092854041   -0.32323872     84.657104    
     16100   86.550625      158.5          158.5          158.5          0.44603425     0.66978166     0.23353251     0.43478856     86.550625    
     16120   83.02961       158.5          158.5          158.5          0.29934122     0.81899879     0.17541496    -0.096390084    83.02961     
     16140   87.150743      158.5          158.5          158.5         -0.75728581    -1.5081241     -0.45943518    -0.30429813     87.150743    
     16160   84.70453       158.5          158.5          158.5         -0.013141994   -0.6133943     -0.14871698     0.7226853      84.70453     
     16180   84.657733      158.5          158.5          158.5          0.36870095     0.89730256     0.33556274    -0.12676244     84.657733    
     16200   87.78357       158.5          158.5          158.5          0.067208381    0.66750533     0.082058107   -0.54793829     87.78357     
     16220   82.600792      158.5          158.5          158.5         -0.0091579539   0.066985166   -0.027480601   -0.066978427    82.600792    
     16240   87.302913      158.5          158.5          158.5         -0.00038949133 -0.39420818    -0.027818379    0.42085808     87.302913    
     16260   85.906726      158.5          158.5          158.5         -0.51435853    -1.1486355     -0.19702384    -0.19741624     85.906726    
     16280   83.389854      158.5          158.5          158.5         -0.10222788     0.13160921    -0.0038499144  -0.43444294     83.389854    
     16300   88.035241      158.5          158.5          158.5          0.83482823     1.4278541      0.30249472     0.77413586     88.035241    
     16320   83.249818      158.5          158.5          158.5         -0.0037077756   0.1080108     -0.094759124   -0.024374999    83.249818    
     16340   84.854654      158.5          158.5          158.5         -0.47385357    -1.0197512     -0.11361909    -0.28819043     84.854654    
     16360   85.028199      158.5          158.5          158.5          0.031184065   -0.25423924     0.09384579     0.25394565     85.028199    
     16380   82.714835      158.5          158.5          158.5         -0.019246954    0.081377665   -0.076975816   -0.06214271     82.714835    
     16400   85.080145      158.5          158.5          158.5          0.14728494     0.45531107     0.049464792   -0.062921036    85.080145    
     16420   83.248525      158.5          158.5          158.5          0.21957338     0.60089942     0.13437511    -0.076554389    83.248525    
     16440   83.646059      158.5          158.5          158.5         -0.12225512    -0.44914738    -0.0027898303   0.085171836    83.646059    
     16460   84.342048      158.5          158.5          158.5         -0.49310669    -1.090249      -0.28406268    -0.10500839     84.342048    
     16480   82.797238      158.5          158.5          158.5          0.36620057     0.54993453     0.09295034     0.45571682     82.797238    
     16500   84.540699      158.5          158.5          158.5          0.17710795     0.67345663     0.12209071    -0.26422349     84.540699    
     16520   83.378755      158.5          158.5          158.5         -0.11408739     0.099368124    0.01706012    -0.4586904      83.378755    
     16540   83.603605      158.5          158.5          158.5          0.046867455   -0.17625521    -0.026402271    0.34325984     83.603605    
     16560   84.760518      158.5          158.5          158.5         -0.23314146    -0.75830578    -0.12785973     0.18674112     84.760518    
     16580   83.018297      158.5          158.5          158.5         -0.22281767    -0.24973517    -0.043677911   -0.37503992     83.018297    
     16600   85.353002      158.5          158.5          158.5          0.31905519     0.94486662     0.15900533    -0.14670636     85.353002    
     16620   84.330308      158.5          158.5          158.5          0.51111027     0.81788143     0.17731657     0.5381328      84.330308    
     16640   83.935454      158.5          158.5          158.5         -0.54687476    -1.2816614     -0.1363115     -0.22265139     83.935454    
     16660   86.831528      158.5          158.5          158.5         -0.16264047    -0.38469405    -0.24333559     0.14010824     86.831528    
     16680   82.766355      158.5          158.5          158.5          0.10974429     0.38450557     0.012943158   -0.068215872    82.766355    
     16700   86.750668      158.5          158.5          158.5         -0.084156514   -0.14492086     0.13260642    -0.2401551      86.750668    
     16720   85.320302      158.5          158.5          158.5          0.48363468     1.0973849      0.22526078     0.12825842     85.320302    
     16740   83.47863       158.5          158.5          158.5          0.019711934    0.19155823    -0.054436539   -0.077985891    83.47863     
     16760   88.13926       158.5          158.5          158.5         -0.65707257    -1.7924127     -0.40870796     0.2299029      88.13926     
     16780   82.483751      158.5          158.5          158.5          0.10308952     0.13467135     0.054063936    0.12053326     82.483751    
     16800   86.752526      158.5          158.5          158.5          0.50502919     1.3675182      0.21659019    -0.069020845    86.752526    
     16820   85.781286      158.5          158.5          158.5         -0.047153429   -0.2571047      0.13431291    -0.018668495    85.781286    
     16840   83.728328      158.5          158.5          158.5         -0.19299135    -0.12768703    -0.12512408    -0.32616294     83.728328    
     16860   87.075261      158.5          158.5          158.5         -0.012109104   -0.1654328     -0.17673042     0.30583591     87.075261    
     16880   83.110276      158.5          158.5          158.5         -0.23024392    -0.86753996     0.046896597    0.12991161     83.110276    
     16900   86.508479      158.5          158.5          158.5          0.087855854    0.83519654     0.073806635   -0.64543561     86.508479    
     16920   84.799835      158.5          158.5          158.5          0.51576804     0.92467504     0.13567112     0.48695796     84.799835    
     16940   83.341937      158.5          158.5          158.5         -0.15725711    -0.6486852     -0.038859999    0.21577386     83.341937    
     16960   86.711158      158.5          158.5          158.5         -0.54742283    -0.83526699    -0.17221715    -0.63478435     86.711158    
     16980   82.938488      158.5          158.5          158.5          0.22866305     0.079209204    0.079276468    0.52750347     82.938488    
     17000   85.256162      158.5          158.5          158.5          0.24780772     0.59181393     0.04773965     0.10386959     85.256162    
     17020   84.337035      158.5          158.5          158.5          0.029641995    0.5325261      0.021550099   -0.46515021     84.337035    
     17040   83.138456      158.5          158.5          158.5         -0.018644112   -0.34815149     0.041411331    0.25080783     83.138456    
     17060   85.201552      158.5          158.5          158.5         -0.23072686    -0.5837921     -0.13057144     0.022182949    85.201552    
     17080   82.546272      158.5          158.5          158.5         -0.044845301   -0.083881411    0.018723379   -0.069377872    82.546272    
     17100   83.831758      158.5          158.5          158.5          0.12144225     0.39591834     0.062208502   -0.093800076    83.831758    
     17120   83.701705      158.5          158.5          158.5          0.15303334     0.49484842    -0.024745144   -0.011003258    83.701705    
     17140   82.764044      158.5          158.5          158.5          0.086281462   -0.088523913    0.063641817    0.28372648     82.764044    
     17160   84.117354      158.5          158.5          158.5         -0.41200964    -0.82440273    -0.099482959   -0.31214322     84.117354    
     17180   82.521802      158.5          158.5          158.5          0.049637496    0.025245347    0.0047634243   0.11890372     82.521802    
     17200   83.560124      158.5          158.5          158.5          0.29341051     0.51919851     0.080410466    0.28062255     83.560124    
     17220   83.779983      158.5          158.5          158.5         -0.072420566    0.2451964     -0.05465583    -0.40780227     83.779983    
     17240   82.77961       158.5          158.5          158.5          0.10655771     0.15394535     0.092453382    0.073274412    82.77961     
     17260   84.569848      158.5          158.5          158.5         -0.30194145    -0.80679725    -0.1380577      0.039030596    84.569848    
     17280   82.888145      158.5          158.5          158.5         -0.06164311    -0.40775229     0.014432869    0.20839009     82.888145    
     17300   83.621559      158.5          158.5          158.5          0.14475838     0.60361493     0.018312029   -0.1876518      83.621559    
     17320   84.615993      158.5          158.5          158.5          0.22493105     0.85044474     0.014558137   -0.19020973     84.615993    
     17340   82.543028      158.5          158.5          158.5          0.061420836   -0.053609186    0.082976931    0.15489476     82.543028    
     17360   85.521442      158.5          158.5          158.5         -0.41410344    -1.1933436     -0.11025542     0.061288727    85.521442    
     17380   83.674964      158.5          158.5          158.5         -0.0028026909  -0.18833416     0.037297747    0.14262834     83.674964    
     17400   84.078374      158.5          158.5          158.5         -0.097469458    0.36803445    -0.18196698    -0.47847584     84.078374    
     17420   85.773124      158.5          158.5          158.5          0.5117204      1.0760701      0.22574075     0.23335038     85.773124    
     17440   83.172249      158.5          158.5          158.5         -0.10587892    -0.28823239    -0.018096015   -0.01130836     83.172249    
     17460   86.422946      158.5          158.5          158.5         -0.22113824    -0.86414633     0.12752953     0.073202073    86.422946    
     17480   83.751972      158.5          158.5          158.5         -0.37750577    -0.53706193    -0.3609483     -0.23450709     83.751972    
     17500   85.357181      158.5          158.5          158.5          0.6148217      1.2292034      0.19055409     0.42470762     85.357181    
     17520   86.251807      158.5          158.5          158.5         -0.078426698    0.097005894    0.023168829   -0.35545482     86.251807    
     17540   83.118684      158.5          158.5          158.5          0.037570532   -0.1758781      0.21049721     0.078092488    83.118684    
     17560   87.667186      158.5          158.5          158.5         -0.32098544    -0.80946961    -0.35586851     0.2023818      87.667186    
     17580   82.656975      158.5          158.5          158.5          0.0014304726   0.16694428    -0.086044051   -0.076608816    82.656975    
     17600   87.359456      158.5          158.5          158.5          0.18388567     0.53314012     0.13120132    -0.11268442     87.359456    
     17620   84.147898      158.5          158.5          158.5          0.41860997     0.65336311     0.27375261     0.32871419     84.147898    
     17640   85.184197      158.5          158.5          158.5         -0.30729253    -0.76169769    -0.10215771    -0.058022201    85.184197    
     17660   86.256021      158.5          158.5          158.5         -0.42906553    -0.93681621    -0.28457404    -0.065806335    86.256021    
     17680   83.424469      158.5          158.5          158.5          0.47178515     0.7682419      0.24409019     0.40302337     83.424469    
     17700   88.524762      158.5          158.5          158.5          0.047705403    0.31332646     0.042683586   -0.21289383     88.524762    
     17720   83.174558      158.5          158.5          158.5          0.28633375     0.76236218     0.079456055    0.017183029    83.174558    
     17740   87.109935      158.5          158.5          158.5         -0.39363981    -0.81206547    -0.3051814     -0.063672546    87.109935    
     17760   85.901216      158.5          158.5          158.5         -0.22541444    -0.94205559     0.092382393    0.17342988     85.901216    
     17780   83.663624      158.5          158.5          158.5         -0.20163533    -0.45642017    -0.032876605   -0.11560922     83.663624    
     17800   86.475516      158.5          158.5          158.5          0.67507288     1.5390623      0.16937273     0.31678361     86.475516    
     17820   83.142901      158.5          158.5          158.5          0.045542851    0.48045251    -0.063837715   -0.27998624     83.142901    
     17840   84.313392      158.5          158.5          158.5         -0.45550466    -1.2380913     -0.078381618   -0.05004104     84.313392    
     17860   84.869639      158.5          158.5          158.5          0.071863      -0.32312894     0.098879312    0.43983863     84.869639    
     17880   82.813977      158.5          158.5          158.5         -0.075878968    0.19254942    -0.071646882   -0.34853944     82.813977    
     17900   85.281424      158.5          158.5          158.5          0.11419088     0.49156908    -0.025860073   -0.12313636     85.281424    
     17920   83.097041      158.5          158.5          158.5          0.22277253     0.56665788     0.025614805    0.076044902    83.097041    
     17940   83.648517      158.5          158.5          158.5         -0.086733082   -0.41066504     0.01492733     0.13553847     83.648517    
     17960   84.652298      158.5          158.5          158.5         -0.36092644    -1.013889      -0.020834128   -0.04805618     84.652298    
     17980   82.82133       158.5          158.5          158.5          0.051794352    0.32692747    -0.013151792   -0.15839262     82.82133     
     18000   85.207513      158.5          158.5          158.5          0.45730527     0.87726031     0.078032518    0.41662297     85.207513    
     18020   82.978379      158.5          158.5          158.5         -0.0095702229   0.14707548    -0.025277953   -0.15050819     82.978379    
     18040   84.484866      158.5          158.5          158.5         -0.39925543    -0.69317885    -0.057750495   -0.44683695     84.484866    
     18060   85.205595      158.5          158.5          158.5          0.097660723   -0.43780058     0.080347664    0.65043508     85.205595    
     18080   82.801773      158.5          158.5          158.5          0.027557426    0.28225885    -0.024499673   -0.1750869      82.801773    
     18100   86.847617      158.5          158.5          158.5         -0.077155543    0.5100935     -0.08812718    -0.65343295     86.847617    
     18120   83.739727      158.5          158.5          158.5          0.43224292     0.56303315     0.11515603     0.61853958     83.739727    
     18140   85.685655      158.5          158.5          158.5         -0.10757097    -0.252155      -0.027329145   -0.043228769    85.685655    
     18160   86.570991      158.5          158.5          158.5         -0.70238349    -1.6293803     -0.080634342   -0.39713579     86.570991    
     18180   83.316885      158.5          158.5          158.5          0.31428841     0.30606725     0.10108436     0.53571362     83.316885    
     18200   88.386529      158.5          158.5          158.5          0.53861149     1.5281632      0.012670827    0.075000449    88.386529    
     18220   84.109257      158.5          158.5          158.5         -0.085133702   -0.056413065    0.10502732    -0.30401536     84.109257    
     18240   85.154829      158.5          158.5          158.5         -0.36401358    -0.94843697    -0.11246959    -0.031134174    85.154829    
     18260   87.050024      158.5          158.5          158.5          0.0044681712  -0.22067562    -0.16509359     0.39917373     87.050024    
     18280   83.370359      158.5          158.5          158.5         -0.010358029    0.018042834    0.1174007     -0.16651763     83.370359    
     18300   87.441615      158.5          158.5          158.5         -0.028280758    0.56046211     0.024192792   -0.66949718     87.441615    
     18320   83.810378      158.5          158.5          158.5          0.57879762     1.2660908      0.095718585    0.3745835      83.810378    
     18340   85.099144      158.5          158.5          158.5         -0.38536743    -1.2081253     -0.084373876    0.1363969      85.099144    
     18360   85.387031      158.5          158.5          158.5         -0.47989838    -1.2926717     -0.11389998    -0.033123437    85.387031    
     18380   83.40225       158.5          158.5          158.5          0.4911918      1.100797       0.069436732    0.30334167     83.40225     
     18400   86.325738      158.5          158.5          158.5          0.03761669     0.59041847     0.029885906   -0.5074543      86.325738    
     18420   83.308556      158.5          158.5          158.5          0.084891768    0.32072859     0.033770977   -0.099824259    83.308556    
     18440   85.09343       158.5          158.5          158.5         -0.087446928   -0.64992306    -0.031497719    0.41907999     85.09343     
     18460   85.024342      158.5          158.5          158.5         -0.27487167    -0.75045354    -0.013394634   -0.060766828    85.024342    
     18480   83.036785      158.5          158.5          158.5         -0.25584353    -0.16883504     0.0059988611  -0.60469441     83.036785    
     18500   85.831047      158.5          158.5          158.5          0.66328532     1.3054806      0.025076316    0.65929903     85.831047    
     18520   83.13714       158.5          158.5          158.5          0.092781092    0.19640721    -0.00343714     0.085373205    83.13714     
     18540   84.22081       158.5          158.5          158.5         -0.41283838    -0.91494948    -0.00088449914 -0.32268117     84.22081     
     18560   84.447119      158.5          158.5          158.5         -0.1244415     -0.5810823     -0.0062496787   0.21400747     84.447119    
     18580   82.195298      158.5          158.5          158.5          0.16870278     0.36183175     0.011194307    0.1330823      82.195298    
     18600   84.616928      158.5          158.5          158.5         -0.0090903319   0.3300083     -0.0028469554  -0.35443234     84.616928    
     18620   82.691183      158.5          158.5          158.5          0.23360633     0.58601716     0.035654367    0.079147469    82.691183    
     18640   83.04552       158.5          158.5          158.5         -0.017594086   -0.22712725     0.019506421    0.15483857     83.04552     
     18660   83.766451      158.5          158.5          158.5         -0.49079408    -1.1683771     -0.099402503   -0.20460261     83.766451    
     18680   82.318429      158.5          158.5          158.5          0.27616925     0.4378712      0.031832445    0.3588041      82.318429    
     18700   83.774763      158.5          158.5          158.5          0.19859021     0.65310604     0.015715923   -0.073051332    83.774763    
     18720   82.824165      158.5          158.5          158.5         -0.051824573    0.17555273     0.030841435   -0.36186788     82.824165    
     18740   82.884853      158.5          158.5          158.5         -0.11213373    -0.41337502    -0.038774149    0.11574798     82.884853    
     18760   83.586639      158.5          158.5          158.5         -0.015634335   -0.38688952    -0.022214058    0.36220057     83.586639    
     18780   82.445867      158.5          158.5          158.5         -0.17963794    -0.19636477     0.0055817168  -0.34813076     82.445867    
     18800   84.093017      158.5          158.5          158.5          0.15117633     0.70907938     0.016277687   -0.27182807     84.093017    
     18820   83.183392      158.5          158.5          158.5          0.49100148     0.9524033      0.033709542    0.48689162     83.183392    
     18840   83.456887      158.5          158.5          158.5         -0.45853188    -1.221022      -0.04884871    -0.10572495     83.456887    
     18860   85.079183      158.5          158.5          158.5         -0.29952936    -0.87715924     0.0027891061  -0.024217936    85.079183    
     18880   82.428218      158.5          158.5          158.5          0.32208195     0.64975852     0.035145474    0.28134186     82.428218    
     18900   85.569116      158.5          158.5          158.5         -0.07281234     0.028419727    0.00075615929 -0.24761291     85.569116    
     18920   84.132562      158.5          158.5          158.5          0.22229752     0.87624154     0.019704008   -0.229053       84.132562    
     18940   83.25512       158.5          158.5          158.5          0.085557206    0.14905018     0.040095968    0.067525466    83.25512     
     18960   86.823909      158.5          158.5          158.5         -0.52161681    -1.7260116     -0.10588935     0.26705054     86.823909    
     18980   82.454786      158.5          158.5          158.5         -0.012552087    0.16224832    -0.016662027   -0.18324256     82.454786    
     19000   86.140898      158.5          158.5          158.5          0.41743271     1.2137171      0.10742159    -0.068840565    86.140898    
     19020   84.694458      158.5          158.5          158.5          0.098762007   -0.1048741      0.043862962    0.35729716     84.694458    
     19040   84.469793      158.5          158.5          158.5         -0.20617362    -0.23945009    -0.013602423   -0.36546836     84.469793    
     19060   85.821666      158.5          158.5          158.5         -0.21884228    -0.71259612    -0.18313656     0.23920584     85.821666    
     19080   82.50473       158.5          158.5          158.5          0.1193205      0.13726817     0.028313948    0.19237939     82.50473     
     19100   87.327567      158.5          158.5          158.5          0.2190276      1.0127072      0.18413007    -0.53975447     87.327567    
     19120   83.062797      158.5          158.5          158.5         -0.079321662   -0.39271759    -0.067208356    0.22196096     83.062797    
     19140   86.321575      158.5          158.5          158.5         -0.12319771    -0.19471039    -0.05638268    -0.11850007     86.321575    
     19160   83.016391      158.5          158.5          158.5         -0.13337702    -0.52073006    -0.12119567     0.24179467     83.016391    
     19180   84.064982      158.5          158.5          158.5          0.14428753     0.45295055     0.13123596    -0.15132393     84.064982    
     19200   83.814962      158.5          158.5          158.5          0.14572414     0.36541593     0.12475675    -0.053000252    83.814962    
     19220   81.895171      158.5          158.5          158.5         -0.082374642   -0.35375632    -0.067362141    0.17399454     81.895171    
     19240   84.550856      158.5          158.5          158.5          0.023662456    0.1804833     -0.10495532    -0.0045406084   84.550856    
     19260   81.238161      158.5          158.5          158.5         -0.028112397   -0.042050466   -0.018041356   -0.024245369    81.238161    
     19280   83.616181      158.5          158.5          158.5          0.051308704    0.2594917      0.11592158    -0.22148717     83.616181    
     19300   81.847188      158.5          158.5          158.5          0.080206202    0.046746643    0.015630412    0.17824155     81.847188    
     19320   83.419946      158.5          158.5          158.5         -0.045723954   -0.05101393    -0.032306094   -0.05385184     83.419946    
     19340   82.640435      158.5          158.5          158.5         -0.24289692    -0.74016683    -0.11585933     0.12733541     82.640435    
     19360   82.892684      158.5          158.5          158.5          0.11586538     0.5322584      0.094120689   -0.27878295     82.892684    
     19380   83.186119      158.5          158.5          158.5          0.13973243     0.10205255     0.049588433    0.26755629     83.186119    
     19400   81.837911      158.5          158.5          158.5         -0.028592148   -0.0807009      0.016346597   -0.021422142    81.837911    
     19420   83.186083      158.5          158.5          158.5         -0.21932921    -0.53463098    -0.11413501    -0.0092216252   83.186083    
     19440   82.286542      158.5          158.5          158.5          0.16696301     0.80740505    -0.031783339   -0.27473267     82.286542    
     19460   83.122305      158.5          158.5          158.5          0.046477419   -0.18682311     0.093074626    0.23318074     83.122305    
     19480   82.17284       158.5          158.5          158.5          0.19775176     0.67087463    -0.0073545847  -0.070264751    82.17284     
     19500   83.335834      158.5          158.5          158.5         -0.18420115    -0.56098741    -0.019925804    0.028309755    83.335834    
     19520   82.951849      158.5          158.5          158.5         -0.24768446    -0.73174961     0.0063748843  -0.01767864     82.951849    
     19540   82.89208       158.5          158.5          158.5          0.23137395     0.77521414    -0.0080354422  -0.073056853    82.89208     
     19560   84.966982      158.5          158.5          158.5          0.18201365     0.026453818    0.10073949     0.41884764     84.966982    
     19580   82.5332        158.5          158.5          158.5          0.020812855    0.4042564     -0.04641189    -0.29540594     82.5332      
     19600   84.507177      158.5          158.5          158.5         -0.29335979    -0.58698698    -0.035868238   -0.25722415     84.507177    
     19620   84.41494       158.5          158.5          158.5         -0.15138084    -1.081159       0.092926525    0.53408994     84.41494     
     19640   82.693238      158.5          158.5          158.5          0.19665855     0.25075299     0.060811255    0.2784114      82.693238    
     19660   84.980532      158.5          158.5          158.5          0.11016351     0.96635145    -0.11231592    -0.52354502     84.980532    
     19680   82.903679      158.5          158.5          158.5         -0.10155603     0.15678165    -0.088825749   -0.37262399     82.903679    
     19700   84.445824      158.5          158.5          158.5         -0.13453247    -0.69748247     0.039794821    0.25409025     84.445824    
     19720   84.216517      158.5          158.5          158.5         -0.057110708   -0.20456013    -0.027354578    0.060582585    84.216517    
     19740   83.188535      158.5          158.5          158.5          0.0098140874   0.34457189    -0.11849497    -0.19663466     83.188535    
     19760   84.793012      158.5          158.5          158.5          0.24169484     0.39284048     0.069620636    0.26262341     84.793012    
     19780   83.154546      158.5          158.5          158.5         -0.26055437    -0.66775116    -0.076443115   -0.037468841    83.154546    
     19800   84.680458      158.5          158.5          158.5          0.0054815314   0.21509538     0.01207596    -0.21072675     84.680458    
     19820   83.206683      158.5          158.5          158.5         -0.018523475    0.22305632     0.025744772   -0.30437151     83.206683    
     19840   84.195214      158.5          158.5          158.5          0.23448544     0.33889958     0.013515506    0.35104123     84.195214    
     19860   83.650572      158.5          158.5          158.5         -0.30458311    -0.74672655    -0.23544042     0.068417634    83.650572    
     19880   83.522269      158.5          158.5          158.5          0.093750114    0.25202744     0.084502996   -0.05528009     83.522269    
     19900   83.564824      158.5          158.5          158.5          0.084947661    0.36775855     0.1579385     -0.27085407     83.564824    
     19920   82.825926      158.5          158.5          158.5         -0.18731442    -0.48248384    -0.22712137     0.14766196     82.825926    
     19940   83.152259      158.5          158.5          158.5          0.043096394    0.096977938   -0.19107318     0.22338442     83.152259    
     19960   82.756748      158.5          158.5          158.5          0.20225523     0.59211492     0.30185803    -0.28720728     82.756748    
     19980   83.695147      158.5          158.5          158.5         -0.070770667   -0.44769218     0.037318713    0.19806147     83.695147    
     20000   82.707826      158.5          158.5          158.5         -0.1541254      0.010418552   -0.33735264    -0.13544212     82.707826    
     20020   82.540673      158.5          158.5          158.5          0.19891568     0.38665497     0.45352739    -0.24343531     82.540673    
     20040   82.52953       158.5          158.5          158.5          0.18609642     0.01669727     0.065548444    0.47604354     82.52953     
     20060   82.448991      158.5          158.5          158.5         -0.26369122     0.058060521   -0.63820465    -0.21092952     82.448991    
     20080   83.295807      158.5          158.5          158.5         -0.040399594   -0.33464271     0.47655511    -0.26311118     83.295807    
     20100   82.2538        158.5          158.5          158.5          0.22519821     0.09189161     0.22122992     0.3624731      82.2538      
     20120   83.020868      158.5          158.5          158.5         -0.18415069     0.15328324    -0.65807998    -0.047655313    83.020868    
     20140   83.061526      158.5          158.5          158.5         -0.071767797   -0.22334478     0.25696672    -0.24892534     83.061526    
     20160   82.672364      158.5          158.5          158.5          0.29111008     0.33758123     0.2396383      0.29611071     82.672364    
     20180   83.023136      158.5          158.5          158.5         -0.15341137    -0.18932594    -0.34997383     0.079065656    83.023136    
     20200   82.900962      158.5          158.5          158.5         -0.29378009    -0.4239324      0.04719502    -0.5046029      82.900962    
     20220   83.729495      158.5          158.5          158.5          0.37505258     0.63771355     0.16794146     0.31950273     83.729495    
     20240   82.314641      158.5          158.5          158.5          0.25635986     0.16678259     0.13910421     0.46319279     82.314641    
     20260   84.79531       158.5          158.5          158.5         -0.64911989    -0.81870992    -0.16392933    -0.96472042     84.79531     
     20280   82.411235      158.5          158.5          158.5          0.00067970384  0.0044569022  -0.12164184     0.11922405     82.411235    
     20300   84.459635      158.5          158.5          158.5          0.70152992     0.71739389     0.6523382      0.73485766     84.459635    
     20320   84.108247      158.5          158.5          158.5         -0.16942871     0.095016944   -0.15076247    -0.45254061     84.108247    
     20340   83.734837      158.5          158.5          158.5         -0.5689524     -0.77275424    -0.74483226    -0.1892707      83.734837    
     20360   85.040151      158.5          158.5          158.5          0.30417218    -0.04812995     0.53907768     0.42156881     85.040151    
     20380   82.591938      158.5          158.5          158.5          0.33994125     0.35672161     0.45904466     0.20405749     82.591938    
     20400   85.517022      158.5          158.5          158.5         -0.49376793    -0.10859829    -0.84038674    -0.53231874     85.517022    
     20420   82.611633      158.5          158.5          158.5         -0.024431545    0.2718369     -0.27233303    -0.072798506    82.611633    
     20440   85.243887      158.5          158.5          158.5          0.51919309     0.063666585    0.80752071     0.68639199     85.243887    
     20460   83.790095      158.5          158.5          158.5         -0.47587724    -0.69168895    -0.37887524    -0.35706754     83.790095    
     20480   83.201991      158.5          158.5          158.5         -0.33480492    -0.0078912826  -0.42741734    -0.56910613     83.201991    
     20500   85.217584      158.5          158.5          158.5          0.75078424     0.69761558     0.6406802      0.91405694     85.217584    
     20520   82.338739      158.5          158.5          158.5         -0.028161404    0.17764527    -0.23225108    -0.029878395    82.338739    
     20540   84.591197      158.5          158.5          158.5         -0.64261578    -0.86641958    -0.28696832    -0.77445945     84.591197    
     20560   83.23278       158.5          158.5          158.5          0.45761298     0.013700983    0.53694825     0.82218971     83.23278     
     20580   83.609011      158.5          158.5          158.5          0.049104001    0.41642869    -0.31772912     0.048612433    83.609011    
     20600   83.130412      158.5          158.5          158.5         -0.21473668     0.29013723    -0.22563533    -0.70871194     83.130412    
     20620   83.72983       158.5          158.5          158.5          0.17632571    -0.58736532     0.37137364     0.74496881     83.72983     
     20640   82.798956      158.5          158.5          158.5         -0.10398057    -0.34361711     0.05309389    -0.021418488    82.798956    
     20660   83.288062      158.5          158.5          158.5         -0.15077445     0.52989665    -0.26223701    -0.719983       83.288062    
     20680   83.496179      158.5          158.5          158.5          0.27863958     0.14651821    -0.039894137    0.72929468     83.496179    
     20700   82.356968      158.5          158.5          158.5          0.059320604   -0.17087258     0.19246671     0.15636768     82.356968    
     20720   83.484073      158.5          158.5          158.5         -0.43511488    -0.41872346    -0.076969252   -0.80965194     83.484073    
     20740   82.668847      158.5          158.5          158.5          0.34187033     0.33585423     0.095598873    0.59415789     82.668847    
     20760   82.753531      158.5          158.5          158.5          0.037254554    0.11557243    -0.095530376    0.091721607    82.753531    
     20780   82.93587       158.5          158.5          158.5         -0.22490209    -0.011479896   -0.086271185   -0.57695519     82.93587     
     20800   82.584528      158.5          158.5          158.5          0.087383017   -0.33389713     0.088316806    0.50772938     82.584528    
     20820   82.77359       158.5          158.5          158.5          0.1060268      0.1217943      0.10609153     0.090194572    82.77359     
     20840   82.437119      158.5          158.5          158.5         -0.22959488     0.17727303    -0.13711468    -0.72894298     82.437119    
     20860   83.16795       158.5          158.5          158.5          0.093799451   -0.2550977     -0.057723385    0.59421943     83.16795     
     20880   81.937879      158.5          158.5          158.5          0.18670513     0.16686127     0.090509805    0.30274431     81.937879    
     20900   83.068481      158.5          158.5          158.5         -0.35123227     0.034580462   -0.021364542   -1.0669127      83.068481    
     20920   82.135414      158.5          158.5          158.5          0.13154927    -0.36283466     0.035886319    0.72159616     82.135414    
     20940   83.533693      158.5          158.5          158.5          0.47583653     1.0231284      0.11750236     0.2868788      83.533693    
     20960   82.420414      158.5          158.5          158.5         -0.40712236     0.067365757   -0.094918115   -1.1938147      82.420414    
     20980   83.046198      158.5          158.5          158.5          0.17184566    -0.26323065    -0.091868083    0.8706357      83.046198    
     21000   82.735949      158.5          158.5          158.5          0.15169041     0.26730376     0.28239182    -0.094624367    82.735949    
     21020   82.798732      158.5          158.5          158.5         -0.2357767      0.024893436   -0.2320272     -0.50019635     82.798732    
     21040   82.768502      158.5          158.5          158.5          0.1481568      0.14736999    -0.19486274     0.49196316     82.768502    
     21060   83.533912      158.5          158.5          158.5          0.012543718   -0.28663348     0.44607921    -0.12181457     83.533912    
     21080   82.895619      158.5          158.5          158.5         -0.1536506     -0.091792822   -0.2883759     -0.080783072    82.895619    
     21100   82.234427      158.5          158.5          158.5          0.019109408    0.057613627   -0.13379993     0.13351452     82.234427    
     21120   82.749836      158.5          158.5          158.5          0.099821074   -0.12501447     0.3635596      0.060918092    82.749836    
     21140   83.212678      158.5          158.5          158.5         -0.033818662    0.10314875    -0.297954       0.093349263    83.212678    
     21160   82.752023      158.5          158.5          158.5         -0.1708866     -0.48819647     0.036927988   -0.061391312    82.752023    
     21180   82.135645      158.5          158.5          158.5          0.049310064   -0.065968094    0.16853409     0.045364201    82.135645    
     21200   82.888806      158.5          158.5          158.5          0.10925759     0.2795538     -0.19605609     0.24427504     82.888806    
     21220   83.029573      158.5          158.5          158.5         -0.086376909   -0.084958304    0.14070016    -0.31487259     83.029573    
     21240   82.260292      158.5          158.5          158.5         -0.058660476   -0.17646845    -0.12780936     0.12829638     82.260292    
     21260   82.415653      158.5          158.5          158.5          0.11238708     0.042679983    0.0013484205   0.29313282     82.415653    
     21280   83.035007      158.5          158.5          158.5         -0.063566546    0.16023565     0.19360832    -0.54454361     83.035007    
     21300   82.756271      158.5          158.5          158.5         -0.10545196    -0.27523371    -0.31926153     0.27813937     82.756271    
     21320   82.363569      158.5          158.5          158.5          0.28432291     0.2900852      0.15156391     0.41131962     82.363569    
     21340   82.81104       158.5          158.5          158.5         -0.25152906     0.081900495    0.10033399    -0.93682165     82.81104     
     21360   82.443651      158.5          158.5          158.5         -0.08169072    -0.35875369    -0.15078357     0.2644651      82.443651    
     21380   82.958178      158.5          158.5          158.5          0.48670479     0.4479011      0.12190804     0.89030522     82.958178    
     21400   84.548185      158.5          158.5          158.5         -0.32067738     0.29568524     0.20911151    -1.4668289      84.548185    
     21420   81.780994      158.5          158.5          158.5         -0.10703046    -0.46042329     0.15949148    -0.020159564    81.780994    
     21440   83.818668      158.5          158.5          158.5          0.55672609     0.68660699     0.2647813      0.71878997     83.818668    
     21460   82.771874      158.5          158.5          158.5         -0.22913277     0.0047826662  -0.30508086    -0.38710011     82.771874    
     21480   84.043947      158.5          158.5          158.5         -0.3798596     -0.91354632    -0.25757502     0.031542543    84.043947    
     21500   82.366784      158.5          158.5          158.5          0.18452146     0.63448032    -0.085721645    0.0048056969   82.366784    
     21520   82.944616      158.5          158.5          158.5          0.46089446     0.23946963     0.91272845     0.23048529     82.944616    
     21540   81.561377      158.5          158.5          158.5         -0.22109498    -0.098416678   -0.52427055    -0.04059771     81.561377    
     21560   82.840759      158.5          158.5          158.5         -0.46622174    -0.4475974     -0.85227531    -0.09879251     82.840759    
     21580   81.459151      158.5          158.5          158.5          0.14903986     0.18807271     0.115109       0.14393788     81.459151    
     21600   82.787985      158.5          158.5          158.5          0.43913127     0.30058277     0.8683961      0.14841495     82.787985    
     21620   82.087523      158.5          158.5          158.5         -0.17711582    -0.059336786   -0.4841688      0.012158124    82.087523    
     21640   82.868732      158.5          158.5          158.5         -0.39786257    -0.30758639    -0.61636008    -0.26964124     82.868732    
     21660   82.350524      158.5          158.5          158.5          0.21055022     0.19737251     0.38034703     0.053931109    82.350524    
     21680   82.848657      158.5          158.5          158.5          0.35035134     0.38061526     0.2187003      0.45173846     82.848657    
     21700   83.026078      158.5          158.5          158.5         -0.28925234    -0.45157165    -0.051733091   -0.36445227     83.026078    
     21720   82.417985      158.5          158.5          158.5         -0.33069126    -0.24708533    -0.55708461    -0.18790384     82.417985    
     21740   83.442931      158.5          158.5          158.5          0.51664942     0.51894385     0.49457387     0.53643052     83.442931    
     21760   82.750299      158.5          158.5          158.5          0.020940259   -0.01589926     0.28028442    -0.20156439     82.750299    
     21780   83.387115      158.5          158.5          158.5         -0.45299037    -0.50633115    -0.5594739     -0.29316606     83.387115    
     21800   82.80712       158.5          158.5          158.5          0.31258696     0.25850551     0.15125902     0.52799633     82.80712     
     21820   83.424598      158.5          158.5          158.5         -0.028725873    0.12448504     0.12504699    -0.33570965     83.424598    
     21840   84.70312       158.5          158.5          158.5         -0.047314103   -0.16121435     0.2632091     -0.24393705     84.70312     
     21860   83.246199      158.5          158.5          158.5         -0.22492187     0.048563559   -0.27852549    -0.44480369     83.246199    
     21880   83.383791      158.5          158.5          158.5          0.44584995     0.30779647     0.091025216    0.93872817     83.383791    
     21900   83.12373       158.5          158.5          158.5         -0.50475687    -0.72049331    -0.023505321   -0.77027197     83.12373     
     21920   83.15221       158.5          158.5          158.5         -0.029806035    0.43913258    -0.18824144    -0.34030924     83.15221     
     21940   83.756425      158.5          158.5          158.5          0.70740437     0.43256487     0.85277071     0.83687752     83.756425    
     21960   82.429757      158.5          158.5          158.5         -0.3833688     -0.54567642    -0.2762339     -0.32819609     82.429757    
     21980   83.237179      158.5          158.5          158.5         -0.55372044    -0.02136355    -1.3664285     -0.27336923     83.237179    
     22000   82.031704      158.5          158.5          158.5          0.36966312     0.11602875     0.65088592     0.34207469     82.031704    
     22020   83.695554      158.5          158.5          158.5          0.65773599     0.14124077     1.2326892      0.59927798     83.695554    
     22040   81.322469      158.5          158.5          158.5         -0.12552876     0.079698394   -0.17837732    -0.27790736     81.322469    
     22060   82.917173      158.5          158.5          158.5         -0.63635751    -0.21482218    -1.2932856     -0.40096475     82.917173    
     22080   81.923689      158.5          158.5          158.5          0.19381458    -0.096492433    0.41859808     0.25933809     81.923689    
     22100   82.286263      158.5          158.5          158.5          0.5746082      0.36976214     0.91518756     0.43887491     82.286263    
     22120   82.463368      158.5          158.5          158.5         -0.42244339    -0.055078486   -0.77600752    -0.43624418     82.463368    
     22140   82.133502      158.5          158.5          158.5         -0.13039891    -0.46385821     0.17018737    -0.097525882    82.133502    
     22160   82.446819      158.5          158.5          158.5          0.43080454     0.46134498     0.37553576     0.45553289     82.446819    
     22180   82.919965      158.5          158.5          158.5         -0.28201456     0.070183188   -0.46862656    -0.44760029     82.919965    
     22200   83.252808      158.5          158.5          158.5          0.029187614   -0.56350995     0.36427153     0.28680127     83.252808    
     22220   83.161495      158.5          158.5          158.5         -0.11207283     0.37692779    -0.34436286    -0.36878341     83.161495    
     22240   82.709715      158.5          158.5          158.5          0.41150063     0.23761967     0.39018405     0.60669816     82.709715    
     22260   83.505279      158.5          158.5          158.5         -0.6457332     -0.69069333    -0.35614636    -0.8903599      83.505279    
     22280   82.990147      158.5          158.5          158.5          0.48552696     0.34693157     0.35637455     0.75327476     82.990147    
     22300   83.287849      158.5          158.5          158.5         -0.26851216     0.18316452    -0.19823377    -0.79046723     83.287849    
     22320   83.741635      158.5          158.5          158.5          0.017337519   -0.45769367     0.024173964    0.48553226     83.741635    
     22340   83.361125      158.5          158.5          158.5         -0.20386393     0.21333697    -0.18384896    -0.64107982     83.361125    
     22360   83.463983      158.5          158.5          158.5          0.46594211     0.18714578     0.39510738     0.81557316     83.463983    
     22380   83.642633      158.5          158.5          158.5         -0.67043033    -0.16351502    -1.216374      -0.63140201     83.642633    
     22400   82.407919      158.5          158.5          158.5         -0.054468052    0.099283168    0.13138826    -0.39407558     82.407919    
     22420   85.23995       158.5          158.5          158.5          0.85532427     0.31954658     0.98049848     1.2659278      85.23995     
     22440   82.390919      158.5          158.5          158.5         -0.24314878    -0.079485521   -0.23635149    -0.41360932     82.390919    
     22460   85.236671      158.5          158.5          158.5         -0.98714743    -0.7343585     -1.1923821     -1.0347017      85.236671    
     22480   81.544958      158.5          158.5          158.5          0.30789277     0.35880717     0.22654133     0.33832981     81.544958    
     22500   83.905487      158.5          158.5          158.5          0.86242901     0.82963708     0.63269821     1.1249517      83.905487    
     22520   81.23871       158.5          158.5          158.5          0.098614624    0.035619145    0.24704114     0.013183589    81.23871     
     22540   83.126778      158.5          158.5          158.5         -0.77173877    -0.88445115    -0.42022026    -1.0105449      83.126778    
     22560   80.865419      158.5          158.5          158.5          0.021186043   -0.0070195859  -0.029735281    0.100313       80.865419    
     22580   83.817632      158.5          158.5          158.5          0.82427264     0.88325957     0.56460331     1.0249551      83.817632    
     22600   81.431976      158.5          158.5          158.5         -0.22486434    -0.41047115    -0.018669201   -0.24545268     81.431976    
     22620   82.633978      158.5          158.5          158.5         -0.59664641    -0.59068926    -0.32408528    -0.8751647      82.633978    
     22640   82.481943      158.5          158.5          158.5          0.45731337     0.53165289     0.17830961     0.66197761     82.481943    
     22660   82.540565      158.5          158.5          158.5          0.36920355     0.3165398      0.32984434     0.46122653     82.540565    
     22680   83.169619      158.5          158.5          158.5         -0.6292679     -0.67994535    -0.35597575    -0.85188261     83.169619    
     22700   82.592547      158.5          158.5          158.5          0.032333842    0.1173452     -0.19096879     0.17062511     82.592547    
     22720   83.25092       158.5          158.5          158.5          0.55089966     0.63618972     0.51247282     0.50403644     83.25092     
     22740   83.197704      158.5          158.5          158.5         -0.44539726    -0.6589221     -0.20954203    -0.46772764     83.197704    
     22760   83.337463      158.5          158.5          158.5         -0.16509462    -0.053684108   -0.46641856     0.024818799    83.337463    
     22780   83.985475      158.5          158.5          158.5          0.49146353     0.69702784     0.60215201     0.17521075     83.985475    
     22800   83.114061      158.5          158.5          158.5         -0.2486359     -0.6364244     -0.061956759   -0.047526544    83.114061    
     22820   84.398937      158.5          158.5          158.5         -0.2888365     -0.15132648    -0.56593882    -0.14924418     84.398937    
     22840   84.711305      158.5          158.5          158.5          0.30963486     0.79451501     0.56015869    -0.42576912     84.711305    
     22860   84.172915      158.5          158.5          158.5          0.24149929    -0.38797507     0.020698227    1.0917747      84.172915    
     22880   84.222661      158.5          158.5          158.5         -0.5922173     -1.0864624     -0.4553638     -0.23482567     84.222661    
     22900   85.653311      158.5          158.5          158.5          0.38063103     1.5776199      0.28904265    -0.72476945     85.653311    
     22920   83.026607      158.5          158.5          158.5          0.016587073    0.042975898    0.085127856   -0.078342534    83.026607    
     22940   86.016771      158.5          158.5          158.5         -0.28994047    -1.3507598     -0.23964563     0.720584       86.016771    
     22960   84.446631      158.5          158.5          158.5          0.40204699     0.74271472     0.28222595     0.1812003      84.446631    
     22980   84.529714      158.5          158.5          158.5         -0.0848586      0.46514894    -0.12119366    -0.59853108     84.529714    
     23000   85.492435      158.5          158.5          158.5         -0.557645      -1.0361232     -0.27550521    -0.36130664     85.492435    
     23020   84.340049      158.5          158.5          158.5          0.6143375      0.97173438     0.34233307     0.52894505     84.340049    
     23040   85.146517      158.5          158.5          158.5          0.10550273     0.13617213     0.18603956    -0.0057035107   85.146517    
     23060   85.169663      158.5          158.5          158.5         -0.44003487    -0.82825199    -0.35820574    -0.13364689     85.169663    
     23080   84.311249      158.5          158.5          158.5          0.00044746717  0.30320511    -0.075714447   -0.22614826     84.311249    
     23100   85.009685      158.5          158.5          158.5          0.46649013     0.47537324     0.16190557     0.76219158     85.009685    
     23120   84.340824      158.5          158.5          158.5         -0.50321165    -1.1547357      0.0087175368  -0.36361679     84.340824    
     23140   84.573117      158.5          158.5          158.5          0.29676464     0.75876221     0.1653129     -0.03378118     84.573117    
     23160   83.412177      158.5          158.5          158.5         -0.058038262    0.36363184    -0.11072203    -0.42702459     83.412177    
     23180   84.30416       158.5          158.5          158.5         -0.2305185     -0.94401259    -0.14443759     0.39689467     84.30416     
     23200   83.406293      158.5          158.5          158.5          0.058242947   -0.19709318     0.041958931    0.32986309     83.406293    
     23220   83.182083      158.5          158.5          158.5          0.41277261     0.78252141     0.25757265     0.19822378     83.182083    
     23240   83.901485      158.5          158.5          158.5         -0.47996666    -0.28817837    -0.08818425    -1.0635374      83.901485    
     23260   82.7046        158.5          158.5          158.5          0.080049759    0.024336786   -0.1222442      0.33805669     82.7046      
     23280   83.563954      158.5          158.5          158.5          0.13897691    -0.13066777    -0.072639903    0.62023839     83.563954    
     23300   83.322718      158.5          158.5          158.5         -0.073797619   -0.25081121     0.18134669    -0.15192834     83.322718    
     23320   82.90732       158.5          158.5          158.5          0.029076302    0.40054813     0.14868581    -0.46200504     82.90732     
     23340   83.39921       158.5          158.5          158.5          0.1348895      0.29880482    -0.20435504     0.31021871     83.39921     
     23360   83.593282      158.5          158.5          158.5         -0.36703492    -0.79867146    -0.25408384    -0.048349456    83.593282    
     23380   83.001115      158.5          158.5          158.5         -0.024627335    0.096501544    0.14953138    -0.31991493     83.001115    
     23400   84.54057       158.5          158.5          158.5          0.75129339     1.0580508      0.38849028     0.80733905     84.54057     
     23420   83.238985      158.5          158.5          158.5         -0.4753743     -0.69035544    -0.32367017    -0.41209728     83.238985    
     23440   83.808067      158.5          158.5          158.5         -0.430272      -0.34518698    -0.31108363    -0.6345454      83.808067    
     23460   84.780448      158.5          158.5          158.5          0.63012454     1.0112046      0.33848468     0.5406843      84.780448    
     23480   82.965022      158.5          158.5          158.5         -0.077873929   -0.27327706    -0.003979276    0.043634551    82.965022    
     23500   85.376459      158.5          158.5          158.5         -0.45904068    -0.86418669    -0.11214484    -0.40079051     85.376459    
     23520   83.606632      158.5          158.5          158.5          0.40906675     0.58072966     0.17997054     0.46650005     83.606632    
     23540   83.753004      158.5          158.5          158.5          0.17482215     0.26696006    -0.039094695    0.2966011      83.753004    
     23560   85.114771      158.5          158.5          158.5         -0.73409447    -0.58593963    -0.24489665    -1.3714471      85.114771    
     23580   83.609109      158.5          158.5          158.5          0.15293235     0.047836095    0.100384       0.31057697     83.609109    
     23600   84.22316       158.5          158.5          158.5          0.79701256     0.59769189     0.19048845     1.6028573      84.22316     
     23620   84.183515      158.5          158.5          158.5         -0.34762524     0.2626167      0.071431594   -1.376924       84.183515    
     23640   84.265927      158.5          158.5          158.5         -0.56484859    -1.0362847     -0.31769385    -0.34056721     84.265927    
     23660   82.613917      158.5          158.5          158.5          0.31211886    -0.036663007   -0.03281619     1.0058358      82.613917    
     23680   85.651624      158.5          158.5          158.5          0.31554185     1.1972604      0.34458877    -0.59522363     85.651624    
     23700   81.591595      158.5          158.5          158.5          0.081658448   -0.17496006    -0.12227813     0.54221353     81.591595    
     23720   84.278917      158.5          158.5          158.5         -0.50901022    -1.5926294     -0.1588685      0.22446727     84.278917    
     23740   82.706525      158.5          158.5          158.5         -0.29752913     0.0370653      0.016318276   -0.94597096     82.706525    
     23760   83.186899      158.5          158.5          158.5          0.61477396     0.93840731     0.42804174     0.47787284     83.186899    
     23780   82.826807      158.5          158.5          158.5          0.47335346     0.37411954     0.085305083    0.96063575     82.826807    
     23800   83.446242      158.5          158.5          158.5         -0.75211971    -0.85032162    -0.36525182    -1.0407857      83.446242    
     23820   82.352201      158.5          158.5          158.5         -0.17534985    -0.24875913    -0.22415002    -0.053140392    82.352201    
     23840   82.718471      158.5          158.5          158.5          0.5856134      0.52720635     0.51882111     0.71081276     82.718471    
     23860   82.150947      158.5          158.5          158.5          0.03788877     0.55050378    -0.10079681    -0.33604067     82.150947    
     23880   81.293748      158.5          158.5          158.5         -0.46349897    -0.77453284    -0.40555932    -0.21040475     81.293748    
     23900   81.479975      158.5          158.5          158.5          0.033561441   -0.54805349     0.10789013     0.54084768     81.479975    
     23920   82.307724      158.5          158.5          158.5          0.28533389     0.75138656     0.29720735    -0.19259225     82.307724    
     23940   80.621164      158.5          158.5          158.5          0.16123161     0.50839173     0.20205227    -0.22674917     80.621164    
     23960   82.06192       158.5          158.5          158.5         -0.11896466    -0.52910981    -0.28037619     0.45259203     82.06192     
     23980   81.346917      158.5          158.5          158.5         -0.31414953    -0.52738962    -0.16393793    -0.25112106     81.346917    
     24000   81.940027      158.5          158.5          158.5          0.18434663     0.76435373     0.025479357   -0.2367932      81.940027    
     24020   81.901334      158.5          158.5          158.5          0.29266642     0.15762948     0.38385181     0.33651797     81.901334    
     24040   81.067205      158.5          158.5          158.5         -0.27590522    -0.36198994    -0.35739064    -0.10833507     81.067205    
     24060   81.943613      158.5          158.5          158.5         -0.42519812    -0.53648397    -0.21705223    -0.52205818     81.943613    
     24080   80.745032      158.5          158.5          158.5          0.35515907     0.34056855     0.25536367     0.46954501     80.745032    
     24100   81.586414      158.5          158.5          158.5          0.46148304     0.63901517     0.41594615     0.32948781     81.586414    
     24120   82.168685      158.5          158.5          158.5         -0.35372005    -0.25131257    -0.24671755    -0.56313003     82.168685    
     24140   81.649534      158.5          158.5          158.5         -0.35119036    -0.8133283     -0.35483343     0.11459065     81.649534    
     24160   82.79368       158.5          158.5          158.5          0.3763345      0.32052457     0.44058277     0.36789616     82.79368     
     24180   83.637255      158.5          158.5          158.5          0.36211208     1.1446827      0.054952146   -0.11329862     83.637255    
     24200   83.017096      158.5          158.5          158.5         -0.55203361    -1.1616654     -0.34130521    -0.15313022     83.017096    
     24220   83.746629      158.5          158.5          158.5         -0.19390913    -0.33540355    -0.2475429      0.0012190607   83.746629    
     24240   83.184079      158.5          158.5          158.5          0.51669464     1.0921949      0.55617719    -0.098288165    83.184079    
     24260   84.389169      158.5          158.5          158.5          0.0056386054  -0.50456247     0.17380788     0.34767041     84.389169    
     24280   82.592833      158.5          158.5          158.5         -0.27966851    -0.26400331    -0.74049265     0.16549043     82.592833    
     24300   85.364451      158.5          158.5          158.5          0.25563154     0.52862694     0.78821716    -0.54994949     85.364451    
     24320   84.291314      158.5          158.5          158.5         -0.13330337    -0.40877608    -0.10294093     0.1118069      84.291314    
     24340   82.499294      158.5          158.5          158.5          0.00078883796  0.08715369    -0.28424708     0.19945991     82.499294    
     24360   85.452413      158.5          158.5          158.5          0.11670746     0.30651768     0.17915307    -0.13554837     85.452413    
     24380   83.59769       158.5          158.5          158.5         -0.20751074    -0.25517687    -0.75424152     0.38688616     83.59769     
     24400   85.993408      158.5          158.5          158.5          0.41290837     0.24356282     1.3332199     -0.33805758     85.993408    
     24420   84.570508      158.5          158.5          158.5         -0.8059296     -0.64253422    -1.3572923     -0.4179623      84.570508    
     24440   85.281315      158.5          158.5          158.5          0.71794521     0.62308903     1.083791       0.44695561     85.281315    
     24460   84.32428       158.5          158.5          158.5         -0.28702079    -0.16879512    -0.99978827     0.30752103     84.32428     
     24480   84.418904      158.5          158.5          158.5          0.044102553   -0.21109846     0.88561016    -0.54220404     84.418904    
     24500   84.715066      158.5          158.5          158.5         -0.30980036     0.14825353    -0.98037918    -0.097275431    84.715066    
     24520   82.925323      158.5          158.5          158.5          0.42055994     0.22053168     0.81367723     0.22747091     82.925323    
     24540   84.845194      158.5          158.5          158.5         -0.39985673    -0.67017537    -0.54474775     0.015352942    84.845194    
     24560   82.602109      158.5          158.5          158.5          0.35936857     0.24972392     0.74148771     0.086894072    82.602109    
     24580   84.292352      158.5          158.5          158.5         -0.27603096     0.25474102    -1.0074895     -0.07534439     84.292352    
     24600   82.794592      158.5          158.5          158.5         -0.0087825284  -0.13468879     0.41946779    -0.31112659     82.794592    
     24620   83.606719      158.5          158.5          158.5         -0.087336578   -0.28987873    -0.23997171     0.2678407      83.606719    
     24640   83.149887      158.5          158.5          158.5          0.47350121     0.25518446     0.9601837      0.20513548     83.149887    
     24660   83.041377      158.5          158.5          158.5         -0.44800879    -0.17819564    -0.96794139    -0.19788932     83.041377    
     24680   83.335161      158.5          158.5          158.5          0.068861776    0.30770415     0.097273554   -0.19839238     83.335161    
     24700   82.419779      158.5          158.5          158.5         -0.0069122152  -0.10115658    -0.09480715     0.17522709     82.419779    
     24720   83.410048      158.5          158.5          158.5          0.031751302   -0.32572819     0.43760416    -0.016622065    83.410048    
     24740   82.439174      158.5          158.5          158.5          0.18945933     0.15646973     0.29834107     0.11356718     82.439174    
     24760   83.323381      158.5          158.5          158.5         -0.075918007    0.23059182    -0.57655358     0.11820774     83.323381    
     24780   84.893825      158.5          158.5          158.5         -0.21956408    -0.026101959   -0.16801854    -0.46457174     84.893825    
     24800   83.338503      158.5          158.5          158.5         -0.37154263    -0.51579785    -0.62199764     0.023167596    83.338503    
     24820   85.207482      158.5          158.5          158.5          0.79391721     0.82619385     1.1384505      0.41710733     85.207482    
     24840   82.640666      158.5          158.5          158.5          0.062440529   -0.098718613    0.28308862     0.002951583    82.640666    
     24860   85.019886      158.5          158.5          158.5         -0.77434377    -0.75403607    -1.0676947     -0.50130049     85.019886    
     24880   86.228117      158.5          158.5          158.5          0.36254929     0.89844127    -0.20493994     0.39414655     86.228117    
     24900   82.324319      158.5          158.5          158.5          0.30038415     0.19918273     0.50445575     0.19751398     82.324319    
     24920   86.60028       158.5          158.5          158.5         -0.56103025    -1.1691811      0.12064517    -0.63455481     86.60028     
     24940   82.568733      158.5          158.5          158.5          0.088348298    0.023145885   -0.031149808    0.27304882     82.568733    
     24960   85.9801        158.5          158.5          158.5          0.56908079     0.83276841     0.16946312     0.70501082     85.9801      
     24980   82.9312        158.5          158.5          158.5         -0.43621648    -0.25738603    -0.45116136    -0.60010204     82.9312      
     25000   84.485657      158.5          158.5          158.5         -0.53445471    -1.0682787     -0.10644937    -0.42863609     84.485657    
     25020   83.114182      158.5          158.5          158.5          0.47673363     0.50085285     0.77725199     0.15209606     83.114182    
     25040   82.656888      158.5          158.5          158.5          0.53719333     0.63113942     0.13774801     0.84269255     82.656888    
     25060   83.316916      158.5          158.5          158.5         -0.3786639     -0.13275427    -0.96996411    -0.033273313    83.316916    
     25080   82.366353      158.5          158.5          158.5         -0.3323912     -0.42349786     0.24008468    -0.81376043     82.366353    
     25100   82.928426      158.5          158.5          158.5          0.21360509     0.13215207     0.4763494      0.032313808    82.928426    
     25120   82.348659      158.5          158.5          158.5          0.32245894     0.26575432    -0.0037139538   0.70533644     82.348659    
     25140   82.616727      158.5          158.5          158.5         -0.10917236     0.03214406    -0.23612852    -0.12353262     82.616727    
     25160   82.084598      158.5          158.5          158.5         -0.46464129    -0.30332423    -0.42513669    -0.66546296     82.084598    
     25180   81.947028      158.5          158.5          158.5          0.17182085    -0.24833412     0.31534826     0.44844842     81.947028    
     25200   81.754157      158.5          158.5          158.5          0.44635212     0.62956292     0.47787912     0.23161434     81.754157    
     25220   81.196744      158.5          158.5          158.5         -0.10444763    -0.1698445     -0.068132584   -0.0753658      81.196744    
     25240   82.839451      158.5          158.5          158.5         -0.5977074     -0.31193293    -0.83517797    -0.64601131     82.839451    
     25260   81.178388      158.5          158.5          158.5          0.18442173     0.037445541    0.28337277     0.23244689     81.178388    
     25280   83.166948      158.5          158.5          158.5          0.52755553     0.55085488     0.57442174     0.45738997     83.166948    
     25300   81.336655      158.5          158.5          158.5         -0.029655547   -0.11889273    -0.098623357    0.12854944     81.336655    
     25320   83.633328      158.5          158.5          158.5         -0.59724328    -0.37877168    -0.66958779    -0.74337037     83.633328    
     25340   81.380312      158.5          158.5          158.5         -0.024959022    0.044280046    0.029994902   -0.14915201     81.380312    
     25360   84.036602      158.5          158.5          158.5          0.59928804     0.39725946     0.41453489     0.98606978     84.036602    
     25380   82.206126      158.5          158.5          158.5          0.37404623     0.28529873     0.5515124      0.28532757     82.206126    
     25400   83.93594       158.5          158.5          158.5         -0.61793872    -0.51258244    -0.51587563    -0.82535808     83.93594     
     25420   84.113764      158.5          158.5          158.5         -0.63182583    -0.24808182    -0.9966239     -0.65077179     84.113764    
     25440   83.506457      158.5          158.5          158.5          0.6688707      0.40447859     0.63652009     0.96561341     83.506457    
     25460   85.581006      158.5          158.5          158.5          0.62662115     0.31012057     0.76923698     0.80050589     85.581006    
     25480   83.512413      158.5          158.5          158.5         -0.56270005    -0.28102676    -0.48090469    -0.92616871     83.512413    
     25500   84.921594      158.5          158.5          158.5         -0.432466      -0.35468122    -0.68172414    -0.26099263     84.921594    
     25520   83.673224      158.5          158.5          158.5          0.61400458     0.30820537     0.5184959      1.0153125      83.673224    
     25540   84.1455        158.5          158.5          158.5         -0.0715724      0.10150896     0.048356441   -0.3645826      84.1455      
     25560   83.870775      158.5          158.5          158.5         -0.33562687    -0.11237641     0.070373584   -0.96487779     83.870775    
     25580   83.676435      158.5          158.5          158.5          0.33000381     0.25170528     0.032645274    0.70566087     83.676435    
     25600   83.367126      158.5          158.5          158.5         -0.13119256    -0.21998691    -0.39546691     0.22187615     83.367126    
     25620   83.542263      158.5          158.5          158.5         -0.23532401    -0.28065838     0.27691332    -0.70222697     83.542263    
     25640   84.199385      158.5          158.5          158.5          0.23411529     0.49505737    -0.12248661     0.32977511     84.199385    
     25660   82.246955      158.5          158.5          158.5          0.22274323     0.14635476     0.32461683     0.19725809     82.246955    
     25680   84.625031      158.5          158.5          158.5         -0.55575032    -0.89455389    -0.34287552    -0.42982155     84.625031    
     25700   82.429126      158.5          158.5          158.5          0.31750838     0.44676127     0.28233499     0.22342886     82.429126    
     25720   83.864836      158.5          158.5          158.5          0.11355848     0.38922308    -0.26466417     0.21611652     83.864836    
     25740   83.447209      158.5          158.5          158.5         -0.27941741    -0.69747335     0.12397491    -0.2647538      83.447209    
     25760   83.47598       158.5          158.5          158.5          0.058824288    0.31466684    -0.15602488     0.017830902    83.47598     
     25780   83.233195      158.5          158.5          158.5          0.22375659     0.42140452     0.11413472     0.13573053     83.233195    
     25800   84.003379      158.5          158.5          158.5         -0.46213373    -1.0095103     -0.25009489    -0.12679605     84.003379    
     25820   84.131238      158.5          158.5          158.5          0.1796223      0.41693051    -0.079293358    0.20122974     84.131238    
     25840   83.158686      158.5          158.5          158.5          0.5260495      0.83903753     0.52219862     0.21691235     83.158686    
     25860   86.309809      158.5          158.5          158.5         -0.75573617    -1.1784006     -0.37955721    -0.70925066     86.309809    
     25880   82.626383      158.5          158.5          158.5         -0.056660726   -0.034162184   -0.23284522     0.097025223    82.626383    
     25900   87.022343      158.5          158.5          158.5          0.77425082     1.210938       0.42835817     0.68345627     87.022343    
     25920   82.814823      158.5          158.5          158.5          0.29386535     0.044431614    0.28493062     0.55223383     82.814823    
     25940   84.005066      158.5          158.5          158.5         -0.85841789    -1.3825446     -0.037108151   -1.1556009      84.005066    
     25960   83.573961      158.5          158.5          158.5         -0.29519204     0.4928352     -0.45635482    -0.92205648     83.573961    
     25980   82.400689      158.5          158.5          158.5          0.61949235     0.5890816      0.44707148     0.82232397     82.400689    
     26000   83.28408       158.5          158.5          158.5         -0.0013067568  -0.47839611     0.33644267     0.13803317     83.28408     
     26020   84.238852      158.5          158.5          158.5         -0.37961682     0.31134353    -1.1420046     -0.30818935     84.238852    
     26040   83.130199      158.5          158.5          158.5          0.19308438    -0.29257555     0.80257896     0.069249723    83.130199    
     26060   81.761117      158.5          158.5          158.5          0.075114332   -0.037883154    0.2651497     -0.0019235526   81.761117    
     26080   82.872633      158.5          158.5          158.5         -0.25716032     0.22518769    -1.1191627      0.12249402     82.872633    
     26100   83.992057      158.5          158.5          158.5          0.11155294    -0.11069364     0.63817578    -0.19282333     83.992057    
     26120   82.297029      158.5          158.5          158.5          0.1216585     -0.03782956    -0.070254918    0.47305998     82.297029    
     26140   81.875502      158.5          158.5          158.5         -0.19572408    -0.067658443   -0.38405599    -0.13545781     81.875502    
     26160   82.833497      158.5          158.5          158.5         -0.064781685    0.12934441     0.4048922     -0.72858166     82.833497    
     26180   82.448326      158.5          158.5          158.5          0.37551032     0.25982956    -0.0020301262   0.86873154     82.448326    
     26200   81.489567      158.5          158.5          158.5         -0.20478067    -0.68099339     0.03745886     0.029192517    81.489567    
     26220   81.88512       158.5          158.5          158.5         -0.22066102     0.45441193    -0.32577248    -0.79062252     81.88512     
     26240   81.586497      158.5          158.5          158.5          0.16845333    -0.23371915     0.55800229     0.18107684     81.586497    
     26260   81.385963      158.5          158.5          158.5          0.18082098     0.28155264    -0.20346396     0.46437426     81.385963    
     26280   82.343306      158.5          158.5          158.5         -0.31236208    -0.21287136    -0.11904502    -0.60516985     82.343306    
     26300   81.099201      158.5          158.5          158.5          0.062110929   -0.021061889   -0.01746466     0.22485934     81.099201    
     26320   81.689718      158.5          158.5          158.5          0.24489513     0.33674379     0.10669225     0.29124935     81.689718    
     26340   82.341269      158.5          158.5          158.5         -0.2659096     -0.54722464     0.18730849    -0.43781265     82.341269    
     26360   81.840759      158.5          158.5          158.5         -0.0057618995   0.3158824     -0.52539871     0.19223062     81.840759    
     26380   81.750684      158.5          158.5          158.5          0.28701767     0.20980449     0.47081369     0.18043484     81.750684    
     26400   82.106628      158.5          158.5          158.5         -0.23219535    -0.60184243     0.12298143    -0.21772505     82.106628    
     26420   82.925324      158.5          158.5          158.5         -0.092276477    0.428489      -0.76727905     0.061960617    82.925324    
     26440   82.297131      158.5          158.5          158.5          0.2977517      0.14352363     0.53697713     0.21275433     82.297131    
     26460   83.292161      158.5          158.5          158.5         -0.37349232    -0.5117347     -0.17124388    -0.43749838     83.292161    
     26480   83.161271      158.5          158.5          158.5          0.21920193     0.48055339    -0.16642207     0.34347446     83.161271    
     26500   82.475174      158.5          158.5          158.5          0.16932899    -0.28086375     0.37047115     0.41837959     82.475174    
     26520   84.297013      158.5          158.5          158.5         -0.52633992    -0.023121364   -0.45050758    -1.1053908      84.297013    
     26540   83.194121      158.5          158.5          158.5          0.26975021     0.27849046     0.072963317    0.45779686     83.194121    
     26560   84.253975      158.5          158.5          158.5          0.27658821    -0.47783059     0.30787717     0.99971806     84.253975    
     26580   82.944771      158.5          158.5          158.5         -0.050008877    0.63506028     0.030191537   -0.81527845     82.944771    
     26600   82.85257       158.5          158.5          158.5         -0.5338192     -0.25238044    -0.18613819    -1.162939       82.85257     
     26620   82.135814      158.5          158.5          158.5          0.12548024    -0.066091042    0.052500798    0.39003097     82.135814    
     26640   82.951586      158.5          158.5          158.5          0.62738693     0.33911798     0.34490018     1.1981426      82.951586    
     26660   81.858494      158.5          158.5          158.5          0.016929861    0.10505308     0.076233534   -0.13049703     81.858494    
     26680   83.341079      158.5          158.5          158.5         -0.62108655    -0.30437272    -0.53018361    -1.0287033      83.341079    
     26700   82.618078      158.5          158.5          158.5          0.17233448    -0.091942466    0.16933757     0.43960833     82.618078    
     26720   83.292317      158.5          158.5          158.5          0.47329352     0.54995662     0.39593338     0.47399056     83.292317    
     26740   83.312716      158.5          158.5          158.5         -0.5023261     -0.44516284    -0.63047879    -0.43133668     83.312716    
     26760   82.360663      158.5          158.5          158.5         -0.060949596   -0.10248559     0.18681032    -0.26717352     82.360663    
     26780   83.37746       158.5          158.5          158.5          0.58424344     0.75272682     0.46827422     0.53172928     83.37746     
     26800   83.420978      158.5          158.5          158.5         -0.55485959    -0.84417868    -0.56615339    -0.2542467      83.420978    
     26820   82.12341       158.5          158.5          158.5          0.027878762    0.16341111    -0.11159027     0.031815445    82.12341     
     26840   83.266926      158.5          158.5          158.5          0.40191512     0.50808962     0.56739174     0.13026399     83.266926    
     26860   82.848726      158.5          158.5          158.5         -0.3727771     -0.41735149    -0.37762874    -0.32335108     82.848726    
     26880   82.630187      158.5          158.5          158.5          0.021684003   -0.031019224   -0.074164802    0.17023604     82.630187    
     26900   83.311488      158.5          158.5          158.5          0.24719274    -0.073612895    0.48930651     0.32588462     83.311488    
     26920   83.050318      158.5          158.5          158.5         -0.2748012     -0.14157221    -0.50353793    -0.17929345     83.050318    
     26940   82.631189      158.5          158.5          158.5         -0.15681929    -0.25871854    -0.18940199    -0.022337357    82.631189    
     26960   83.527002      158.5          158.5          158.5          0.44567258     0.40711352     0.73367067     0.19623356     83.527002    
     26980   83.142899      158.5          158.5          158.5         -0.27681583    -0.059929613   -0.40492523    -0.36559265     83.142899    
     27000   82.542682      158.5          158.5          158.5         -0.081837188   -0.0093426645  -0.37284527     0.13667637     82.542682    
     27020   84.108284      158.5          158.5          158.5          0.12835025    -0.48326075     0.74406814     0.12424336     84.108284    
     27040   84.046501      158.5          158.5          158.5          0.15091666     0.75554939    -0.42188324     0.11908383     84.046501    
     27060   82.385311      158.5          158.5          158.5         -0.20705227    -0.36857382     0.021522629   -0.27410562     82.385311    
     27080   82.411723      158.5          158.5          158.5         -0.1043675     -0.24224477     0.29929916    -0.37015689     82.411723    
     27100   82.757937      158.5          158.5          158.5          0.19669542     0.44898191    -0.47674383     0.61784817     82.757937    
     27120   81.57079       158.5          158.5          158.5          0.37965121     0.016368359    0.43613567     0.68644961     81.57079     
     27140   83.296655      158.5          158.5          158.5         -0.39503699     0.21992857    -0.11862063    -1.2864189      83.296655    
     27160   82.334088      158.5          158.5          158.5         -0.33770352    -0.51112925    -0.40156603    -0.10041527     82.334088    
     27180   82.443757      158.5          158.5          158.5          0.17904857     0.4335317     -0.15256137     0.25617539     82.443757    
     27200   82.951533      158.5          158.5          158.5          0.48795462    -0.012533424    0.83377481     0.64262246     82.951533    
     27220   83.119272      158.5          158.5          158.5         -0.52612765    -0.12180822    -0.81143226    -0.64514247     83.119272    
     27240   82.501157      158.5          158.5          158.5         -0.20180363    -0.39590377     0.095615459   -0.30512259     82.501157    
     27260   82.309471      158.5          158.5          158.5          0.38576298     0.25180327     0.56091278     0.3445729      82.309471    
     27280   82.211428      158.5          158.5          158.5          0.12780664     0.11826365    -0.49186646     0.75702273     82.211428    
     27300   81.362789      158.5          158.5          158.5         -0.2497067     -0.047105187   -0.22548714    -0.47652779     81.362789    
     27320   82.835657      158.5          158.5          158.5         -0.13014795    -0.007844395    0.61714262    -0.99974208     82.835657    
     27340   81.626945      158.5          158.5          158.5          0.080304798    0.069582189   -0.38042296     0.55175517     81.626945    
     27360   82.697021      158.5          158.5          158.5          0.26460162     0.2240249     -0.2579632      0.82774317     82.697021    
     27380   82.96343       158.5          158.5          158.5          0.07704875    -0.27096967     0.8338016     -0.33168567     82.96343     
     27400   84.162663      158.5          158.5          158.5         -0.66937019    -0.11274799    -0.97071735    -0.92464523     84.162663    
     27420   83.819004      158.5          158.5          158.5          0.11357091    -0.083119883    0.045800435    0.37803217     83.819004    
     27440   85.69003       158.5          158.5          158.5          0.59329864     0.28192377     0.66644914     0.83152302     85.69003     
     27460   84.518892      158.5          158.5          158.5         -0.099505686   -0.22071812    -0.07388836    -0.0039105795   84.518892    
     27480   86.077717      158.5          158.5          158.5         -0.76119558     0.025323443   -1.0821045     -1.2268057      86.077717    
     27500   84.893167      158.5          158.5          158.5          0.1630025      0.21799384     0.95946848    -0.68845481     84.893167    
     27520   85.151827      158.5          158.5          158.5          0.46340242     0.085481844   -0.11199318     1.4167186      85.151827    
     27540   84.177661      158.5          158.5          158.5          0.069238773   -0.24652721     0.34171525     0.11252827     84.177661    
     27560   84.180209      158.5          158.5          158.5         -0.5692679     -0.0065994666  -0.86361617    -0.83758806     84.180209    
     27580   82.698222      158.5          158.5          158.5          0.14514968     0.055001133    0.041267959    0.33917995     82.698222    
     27600   85.456417      158.5          158.5          158.5          0.53495303     0.15860118     1.373118       0.073139927    85.456417    
     27620   84.758033      158.5          158.5          158.5         -0.54734124    -0.032891355   -1.4243466     -0.18478571     84.758033    
     27640   82.687061      158.5          158.5          158.5          0.077388332   -0.20426898     0.16151787     0.2749161      82.687061    
     27660   84.097421      158.5          158.5          158.5          0.25132484     0.088182519    0.90412252    -0.23833051     84.097421    
     27680   84.09313       158.5          158.5          158.5         -0.43657635    -0.06445804    -1.0064526     -0.23881839     84.09313     
     27700   83.699461      158.5          158.5          158.5          0.46509553     0.15949644     0.53847467     0.69731548     83.699461    
     27720   84.257397      158.5          158.5          158.5         -0.13566598     0.35892295    -0.36342877    -0.40249211     84.257397    
     27740   83.846928      158.5          158.5          158.5         -0.21840966    -0.96116436     0.57726319    -0.27132779     83.846928    
     27760   83.22315       158.5          158.5          158.5         -0.046767338    0.3362319     -0.68849074     0.21195682     83.22315     
     27780   84.004204      158.5          158.5          158.5          0.59448648     0.79647747     0.48636811     0.50061386     84.004204    
     27800   83.136765      158.5          158.5          158.5         -0.4623213     -0.60035704    -0.45594625    -0.33066061     83.136765    
     27820   84.013355      158.5          158.5          158.5         -0.047672921   -0.48087801     0.48023115    -0.1423719      84.013355    
     27840   83.182137      158.5          158.5          158.5          0.18276157     0.74465555    -0.29451576     0.098144917    83.182137    
     27860   85.217375      158.5          158.5          158.5          0.039673852   -0.37658004     0.45215236     0.043449237    85.217375    
     27880   83.665719      158.5          158.5          158.5         -0.28446704     0.24312514    -1.0057729     -0.09075339     83.665719    
     27900   85.757252      158.5          158.5          158.5          0.62771463     0.4882941      1.0011899      0.39365988     85.757252    
     27920   86.931196      158.5          158.5          158.5         -0.9430951     -1.1238227     -1.7032227     -0.002239865    86.931196    
     27940   83.860075      158.5          158.5          158.5          0.36510249    -0.12260974     1.1520605      0.06585668     83.860075    
     27960   88.944895      158.5          158.5          158.5          0.46596442     1.7546337      0.22989532    -0.5866358      88.944895    
     27980   83.226373      158.5          158.5          158.5         -0.19576496    -0.82714925    -0.078104387    0.31795875     83.226373    
     28000   85.66251       158.5          158.5          158.5         -0.3225073     -1.2763895     -0.21393581     0.52280345     85.66251     
     28020   86.925247      158.5          158.5          158.5          0.1393621      1.4284451     -0.039251087   -0.97110768     86.925247    
     28040   83.988267      158.5          158.5          158.5          0.39016374    -0.0012835622   0.34032857     0.8314462      83.988267    
     28060   83.410985      158.5          158.5          158.5         -0.20953632    -0.84959529    -0.011111284    0.23209762     83.410985    
     28080   85.345742      158.5          158.5          158.5         -0.2558455      0.79440505    -0.21929285    -1.3426487      85.345742    
     28100   82.246837      158.5          158.5          158.5          0.0040116151  -0.16936304     0.090875613    0.09052227     82.246837    
     28120   83.895634      158.5          158.5          158.5          0.17145321    -0.7520257      0.43797098     0.82841434     83.895634    
     28140   84.210023      158.5          158.5          158.5          0.51992129     1.3570352     -0.084934768    0.28766341     84.210023    
     28160   82.825645      158.5          158.5          158.5         -0.43167382    -0.4168214     -0.076636939   -0.80156312     82.825645    
     28180   84.589766      158.5          158.5          158.5         -0.3505242     -1.0893022     -0.27031994     0.30804948     84.589766    
     28200   84.018571      158.5          158.5          158.5          0.46635399     0.89173331     0.35536662     0.15196204     84.018571    
     28220   82.754385      158.5          158.5          158.5          0.22616536     0.47062306     0.0041963171   0.20367671     82.754385    
     28240   84.029934      158.5          158.5          158.5         -0.57729686    -1.030736      -0.35501535    -0.34613922     84.029934    
     28260   83.662244      158.5          158.5          158.5          0.049224704    0.43071252     0.050285943   -0.33332435     83.662244    
     28280   83.291486      158.5          158.5          158.5          0.46363144     0.47357596     0.16919176     0.74812661     83.291486    
     28300   84.577108      158.5          158.5          158.5         -0.41150574    -0.99754011    -0.049599442   -0.18737768     84.577108    
     28320   84.441094      158.5          158.5          158.5         -0.14559337     0.83628326    -0.48049466    -0.79256872     84.441094    
     28340   82.609086      158.5          158.5          158.5          0.30627794     0.26498311     0.29754814     0.35630256     82.609086    
     28360   85.19413       158.5          158.5          158.5          0.083214659   -1.1108636      0.26301984     1.0974877      85.19413     
     28380   82.871517      158.5          158.5          158.5         -0.15402        0.53065535    -0.21892398    -0.77379136     82.871517    
     28400   83.933266      158.5          158.5          158.5         -0.28761188     0.55044633    -0.19191249    -1.2213695      83.933266    
     28420   85.576866      158.5          158.5          158.5          0.19926955    -0.7764635      0.48303553     0.8912366      85.576866    
     28440   84.672973      158.5          158.5          158.5          0.77133396     0.55896437     0.49804217     1.2569953      84.672973    
     28460   83.908288      158.5          158.5          158.5         -0.13895301     0.34971581    -0.26414029    -0.50243456     83.908288    
     28480   87.672543      158.5          158.5          158.5         -1.1373131     -1.2941373     -0.95639137    -1.1614105      87.672543    
     28500   84.923227      158.5          158.5          158.5          0.75396011     1.0225742      0.57016693     0.66913921     84.923227    
     28520   84.154912      158.5          158.5          158.5          0.60637264     0.69290223     0.88848419     0.2377315      84.154912    
     28540   85.878766      158.5          158.5          158.5         -0.96452484    -1.4940437     -1.0600041     -0.33952679     85.878766    
     28560   83.805147      158.5          158.5          158.5          0.17851092     0.15009175     0.11525065     0.27019037     83.805147    
     28580   84.51094       158.5          158.5          158.5          0.50345968     0.68078792     0.86469935    -0.035108218    84.51094     
     28600   83.155542      158.5          158.5          158.5         -0.37239535    -0.24686296    -0.65974477    -0.21057831     83.155542    
     28620   84.456726      158.5          158.5          158.5         -0.016465719   -0.054325862   -0.21567224     0.22060095     84.456726    
     28640   82.811365      158.5          158.5          158.5          0.16490367    -0.01397015     0.5111714     -0.0024902293   82.811365    
     28660   83.566555      158.5          158.5          158.5         -0.14769836    -0.17108088    -0.1164165     -0.15559772     83.566555    
     28680   84.1574        158.5          158.5          158.5          0.1252827      0.33979635    -0.095378063    0.1314298      84.1574      
     28700   82.482822      158.5          158.5          158.5         -0.14930327    -0.058589051   -0.40366584     0.014345083    82.482822    
     28720   84.435361      158.5          158.5          158.5         -0.019911894   -0.14238586     0.15639645    -0.073746271    84.435361    
     28740   83.233982      158.5          158.5          158.5          0.31144502     0.20841424     0.64607671     0.079844097    83.233982    
     28760   83.424828      158.5          158.5          158.5         -0.42160626    -0.37856853    -0.81981042    -0.066439845    83.424828    
     28780   84.101241      158.5          158.5          158.5         -0.022108327    0.09595588    -0.16760109     0.0053202295   84.101241    
     28800   83.990469      158.5          158.5          158.5          0.66899653     0.73043941     1.0835961      0.19295406     83.990469    
     28820   83.816617      158.5          158.5          158.5         -0.51861155    -0.5729346     -0.75893109    -0.22396896     83.816617    
     28840   83.501773      158.5          158.5          158.5         -0.38963085    -0.75537133    -0.38408818    -0.029433049    83.501773    
     28860   85.495216      158.5          158.5          158.5          0.85897274     0.8997218      1.2251227      0.45207373     85.495216    
     28880   84.225845      158.5          158.5          158.5         -0.15837627     0.35519418    -0.5500095     -0.28031348     84.225845    
     28900   84.015149      158.5          158.5          158.5         -0.63976134    -0.87822661    -0.59627805    -0.44477936     84.015149    
     28920   83.150404      158.5          158.5          158.5          0.21539536    -0.35623183     0.49561325     0.50680465     83.150404    
     28940   85.905648      158.5          158.5          158.5          0.3976806      0.90588517     0.38704557    -0.099888943    85.905648    
     28960   82.208553      158.5          158.5          158.5          0.41941274     0.95260194     0.16948598     0.1361503      82.208553    
     28980   85.899322      158.5          158.5          158.5         -0.29893104    -0.84334689    -0.12366819     0.070221972    85.899322    
     29000   83.326621      158.5          158.5          158.5         -0.33599652    -0.10488529    -0.43730802    -0.46579624     83.326621    
     29020   85.183562      158.5          158.5          158.5          0.24983407     0.48040422     0.083705162    0.18539283     85.183562    
     29040   84.482838      158.5          158.5          158.5          0.38729251    -0.025043311    0.86187162     0.32504923     84.482838    
     29060   83.768191      158.5          158.5          158.5         -0.65124424    -0.54843901    -1.0293049     -0.37598876     83.768191    
     29080   83.201014      158.5          158.5          158.5         -0.0014750081   0.3589551     -0.19560413    -0.167776       83.201014    
     29100   83.369411      158.5          158.5          158.5          0.60685164     0.58336899     0.88195903     0.3552269      83.369411    
     29120   83.207546      158.5          158.5          158.5         -0.30302902    -0.44763893    -0.43813461    -0.023313519    83.207546    
     29140   83.609182      158.5          158.5          158.5         -0.36067035    -0.60752675    -0.20112416    -0.27336013     83.609182    
     29160   83.179271      158.5          158.5          158.5          0.32450126     0.36074371     0.27701479     0.33574527     83.179271    
     29180   82.814364      158.5          158.5          158.5          0.31354982     0.5684134      0.29581183     0.076424241    82.814364    
     29200   82.709669      158.5          158.5          158.5         -0.42293985    -0.3265736     -0.58103284    -0.36121311     82.709669    
     29220   82.883176      158.5          158.5          158.5         -0.16611064    -0.57964462    -0.041827385    0.12314009     82.883176    
     29240   83.006996      158.5          158.5          158.5          0.41332037     0.43694781     0.60441973     0.19859357     83.006996    
     29260   82.662033      158.5          158.5          158.5         -0.060048929    0.38895819    -0.54046978    -0.0286352      82.662033    
     29280   83.107003      158.5          158.5          158.5         -0.11549256    -0.40145558     0.29312963    -0.23815172     83.107003    
     29300   83.707212      158.5          158.5          158.5         -0.2572178     -0.62832319    -0.033258913   -0.11007129     83.707212    
     29320   82.413372      158.5          158.5          158.5          0.26209155     0.78050819     0.05700146    -0.051234994    82.413372    
     29340   82.233298      158.5          158.5          158.5          0.25264468     0.36242392     0.051959016    0.34355111     82.233298    
     29360   82.912228      158.5          158.5          158.5         -0.19927686    -0.70614151     0.18217177    -0.073860838    82.912228    
     29380   82.570973      158.5          158.5          158.5         -0.29245981    -0.15775567    -0.52199435    -0.19762939     82.570973    
     29400   83.006654      158.5          158.5          158.5          0.33546136     0.54865776     0.1541723      0.30355403     83.006654    
     29420   83.582569      158.5          158.5          158.5          0.22471856    -0.046728805    0.74983482    -0.028950329    83.582569    
     29440   83.608034      158.5          158.5          158.5         -0.44960739    -0.21657961    -1.0960377     -0.036204835    83.608034    
     29460   82.312053      158.5          158.5          158.5          0.089033354   -0.0029670639   0.16918178     0.10088534     82.312053    
     29480   83.786688      158.5          158.5          158.5          0.39284673     0.13497059     1.0424518      0.0011177751   83.786688    
     29500   84.073206      158.5          158.5          158.5         -0.36846166     0.021122013   -1.1728489      0.046341935    84.073206    
     29520   82.355646      158.5          158.5          158.5         -0.13753073    -0.023402266   -0.27480095    -0.11438898     82.355646    
     29540   84.234931      158.5          158.5          158.5          0.64701311     0.24409384     1.3299624      0.36698304     84.234931    
     29560   84.119665      158.5          158.5          158.5         -0.72790144    -0.42928848    -1.1429205     -0.61149529     84.119665    
     29580   82.346398      158.5          158.5          158.5          0.076717705    0.075490781    0.0077977265   0.14686461     82.346398    
     29600   84.465038      158.5          158.5          158.5          0.48099091     0.54353776     0.70148933     0.19794564     84.465038    
     29620   83.341272      158.5          158.5          158.5         -0.32127415    -0.38827402    -0.39299218    -0.18255625     83.341272    
     29640   83.125001      158.5          158.5          158.5         -0.47719774    -0.40472229    -0.40013253    -0.62673839     83.125001    
     29660   84.405491      158.5          158.5          158.5          0.6258129      0.58429554     0.81362495     0.47951822     84.405491    
     29680   82.636401      158.5          158.5          158.5         -0.31704647    -0.39460805    -0.29379654    -0.26273482     82.636401    
     29700   83.018691      158.5          158.5          158.5         -0.32757268    -0.20580081    -0.5956057     -0.18131152     83.018691    
     29720   83.299875      158.5          158.5          158.5          0.59334486     0.62347507     0.5747193      0.5818402      83.299875    
     29740   82.429474      158.5          158.5          158.5         -0.037564898   -0.22779886     0.28174035    -0.16663618     82.429474    
     29760   83.709319      158.5          158.5          158.5         -0.60009879    -0.401956      -0.79980588    -0.59853449     83.709319    
     29780   82.597422      158.5          158.5          158.5          0.22638502     0.036485607    0.29617643     0.34649302     82.597422    
     29800   82.909228      158.5          158.5          158.5          0.53410112     0.66577915     0.53069033     0.40583389     82.909228    
     29820   81.957055      158.5          158.5          158.5         -0.23074423    -0.18126812    -0.072551209   -0.43841337     81.957055    
     29840   83.016929      158.5          158.5          158.5         -0.3571705     -0.49885519    -0.60262483     0.029968524    83.016929    
     29860   81.900974      158.5          158.5          158.5          0.082798914    0.0065193539  -0.10712503     0.34900242     81.900974    
     29880   82.516347      158.5          158.5          158.5          0.33082076     0.3865385      0.57062879     0.035294986    82.516347    
     29900   82.525499      158.5          158.5          158.5          0.086785531    0.37003485    -0.022295958   -0.087382294    82.525499    
     29920   83.651802      158.5          158.5          158.5         -0.33907395    -0.86228123    -0.27650625     0.12156562     83.651802    
     29940   82.747894      158.5          158.5          158.5          0.0052358464   0.3739964     -0.13286815    -0.22542072     82.747894    
     29960   82.903352      158.5          158.5          158.5          0.2475898      0.41911443     0.4040704     -0.080415443    82.903352    
     29980   84.431483      158.5          158.5          158.5         -0.2092443     -0.83430725    -0.090165986    0.29674035     84.431483    
     30000   83.426248      158.5          158.5          158.5          0.25822182     0.65597646     0.15103381    -0.032344806    83.426248    
     30020   84.221504      158.5          158.5          158.5         -0.518795      -0.43261105    -0.72882943    -0.39494451     84.221504    
     30040   83.481877      158.5          158.5          158.5          0.26660438     0.31409213     0.45843113     0.027289864    83.481877    
     30060   83.95963       158.5          158.5          158.5         -0.4144858     -0.3123895     -0.47613347    -0.45493442     83.95963     
     30080   82.905453      158.5          158.5          158.5          0.2127146      0.50852589     0.13892924    -0.0093113346   82.905453    
     30100   83.283958      158.5          158.5          158.5          0.13394955    -0.54940612     0.4557233      0.49553146     83.283958    
     30120   83.043716      158.5          158.5          158.5         -0.38954772    -0.24421506    -0.56426009    -0.360168       83.043716    
     30140   83.638085      158.5          158.5          158.5          0.36242616     0.9064863      0.26557509    -0.084782903    83.638085    
     30160   83.071594      158.5          158.5          158.5          0.14274356    -0.52206014     0.37496336     0.57532746     83.071594    
     30180   83.144011      158.5          158.5          158.5         -0.53016734    -0.14860512    -0.93130501    -0.5105919      83.144011    
     30200   81.974942      158.5          158.5          158.5          0.16215697     0.016793822    0.51572329    -0.046046185    81.974942    
     30220   83.915406      158.5          158.5          158.5          0.59810454     0.79301493     0.51199793     0.48930076     83.915406    
     30240   81.409758      158.5          158.5          158.5          0.061100525   -0.12760185     0.25593172     0.054971706    81.409758    
     30260   83.399047      158.5          158.5          158.5         -0.64434228    -0.47824728    -0.91980349    -0.53497608     83.399047    
     30280   82.232651      158.5          158.5          158.5          0.17361681    -0.11513217     0.27144767     0.36453493     82.232651    
     30300   82.871634      158.5          158.5          158.5          0.44721935     0.61211539     0.58359595     0.14594672     82.871634    
     30320   82.725447      158.5          158.5          158.5         -0.28788357    -0.0096434858  -0.58654241    -0.26746481     82.725447    
     30340   83.340563      158.5          158.5          158.5         -0.25868538    -0.84152144    -0.032230704    0.097696003    83.340563    
     30360   82.961004      158.5          158.5          158.5          0.27556669     0.732581       0.050175771    0.04394331     82.961004    
     30380   83.110053      158.5          158.5          158.5          0.28709081     0.24923602     0.44479757     0.16723883     83.110053    
     30400   83.272135      158.5          158.5          158.5         -0.39180344    -0.58048549    -0.38034691    -0.2145779      83.272135    
     30420   82.413087      158.5          158.5          158.5         -0.21728993    -0.25780391    -0.31612872    -0.077937166    82.413087    
     30440   83.809239      158.5          158.5          158.5          0.45026628     0.50313256     0.23221011     0.61545615     83.809239    
     30460   83.203614      158.5          158.5          158.5          0.18617273     0.53873797     0.37364752    -0.35386731     83.203614    
     30480   83.548257      158.5          158.5          158.5         -0.45328506    -1.197062       0.23973232    -0.40252549     83.548257    
     30500   83.224456      158.5          158.5          158.5         -0.3461236      0.22866626    -1.2824868      0.015449783    83.224456    
     30520   83.855238      158.5          158.5          158.5          0.85771516     0.70847114     0.69263349     1.1720409      83.855238    
     30540   82.37091       158.5          158.5          158.5          0.38736338     0.53610505     0.65624765    -0.030262566    82.37091     
     30560   84.800583      158.5          158.5          158.5         -0.75661447    -0.95955211    -0.49157962    -0.81871168     84.800583    
     30580   82.545964      158.5          158.5          158.5         -0.28331487    -0.26797744    -0.096785162   -0.48518201     82.545964    
     30600   84.872376      158.5          158.5          158.5          0.61345425     0.67561907     0.35227014     0.81247353     84.872376    
     30620   82.867718      158.5          158.5          158.5         -0.001446181   -0.087587251   -0.10656452     0.18981323     82.867718    
     30640   84.874131      158.5          158.5          158.5         -0.55345982    -0.32182328    -0.30854718    -1.030009       84.874131    
     30660   82.961258      158.5          158.5          158.5          0.41423056     0.10474786     0.43678162     0.7011622      82.961258    
     30680   83.231907      158.5          158.5          158.5          0.23703504     0.28476404     0.20728923     0.21905185     83.231907    
     30700   84.308014      158.5          158.5          158.5         -0.69158686    -0.39904306    -0.87377882    -0.80193869     84.308014    
     30720   82.874009      158.5          158.5          158.5          0.34397031     0.23870679     0.46949261     0.32371154     82.874009    
     30740   82.850561      158.5          158.5          158.5          0.24049106    -0.014925957    0.27937232     0.45702683     82.850561    
     30760   83.17426       158.5          158.5          158.5         -0.35017273    -0.10773323    -0.39979774    -0.54298723     83.17426     
     30780   83.017046      158.5          158.5          158.5          0.25074743     0.31646483     0.36831625     0.067461215    83.017046    
     30800   83.784711      158.5          158.5          158.5         -0.22993638    -0.44643686    -0.66105543     0.41768315     83.784711    
     30820   83.51465       158.5          158.5          158.5          0.052998955    0.20720736     0.69139645    -0.73960695     83.51465     
     30840   83.716395      158.5          158.5          158.5         -0.19349781    -0.22561105    -0.69411132     0.33922896     83.716395    
     30860   83.474769      158.5          158.5          158.5          0.58096022     0.40796129     0.81723434     0.51768503     83.474769    
     30880   84.285217      158.5          158.5          158.5         -0.71975216    -0.41001622    -1.1501094     -0.59913082     84.285217    
     30900   83.492198      158.5          158.5          158.5          0.26818571     0.33050578     0.80456426    -0.3305129      83.492198    
     30920   83.929399      158.5          158.5          158.5         -0.040947094   -0.18180489    -0.67748471     0.73644833     83.929399    
     30940   84.072808      158.5          158.5          158.5          0.23004995     0.1213213      0.71002606    -0.14119751     84.072808    
     30960   84.4111        158.5          158.5          158.5         -0.57861883    -0.54301465    -0.93647002    -0.25637183     84.4111      
     30980   85.740429      158.5          158.5          158.5          0.73791804     0.79196438     1.0847017      0.33708807     85.740429    
     31000   83.690982      158.5          158.5          158.5         -0.55715579    -0.49565853    -0.73129134    -0.4445175      83.690982    
     31020   83.444286      158.5          158.5          158.5         -0.16248659    -0.24039838    -0.24012714    -0.0069342421   83.444286    
     31040   85.307783      158.5          158.5          158.5          0.88658769     0.77100107     0.83265727     1.0561047      85.307783    
     31060   83.56217       158.5          158.5          158.5         -0.33548128    -0.37538467     0.028889666   -0.65994883     83.56217     
     31080   84.769498      158.5          158.5          158.5         -0.75103487    -0.34736728    -0.92631715    -0.97942018     84.769498    
     31100   83.18065       158.5          158.5          158.5          0.4947339      0.31997321     0.58720659     0.57702189     83.18065     
     31120   84.533709      158.5          158.5          158.5          0.71469171     0.36188894     0.8968774      0.88530878     84.533709    
     31140   83.144667      158.5          158.5          158.5         -0.34794533    -0.1453916     -0.59891127    -0.29953311     83.144667    
     31160   696.42269      158.5          158.5          158.5          15.017979      1.2679266      14.502255      29.283754      696.42269    
     31180   235.97058      158.5          158.5          158.5         -0.28487763    -0.14788763     2.4023136     -3.1090588      235.97058    
     31200   97.440789      158.5          158.5          158.5         -1.3956192     -0.50578425    -1.6217463     -2.0593271      97.440789    
     31220   83.781368      158.5          158.5          158.5          0.26720016     0.22060683    -0.25301067     0.83400432     83.781368    
     31240   84.738267      158.5          158.5          158.5          0.27423693     0.045620153    0.77462946     0.0024611834   84.738267    
     31260   82.724721      158.5          158.5          158.5          0.13081546     0.022509062   -0.18032458     0.55026191     82.724721    
     31280   82.371021      158.5          158.5          158.5         -0.26132486    -0.11112991    -0.21817753    -0.45466716     82.371021    
     31300   82.351228      158.5          158.5          158.5          0.11417085     0.077437455    0.20908656     0.055988528    82.351228    
     31320   82.098463      158.5          158.5          158.5         -0.053863534    0.0034828599  -0.08158812    -0.083485341    82.098463    
     31340   82.134819      158.5          158.5          158.5         -0.028603645   -0.033853716   -0.081394484    0.029437266    82.134819    
     31360   82.12471       158.5          158.5          158.5          0.10217625     0.012600592    0.1383431      0.15558504     82.12471     
     31380   82.092744      158.5          158.5          158.5         -0.041430148   -0.0026251693  -0.02597693    -0.095688344    82.092744    
     31400   82.108381      158.5          158.5          158.5         -0.017818245    0.01606115    -0.080030515    0.01051463     82.108381    
     31420   82.093936      158.5          158.5          158.5         -0.014798784   -0.019590653    0.057980151   -0.082785851    82.093936    
     31440   82.080053      158.5          158.5          158.5          0.027681143    0.0057555456   0.0056227056   0.071665177    82.080053    
     31460   82.088969      158.5          158.5          158.5         -0.010063519    0.0015257094  -0.04235494     0.010638674    82.088969    
     31480   82.074359      158.5          158.5          158.5          0.021352759    0.0038316893   0.050956626    0.0092699618   82.074359    
     31500   82.082734      158.5          158.5          158.5         -0.0047899192  -0.0031231177  -0.0034362637  -0.0078103761   82.082734    
     31520   82.081928      158.5          158.5          158.5         -0.05196227    -0.012293173   -0.061396548   -0.082197087    82.081928    
     31540   82.081441      158.5          158.5          158.5          0.049064143    0.022328683    0.048303024    0.076560723    82.081441    
     31560   82.08415       158.5          158.5          158.5          0.001760615   -0.010271843    0.025499616   -0.0099459286   82.08415     
     31580   82.081474      158.5          158.5          158.5         -0.0094983893  -0.0066199628  -0.056909054    0.035033849    82.081474    
     31600   82.079139      158.5          158.5          158.5         -0.0037007575   0.0023407998   0.027234712   -0.040677784    82.079139    
     31620   82.084525      158.5          158.5          158.5          0.0017011677   0.011646916    0.026217695   -0.032761107    82.084525    
     31640   82.0802        158.5          158.5          158.5         -0.018621671   -0.0048416516  -0.072539316    0.021515953    82.0802      
     31660   82.098849      158.5          158.5          158.5          0.0024225635  -0.021768629    0.038864864   -0.0098285445   82.098849    
     31680   82.097733      158.5          158.5          158.5          0.081099391    0.031226157    0.07566        0.13641202     82.097733    
     31700   82.109445      158.5          158.5          158.5         -0.089941866   -0.012545988   -0.1122357     -0.14504391     82.109445    
     31720   82.129416      158.5          158.5          158.5         -0.0012206896   0.00054831513  0.0064493273  -0.010659711    82.129416    
     31740   82.092351      158.5          158.5          158.5          0.023135987   -0.010616214    0.10241631    -0.022392132    82.092351    
     31760   82.189532      158.5          158.5          158.5         -0.03953951     0.005785055   -0.13991215     0.015508559    82.189532    
     31780   82.195931      158.5          158.5          158.5          0.12907152     0.038979218    0.081906357    0.266329       82.195931    
     31800   82.296292      158.5          158.5          158.5         -0.037557383   -0.078252949    0.18386515    -0.21828435     82.296292    
     31820   82.675897      158.5          158.5          158.5         -0.14595594     0.064617739   -0.38639686    -0.1160887      82.675897    
     31840   82.286744      158.5          158.5          158.5         -0.025436735    0.02391612     0.011344883   -0.11157121     82.286744    
     31860   82.700163      158.5          158.5          158.5          0.15775618    -0.088158454    0.4300793      0.13134769     82.700163    
     31880   83.914486      158.5          158.5          158.5         -0.032858108    0.20902444    -0.59638544     0.28878667     83.914486    
     31900   82.714384      158.5          158.5          158.5          0.18240828    -0.0432789      0.11096635     0.47953739     82.714384    
     31920   85.195845      158.5          158.5          158.5         -0.034357944   -0.27992631     0.12951666     0.047335816    85.195845    
     31940   83.027094      158.5          158.5          158.5         -0.2519143     -0.019355162   -0.60129265    -0.13509509     83.027094    
     31960   82.828647      158.5          158.5          158.5         -0.087798329    0.059271299    0.1307664     -0.45343269     82.828647    
     31980   83.602136      158.5          158.5          158.5         -0.019865258    0.18492933     0.0049986031  -0.24952371     83.602136    
     32000   84.166908      158.5          158.5          158.5          0.27794939    -0.085505272    0.38462422     0.53472923     84.166908    
     32020   82.437302      158.5          158.5          158.5         -0.1690183     -0.067812149   -0.3275218     -0.11172096     82.437302    
     32040   82.681128      158.5          158.5          158.5         -0.27033563     0.00025629324 -0.52336522    -0.28789797     82.681128    
     32060   82.725598      158.5          158.5          158.5          0.2732757     -0.010121882    0.49507394     0.33487504     82.725598    
     32080   82.149654      158.5          158.5          158.5          0.037861733    0.054718836    0.097582134   -0.038715772    82.149654    
     32100   82.341043      158.5          158.5          158.5         -0.13051882     0.017839653   -0.17564137    -0.23375474     82.341043    
     32120   82.363518      158.5          158.5          158.5          0.06441747    -0.054971054    0.025614011    0.22260945     82.363518    
     32140   82.067753      158.5          158.5          158.5         -0.019537088   -0.016671262   -0.043804195    0.0018641934   82.067753    
     32160   82.273444      158.5          158.5          158.5         -0.078887478    0.045988812   -0.097532457   -0.18511879     82.273444    
     32180   82.23427       158.5          158.5          158.5          0.1500677      0.0069129758   0.28046346     0.16282667     82.23427     
     32200   82.068529      158.5          158.5          158.5          0.0024780278  -0.011339984   -0.01428615     0.033060217    82.068529    
     32220   82.282296      158.5          158.5          158.5         -0.17225498    -0.00849506    -0.32283216    -0.18543773     82.282296    
     32240   82.190822      158.5          158.5          158.5          0.081911976   -0.0234857      0.14055817     0.12866346     82.190822    
     32260   82.102083      158.5          158.5          158.5          0.085999591    0.024850269    0.16876718     0.064381326    82.102083    
     32280   82.343723      158.5          158.5          158.5         -0.093280059    0.04138895    -0.12890592    -0.19232321     82.343723    
     32300   82.213497      158.5          158.5          158.5          0.048944901   -0.032752474    0.028479709    0.15110747     82.213497    
     32320   82.154642      158.5          158.5          158.5          0.008603027   -0.0503196      0.0085818098   0.067546871    82.154642    
     32340   82.570609      158.5          158.5          158.5         -0.17085248     0.047434034   -0.2735617     -0.28642979     82.570609    
     32360   82.289452      158.5          158.5          158.5          0.20746636     0.024430954    0.423603       0.17436512     82.289452    
     32380   82.317152      158.5          158.5          158.5          0.13916541     0.0032634542   0.17146073     0.24277205     82.317152    
     32400   83.246276      158.5          158.5          158.5         -0.36927927    -0.027572865   -0.67520226    -0.4050627      83.246276    
     32420   82.379047      158.5          158.5          158.5          0.037443781   -0.046939762    0.028755004    0.1305161      82.379047    
     32440   83.029331      158.5          158.5          158.5          0.3590094      0.016516151    0.77093529     0.28957676     83.029331    
     32460   85.078026      158.5          158.5          158.5         -0.2800362      0.14328208    -0.53790745    -0.44548322     85.078026    
     32480   82.921812      158.5          158.5          158.5          0.03518711    -0.077753221   -0.07619192     0.25950647     82.921812    
     32500   84.570217      158.5          158.5          158.5          0.24828263    -0.14250853     0.60680366     0.28055275     84.570217    
     32520   90.820656      158.5          158.5          158.5         -0.34079062     0.34730266    -1.4185485      0.048874011    90.820656    
     32540   87.715945      158.5          158.5          158.5          0.0082164906  -0.3621666      1.3149659     -0.92814982     87.715945    
     32560   83.751465      158.5          158.5          158.5          0.29927985     0.19007485     0.54342123     0.16434347     83.751465    
     32580   90.269583      158.5          158.5          158.5         -0.29855822     0.21918695    -1.5885801      0.47371846     90.269583    
     32600   84.344306      158.5          158.5          158.5         -0.15103364    -0.039946484    0.6114883     -1.0246428      84.344306    
     32620   87.22989       158.5          158.5          158.5          0.41598661     0.20140295     0.32720979     0.71934709     87.22989     
     32640   83.772884      158.5          158.5          158.5         -0.59649924    -0.3403953     -0.87523397    -0.57386846     83.772884    
     32660   83.856967      158.5          158.5          158.5          0.29722815     0.11714681     0.47725881     0.29727882     83.856967    
     32680   83.382685      158.5          158.5          158.5          0.26919777     0.11189987     0.4930623      0.20263115     83.382685    
     32700   82.695265      158.5          158.5          158.5         -0.31816728    -0.1915296     -0.4912571     -0.27171512     82.695265    
     32720   83.08212       158.5          158.5          158.5          0.065886776    0.12927622    -0.0093680246   0.077752135    83.08212     
     32740   82.231017      158.5          158.5          158.5          0.10480516     0.098967144    0.24244955    -0.027001226    82.231017    
     32760   82.898757      158.5          158.5          158.5         -0.086153304   -0.16195488    -0.19928677     0.10278174     82.898757    
     32780   82.179208      158.5          158.5          158.5          0.022098783   -0.0048911414   0.11050986    -0.039322369    82.179208    
     32800   82.479296      158.5          158.5          158.5          0.12228185     0.14818618     0.14496698     0.073692399    82.479296    
     32820   82.383651      158.5          158.5          158.5         -0.18877326    -0.095502826   -0.28457639    -0.18624057     82.383651    
     32840   82.205107      158.5          158.5          158.5          0.041436964   -0.01073017     0.064758575    0.070282486    82.205107    
     32860   82.438106      158.5          158.5          158.5          0.18915843     0.082814203    0.26478412     0.21987697     82.438106    
     32880   82.22418       158.5          158.5          158.5         -0.1859556     -0.10731249    -0.22668332    -0.22387099     82.22418     
     32900   82.425302      158.5          158.5          158.5          0.018599641    0.06074719    -0.055857054    0.050908788    82.425302    
     32920   82.255613      158.5          158.5          158.5          0.050524394    0.06338813     0.19531302    -0.10712797     82.255613    
     32940   82.7043        158.5          158.5          158.5          0.05585295    -0.084782877   -0.088226199    0.34056793     82.7043      
     32960   82.260231      158.5          158.5          158.5         -0.20096868    -0.096897829   -0.081803732   -0.42420448     82.260231    
     32980   83.115142      158.5          158.5          158.5          0.32426756     0.28344868     0.27260414     0.41674986     83.115142    
     33000   82.629059      158.5          158.5          158.5         -0.42140113    -0.24034792    -0.38211636    -0.6417391      82.629059    
     33020   83.325335      158.5          158.5          158.5          0.28344129     0.01411065     0.10772247     0.72849074     83.325335    
     33040   82.901836      158.5          158.5          158.5          0.043379981    0.13978296     0.25620735    -0.26585037     82.901836    
     33060   83.5725        158.5          158.5          158.5         -0.21999128    -0.12393644    -0.18597496    -0.35006244     83.5725      
     33080   81.90219       158.5          158.5          158.5          0.039252635   -0.044520857   -0.10328622     0.26556498     81.90219     
     33100   84.652586      158.5          158.5          158.5          0.14377496     0.17752006    -0.089034354    0.34283916     84.652586    
     33120   85.713176      158.5          158.5          158.5          0.31891083     0.028782762    0.64036409     0.28758564     85.713176    
     33140   85.249798      158.5          158.5          158.5         -0.51581825    -0.17789717    -0.99258675    -0.37697082     85.249798    
     33160   86.147044      158.5          158.5          158.5          0.29213154     0.21278574     0.24082493     0.42278396     86.147044    
     33180   87.017208      158.5          158.5          158.5          0.4228975      0.012184255    0.53961045     0.7168978      87.017208    
     33200   88.449236      158.5          158.5          158.5         -0.84852348    -0.47919821    -0.075048703   -1.9913235      88.449236    
     33220   86.482825      158.5          158.5          158.5          0.73130527     0.48569937     0.056634582    1.6515819      86.482825    
     33240   88.321914      158.5          158.5          158.5         -0.7125536     -0.28537525    -0.32979292    -1.5224926      88.321914    
     33260   84.069558      158.5          158.5          158.5          0.30751478     0.021128142   -0.072404181    0.97382039     84.069558    
     33280   85.866534      158.5          158.5          158.5          0.020102456   -0.091794337    0.63806277    -0.48596107     85.866534    
     33300   83.361743      158.5          158.5          158.5          0.21879326     0.053902774   -0.19990839     0.80238539     83.361743    
     33320   84.130761      158.5          158.5          158.5         -0.4703499     -0.10112862    -0.36409367    -0.94582742     84.130761    
     33340   82.975558      158.5          158.5          158.5          0.13776564     0.13762913     0.092659934    0.18300786     82.975558    
     33360   83.09502       158.5          158.5          158.5          0.0081821899  -0.029242808    0.13256555    -0.078776167    83.09502     
     33380   83.047587      158.5          158.5          158.5          0.21001742    -0.018959742    0.049736199    0.59927582     83.047587    
     33400   82.50341       158.5          158.5          158.5         -0.08954284    -0.070758284    0.10968985    -0.30756009     82.50341     
     33420   82.968579      158.5          158.5          158.5         -0.10677565     0.043149335   -0.26909714    -0.094379155    82.968579    
     33440   82.580959      158.5          158.5          158.5         -0.15861464     0.020136222   -0.065702859   -0.43027729     82.580959    
     33460   82.574889      158.5          158.5          158.5          0.30109243     0.079945074    0.24060207     0.58273014     82.574889    
     33480   82.999122      158.5          158.5          158.5         -0.082038973   -0.15401808     0.028708683   -0.12080752     82.999122    
     33500   82.365008      158.5          158.5          158.5          0.067360101    0.019377688   -0.1826371      0.36533972     82.365008    
     33520   83.269446      158.5          158.5          158.5         -0.19806663     0.03975336     0.085284798   -0.71923803     83.269446    
     33540   82.609688      158.5          158.5          158.5          0.088105941    0.099531062   -0.087640302    0.25242706     82.609688    
     33560   82.898214      158.5          158.5          158.5         -0.20482711    -0.19658024    -0.16014982    -0.25775126     82.898214    
     33580   83.031775      158.5          158.5          158.5          0.30875826     0.031421961    0.29771391     0.5971389      83.031775    
     33600   82.543562      158.5          158.5          158.5          0.12243033     0.13070684     0.068437776    0.16814638     82.543562    
     33620   83.24986       158.5          158.5          158.5         -0.37634055    -0.065172438   -0.3394381     -0.72441111     83.24986     
     33640   84.134636      158.5          158.5          158.5          0.052720897   -0.0089382941   0.17433611    -0.0072351223   84.134636    
     33660   83.225933      158.5          158.5          158.5         -0.066629983   -0.016224183   -0.05471758    -0.12894819     83.225933    
     33680   84.472312      158.5          158.5          158.5          0.22548084     0.095512303   -0.0037432174   0.58467344     84.472312    
     33700   84.070802      158.5          158.5          158.5          0.31907334    -0.035406843    0.64695161     0.34567526     84.070802    
     33720   86.801131      158.5          158.5          158.5         -0.51646989    -0.03640165    -1.0520563     -0.46095168     86.801131    
     33740   85.091354      158.5          158.5          158.5         -0.36277043    -0.17410453    -0.077448355   -0.83675842     85.091354    
     33760   84.317547      158.5          158.5          158.5          0.52178316     0.27282836     0.73287283     0.55964829     84.317547    
     33780   87.49063       158.5          158.5          158.5          0.68820393     0.17653886     0.84446528     1.0436077      87.49063     
     33800   82.954641      158.5          158.5          158.5         -0.36373006    -0.16084509    -0.84017283    -0.09017227     82.954641    
     33820   88.044333      158.5          158.5          158.5         -0.73142631    -0.25428968    -0.52382137    -1.4161679      88.044333    
     33840   83.78486       158.5          158.5          158.5          0.50067166     0.030168778    0.85754575     0.61430045     83.78486     
     33860   84.769766      158.5          158.5          158.5          0.45983078     0.32241163     0.40221113     0.65486959     84.769766    
     33880   83.719161      158.5          158.5          158.5         -0.19780138     0.09563505    -0.36085473    -0.32818447     83.719161    
     33900   82.962839      158.5          158.5          158.5         -0.052368265   -0.26376641    -0.11705027     0.22371188     82.962839    
     33920   84.012921      158.5          158.5          158.5         -0.12870287    -0.2172313      0.12137396    -0.29025127     84.012921    
     33940   82.388643      158.5          158.5          158.5         -0.10271294     0.14773862    -0.036021098   -0.41985634     82.388643    
     33960   82.119965      158.5          158.5          158.5          0.31701357     0.17149998     0.4010873      0.37845343     82.119965    
     33980   82.674434      158.5          158.5          158.5          0.24553024     0.01807541     0.13008275     0.58843257     82.674434    
     34000   82.080518      158.5          158.5          158.5         -0.39319916    -0.10272211    -0.50028002    -0.57659537     82.080518    
     34020   82.355108      158.5          158.5          158.5         -0.13661842    -0.10366029    -0.044133461   -0.2620615      82.355108    
     34040   81.750199      158.5          158.5          158.5          0.24926623     0.027279906    0.41150538     0.3090134      81.750199    
     34060   82.141559      158.5          158.5          158.5          0.044869351    0.17214429    -0.10904684     0.0715106      82.141559    
     34080   81.743686      158.5          158.5          158.5         -0.077664563   -0.014353108   -0.15194881    -0.066691777    81.743686    
     34100   81.977796      158.5          158.5          158.5          0.006711074   -0.17130992    -0.004807656    0.1962508      81.977796    
     34120   82.199784      158.5          158.5          158.5         -0.22517206    -0.068101394   -0.052525101   -0.55488969     82.199784    
     34140   81.422749      158.5          158.5          158.5          0.090206058    0.15930004     0.082784292    0.028533842    81.422749    
     34160   82.86103       158.5          158.5          158.5          0.37649438     0.081337844    0.45220496     0.59594033     82.86103     
     34180   81.544193      158.5          158.5          158.5         -0.041799209    0.0075680649  -0.23533766     0.10237197     81.544193    
     34200   82.505206      158.5          158.5          158.5         -0.4635514     -0.15787829    -0.40875199    -0.82402391     82.505206    
     34220   83.135519      158.5          158.5          158.5          0.14467815    -0.10342639     0.31262352     0.22483731     83.135519    
     34240   81.672864      158.5          158.5          158.5          0.25287201     0.13837233     0.36705561     0.25318807     81.672864    
     34260   84.249436      158.5          158.5          158.5         -0.083352362    0.21004273    -0.38398362    -0.076116196    84.249436    
     34280   82.310367      158.5          158.5          158.5         -0.0074034492  -0.17593266    -0.18889157     0.34261388     82.310367    
     34300   84.466876      158.5          158.5          158.5         -0.22795136    -0.32462627    -0.080053775   -0.27917403     84.466876    
     34320   85.197954      158.5          158.5          158.5         -0.42063445     0.031724233   -0.16607562    -1.1275519      85.197954    
     34340   84.452212      158.5          158.5          158.5          0.72933015     0.34067455     1.0335224      0.81379349     84.452212    
     34360   87.772665      158.5          158.5          158.5          0.68258822     0.23354064     0.7767935      1.0374305      87.772665    
     34380   85.01963       158.5          158.5          158.5         -0.57123053    -0.11918413    -0.82884132    -0.76566614     85.01963     
     34400   89.664358      158.5          158.5          158.5         -0.68760487    -0.45281153    -0.57341856    -1.0365845      89.664358    
     34420   83.860911      158.5          158.5          158.5          0.36011267    -0.09177362     0.68299802     0.48911362     83.860911    
     34440   91.050657      158.5          158.5          158.5          0.22641502     0.39592737    -0.20177407     0.48509176     91.050657    
     34460   84.920166      158.5          158.5          158.5          0.33508286    -0.093478904    0.68562406     0.41310344     84.920166    
     34480   87.3644        158.5          158.5          158.5         -0.47264443    -0.16955639    -0.93544672    -0.31293016     87.3644      
     34500   86.626156      158.5          158.5          158.5         -0.44270965    -0.14721734    -0.075079605   -1.105832       86.626156    
     34520   83.959924      158.5          158.5          158.5          0.45827557     0.30616134     0.43200097     0.6366644      83.959924    
     34540   85.692214      158.5          158.5          158.5          0.43019121    -0.030641664    0.78212497     0.53909032     85.692214    
     34560   83.386625      158.5          158.5          158.5         -0.37663771    -0.085165905   -0.89986806    -0.14487916     83.386625    
     34580   83.965485      158.5          158.5          158.5         -0.17742296     0.042909762   -0.19118932    -0.38398933     83.965485    
     34600   83.66964       158.5          158.5          158.5          0.23289163    -0.017339081    0.84391345    -0.12789947     83.66964     
     34620   83.374568      158.5          158.5          158.5         -0.14562264     0.030872995   -0.70017875     0.23243783     83.374568    
     34640   83.52738       158.5          158.5          158.5         -0.018866387   -0.12174807    -0.07974117     0.14489008     83.52738     
     34660   82.47975       158.5          158.5          158.5          0.33350473     0.06780001     0.67133903     0.26137516     82.47975     
     34680   83.496399      158.5          158.5          158.5         -0.20257706     0.10800846    -0.48028402    -0.23545562     83.496399    
     34700   83.02859       158.5          158.5          158.5         -0.37125254    -0.17612996    -0.28703595    -0.65059171     83.02859     
     34720   82.630603      158.5          158.5          158.5          0.3765201      0.096455527    0.53651076     0.496594       82.630603    
     34740   83.314277      158.5          158.5          158.5          0.15673079     0.093937363   -0.036328109    0.41258312     83.314277    
     34760   82.545016      158.5          158.5          158.5         -0.21205043    -0.17113841    -0.16597232    -0.29904056     82.545016    
     34780   83.469991      158.5          158.5          158.5          0.095135221    0.060099451    0.15543341     0.069872799    83.469991    
     34800   83.445551      158.5          158.5          158.5         -0.28992641     0.027966778   -0.22971448    -0.66803153     83.445551    
     34820   82.336308      158.5          158.5          158.5          0.11155733     0.055263701   -0.097971903    0.3773802      82.336308    
     34840   83.970995      158.5          158.5          158.5          0.23808332    -0.10321862     0.35862207     0.4588465      83.970995    
     34860   82.502204      158.5          158.5          158.5         -0.044322701   -0.078824708   -0.010244074   -0.043899321    82.502204    
     34880   83.990972      158.5          158.5          158.5         -0.041477489    0.17041396    -0.29200218    -0.0028442453   83.990972    
     34900   84.599618      158.5          158.5          158.5         -0.37801006    -0.013149384    0.017072669   -1.1379535      84.599618    
     34920   83.395671      158.5          158.5          158.5          0.2638504      0.0043780822  -0.075895372    0.86306848     83.395671    
     34940   86.216788      158.5          158.5          158.5         -0.17652612    -0.30019551    -0.023100856   -0.206282       86.216788    
     34960   83.295773      158.5          158.5          158.5          0.47443909     0.17363046     0.51981415     0.72987264     83.295773    
     34980   87.701283      158.5          158.5          158.5         -0.48641039    -0.11422107     0.01578365    -1.3607937      87.701283    
     35000   85.685211      158.5          158.5          158.5          0.064818519    0.054820841   -0.96147313     1.1011078      85.685211    
     35020   86.307376      158.5          158.5          158.5         -0.30998548    -0.20341922     0.37126055    -1.0977978      86.307376    
     35040   86.963299      158.5          158.5          158.5          0.69357071     0.33815579     0.78424412     0.95831223     86.963299    
     35060   85.480809      158.5          158.5          158.5         -0.71545831    -0.48656812    -0.64798618    -1.0118206      85.480809    
     35080   87.711241      158.5          158.5          158.5          0.44891066     0.21689462    -0.25304323     1.3828806      87.711241    
     35100   84.080859      158.5          158.5          158.5         -0.34044088     0.023780088   -0.10964228    -0.93546045     84.080859    
     35120   84.468999      158.5          158.5          158.5          0.014017121   -0.15156538     0.36093574    -0.167319       84.468999    
     35140   82.946145      158.5          158.5          158.5          0.30830244     0.06688617     0.41695836     0.44106278     82.946145    
     35160   82.58467       158.5          158.5          158.5         -0.16840119     0.073702529   -0.3960701     -0.18283601     82.58467     
     35180   84.798907      158.5          158.5          158.5         -0.07508819    -0.13784054    -0.23958838     0.15216435     84.798907    
     35200   82.370763      158.5          158.5          158.5          0.28934845     0.16117673     0.19019738     0.51667126     82.370763    
     35220   81.769514      158.5          158.5          158.5         -0.082493009    0.030955006   -0.10678078    -0.17165326     81.769514    
     35240   83.244599      158.5          158.5          158.5         -0.077478548   -0.18546679     0.099846739   -0.14681559     83.244599    
     35260   82.252329      158.5          158.5          158.5         -0.023093975    0.069884347    0.15507559    -0.29424186     82.252329    
     35280   82.305492      158.5          158.5          158.5          0.17658118     0.10389177     0.054647619    0.37120414     82.305492    
     35300   82.649335      158.5          158.5          158.5         -0.19200238    -0.16255441    -0.4474174      0.033964662    82.649335    
     35320   82.461992      158.5          158.5          158.5         -0.086246574    0.067256358    0.087054775   -0.41305085     82.461992    
     35340   82.88423       158.5          158.5          158.5          0.35644154     0.14295579     0.46678717     0.45958165     82.88423     
     35360   82.656179      158.5          158.5          158.5         -0.38262696    -0.31493531    -0.37988566    -0.45305989     82.656179    
     35380   82.650216      158.5          158.5          158.5          0.17556717     0.2084176      0.081863724    0.23642018     82.650216    
     35400   82.269097      158.5          158.5          158.5          0.084230965    0.13241414     0.016435117    0.10384364     82.269097    
     35420   82.915934      158.5          158.5          158.5         -0.37973772    -0.3593797     -0.34366225    -0.43617121     82.915934    
     35440   83.274312      158.5          158.5          158.5          0.48807303     0.25467207     0.68876755     0.52077948     83.274312    
     35460   82.353808      158.5          158.5          158.5         -0.20643046     0.041474711   -0.12696288    -0.53380321     82.353808    
     35480   83.161974      158.5          158.5          158.5         -0.36054035    -0.34635172    -0.76734765     0.03207831     83.161974    
     35500   84.789112      158.5          158.5          158.5          0.8387358      0.40819269     1.0949245      1.0130902      84.789112    
     35520   83.055969      158.5          158.5          158.5         -0.31769682    -0.013732327   -0.6720145     -0.26734363     83.055969    
     35540   83.699095      158.5          158.5          158.5         -0.34842035    -0.40191436    -0.67116455     0.027817867    83.699095    
     35560   84.637239      158.5          158.5          158.5          0.4926786      0.36365178     0.94359298     0.17079105     84.637239    
     35580   83.345327      158.5          158.5          158.5          0.2237154      0.078447042    0.5044183      0.088280843    83.345327    
     35600   85.61182       158.5          158.5          158.5         -0.68358075    -0.48489413    -1.3710456     -0.19480252     85.61182     
     35620   85.34616       158.5          158.5          158.5          0.36376873     0.31424554     0.6421695      0.13489114     85.34616     
     35640   82.715739      158.5          158.5          158.5         -0.02000611     0.016669761    0.57480175    -0.65148984     82.715739    
     35660   85.48529       158.5          158.5          158.5         -0.39097525    -0.28936532    -1.2239727      0.34041225     85.48529     
     35680   82.80488       158.5          158.5          158.5          0.31099809     0.056514605    0.82222043     0.054259246    82.80488     
     35700   83.251557      158.5          158.5          158.5          0.18190325     0.17458105     0.42366352    -0.052534831    83.251557    
     35720   84.236911      158.5          158.5          158.5         -0.68174163    -0.095203564   -1.3222607     -0.6277606      84.236911    
     35740   82.488082      158.5          158.5          158.5          0.1742292     -0.04996128     0.57587045    -0.0032215533   82.488082    
     35760   83.15117       158.5          158.5          158.5          0.4863457      0.15749169     0.70426019     0.59728523     83.15117     
     35780   82.912997      158.5          158.5          158.5         -0.33752685    -0.049164861   -0.86835968    -0.095056       82.912997    
     35800   82.679322      158.5          158.5          158.5         -0.12909354    -0.14005815     0.10588489    -0.35310735     82.679322    
     35820   83.185531      158.5          158.5          158.5          0.27513921     0.19399425     0.45444008     0.1769833      83.185531    
     35840   82.148623      158.5          158.5          158.5         -0.11627983    -0.032392062   -0.2705871     -0.045860326    82.148623    
     35860   83.046107      158.5          158.5          158.5         -0.22237212    -0.1892303     -0.39314744    -0.084738627    83.046107    
     35880   82.667484      158.5          158.5          158.5          0.24071221     0.18682732     0.18222481     0.3530845      82.667484    
     35900   82.90311       158.5          158.5          158.5          0.2445528      0.027115052    0.7723717     -0.065828358    82.90311     
     35920   82.955503      158.5          158.5          158.5         -0.42692851    -0.083370921   -0.84297632    -0.35443829     82.955503    
     35940   82.479686      158.5          158.5          158.5         -0.17282441    -0.14873594    -0.30938276    -0.060354536    82.479686    
     35960   83.132108      158.5          158.5          158.5          0.43351298     0.19173265     0.63667768     0.47212862     83.132108    
     35980   82.511299      158.5          158.5          158.5          0.29842577     0.19275152     0.56121144     0.14131433     82.511299    
     36000   83.241852      158.5          158.5          158.5         -0.36162948    -0.21348665    -0.4418394     -0.42956239     83.241852    
     36020   83.141629      158.5          158.5          158.5         -0.46826169    -0.30263003    -0.86448813    -0.23766691     83.141629    
     36040   83.100989      158.5          158.5          158.5          0.20176331     0.14055576     0.16870954     0.29602463     83.100989    
     36060   84.022706      158.5          158.5          158.5          0.69656573     0.42100831     1.1145872      0.55410169     84.022706    
     36080   82.970998      158.5          158.5          158.5          0.26066625     0.11314586     0.67082024    -0.0019673392   82.970998    
     36100   84.771868      158.5          158.5          158.5         -0.68753232    -0.41901524    -0.8538163     -0.78976543     84.771868    
     36120   83.090381      158.5          158.5          158.5         -0.43317948    -0.46263242    -0.57509421    -0.26181181     83.090381    
     36140   84.6064        158.5          158.5          158.5          0.11491631     0.31372452     0.050645729   -0.019621303    84.6064      
     36160   83.354405      158.5          158.5          158.5          0.67193496     0.49401186     0.99701156     0.52478146     83.354405    
     36180   84.284951      158.5          158.5          158.5          0.37222619    -0.030138536    0.81865144     0.32816567     84.284951    
     36200   84.741594      158.5          158.5          158.5         -0.89406224    -0.36612521    -1.5540797     -0.76198176     84.741594    
     36220   83.848679      158.5          158.5          158.5         -0.30994775    -0.23941597    -0.79169718     0.10126992     83.848679    
     36240   83.650533      158.5          158.5          158.5          0.51599612     0.21910851     0.65177691     0.67710294     83.650533    
     36260   84.148121      158.5          158.5          158.5          0.36420212     0.25460556     1.0494742     -0.2114734      84.148121    
     36280   82.96799       158.5          158.5          158.5         -0.20566153     0.02082646    -0.38822409    -0.24958697     82.96799     
     36300   83.670527      158.5          158.5          158.5         -0.25883109    -0.32734421    -0.44374129    -0.0054077558   83.670527    
     36320   82.946531      158.5          158.5          158.5         -0.082001816    0.078947991   -0.4864872      0.16153377     82.946531    
     36340   82.773096      158.5          158.5          158.5          0.39394226     0.16380398     0.82675163     0.19127118     82.773096    
     36360   82.834139      158.5          158.5          158.5          0.10340319    -0.010951744    0.3503669     -0.029205577    82.834139    
     36380   82.967054      158.5          158.5          158.5         -0.51635664    -0.12725941    -1.0680096     -0.35380089     82.967054    
     36400   82.618417      158.5          158.5          158.5          0.049105103   -0.062790532    0.1872065      0.022899344    82.618417    
     36420   83.680533      158.5          158.5          158.5          0.48629384     0.25945836     0.62008167     0.5793415      83.680533    
     36440   82.527175      158.5          158.5          158.5         -0.084021323   -0.12157665     0.11170672    -0.24219404     82.527175    
     36460   83.228332      158.5          158.5          158.5         -0.54450664    -0.10542847    -1.0131787     -0.51491268     83.228332    
     36480   82.832561      158.5          158.5          158.5          0.31972737     0.14654421     0.56065944     0.25197847     82.832561    
     36500   83.07258       158.5          158.5          158.5          0.39608412     0.014171136    0.79781889     0.37626233     83.07258     
     36520   83.936239      158.5          158.5          158.5         -0.56461488    -0.11455141    -1.3645893     -0.21470395     83.936239    
     36540   82.502573      158.5          158.5          158.5          0.12538798     0.0037613795   0.45418053    -0.081777961    82.502573    
     36560   84.155959      158.5          158.5          158.5          0.45357268     0.13287059     0.93836062     0.28948683     84.155959    
     36580   84.888465      158.5          158.5          158.5         -0.92594996    -0.20706192    -1.6244961     -0.9462919      84.888465    
     36600   82.813353      158.5          158.5          158.5          0.45358919     0.18529144     0.40534394     0.7701322      82.813353    
     36620   84.455392      158.5          158.5          158.5          0.54893159     0.10446542     1.4075735      0.13475587     84.455392    
     36640   84.906173      158.5          158.5          158.5         -0.70130757    -0.29096457    -1.5064876     -0.3064705      84.906173    
     36660   83.877807      158.5          158.5          158.5         -0.2426732     -0.0048583654  -0.0061619941  -0.71699924     83.877807    
     36680   84.856239      158.5          158.5          158.5          0.77402157     0.44800201     1.1578545      0.71620821     84.856239    
     36700   85.604361      158.5          158.5          158.5         -0.63377804    -0.52426162    -0.62105006    -0.75602246     85.604361    
     36720   82.798622      158.5          158.5          158.5         -0.029678722   -0.043740054   -0.046024957    0.00072884395  82.798622    
     36740   85.632635      158.5          158.5          158.5          0.53289351     0.51088201     0.70976444     0.37803408     85.632635    
     36760   84.114768      158.5          158.5          158.5         -0.47571639    -0.44080114    -0.82134151    -0.16500653     84.114768    
     36780   82.537343      158.5          158.5          158.5          0.063200125   -0.033153072    0.11616684     0.10658661     82.537343    
     36800   84.486142      158.5          158.5          158.5          0.16151923     0.30649748     0.44947109    -0.27141088     84.486142    
     36820   83.290655      158.5          158.5          158.5          0.043605326   -0.26289449    -0.0085020569   0.40221253     83.290655    
     36840   82.385473      158.5          158.5          158.5         -0.084490072    0.051288627   -0.17626058    -0.12849826     82.385473    
     36860   82.927397      158.5          158.5          158.5          0.01200783     0.17566543    -0.22656464     0.086922693    82.927397    
     36880   82.777249      158.5          158.5          158.5          0.091152841   -0.18372861    -0.0048196164   0.46200675     82.777249    
     36900   82.636487      158.5          158.5          158.5         -0.082542081    0.098367583    0.16524221    -0.51123604     82.636487    
     36920   81.733602      158.5          158.5          158.5          0.062965045    0.0024024461   0.23522329    -0.048730599    81.733602    
     36940   82.274459      158.5          158.5          158.5         -0.0017450963  -0.1492339     -0.16328799     0.30728661     82.274459    
     36960   83.122068      158.5          158.5          158.5         -0.12391075     0.16352661    -0.20734056    -0.32791831     83.122068    
     36980   81.932927      158.5          158.5          158.5          0.098401362    0.01348615     0.12873512     0.15298282     81.932927    
     37000   82.04017       158.5          158.5          158.5         -0.11789166    -0.19573534    -0.06309853    -0.094841118    82.04017     
     37020   82.136996      158.5          158.5          158.5          0.12576542     0.17286795     0.27832316    -0.073894846    82.136996    
     37040   82.616849      158.5          158.5          158.5          0.1088375     -0.027733857    0.084593515    0.26965285     82.616849    
     37060   82.57603       158.5          158.5          158.5         -0.31163404    -0.11004889    -0.7043237     -0.12052952     82.57603     
     37080   81.854559      158.5          158.5          158.5          0.22159958     0.20204178     0.27042497     0.192332       81.854559    
     37100   83.026756      158.5          158.5          158.5          0.17396992    -0.077010392    0.35702504     0.24189511     83.026756    
     37120   83.365015      158.5          158.5          158.5         -0.40174058    -0.15386888    -0.29377081    -0.75758206     83.365015    
     37140   82.851115      158.5          158.5          158.5          0.4640878      0.26637732     0.3598148      0.76607127     82.851115    
     37160   82.854287      158.5          158.5          158.5         -0.31156249    -0.22627393    -0.53044518    -0.17796835     82.854287    
     37180   82.477218      158.5          158.5          158.5          0.0034917151   0.053416308    0.18837038    -0.23131155     82.477218    
     37200   83.185103      158.5          158.5          158.5          0.44521516     0.21728083     0.49759335     0.62077128     83.185103    
     37220   82.911393      158.5          158.5          158.5         -0.37187534    -0.29736648    -0.22606329    -0.59219624     82.911393    
     37240   83.26469       158.5          158.5          158.5          0.094983847    0.10078021    -0.2252112      0.40938253     83.26469     
     37260   83.15417       158.5          158.5          158.5          0.037143378    0.05264259     0.65849796    -0.59971042     83.15417     
     37280   82.52855       158.5          158.5          158.5         -0.14878935    -0.066000414   -0.54955844     0.16919079     82.52855     
     37300   82.590517      158.5          158.5          158.5         -0.14840534    -0.08541765     0.013550122   -0.3733485      82.590517    
     37320   84.056418      158.5          158.5          158.5          0.64361281     0.31163581     0.62841731     0.99078532     84.056418    
     37340   85.591512      158.5          158.5          158.5         -0.79759531    -0.31872642    -0.83302351    -1.241036       85.591512    
     37360   83.519475      158.5          158.5          158.5          0.082830717    0.13328835    -0.087490219    0.20269402     83.519475    
     37380   82.967941      158.5          158.5          158.5          0.55164924     0.15968752     0.97732177     0.51793843     82.967941    
     37400   83.82317       158.5          158.5          158.5         -0.31060453    -0.18346784    -0.59262273    -0.15572302     83.82317     
     37420   83.458365      158.5          158.5          158.5         -0.33458299    -0.042545634   -0.66119686    -0.30000648     83.458365    
     37440   83.198827      158.5          158.5          158.5          0.44432924     0.20046228     0.89475819     0.23776725     83.198827    
     37460   82.650185      158.5          158.5          158.5          0.17390352    -0.012565894    0.39035903     0.14391744     82.650185    
     37480   83.916562      158.5          158.5          158.5         -0.58599169    -0.18370853    -1.2422004     -0.33206612     83.916562    
     37500   82.237537      158.5          158.5          158.5          0.021560603   -0.0041133191  -0.084371466    0.15316659     82.237537    
     37520   83.419266      158.5          158.5          158.5          0.53760529     0.14183699     1.149315       0.32166391     83.419266    
     37540   83.316973      158.5          158.5          158.5         -0.15276666     0.13694164    -0.22737036    -0.36787125     83.316973    
     37560   82.570092      158.5          158.5          158.5         -0.27178047    -0.21559278    -0.52762261    -0.072126029    82.570092    
     37580   83.547214      158.5          158.5          158.5          0.01032099    -0.15842605    -0.19601143     0.38540046     83.547214    
     37600   83.337124      158.5          158.5          158.5          0.0132979      0.20349287     0.11095844    -0.2745576      83.337124    
     37620   83.1035        158.5          158.5          158.5          0.3216504      0.26711248     0.68908979     0.0087489331   83.1035      
     37640   83.503042      158.5          158.5          158.5          0.24622584    -0.13068136     0.48880833     0.38055056     83.503042    
     37660   84.432909      158.5          158.5          158.5         -0.75252439    -0.2580274     -1.573094      -0.42645174     84.432909    
     37680   82.629613      158.5          158.5          158.5         -0.28273489    -0.15718061    -0.61567895    -0.075345104    82.629613    
     37700   84.92471       158.5          158.5          158.5          0.68377923     0.18865959     1.1436666      0.71901153     84.92471     
     37720   84.417894      158.5          158.5          158.5          0.23758887     0.43568839     0.5385739     -0.26149566     84.417894    
     37740   81.858595      158.5          158.5          158.5         -0.18600829     0.013164168   -0.34490539    -0.22628365     81.858595    
     37760   89.188706      158.5          158.5          158.5          0.13651451    -0.5525827      0.20655399     0.75557224     89.188706    
     37780   81.376303      158.5          158.5          158.5         -0.0030444391  -0.09836508    -0.018270883    0.10750264     81.376303    
     37800   87.501094      158.5          158.5          158.5         -0.03130075     0.49739933     0.27772581    -0.86902739     87.501094    
     37820   85.14336       158.5          158.5          158.5          0.87658442     0.32284139     1.39361        0.91330189     85.14336     
     37840   83.066924      158.5          158.5          158.5          0.015123795   -0.14136145    -0.27116093     0.45789376     83.066924    
     37860   87.303925      158.5          158.5          158.5         -1.1108209     -0.33497872    -2.155186      -0.84229789     87.303925    
     37880   83.651188      158.5          158.5          158.5          0.065644611   -0.21674065     0.16880887     0.24486562     83.651188    
     37900   83.926981      158.5          158.5          158.5          0.59452349     0.21939866     1.2502125      0.31395934     83.926981    
     37920   85.428605      158.5          158.5          158.5         -0.067735244    0.36577055    -0.13165983    -0.43731646     85.428605    
     37940   83.62139       158.5          158.5          158.5          0.063461627   -0.1824934     -0.045840407    0.41871869     83.62139     
     37960   83.455598      158.5          158.5          158.5         -0.24747437    -0.26547205    -0.63695759     0.16000654     83.455598    
     37980   84.616646      158.5          158.5          158.5         -0.32892812     0.050627146   -0.29098103    -0.74643047     84.616646    
     38000   83.321509      158.5          158.5          158.5          0.54388181     0.28599597     0.98798496     0.35766449     83.321509    
     38020   83.06747       158.5          158.5          158.5          0.31728672    -0.020649579    0.58016121     0.39234853     83.06747     
     38040   84.595562      158.5          158.5          158.5         -0.68877289    -0.14058239    -1.546553      -0.37918332     84.595562    
     38060   82.478092      158.5          158.5          158.5         -0.042282746   -0.14192952     0.10004101    -0.084959721    82.478092    
     38080   83.839139      158.5          158.5          158.5          0.50152666     0.20044127     0.98498586     0.31915284     83.839139    
     38100   83.63345       158.5          158.5          158.5         -0.14518854     0.09280776    -0.36094779    -0.1674256      83.63345     
     38120   83.340512      158.5          158.5          158.5         -0.3074667     -0.26529219    -0.60972012    -0.047387789    83.340512    
     38140   83.003463      158.5          158.5          158.5          0.20422708     0.050346452    0.31164852     0.25068628     83.003463    
     38160   84.8559        158.5          158.5          158.5          0.2081395      0.21883838     0.44772556    -0.042145432    84.8559      
     38180   82.742923      158.5          158.5          158.5         -0.27667295    -0.09825752    -0.42095089    -0.31081045     82.742923    
     38200   83.404685      158.5          158.5          158.5         -0.14914356    -0.16486074    -0.17063945    -0.1119305      83.404685    
     38220   85.71718       158.5          158.5          158.5          0.45050679     0.26063658     0.30654185     0.78434193     85.71718     
     38240   83.265827      158.5          158.5          158.5         -0.1631679     -0.1903273      0.087100794   -0.3862772      83.265827    
     38260   82.865155      158.5          158.5          158.5         -0.11315702     0.087747211   -0.19546937    -0.23174891     82.865155    
     38280   84.126768      158.5          158.5          158.5          0.11144896     0.20135342    -0.28560683     0.41860029     84.126768    
     38300   85.042106      158.5          158.5          158.5         -0.48867345    -0.48236894     0.18906735    -1.1727187      85.042106    
     38320   85.173995      158.5          158.5          158.5          0.74827764     0.49898108     0.15883498     1.5870169      85.173995    
     38340   85.927399      158.5          158.5          158.5         -0.7766946     -0.51091169     0.067509147   -1.8866812      85.927399    
     38360   84.421639      158.5          158.5          158.5          0.44249152     0.43141005    -0.27357137     1.1696359      84.421639    
     38380   84.505762      158.5          158.5          158.5         -0.55377208    -0.30318692    -0.11535144    -1.2427779      84.505762    
     38400   84.133141      158.5          158.5          158.5          0.50909586     0.31796095     0.12991034     1.0794163      84.133141    
     38420   84.239694      158.5          158.5          158.5         -0.46325125    -0.49215365     0.14734206    -1.0449422      84.239694    
     38440   83.853073      158.5          158.5          158.5          0.55985789     0.35039432     0.23468369     1.0944957      83.853073    
     38460   84.913741      158.5          158.5          158.5         -0.63437459    -0.26088868    -0.67243024    -0.96980484     84.913741    
     38480   83.885263      158.5          158.5          158.5          0.3953685      0.26251951     0.25919105     0.66439494     83.885263    
     38500   82.943074      158.5          158.5          158.5         -0.16905128    -0.17488642    -0.021245728   -0.31102168     82.943074    
     38520   81.667696      158.5          158.5          158.5         -0.019794448   -0.1025241      0.11994497    -0.076804215    81.667696    
     38540   82.441984      158.5          158.5          158.5          0.35936661     0.23826237     0.5139551      0.32588236     82.441984    
     38560   83.641383      158.5          158.5          158.5         -0.32597464    -0.10010113    -0.74454377    -0.13327902     83.641383    
     38580   81.998515      158.5          158.5          158.5         -0.026256423   -0.037607292   -0.26082134     0.21965936     81.998515    
     38600   82.222232      158.5          158.5          158.5          0.3663143      0.29355154     0.59814201     0.20724935     82.222232    
     38620   83.460953      158.5          158.5          158.5         -0.38826052    -0.31933578    -0.25996634    -0.58547944     83.460953    
     38640   82.457016      158.5          158.5          158.5          0.17721376    -0.070165492    0.264371       0.33743576     82.457016    
     38660   82.369553      158.5          158.5          158.5          0.15203409     0.32210891     0.12455872     0.0094346261   82.369553    
     38680   82.975553      158.5          158.5          158.5         -0.45345896    -0.23479576    -0.73411921    -0.39146192     82.975553    
     38700   82.831297      158.5          158.5          158.5          0.30039218     0.0084097998   0.32505613     0.56771062     82.831297    
     38720   83.641004      158.5          158.5          158.5          0.12339848     0.24442991     0.36969296    -0.24392743     83.641004    
     38740   81.807626      158.5          158.5          158.5         -0.33431558    -0.395273      -0.28300209    -0.32467165     81.807626    
     38760   83.574835      158.5          158.5          158.5          0.23440044     0.13557343     0.010649791    0.55697809     83.574835    
     38780   84.249042      158.5          158.5          158.5          0.016598868    0.37595296    -0.13898484    -0.18717152     84.249042    
     38800   83.399994      158.5          158.5          158.5         -0.30334464    -0.5412124     -0.12420544    -0.24461607     83.399994    
     38820   83.481409      158.5          158.5          158.5          0.29897855     0.14633021     0.66439126     0.08621419     83.481409    
     38840   83.255044      158.5          158.5          158.5          0.2128683      0.3701463      0.2840351     -0.015576511    83.255044    
     38860   87.939176      158.5          158.5          158.5         -0.43203984    -0.50294521    -1.1659721      0.37279775     87.939176    
     38880   82.904976      158.5          158.5          158.5         -0.022667333    0.22988717    -0.10174918    -0.19613999     82.904976    
     38900   84.753738      158.5          158.5          158.5          0.50107774     0.46032046     0.88155063     0.16136214     84.753738    
     38920   88.175248      158.5          158.5          158.5         -0.36783227    -0.82194526    -0.094925784   -0.18662577     88.175248    
     38940   83.937621      158.5          158.5          158.5         -0.2363194      0.1017933     -0.15368731    -0.65706419     83.937621    
     38960   86.805058      158.5          158.5          158.5          0.64559824     0.7151099      0.48141496     0.74026987     86.805058    
     38980   84.428488      158.5          158.5          158.5         -0.54954917    -0.75757712    -0.91530297     0.024232571    84.428488    
     39000   85.413599      158.5          158.5          158.5          0.026696168    0.29250329     0.17616238    -0.38857717     85.413599    
     39020   84.340792      158.5          158.5          158.5          0.58198345     0.38133203     0.66869683     0.69592151     84.340792    
     39040   84.814104      158.5          158.5          158.5         -0.74361865    -0.80099743    -0.87263416    -0.55722435     84.814104    
     39060   83.34779       158.5          158.5          158.5          0.50976277     0.58945826     0.3858465      0.55398356     83.34779     
     39080   82.473265      158.5          158.5          158.5         -0.034213826    0.10039354    -0.010483441   -0.19255158     82.473265    
     39100   83.119621      158.5          158.5          158.5         -0.3500611     -0.44096618    -0.15409573    -0.45512137     83.119621    
     39120   83.110677      158.5          158.5          158.5          0.52454718     0.30045562     0.55584624     0.71733968     83.110677    
     39140   82.692182      158.5          158.5          158.5         -0.22361265    -0.13102202    -0.1099651     -0.42985082     82.692182    
     39160   83.22035       158.5          158.5          158.5         -0.098547371    0.061998865   -0.62977393     0.27213295     83.22035     
     39180   82.910217      158.5          158.5          158.5          0.046387402   -0.0084755184   0.51956241    -0.37192468     82.910217    
     39200   82.538102      158.5          158.5          158.5          0.28964483     0.15844529     0.2188651      0.4916241      82.538102    
     39220   82.795693      158.5          158.5          158.5         -0.34549265    -0.26181738    -0.48364012    -0.29102046     82.795693    
     39240   82.421662      158.5          158.5          158.5          0.12060714     0.12492703     0.14233654     0.094557843    82.421662    
     39260   82.494227      158.5          158.5          158.5          0.1500602      0.075544541    0.29821158     0.076424493    82.494227    
     39280   82.774683      158.5          158.5          158.5         -0.26282817    -0.20407015    -0.37366591    -0.21074845     82.774683    
     39300   82.51074       158.5          158.5          158.5          0.29737784     0.22750897     0.19226992     0.47235463     82.51074     
     39320   83.136867      158.5          158.5          158.5         -0.16490222    -0.089459003    0.26618526    -0.67143293     83.136867    
     39340   82.948222      158.5          158.5          158.5         -0.029837847    0.088608447   -0.632553       0.45443101     82.948222    
     39360   83.243959      158.5          158.5          158.5         -0.14858804    -0.31110505     0.34271979    -0.47737884     83.243959    
     39380   82.922613      158.5          158.5          158.5          0.49752253     0.290681       0.46503823     0.73684836     82.922613    
     39400   83.029826      158.5          158.5          158.5         -0.33294905     0.046319446   -0.70594694    -0.33921967     83.029826    
     39420   82.841199      158.5          158.5          158.5         -0.099649282   -0.096608776    0.2062164     -0.40855547     82.841199    
     39440   84.745538      158.5          158.5          158.5          0.50786965     0.18233673     0.64557985     0.69569238     84.745538    
     39460   86.963408      158.5          158.5          158.5         -0.9339722     -0.52938985    -1.3283144     -0.94421232     86.963408    
     39480   84.379388      158.5          158.5          158.5          0.5332234      0.49939034     0.42052573     0.67975412     84.379388    
     39500   84.647515      158.5          158.5          158.5          0.81810381     0.15091956     1.7706203      0.53277158     84.647515    
     39520   87.95807       158.5          158.5          158.5         -1.0953748     -0.44030047    -2.1665226     -0.67930135     87.95807     
     39540   84.4083        158.5          158.5          158.5         -0.47363557    -0.37247079    -0.47191222    -0.57652369     84.4083      
     39560   86.983821      158.5          158.5          158.5          1.1605092      0.83586768     1.8960129      0.74964697     86.983821    
     39580   83.519216      158.5          158.5          158.5          0.62121513     0.27252723     1.0855358      0.50558231     83.519216    
     39600   86.446275      158.5          158.5          158.5         -1.1944541     -0.67865493    -2.1882408     -0.71646645     86.446275    
     39620   83.76835       158.5          158.5          158.5         -0.48513967    -0.48287039    -0.68977818    -0.28277045     83.76835     
     39640   84.337992      158.5          158.5          158.5          0.85089887     0.48355164     1.5132341      0.55591085     84.337992    
     39660   85.248751      158.5          158.5          158.5          0.5101114      0.69756721     0.83829789    -0.0055309055   85.248751    
     39680   82.375759      158.5          158.5          158.5         -0.1660168     -0.1588005     -0.38286854     0.043618637    82.375759    
     39700   85.136495      158.5          158.5          158.5         -0.61257407    -0.85317104    -0.88202594    -0.10252522     85.136495    
     39720   82.670586      158.5          158.5          158.5         -0.35780812    -0.11570118    -0.50808856    -0.44963461     82.670586    
     39740   83.6503        158.5          158.5          158.5          0.58995404     0.52391434     0.96436842     0.28157937     83.6503      
     39760   83.903264      158.5          158.5          158.5          0.65882439     0.52680174     0.91332069     0.53635075     83.903264    
     39780   82.630034      158.5          158.5          158.5         -0.28296121    -0.25396693    -0.31230499    -0.28261172     82.630034    
     39800   84.138886      158.5          158.5          158.5         -0.75305269    -0.61271915    -1.0021063     -0.64433262     84.138886    
     39820   82.696177      158.5          158.5          158.5          0.073515802   -0.23590398     0.065335056    0.39111633     82.696177    
     39840   83.715352      158.5          158.5          158.5          0.36782891     0.60534231     0.5022372     -0.0040927728   83.715352    
     39860   82.884511      158.5          158.5          158.5          0.45047341     0.42944307     0.55579986     0.36617731     82.884511    
     39880   82.497128      158.5          158.5          158.5         -0.19162998    -0.30558304    -0.07295183    -0.19635506     82.497128    
     39900   83.826058      158.5          158.5          158.5         -0.59694062    -0.70526857    -0.75098859    -0.3345647      83.826058    
     39920   82.19713       158.5          158.5          158.5         -0.20656071     0.056434849    0.023529377   -0.69964636     82.19713     
     39940   83.422887      158.5          158.5          158.5          0.71071978     0.55881712     0.87062658     0.70271563     83.422887    
     39960   83.135586      158.5          158.5          158.5          0.42523481     0.42828718     0.54228581     0.30513145     83.135586    
     39980   83.498734      158.5          158.5          158.5         -0.49654614    -0.44809265    -0.80409844    -0.23744734     83.498734    
     40000   84.224973      158.5          158.5          158.5         -0.70852573    -0.61893983    -1.0900699     -0.41656744     84.224973    
     40020   82.843794      158.5          158.5          158.5          0.23669861    -0.080853737    0.51853256     0.27241702     82.843794    
     40040   84.819249      158.5          158.5          158.5          0.52039702     0.76998        0.82516128    -0.03395021     84.819249    
     40060   83.055222      158.5          158.5          158.5          0.43389898     0.27465692     0.81156996     0.21547006     83.055222    
     40080   84.134772      158.5          158.5          158.5         -0.43677273    -0.43059756    -0.99466139     0.11494076     84.134772    
     40100   84.567153      158.5          158.5          158.5         -0.76874664    -0.68423093    -1.0723971     -0.54961194     84.567153    
     40120   83.45117       158.5          158.5          158.5          0.36603212     0.55748676     0.38385884     0.15675075     83.45117     
     40140   85.577431      158.5          158.5          158.5          0.95050882     0.25428753     2.0783537      0.51888527     85.577431    
     40160   84.483128      158.5          158.5          158.5         -0.52453263     0.14459116    -1.5668387     -0.15135033     84.483128    
     40180   85.062473      158.5          158.5          158.5         -0.66065895    -0.91662407    -0.50513857    -0.56021422     85.062473    
     40200   84.50404       158.5          158.5          158.5          0.65448314     0.59288607     0.95436717     0.41619618     84.50404     
     40220   83.158448      158.5          158.5          158.5          0.076391063    0.43717747    -0.22198546     0.013981178    83.158448    
     40240   85.470709      158.5          158.5          158.5         -0.58584117    -0.86904824    -0.60172114    -0.28675415     85.470709    
     40260   83.05542       158.5          158.5          158.5          0.44915304     0.21289692     0.48077246     0.65378973     83.05542     
     40280   85.554711      158.5          158.5          158.5         -0.095551491    0.2133584      0.31145294    -0.81146581     85.554711    
     40300   83.690098      158.5          158.5          158.5         -0.075710317    0.3369001     -0.86404241     0.30001136     83.690098    
     40320   84.208508      158.5          158.5          158.5         -0.32158995    -0.58716084     0.071808836   -0.44941784     84.208508    
     40340   83.930946      158.5          158.5          158.5          0.49370944     0.14688256     0.5130892      0.82115655     83.930946    
     40360   83.512554      158.5          158.5          158.5         -0.35952702    -0.2133971     -0.18635009    -0.67883387     83.512554    
     40380   84.462564      158.5          158.5          158.5          0.17875596     0.35214328    -0.13832045     0.32244506     84.462564    
     40400   82.971705      158.5          158.5          158.5         -0.11993559    -0.11680708     0.3356301     -0.57862978     82.971705    
     40420   84.472312      158.5          158.5          158.5          0.073279955    0.081432828   -0.45528065     0.59368768     84.472312    
     40440   83.569959      158.5          158.5          158.5         -0.30233307    -0.33418923     0.023778398   -0.59658839     83.569959    
     40460   83.234416      158.5          158.5          158.5          0.45408806     0.32552191     0.39474008     0.64200219     83.234416    
     40480   84.623385      158.5          158.5          158.5         -0.36573122    -0.384079      -0.15864378    -0.55447088     84.623385    
     40500   82.580906      158.5          158.5          158.5          0.16455511     0.19846809    -0.22435487     0.51955211     82.580906    
     40520   85.008179      158.5          158.5          158.5         -0.13609766     0.013483737    0.26820247    -0.68997917     85.008179    
     40540   82.825122      158.5          158.5          158.5          0.18382624     0.19649577    -0.04499145     0.39997439     82.825122    
     40560   84.92802       158.5          158.5          158.5         -0.39405179    -0.58468236    -0.27817893    -0.31929409     84.92802     
     40580   83.575042      158.5          158.5          158.5          0.58258404     0.44236321     0.37649408     0.92889484     83.575042    
     40600   84.786449      158.5          158.5          158.5         -0.52067426    -0.11183002    -0.30115781    -1.149035       84.786449    
     40620   82.749301      158.5          158.5          158.5         -0.056951274   -0.10589019     0.02508156    -0.090045194    82.749301    
     40640   84.469456      158.5          158.5          158.5          0.55075262     0.12150089     0.52749658     1.0032604      84.469456    
     40660   82.464641      158.5          158.5          158.5         -0.23313556    -0.012193065   -0.35746687    -0.32974675     82.464641    
     40680   85.464215      158.5          158.5          158.5         -0.32747087    -0.069017931   -0.47293506    -0.44045963     85.464215    
     40700   84.767348      158.5          158.5          158.5          0.52716335     0.14538807     0.35838359     1.0777184      84.767348    
     40720   82.087758      158.5          158.5          158.5         -0.0029447266  -0.05183924     0.22365099    -0.18064593     82.087758    
     40740   87.38466       158.5          158.5          158.5         -0.55364615    -0.052561397   -0.19405051    -1.4143265      87.38466     
     40760   82.719469      158.5          158.5          158.5          0.21557467    -0.081061741    0.40784855     0.3199372      82.719469    
     40780   84.251963      158.5          158.5          158.5          0.37111232     0.060731304    0.12442516     0.92818049     84.251963    
     40800   85.261089      158.5          158.5          158.5         -0.53659984     0.14747462    -0.82738332    -0.92989083     85.261089    
     40820   82.813047      158.5          158.5          158.5         -0.03502013    -0.1639569      0.15231186    -0.093415348    82.813047    
     40840   83.971103      158.5          158.5          158.5          0.59727328    -0.087474874    0.72781425     1.1514805      83.971103    
     40860   83.197653      158.5          158.5          158.5         -0.075746034    0.45959954    -0.25923813    -0.42759951     83.197653    
     40880   83.948998      158.5          158.5          158.5         -0.62175617    -0.37535387    -0.87790229    -0.61201234     83.948998    
     40900   83.466349      158.5          158.5          158.5          0.46042561    -0.12819277     0.47988972     1.0295799      83.466349    
     40920   83.714329      158.5          158.5          158.5          0.34670444     0.68078786     0.42535459    -0.066029129    83.714329    
     40940   84.282723      158.5          158.5          158.5         -0.79298324    -0.72732154    -0.4762728     -1.1753554      84.282723    
     40960   82.896998      158.5          158.5          158.5          0.25739885    -0.0097676897   0.10798673     0.67397752     82.896998    
     40980   84.105836      158.5          158.5          158.5          0.58256524     0.84493549     0.31876421     0.58399603     84.105836    
     41000   84.259906      158.5          158.5          158.5         -0.83766791    -0.88679695    -0.60347231    -1.0227345      84.259906    
     41020   82.771849      158.5          158.5          158.5          0.067778439   -0.037732813    0.31216977    -0.071101639    82.771849    
     41040   84.312181      158.5          158.5          158.5          0.8617237      0.82193261     0.82107791     0.94216059     84.312181    
     41060   84.33367       158.5          158.5          158.5         -0.71794262    -0.75504216    -1.0294825     -0.36930325     84.33367     
     41080   82.87115       158.5          158.5          158.5         -0.3772983      0.091938303   -0.54403463    -0.67979856     82.87115     
     41100   84.782983      158.5          158.5          158.5          0.92330822     0.64080196     0.9970614      1.1320613      84.782983    
     41120   83.413024      158.5          158.5          158.5         -0.17476914    -0.70886818     0.018184438    0.16637632     83.413024    
     41140   84.078751      158.5          158.5          158.5         -0.67143975    -0.053978403   -0.50761152    -1.4527293      84.078751    
     41160   84.928447      158.5          158.5          158.5          0.54321547     0.39428238     0.30678788     0.92857614     84.928447    
     41180   83.533492      158.5          158.5          158.5          0.38979432     0.10776619     0.2307387      0.83087809     83.533492    
     41200   84.764568      158.5          158.5          158.5         -0.80800444    -0.25401514    -0.58675326    -1.5832449      84.764568    
     41220   83.62234       158.5          158.5          158.5          0.18234566     0.052400531    0.30859299     0.18604345     83.62234     
     41240   85.634855      158.5          158.5          158.5          0.52088044     0.0068788863   0.7700231      0.78573932     85.634855    
     41260   83.234347      158.5          158.5          158.5         -0.32139053    -0.071510439   -0.7064398     -0.18622134     83.234347    
     41280   84.530263      158.5          158.5          158.5         -0.2959012      0.1362895     -0.72331819    -0.30067489     84.530263    
     41300   85.068436      158.5          158.5          158.5          0.38192169     0.10068216     0.87444729     0.17063561     85.068436    
     41320   84.812694      158.5          158.5          158.5          0.21494317    -0.1445559      0.22643686     0.56294854     84.812694    
     41340   83.459218      158.5          158.5          158.5         -0.63716252    -0.46110917    -0.65740551    -0.79297288     83.459218    
     41360   86.227833      158.5          158.5          158.5          0.58227452     0.77337268     0.31636324     0.65708763     86.227833    
     41380   82.785517      158.5          158.5          158.5         -0.39722771    -0.34081976    -0.19367273    -0.65719064     82.785517    
     41400   85.323661      158.5          158.5          158.5          0.017165294   -0.10849851    -0.14684728     0.30684167     85.323661    
     41420   84.112527      158.5          158.5          158.5          0.27068543     0.076404774    0.93906651    -0.20341499     84.112527    
     41440   83.676665      158.5          158.5          158.5          0.054148972    0.20159451    -0.50983922     0.47069163     83.676665    
     41460   84.386246      158.5          158.5          158.5         -0.67420649    -0.4439023     -1.0022775     -0.57643961     84.386246    
     41480   83.850017      158.5          158.5          158.5          0.65595359     0.50531611     0.93338476     0.52915989     83.850017    
     41500   84.325172      158.5          158.5          158.5         -0.0018980422   0.0060980217   0.38953596    -0.40132811     84.325172    
     41520   83.238094      158.5          158.5          158.5         -0.29725047    -0.114286      -0.82127519     0.043809782    83.238094    
     41540   85.199838      158.5          158.5          158.5          0.13498994    -0.035906973    0.36467483     0.07620195     85.199838    
     41560   82.838994      158.5          158.5          158.5          0.056449354   -0.12253158     0.024064485    0.26781516     82.838994    
     41580   84.796956      158.5          158.5          158.5         -0.40742904    -0.18027336    -0.69639799    -0.34561577     84.796956    
     41600   84.594682      158.5          158.5          158.5          0.58751806     0.6450253      1.0005924      0.11693648     84.594682    
     41620   82.79074       158.5          158.5          158.5          0.039791486    0.018017672    0.27891192    -0.17755513     82.79074     
     41640   86.524738      158.5          158.5          158.5         -0.74540391    -0.69032189    -1.6318628      0.085972954    86.524738    
     41660   82.99236       158.5          158.5          158.5          0.30438438     0.0056783439   0.85545849     0.052016296    82.99236     
     41680   85.489806      158.5          158.5          158.5          0.61395234     0.9288342      0.71314213     0.19988069     85.489806    
     41700   84.080829      158.5          158.5          158.5         -0.57978234    -0.2676664     -1.0831157     -0.38856487     84.080829    
     41720   85.395212      158.5          158.5          158.5          0.027813487   -0.69509729     0.4733063      0.30523145     85.395212    
     41740   83.91956       158.5          158.5          158.5          0.27546771     0.44063313     0.38229834     0.00347165     83.91956     
     41760   84.909975      158.5          158.5          158.5         -0.58076657     0.21399413    -1.265177      -0.69111681     84.909975    
     41780   85.913809      158.5          158.5          158.5          0.26001712    -0.69954432     0.91112626     0.56846944     85.913809    
     41800   83.341154      158.5          158.5          158.5          0.43052646     0.71229072     0.21808203     0.36120663     83.341154    
     41820   83.268148      158.5          158.5          158.5         -0.33740788    -0.0069255012  -0.66809111    -0.33720703     83.268148    
     41840   84.748408      158.5          158.5          158.5         -0.33022374    -0.83319407     0.22009008    -0.37756724     84.748408    
     41860   84.734435      158.5          158.5          158.5          0.24394846     0.91833677    -0.3388189      0.15232752     84.734435    
     41880   85.431114      158.5          158.5          158.5          0.4477875     -0.31516629     1.1630811      0.4954477      85.431114    
     41900   84.616499      158.5          158.5          158.5         -0.43632042     0.28809081    -1.2285013     -0.36855075     84.616499    
     41920   84.858215      158.5          158.5          158.5         -0.24315096    -0.85862996     0.27733879    -0.1481617      84.858215    
     41940   83.732044      158.5          158.5          158.5          0.076911557    0.3934095     -0.2761529      0.11347807     83.732044    
     41960   84.646594      158.5          158.5          158.5          0.26977904     0.10657766     0.65731786     0.045441611    84.646594    
     41980   83.836351      158.5          158.5          158.5         -0.0062532215   0.34177758    -0.40400685     0.043469612    83.836351    
     42000   84.000271      158.5          158.5          158.5         -0.10006902    -0.69557094     0.10187822     0.29348567     84.000271    
     42020   83.992823      158.5          158.5          158.5         -0.44780397    -0.08954869    -0.4526697     -0.80119354     83.992823    
     42040   83.212933      158.5          158.5          158.5          0.23664463     0.086014306    0.3033331      0.32058647     83.212933    
     42060   83.925847      158.5          158.5          158.5          0.34678332     0.46823094     0.22136165     0.35075737     83.925847    
     42080   82.209544      158.5          158.5          158.5          0.049832394   -0.064661644    0.0043736993   0.20978513     82.209544    
     42100   84.289809      158.5          158.5          158.5         -0.55265383    -0.26750299    -0.15224322    -1.2382153      84.289809    
     42120   83.970057      158.5          158.5          158.5          0.063793934   -0.40096018     0.0045774398   0.58776454     83.970057    
     42140   82.632316      158.5          158.5          158.5          0.14476236     0.28706038     0.24965016    -0.10242345     82.632316    
     42160   84.781141      158.5          158.5          158.5          0.14331129     0.42402761    -0.039722837    0.04562908     84.781141    
     42180   83.048121      158.5          158.5          158.5         -0.016623675   -0.19251448    -0.071490994    0.21413445     83.048121    
     42200   83.953612      158.5          158.5          158.5         -0.18002459    -0.51034936    -0.19996536     0.17024094     83.953612    
     42220   84.110089      158.5          158.5          158.5         -0.45939356    -0.077712274   -0.12737812    -1.1730903      84.110089    
     42240   82.851323      158.5          158.5          158.5          0.48164052     0.45939029     0.33235167     0.65317959     82.851323    
     42260   84.46368       158.5          158.5          158.5          0.46999407     0.24936383     0.52209677     0.6385216      84.46368     
     42280   82.412537      158.5          158.5          158.5         -0.20311897     0.08940148    -0.4120386     -0.28671978     82.412537    
     42300   84.428622      158.5          158.5          158.5         -0.57775073    -0.58343598    -0.1930804     -0.95673582     84.428622    
     42320   84.282734      158.5          158.5          158.5          0.23181594    -0.086734519    0.1027445      0.67943783     84.282734    
     42340   82.983114      158.5          158.5          158.5          0.22058054     0.40417368     0.41386592    -0.15629796     82.983114    
     42360   85.389104      158.5          158.5          158.5          0.12200789     0.58310909    -0.32788482     0.1107994      85.389104    
     42380   83.331233      158.5          158.5          158.5         -0.085024449   -0.83474466     0.1048469      0.47482441     83.331233    
     42400   85.145993      158.5          158.5          158.5         -0.33364112    -0.17011751    -0.44669419    -0.38411167     85.145993    
     42420   84.073091      158.5          158.5          158.5         -0.18357824     0.1767114      0.28042584    -1.007872       84.073091    
     42440   84.699627      158.5          158.5          158.5          0.71694528     0.75781465     0.36680309     1.0262181      84.699627    
     42460   84.912706      158.5          158.5          158.5          0.10029754    -0.49787665     0.48354864     0.31522063     84.912706    
     42480   83.743707      158.5          158.5          158.5         -0.47394886     0.077841999   -1.1147545     -0.38493406     83.743707    
     42500   85.752474      158.5          158.5          158.5         -0.28722189    -0.55988463     0.44753549    -0.74931653     85.752474    
     42520   84.521426      158.5          158.5          158.5          0.53206161     0.71888223    -0.021736171    0.89903877     84.521426    
     42540   84.502106      158.5          158.5          158.5         -0.084763088   -0.28380625     0.46544571    -0.43592872     84.502106    
     42560   85.153352      158.5          158.5          158.5         -0.10693955     0.19470819    -0.95714807     0.44162124     85.153352    
     42580   84.089082      158.5          158.5          158.5         -0.29188512    -1.0178125      0.3130611     -0.17090392     84.089082    
     42600   85.326067      158.5          158.5          158.5          0.10008871     0.80035782    -0.27887461    -0.22121709     85.326067    
     42620   84.058759      158.5          158.5          158.5          0.098584535   -0.11854595     0.70436442    -0.29006486     84.058759    
     42640   84.707883      158.5          158.5          158.5          0.17503835     0.31608375    -0.44764617     0.65667746     84.707883    
     42660   84.541166      158.5          158.5          158.5         -0.45259572    -0.94296248    -0.086778059   -0.3280466      84.541166    
     42680   83.842653      158.5          158.5          158.5         -0.017790281    0.35399384    -0.43230081     0.024936124    83.842653    
     42700   84.811693      158.5          158.5          158.5          0.14884214    -0.086083439    0.72952836    -0.19691852     84.811693    
     42720   83.525129      158.5          158.5          158.5          0.13295556     0.63138729    -0.32913088     0.096610285    83.525129    
     42740   84.446638      158.5          158.5          158.5         -0.28025472    -0.7227327      0.017222153   -0.13525361     84.446638    
     42760   83.413854      158.5          158.5          158.5          0.042181009   -0.14668426    -0.48577996     0.75900725     83.413854    
     42780   84.154871      158.5          158.5          158.5         -0.16940068     0.025070262    0.36557307    -0.89884539     84.154871    
     42800   84.875591      158.5          158.5          158.5          0.23093386     0.56457953     0.027674369    0.10054768     84.875591    
     42820   83.410133      158.5          158.5          158.5          0.13451918    -0.20623914     0.40586384     0.20393285     83.410133    
     42840   84.878244      158.5          158.5          158.5         -0.18773556    -0.26721732    -0.63794512     0.34195575     84.878244    
     42860   84.197257      158.5          158.5          158.5         -0.50451325    -0.30289306    -0.43967606    -0.77097061     84.197257    
     42880   85.200892      158.5          158.5          158.5          0.39237135     0.058015472    0.36132888     0.75776971     85.200892    
     42900   84.818706      158.5          158.5          158.5          0.08277002     0.38365018     0.34932678    -0.4846669      84.818706    
     42920   84.527568      158.5          158.5          158.5         -0.15828342     0.028184321   -0.14920255    -0.35383202     84.527568    
     42940   86.185457      158.5          158.5          158.5         -0.062912293   -0.33089584    -0.5446471      0.68680607     86.185457    
     42960   82.84957       158.5          158.5          158.5          0.028734843   -0.34604553    -0.019770844    0.4520209      82.84957     
     42980   86.203313      158.5          158.5          158.5         -0.31535303     0.54543839     0.10657962    -1.5980771      86.203313    
     43000   84.011301      158.5          158.5          158.5          0.59093644     0.18516659     0.50716315     1.0804796      84.011301    
     43020   83.527006      158.5          158.5          158.5          0.064407794    0.17362626    -0.31439521     0.33399233     83.527006    
     43040   86.41955       158.5          158.5          158.5         -0.59437217    -0.74751778    -0.21545531    -0.82014344     86.41955     
     43060   82.71477       158.5          158.5          158.5         -0.13449212     0.16949974    -0.22270871    -0.35026739     82.71477     
     43080   86.427037      158.5          158.5          158.5          0.48389262    -0.21925928     0.49959005     1.1713471      86.427037    
     43100   83.932565      158.5          158.5          158.5         -0.27255935     0.64107855    -0.14202222    -1.3167344      83.932565    
     43120   85.112583      158.5          158.5          158.5         -0.098823222   -0.759725      -0.10934875     0.57260409     85.112583    
     43140   84.13868       158.5          158.5          158.5         -0.028299971    0.35204562    -0.59642304     0.1594775      84.13868     
     43160   83.237161      158.5          158.5          158.5          0.15779706     0.0059056931   0.43829995     0.029185535    83.237161    
     43180   83.45185       158.5          158.5          158.5          0.073163374    0.42801788     0.14404818    -0.35257595     83.45185     
     43200   82.669741      158.5          158.5          158.5          0.0088096703  -0.38468147     0.12759689     0.28351358     82.669741    
     43220   81.879049      158.5          158.5          158.5         -0.19472731    -0.26347353    -0.12585161    -0.19485679     81.879049    
     43240   82.680679      158.5          158.5          158.5          0.1820817      0.63797531     0.0037536239  -0.095483823    82.680679    
     43260   83.205951      158.5          158.5          158.5          0.35193417    -0.30503287     0.46861528     0.8922201      83.205951    
     43280   84.10979       158.5          158.5          158.5         -0.48539817     0.22943236    -0.66301847    -1.0226084      84.10979     
     43300   83.440373      158.5          158.5          158.5         -0.074790151   -0.79442339     0.46624875     0.10380419     83.440373    
     43320   84.07988       158.5          158.5          158.5          0.31121343     0.90214198    -0.34591895     0.37741726     84.07988     
     43340   82.570722      158.5          158.5          158.5          0.17577265    -0.16423469     0.52655437     0.16499828     82.570722    
     43360   82.971219      158.5          158.5          158.5         -0.42447003    -0.33364423    -0.40539069    -0.53437518     82.971219    
     43380   82.723552      158.5          158.5          158.5         -0.015165873    0.16423621    -0.33821304     0.12847921     82.723552    
     43400   83.635618      158.5          158.5          158.5          0.44642398    -0.094266354    1.1295303      0.30400803     83.635618    
     43420   84.155705      158.5          158.5          158.5         -0.19145844     0.72891698    -1.0095096     -0.29378266     84.155705    
     43440   84.419923      158.5          158.5          158.5         -0.2122436     -1.3116149      0.40770504     0.26717901     84.419923    
     43460   83.623123      158.5          158.5          158.5          0.032405236    0.68836549    -0.40341441    -0.18773537     83.623123    
     43480   82.423386      158.5          158.5          158.5          0.23060401     0.41654612     0.29340597    -0.018140059    82.423386    
     43500   84.102856      158.5          158.5          158.5         -0.09951353    -0.91765664     0.40562049     0.21349556     84.102856    
     43520   84.863952      158.5          158.5          158.5         -0.21248568     0.95086492    -1.3213047     -0.26701721     84.863952    
     43540   85.185725      158.5          158.5          158.5          0.33949996    -0.67623909     1.2701877      0.42455125     85.185725    
     43560   83.3071        158.5          158.5          158.5         -0.23796668    -0.13735109    -0.30409516    -0.27245378     83.3071      
     43580   83.956985      158.5          158.5          158.5         -0.29426739     0.67349305    -1.1958475     -0.36044775     83.956985    
     43600   86.65172       158.5          158.5          158.5          0.4936912     -0.78935299     1.3306622      0.93976441     86.65172     
     43620   82.94796       158.5          158.5          158.5         -0.13929525     0.36796591    -0.23483874    -0.55101294     82.94796     
     43640   84.497427      158.5          158.5          158.5         -0.24998207     0.66716829    -0.69238629    -0.72472819     84.497427    
     43660   85.853134      158.5          158.5          158.5          0.24949721    -1.0341095      0.58573678     1.1968644      85.853134    
     43680   82.941401      158.5          158.5          158.5         -0.2131496     -0.081082107   -0.30191805    -0.25644865     82.941401    
     43700   84.785371      158.5          158.5          158.5          0.01482369     0.95282962     0.031836317   -0.94019486     84.785371    
     43720   84.098368      158.5          158.5          158.5          0.38338111    -0.44214888     0.66130321     0.93098901     84.098368    
     43740   84.05156       158.5          158.5          158.5         -0.43842407    -0.54611109    -0.83142792     0.062266811    84.05156     
     43760   83.166476      158.5          158.5          158.5         -0.10427507     0.59122197    -0.09909212    -0.80495507     83.166476    
     43780   84.441058      158.5          158.5          158.5          0.61003671     0.25284663     0.83595405     0.74130946     84.441058    
     43800   83.121239      158.5          158.5          158.5         -0.30608318    -0.38710166    -0.34482469    -0.18632319     83.121239    
     43820   82.675413      158.5          158.5          158.5         -0.42981497    -0.20517209    -0.44633714    -0.63793569     82.675413    
     43840   83.818538      158.5          158.5          158.5          0.62990831     0.39004142     0.47738002     1.0223035      83.818538    
     43860   81.966298      158.5          158.5          158.5         -0.027409738    0.15201566     0.081542493   -0.31578737     81.966298    
     43880   82.422947      158.5          158.5          158.5         -0.53169719    -0.56676972    -0.2775555     -0.75076636     82.422947    
     43900   83.286749      158.5          158.5          158.5          0.56548739     0.33890159     0.32439681     1.0331638      83.286749    
     43920   82.30382       158.5          158.5          158.5         -0.013569585    0.35121269    -0.12431264    -0.26760881     82.30382     
     43940   83.439304      158.5          158.5          158.5         -0.59170156    -0.70842649    -0.27576119    -0.79091699     83.439304    
     43960   83.670151      158.5          158.5          158.5          0.6099         0.26401285     0.4793684      1.0863187      83.670151    
     43980   83.235267      158.5          158.5          158.5         -0.1874476      0.10418335    -0.10730088    -0.55922526     83.235267    
     44000   82.986965      158.5          158.5          158.5         -0.19279403     0.10913799    -0.30542934    -0.38209075     82.986965    
     44020   83.880125      158.5          158.5          158.5          0.25883484    -0.26682597     0.11983331     0.92349718     83.880125    
     44040   82.757322      158.5          158.5          158.5         -0.17290623    -0.16407082     0.044145949   -0.39879381     82.757322    
     44060   84.750265      158.5          158.5          158.5          0.072339639    0.50974036     0.20049939    -0.49322083     84.750265    
     44080   83.822793      158.5          158.5          158.5          0.05186698    -0.40312585    -0.080898306    0.6396251      83.822793    
     44100   85.227086      158.5          158.5          158.5          0.07046355     0.14517705    -0.1412905      0.2075041      85.227086    
     44120   83.808502      158.5          158.5          158.5         -0.64022405    -0.45333579    -0.3666759     -1.1006605      83.808502    
     44140   86.755888      158.5          158.5          158.5          0.86755972     0.44398133     0.72362586     1.435072       86.755888    
     44160   82.419974      158.5          158.5          158.5         -0.046259017   -0.081072126   -0.051189367   -0.0065155572   82.419974    
     44180   86.918765      158.5          158.5          158.5         -0.77009789    -0.2130905     -0.71305871    -1.3841445      86.918765    
     44200   84.681953      158.5          158.5          158.5          0.70340743     0.31817778     0.3651783      1.4268662      84.681953    
     44220   86.103585      158.5          158.5          158.5         -0.07350901    -0.80173292     0.17922135     0.40198454     86.103585    
     44240   87.458884      158.5          158.5          158.5         -0.13141296     0.72532813     0.20612202    -1.325689       87.458884    
     44260   85.418111      158.5          158.5          158.5         -0.21173179     0.15860819    -0.66886061    -0.12494295     85.418111    
     44280   86.900075      158.5          158.5          158.5          0.28506123    -0.51047875     0.35516329     1.0104992      86.900075    
     44300   82.971146      158.5          158.5          158.5         -0.10257151    -0.069164148    0.20256753    -0.44111791     82.971146    
     44320   87.521571      158.5          158.5          158.5         -0.31576269     0.63134967    -0.52581615    -1.0528216      87.521571    
     44340   85.756109      158.5          158.5          158.5          0.36441569    -0.43497018     0.81016404     0.71805322     85.756109    
     44360   83.300162      158.5          158.5          158.5          0.16154076     0.35855626    -0.17387005     0.29993607     83.300162    
     44380   84.276304      158.5          158.5          158.5         -0.59400133    -0.35203229    -0.81292433    -0.61704738     84.276304    
     44400   84.598017      158.5          158.5          158.5          0.058589973   -0.78283782     0.64083841     0.31776933     84.598017    
     44420   85.278483      158.5          158.5          158.5          0.69721891     1.9763267      0.0123973      0.1029327      85.278483    
     44440   83.073784      158.5          158.5          158.5         -0.38283224    -1.2191576      0.039496457    0.031164414    83.073784    
     44460   83.236021      158.5          158.5          158.5         -0.47184316    -0.6776607     -0.47180137    -0.26606741     83.236021    
     44480   82.66635       158.5          158.5          158.5          0.44799541     0.98262707     0.1536988      0.20766037     82.66635     
     44500   82.776781      158.5          158.5          158.5          0.27134903     0.021862105    0.51761181     0.27457316     82.776781    
     44520   82.927919      158.5          158.5          158.5         -0.3084544     -0.17255454    -0.43542913    -0.31737954     82.927919    
     44540   82.907648      158.5          158.5          158.5         -0.3257652     -0.8224268     -0.079885393   -0.074983408    82.907648    
     44560   82.659647      158.5          158.5          158.5          0.2637106      0.89851436    -0.1715313      0.064148737    82.659647    
     44580   83.19053       158.5          158.5          158.5          0.31991232     0.027167206    0.72567622     0.20689354     83.19053     
     44600   82.410897      158.5          158.5          158.5         -0.015903489    0.3743476     -0.42167562    -0.00038244531  82.410897    
     44620   83.164052      158.5          158.5          158.5         -0.34164041    -0.90063069     0.13503773    -0.25932828     83.164052    
     44640   83.092142      158.5          158.5          158.5          0.048338713    0.49967733    -0.47410757     0.11944638     83.092142    
     44660   82.826878      158.5          158.5          158.5          0.17542728    -0.26975162     0.72918676     0.066846699    82.826878    
     44680   82.485217      158.5          158.5          158.5         -0.010388532    0.25922072    -0.23981691    -0.050569415    82.485217    
     44700   82.851431      158.5          158.5          158.5         -0.15857397    -0.0089418393  -0.53977478     0.072994709    82.851431    
     44720   83.566234      158.5          158.5          158.5          0.069765051   -0.59973257     0.90844555    -0.099417827    83.566234    
     44740   83.714817      158.5          158.5          158.5          0.12018546     0.78718819    -0.48584917     0.059217347    83.714817    
     44760   83.248504      158.5          158.5          158.5         -0.23327063    -0.37578206    -0.36711452     0.043084688    83.248504    
     44780   83.380565      158.5          158.5          158.5         -0.092435953   -0.4568568      0.33255346    -0.15300452     83.380565    
     44800   84.17309       158.5          158.5          158.5          0.58729375     0.9430268      0.57439759     0.24445684     84.17309     
     44820   83.878709      158.5          158.5          158.5         -0.41744834    -0.61224233    -0.49280713    -0.14729556     83.878709    
     44840   83.337853      158.5          158.5          158.5         -0.42768935    -0.63353084    -0.4936696     -0.15586762     83.337853    
     44860   85.174872      158.5          158.5          158.5          0.67940462     0.80085555     0.5993989      0.63795942     85.174872    
     44880   84.110422      158.5          158.5          158.5         -0.17500323     0.13231495    -0.46623683    -0.1910878      84.110422    
     44900   83.09195       158.5          158.5          158.5         -0.47481816    -0.35178127    -0.61499302    -0.45768017     83.09195     
     44920   86.272158      158.5          158.5          158.5          0.524731      -0.19545263     1.2106323      0.55901336     86.272158    
     44940   82.650317      158.5          158.5          158.5         -0.090169665    0.011375221   -0.087707285   -0.19417693     82.650317    
     44960   84.232195      158.5          158.5          158.5         -0.58884163     0.034042593   -1.2469716     -0.55359591     84.232195    
     44980   84.862827      158.5          158.5          158.5          0.75397276     0.37900027     1.273437       0.60948097     84.862827    
     45000   83.35053       158.5          158.5          158.5          0.008569369   -0.0056285104  -0.27007749     0.30141411     83.35053     
     45020   83.403165      158.5          158.5          158.5         -0.5953395     -0.62066485    -0.26898727    -0.89636639     83.403165    
     45040   81.444433      158.5          158.5          158.5          0.029485143    0.17046543    -0.27428717     0.19227717     81.444433    
     45060   82.677429      158.5          158.5          158.5          0.56799019     0.40949419     0.75212394     0.54235243     82.677429    
     45080   81.049824      158.5          158.5          158.5          0.25345917     0.17043402     0.34957317     0.24037034     81.049824    
     45100   81.436045      158.5          158.5          158.5         -0.4059567     -0.35918483    -0.58584052    -0.27284476     81.436045    
     45120   81.048875      158.5          158.5          158.5         -0.2088168     -0.20175367    -0.0042331187  -0.42046361     81.048875    
     45140   82.465871      158.5          158.5          158.5          0.31563592     0.39114864     0.060667545    0.49509158     82.465871    
     45160   81.85209       158.5          158.5          158.5          0.28358621     0.14559282     0.59029095     0.11487487     81.85209     
     45180   82.372858      158.5          158.5          158.5         -0.54160709    -0.43792437    -0.9383805     -0.24851641     82.372858    
     45200   81.646588      158.5          158.5          158.5         -0.0083012687   0.036891135    0.30102839    -0.36282333     81.646588    
     45220   81.924335      158.5          158.5          158.5          0.46050915     0.42824681     0.38218024     0.57110039     81.924335    
     45240   81.394223      158.5          158.5          158.5         -0.15978826    -0.18827716    -0.4332052      0.14211758     81.394223    
     45260   82.325912      158.5          158.5          158.5         -0.40018785    -0.46151578     0.10311204    -0.8421598      82.325912    
     45280   82.561963      158.5          158.5          158.5          0.23732477     0.34390418    -0.22957628     0.59764639     82.561963    
     45300   82.111911      158.5          158.5          158.5          0.50152115     0.37626433     0.742839       0.38546011     82.111911    
     45320   82.055473      158.5          158.5          158.5         -0.53920571    -0.44899657    -0.62974153    -0.53887902     82.055473    
     45340   81.577294      158.5          158.5          158.5         -0.30880162    -0.15131904    -0.24571533    -0.52937048     81.577294    
     45360   81.796451      158.5          158.5          158.5          0.56662004     0.48485016     0.37911175     0.8358982      81.796451    
     45380   82.627832      158.5          158.5          158.5          0.36197789     0.051550736    0.73992195     0.29446098     82.627832    
     45400   81.817469      158.5          158.5          158.5         -0.2824027     -0.21284896    -0.089514037   -0.54484509     81.817469    
     45420   84.227775      158.5          158.5          158.5         -0.37628365     0.012895071   -1.2405147      0.098768725    84.227775    
     45440   85.505411      158.5          158.5          158.5          0.41286492    -0.069790046    1.5472373     -0.23885253     85.505411    
     45460   84.268351      158.5          158.5          158.5          0.010929642    0.3147556     -0.72583589     0.44386922     84.268351    
     45480   84.892291      158.5          158.5          158.5         -0.21023047    -0.14875295    -0.54393871     0.062000237    84.892291    
     45500   86.481319      158.5          158.5          158.5          0.2909067     -0.16561865     1.5809413     -0.54260259     86.481319    
     45520   84.583418      158.5          158.5          158.5         -0.63023759    -0.19184085    -1.519559      -0.17931295     84.583418    
     45540   85.322887      158.5          158.5          158.5          0.77532649     0.870702       0.59109441     0.86418307     85.322887    
     45560   83.194289      158.5          158.5          158.5         -0.45260364    -0.44426513    -0.68745154    -0.22609425     83.194289    
     45580   84.958179      158.5          158.5          158.5         -0.01643252    -0.18291471     0.41416569    -0.28054854     84.958179    
     45600   84.016318      158.5          158.5          158.5         -0.071538938    0.04469492    -0.46620001     0.20688828     84.016318    
     45620   84.176028      158.5          158.5          158.5          0.33287031     0.047032069    0.97116405    -0.019585175    84.176028    
     45640   84.225533      158.5          158.5          158.5         -0.6155348     -0.74778078    -0.70573378    -0.39308983     84.225533    
     45660   83.878485      158.5          158.5          158.5          0.59809679     0.8521018      0.54188946     0.4002991      83.878485    
     45680   83.158824      158.5          158.5          158.5         -0.31197877    -0.030036468   -0.92533256     0.01943272     83.158824    
     45700   82.989894      158.5          158.5          158.5         -0.15525521    -0.668493       0.40194857    -0.19922119     82.989894    
     45720   82.973961      158.5          158.5          158.5          0.44129211     0.56609415     0.66044187     0.097340321    82.973961    
     45740   82.943233      158.5          158.5          158.5         -0.23773674     0.12748168    -0.8414911      0.00079920497  82.943233    
     45760   83.907875      158.5          158.5          158.5         -0.10434184    -0.66712977     0.30178395     0.052320296    83.907875    
     45780   83.670202      158.5          158.5          158.5          0.093390787    0.45019375    -0.024482488   -0.1455389      83.670202    
     45800   82.155315      158.5          158.5          158.5          0.19649773     0.32742721     0.14862514     0.11344085     82.155315    
     45820   83.571754      158.5          158.5          158.5         -0.26093975    -0.80892562    -0.047677084    0.073783443    83.571754    
     45840   83.972568      158.5          158.5          158.5         -0.10939025     0.36927627    -0.42887368    -0.26857334     83.972568    
     45860   82.713526      158.5          158.5          158.5          0.40297975     0.39358395     0.60108046     0.21427485     82.713526    
     45880   83.204239      158.5          158.5          158.5         -0.073875409   -0.47346838     0.051894191    0.19994797     83.204239    
     45900   84.946001      158.5          158.5          158.5         -0.41614931    -0.058067154   -0.6695743     -0.52080646     84.946001    
     45920   81.972763      158.5          158.5          158.5          0.1424995      0.088979552    0.18971787     0.14880108     81.972763    
     45940   84.745343      158.5          158.5          158.5          0.41921334     0.030220722    0.69002499     0.5373943      84.745343    
     45960   83.509714      158.5          158.5          158.5          0.080046687    0.65724978    -0.13763894    -0.27947078     83.509714    
     45980   83.902015      158.5          158.5          158.5         -0.73730621    -0.70145931    -0.89843556    -0.61202376     83.902015    
     46000   83.293539      158.5          158.5          158.5         -0.070385573   -0.50586581     0.23513436     0.05957473     83.293539    
     46020   85.24964       158.5          158.5          158.5          0.9976019      1.8367918      0.58465844     0.57135549     85.24964     
     46040   82.245836      158.5          158.5          158.5          0.2267207      0.13088856     0.31072544     0.23854809     82.245836    
     46060   86.216954      158.5          158.5          158.5         -1.0757512     -1.7391546     -0.7179911     -0.77010802     86.216954    
     46080   82.286731      158.5          158.5          158.5          0.32175567     0.606055       0.11700389     0.24220811     82.286731    
     46100   84.539179      158.5          158.5          158.5          0.67215044     0.75573709     0.53354858     0.72716567     84.539179    
     46120   84.419294      158.5          158.5          158.5         -0.85377477    -1.4093902     -0.43383919    -0.7180949      84.419294    
     46140   83.082284      158.5          158.5          158.5          0.13420007     0.44941237     0.017134118   -0.063946289    83.082284    
     46160   83.772235      158.5          158.5          158.5          0.28854105     0.44567095    -0.091662941    0.51161513     83.772235    
     46180   83.766121      158.5          158.5          158.5         -0.13438158    -0.39262582     0.20214839    -0.21266731     83.766121    
     46200   82.56658       158.5          158.5          158.5         -0.3205743     -0.48389814    -0.20748399    -0.27034077     82.56658     
     46220   83.818615      158.5          158.5          158.5          0.50562966     0.4709508      0.30126624     0.74467193     83.818615    
     46240   83.11616       158.5          158.5          158.5         -0.4560298     -0.4137806     -0.21540998    -0.73889881     83.11616     
     46260   82.533072      158.5          158.5          158.5          0.056471995    0.21192879     0.086319258   -0.12883206     82.533072    
     46280   83.811566      158.5          158.5          158.5          0.21598357     0.15302905    -0.19600493     0.69092661     83.811566    
     46300   82.546439      158.5          158.5          158.5         -0.014152541    0.10857515     0.079087452   -0.23012022     82.546439    
     46320   83.064951      158.5          158.5          158.5         -0.44071902    -0.57071465    -0.097826882   -0.65361553     83.064951    
     46340   83.389714      158.5          158.5          158.5          0.55817624     0.20925423     0.48948374     0.97579076     83.389714    
     46360   82.908762      158.5          158.5          158.5         -0.29274425     0.10922137    -0.51696634    -0.47048777     82.908762    
     46380   82.8453        158.5          158.5          158.5         -0.046458863    0.3869477     -0.090189132   -0.43613515     82.8453      
     46400   83.957882      158.5          158.5          158.5          0.18616194    -0.67320264     0.35949454     0.87219393     83.957882    
     46420   82.289594      158.5          158.5          158.5         -0.08561728     0.15371277     0.02159136    -0.43215597     82.289594    
     46440   82.765699      158.5          158.5          158.5         -0.15659054     0.49602236    -0.42172889    -0.5440651      82.765699    
     46460   83.429071      158.5          158.5          158.5          0.25814866    -0.58471683     0.27823562     1.0809272      83.429071    
     46480   84.612356      158.5          158.5          158.5          0.21956472     1.2202894      0.14045617    -0.70205141     84.612356    
     46500   83.09548       158.5          158.5          158.5         -0.30784867    -0.55335302    -0.14796574    -0.22222724     83.09548     
     46520   83.885776      158.5          158.5          158.5          0.14210716    -0.827471       0.16037166     1.0934208      83.885776    
     46540   85.590923      158.5          158.5          158.5          0.014767767    1.0705033     -0.12978508    -0.89641496     85.590923    
     46560   85.378265      158.5          158.5          158.5          0.048231744   -0.26642726     0.27981031     0.13131217     85.378265    
     46580   83.099115      158.5          158.5          158.5         -0.23170843    -0.10862051    -0.86773253     0.28122776     83.099115    
     46600   85.276975      158.5          158.5          158.5         -0.0031396642  -0.19349985     0.77269774    -0.58861688     85.276975    
     46620   81.430787      158.5          158.5          158.5          0.35980549     0.21920851     0.51154483     0.34866314     81.430787    
     46640   84.60191       158.5          158.5          158.5          0.052860968    0.29089069    -0.76407908     0.6317713      84.60191     
     46660   83.617571      158.5          158.5          158.5         -0.41399127     0.058358293   -0.33629026    -0.96404185     83.617571    
     46680   81.831004      158.5          158.5          158.5         -0.0014697815   0.00080475918  0.049302135   -0.054516238    81.831004    
     46700   84.862607      158.5          158.5          158.5          0.45526747    -0.2987936      0.54863508     1.1159609      84.862607    
     46720   83.013186      158.5          158.5          158.5         -0.38187789     0.26930974    -0.51962102    -0.8953224      83.013186    
     46740   84.738504      158.5          158.5          158.5         -0.20122136    -0.36965471     0.16226375    -0.39627312     84.738504    
     46760   82.981085      158.5          158.5          158.5          0.24853774     0.60134954    -0.44240571     0.58666939     82.981085    
     46780   82.665492      158.5          158.5          158.5          0.19324437    -0.071836483    0.50851092     0.14305866     82.665492    
     46800   81.883457      158.5          158.5          158.5         -0.35323318    -0.50799758    -0.038243443   -0.51345852     81.883457    
     46820   82.839936      158.5          158.5          158.5          0.060064574    0.24257825    -0.19251989     0.13013537     82.839936    
     46840   82.047551      158.5          158.5          158.5          0.39963749     0.14057474     0.56811764     0.49022008     82.047551    
     46860   82.682344      158.5          158.5          158.5         -0.1370082      0.43220515    -0.23231527    -0.61091449     82.682344    
     46880   82.990623      158.5          158.5          158.5         -0.17420904    -0.81498198    -0.013834599    0.30618944     82.990623    
     46900   82.112014      158.5          158.5          158.5         -0.086627543    0.21280497    -0.47160566    -0.0010819369   82.112014    
     46920   82.349596      158.5          158.5          158.5          0.26011421     0.20079744     0.79215093    -0.21260575     82.349596    
     46940   81.354781      158.5          158.5          158.5          0.12035814     0.1942342     -0.11372992     0.28057014     81.354781    
     46960   81.945566      158.5          158.5          158.5         -0.22860859    -0.35871853    -0.37689889     0.049791648    81.945566    
     46980   81.500968      158.5          158.5          158.5         -0.24074683    -0.069479058   -0.32735426    -0.32540718     81.500968    
     47000   81.75631       158.5          158.5          158.5          0.39663123     0.28083933     0.58083045     0.32822393     81.75631     
     47020   81.781588      158.5          158.5          158.5          0.2548018      0.18953851     0.41047587     0.164391       81.781588    
     47040   82.459977      158.5          158.5          158.5         -0.41009071    -0.071493489   -0.80519384    -0.3535848      82.459977    
     47060   82.839451      158.5          158.5          158.5         -0.1340094     -0.65932123     0.13300314     0.12428988     82.839451    
     47080   83.674592      158.5          158.5          158.5          0.25652057     0.7466203      0.12237419    -0.099432775    83.674592    
     47100   83.315323      158.5          158.5          158.5          0.13412787    -0.35174368     0.29298943     0.46113787     83.315323    
     47120   83.122214      158.5          158.5          158.5         -0.42691248    -0.082786283   -0.66745564    -0.53049552     83.122214    
     47140   82.501593      158.5          158.5          158.5          0.19197287     0.38793429     0.22626113    -0.038276815    82.501593    
     47160   84.108339      158.5          158.5          158.5          0.27415392    -0.50834041     0.45309103     0.87771115     84.108339    
     47180   83.8467        158.5          158.5          158.5         -0.62783103    -0.14796844    -0.82738511    -0.90813955     83.8467      
     47200   83.422977      158.5          158.5          158.5          0.43077859     0.88556583     0.35318805     0.053581885    83.422977    
     47220   83.754664      158.5          158.5          158.5          0.13331544    -0.71581637     0.81804311     0.2977196      83.754664    
     47240   84.48564       158.5          158.5          158.5         -0.44925612    -0.26725882    -1.167536       0.087026473    84.48564     
     47260   82.649104      158.5          158.5          158.5         -0.022346038   -0.023773124    0.16457878    -0.20784377     82.649104    
     47280   84.250457      158.5          158.5          158.5          0.55553872     0.40734666     0.75131849     0.50795101     84.250457    
     47300   83.335786      158.5          158.5          158.5         -0.46866198    -0.086718209   -0.46872928    -0.85053844     83.335786    
     47320   83.31217       158.5          158.5          158.5         -0.14592546    -0.14555812     0.055460945   -0.34767919     83.31217     
     47340   83.23406       158.5          158.5          158.5          0.55525221     0.18686626     0.48289624     0.99599413     83.23406     
     47360   84.129955      158.5          158.5          158.5         -0.48798272    -0.29835402    -0.82633759    -0.33925656     84.129955    
     47380   83.84147       158.5          158.5          158.5          0.021774994    0.19542915     0.48883563    -0.6189398      83.84147     
     47400   82.520237      158.5          158.5          158.5          0.3312498      0.085595806    0.33379556     0.57435802     82.520237    
     47420   82.555873      158.5          158.5          158.5         -0.14784401    -0.12135227    -0.56071525     0.23853549     82.555873    
     47440   83.048503      158.5          158.5          158.5         -0.23823459    -0.010009826    0.011634524   -0.71632846     83.048503    
     47460   82.51067       158.5          158.5          158.5          0.14213309    -0.014480326   -0.022220114    0.4630997      82.51067     
     47480   83.059572      158.5          158.5          158.5          0.42188302     0.35260675     0.66608932     0.24695301     83.059572    
     47500   82.555622      158.5          158.5          158.5         -0.31238857    -0.18778617    -0.53788548    -0.21149406     82.555622    
     47520   82.62704       158.5          158.5          158.5         -0.16006317    -0.019841975   -0.25007823    -0.21026929     82.62704     
     47540   82.825082      158.5          158.5          158.5          0.073772892    0.15034564    -0.28211246     0.35308549     82.825082    
     47560   82.955793      158.5          158.5          158.5          0.127048      -0.11244684     0.63994834    -0.14635749     82.955793    
     47580   82.546065      158.5          158.5          158.5         -0.0070609899  -0.034214503    0.11586219    -0.10283066     82.546065    
     47600   82.951961      158.5          158.5          158.5          0.10180032     0.25061979    -0.2240447      0.27882588     82.951961    
     47620   82.679388      158.5          158.5          158.5         -0.35399448    -0.18503039    -0.57780261    -0.29915042     82.679388    
     47640   82.403952      158.5          158.5          158.5          0.006757327   -0.20740838     0.28329372    -0.055613353    82.403952    
     47660   83.089583      158.5          158.5          158.5          0.31866043     0.6333718      0.21000067     0.11260882     83.089583    
     47680   82.477336      158.5          158.5          158.5          0.11567571    -0.21640155     0.38528101     0.17814766     82.477336    
     47700   83.29145       158.5          158.5          158.5         -0.49962736    -0.46013464    -0.85458692    -0.18416051     83.29145     
     47720   82.772429      158.5          158.5          158.5          0.20835688     0.54109998    -0.0075826061   0.091553259    82.772429    
     47740   82.054314      158.5          158.5          158.5          0.27238769     0.25548525     0.5272073      0.034470512    82.054314    
     47760   83.8131        158.5          158.5          158.5         -0.4376287     -0.95785504    -0.29361396    -0.061417102    83.8131      
     47780   83.61054       158.5          158.5          158.5          0.21553133     0.2804582      0.38269975    -0.016563954    83.61054     
     47800   83.301492      158.5          158.5          158.5          0.19231348     0.44061116    -0.023418033    0.15974732     83.301492    
     47820   84.185808      158.5          158.5          158.5         -0.64762676    -1.0449866     -0.83574632    -0.062147328    84.185808    
     47840   84.192137      158.5          158.5          158.5          0.54962039     0.84619034     0.75255943     0.050111399    84.192137    
     47860   83.345068      158.5          158.5          158.5          0.072369374    0.0012445179   0.12178553     0.09407807     83.345068    
     47880   84.320678      158.5          158.5          158.5         -0.66231798    -1.0830552     -0.39365487    -0.5102439      84.320678    
     47900   84.957911      158.5          158.5          158.5          0.55877066     0.98546814     0.17383728     0.51700658     84.957911    
     47920   83.005853      158.5          158.5          158.5          0.1508687      0.052395156   -0.16441533     0.56462627     83.005853    
     47940   84.677252      158.5          158.5          158.5         -0.56687635    -0.57463781     0.25656712    -1.3825584      84.677252    
     47960   81.980249      158.5          158.5          158.5         -0.036191387    0.021454535   -0.058695407   -0.07133329     81.980249    
     47980   83.590495      158.5          158.5          158.5          0.53841635     0.35131684    -0.10868823     1.3726204      83.590495    
     48000   81.84823       158.5          158.5          158.5          0.21765992     0.29299165     0.18163917     0.17834896     81.84823     
     48020   83.360589      158.5          158.5          158.5         -0.60196416    -0.43028907    -0.021036185   -1.3545672      83.360589    
     48040   82.188115      158.5          158.5          158.5         -0.26057653    -0.043960757   -0.015563014   -0.72220583     82.188115    
     48060   83.099686      158.5          158.5          158.5          0.5169436      0.1633779      0.22867151     1.1587814      83.099686    
     48080   82.92528       158.5          158.5          158.5          0.29714487     0.31401657     0.029448443    0.5479696      82.92528     
     48100   83.522206      158.5          158.5          158.5         -0.67171373    -0.56509525    -0.51554203    -0.9345039      83.522206    
     48120   82.697729      158.5          158.5          158.5         -0.11461533     0.082521765    0.13426561    -0.56063338     82.697729    
     48140   83.553155      158.5          158.5          158.5          0.62732673     0.29277245     0.49172654     1.0974812      83.553155    
     48160   82.170955      158.5          158.5          158.5          0.032559384   -0.022744346   -0.08492601     0.20534851     82.170955    
     48180   84.117373      158.5          158.5          158.5         -0.7258211     -0.30952698    -0.65048415    -1.2174522      84.117373    
     48200   82.806161      158.5          158.5          158.5          0.2343154     -0.049668774    0.12209642     0.63051854     82.806161    
     48220   83.672393      158.5          158.5          158.5          0.67216713     0.55812579     0.76779518     0.69058042     83.672393    
     48240   83.435661      158.5          158.5          158.5         -0.5740001     -0.27144162    -0.50654534    -0.94401336     83.435661    
     48260   83.07215       158.5          158.5          158.5         -0.20877508    -0.46090259    -0.23749981     0.072077173    83.07215     
     48280   84.849342      158.5          158.5          158.5          0.57396921     0.65609083     0.40254681     0.66326999     84.849342    
     48300   82.921796      158.5          158.5          158.5         -0.43298897    -0.29328764    -0.4590155     -0.54666376     82.921796    
     48320   84.140064      158.5          158.5          158.5         -0.11311442    -0.48463489     0.38479801    -0.23950639     84.140064    
     48340   85.754691      158.5          158.5          158.5          0.4860888      1.1257964     -0.16973564     0.50220564     85.754691    
     48360   83.4158        158.5          158.5          158.5         -0.15107421    -0.65581504     0.29435003    -0.091757608    83.4158      
     48380   84.677122      158.5          158.5          158.5         -0.77616973    -0.95959982    -0.94281567    -0.42609372     84.677122    
     48400   86.07864       158.5          158.5          158.5          0.94329839     1.2556269      0.95511872     0.61914951     86.07864     
     48420   82.92495       158.5          158.5          158.5         -0.16278505     0.10999859    -0.56405602    -0.034297717    82.92495     
     48440   84.808667      158.5          158.5          158.5         -0.61033136    -1.1277532     -0.38405024    -0.31919063     84.808667    
     48460   85.661399      158.5          158.5          158.5          0.47644261     0.83424606     0.25740399     0.33767778     85.661399    
     48480   82.273298      158.5          158.5          158.5          0.15779973     0.082308726    0.39227286    -0.0011824054   82.273298    
     48500   84.669477      158.5          158.5          158.5         -0.64445339    -0.69774465    -0.83940997    -0.39620555     84.669477    
     48520   83.785469      158.5          158.5          158.5          0.41728566     0.81832193    -0.0095097301   0.44304479     83.785469    
     48540   83.106944      158.5          158.5          158.5          0.26646885    -0.095113869    0.80735716     0.087163258    83.106944    
     48560   82.711665      158.5          158.5          158.5         -0.55428397    -0.68216275    -0.57633225    -0.4043569      82.711665    
     48580   81.660206      158.5          158.5          158.5          0.032004357    0.36946145    -0.24260271    -0.030845666    81.660206    
     48600   83.448606      158.5          158.5          158.5          0.4889256      0.33030214     0.79986615     0.3366085      83.448606    
     48620   81.557796      158.5          158.5          158.5          0.0681221      0.071500144   -0.32060583     0.45347199     81.557796    
     48640   82.370313      158.5          158.5          158.5         -0.57076385    -0.56086564    -0.051972433   -1.0994535      82.370313    
     48660   81.652564      158.5          158.5          158.5         -0.0075565612   0.14896016    -0.079261739   -0.092368104    81.652564    
     48680   82.551205      158.5          158.5          158.5          0.35682683     0.075927709    0.42524428     0.56930851     82.551205    
     48700   81.251202      158.5          158.5          158.5          0.30558556     0.34537571     0.0024708538   0.56891011     81.251202    
     48720   81.642212      158.5          158.5          158.5         -0.42419601    -0.34144513    -0.16784004    -0.76330286     81.642212    
     48740   81.21042       158.5          158.5          158.5         -0.31940217    -0.36249234    -0.24961397    -0.34610021     81.21042     
     48760   81.502638      158.5          158.5          158.5          0.48088035     0.53508748     0.22334036     0.68421322     81.502638    
     48780   80.996613      158.5          158.5          158.5          0.35967378     0.30948764     0.44525146     0.32428225     80.996613    
     48800   81.747344      158.5          158.5          158.5         -0.33321409    -0.32685857    -0.35580873    -0.31697498     81.747344    
     48820   81.903122      158.5          158.5          158.5         -0.4320044     -0.26833968    -0.040292332   -0.98738119     81.903122    
     48840   82.224143      158.5          158.5          158.5          0.35748282     0.41644517    -0.021455718    0.67745901     82.224143    
     48860   83.294739      158.5          158.5          158.5          0.22518564    -0.23533272     0.55436998     0.35651966     83.294739    
     48880   83.099729      158.5          158.5          158.5         -0.18334242     0.24348989    -0.65855762    -0.13495954     83.099729    
     48900   82.865712      158.5          158.5          158.5         -0.39619943    -0.22474836    -0.035855592   -0.92799434     82.865712    
     48920   83.017443      158.5          158.5          158.5          0.40520305    -0.10317639     0.42809426     0.89069127     83.017443    
     48940   82.505645      158.5          158.5          158.5          0.26707431     0.44429013    -0.085971328    0.44290412     82.505645    
     48960   85.157302      158.5          158.5          158.5         -0.65499785    -0.41450749    -0.16978868    -1.3806974      85.157302    
     48980   84.468577      158.5          158.5          158.5          0.33325745     0.1605751     -0.19468288     1.0338801      84.468577    
     49000   82.742166      158.5          158.5          158.5          0.23733333     0.21870389     0.35799017     0.13530593     82.742166    
     49020   85.426939      158.5          158.5          158.5         -0.60304419    -0.84958193     0.022711536   -0.98226217     85.426939    
     49040   85.753061      158.5          158.5          158.5          0.40641936     0.82762503    -0.25751168     0.64914474     85.753061    
     49060   82.885357      158.5          158.5          158.5         -0.036064645    0.37026091    -0.64081032     0.16235547     82.885357    
     49080   87.015389      158.5          158.5          158.5         -0.31292805    -1.7480114      1.0418466     -0.23261933     87.015389    
     49100   82.917107      158.5          158.5          158.5          0.21389628     0.35189936     0.20875438     0.081035102    82.917107    
     49120   85.936117      158.5          158.5          158.5         -0.26083568     0.83323484    -1.6720769      0.056335074    85.936117    
     49140   84.859219      158.5          158.5          158.5         -0.0026408665  -0.75243327     0.96682133    -0.22231067     84.859219    
     49160   84.31671       158.5          158.5          158.5          0.17894305    -0.22507852     0.32375337     0.43815429     84.31671     
     49180   84.133392      158.5          158.5          158.5          0.077540947    0.82251877    -0.64109442     0.051198489    84.133392    
     49200   84.057215      158.5          158.5          158.5         -0.36610801    -0.7189942      0.26301177    -0.64234159     84.057215    
     49220   84.012205      158.5          158.5          158.5          0.12745821    -0.035800268    0.035217947    0.38295696     84.012205    
     49240   83.278299      158.5          158.5          158.5          0.36367524     0.65839992     0.051746869    0.38087893     83.278299    
     49260   83.445849      158.5          158.5          158.5         -0.35029962    -0.54697427     0.1032468     -0.60717139     83.445849    
     49280   84.187394      158.5          158.5          158.5         -0.099174516    0.091510073   -0.5144359      0.12540228     84.187394    
     49300   82.674547      158.5          158.5          158.5          0.23792991     0.1372048      0.45664711     0.11993782     82.674547    
     49320   82.736222      158.5          158.5          158.5          0.065595191    0.0328753      0.10605395     0.057856319    82.736222    
     49340   83.527487      158.5          158.5          158.5         -0.18385278    -0.089884279   -0.45576669    -0.0059073711   83.527487    
     49360   82.031287      158.5          158.5          158.5         -0.17772527    -0.19853771     0.10774765    -0.44238576     82.031287    
     49380   82.602721      158.5          158.5          158.5          0.3053449      0.25755975     0.093909333    0.56456561     82.602721    
     49400   81.652181      158.5          158.5          158.5          0.26834999     0.15782977     0.55703269     0.090187504    81.652181    
     49420   83.835006      158.5          158.5          158.5         -0.22949069     0.13461401    -0.65840444    -0.16468165     83.835006    
     49440   81.52515       158.5          158.5          158.5         -0.41448664    -0.30829343    -0.027404233   -0.90776225     81.52515     
     49460   81.958088      158.5          158.5          158.5          0.38326705     0.35664614     0.10200835     0.69114666     81.958088    
     49480   82.280196      158.5          158.5          158.5          0.28311427     0.10247555     0.5252447      0.22162256     82.280196    
     49500   82.751052      158.5          158.5          158.5         -0.40861802    -0.2838055     -0.50495071    -0.43709784     82.751052    
     49520   82.554708      158.5          158.5          158.5         -0.098568776    0.044769689   -0.42743309     0.08695707     82.554708    
     49540   83.84083       158.5          158.5          158.5          0.38525667     0.011718926    1.0019762      0.14207494     83.84083     
     49560   83.120606      158.5          158.5          158.5         -0.027555903    0.33186124    -0.5016109      0.087081953    83.120606    
     49580   83.158835      158.5          158.5          158.5         -0.49325708    -0.52710343    -0.52151842    -0.43114938     83.158835    
     49600   83.725525      158.5          158.5          158.5          0.45383916     0.10389926     0.97269318     0.28492504     83.725525    
     49620   83.151421      158.5          158.5          158.5          0.2181896      0.55661889    -0.26672524     0.36467515     83.151421    
     49640   84.250674      158.5          158.5          158.5         -0.64678447    -0.58622371    -0.70065238    -0.65347733     84.250674    
     49660   83.125503      158.5          158.5          158.5          0.25126505    -0.062571645    0.67034995     0.14601683     83.125503    
     49680   84.177397      158.5          158.5          158.5          0.29463893     0.1549142      0.10144316     0.62755942     84.177397    
     49700   84.49022       158.5          158.5          158.5         -0.36753892    -0.390435      -0.15508802    -0.55709374     84.49022     
     49720   83.602627      158.5          158.5          158.5         -0.32195037    -0.20687262    -0.7572908     -0.0016876816   83.602627    
     49740   85.023171      158.5          158.5          158.5          0.59226695     0.55001132     0.59124921     0.63554032     85.023171    
     49760   84.357661      158.5          158.5          158.5         -0.61456372    -0.73304506    -0.42580142    -0.68484469     84.357661    
     49780   83.431023      158.5          158.5          158.5         -0.07613367    -0.014230893   -0.13377589    -0.080394221    83.431023    
     49800   83.789641      158.5          158.5          158.5          0.69970886     0.78289802     0.48549903     0.83072953     83.789641    
     49820   83.623311      158.5          158.5          158.5         -0.33605866    -0.29696153    -0.22472914    -0.48648532     83.623311    
     49840   84.41028       158.5          158.5          158.5         -0.45369551    -0.62518159    -0.16128172    -0.57462321     84.41028     
     49860   83.28887       158.5          158.5          158.5          0.30984735     0.44102469     0.0087960838   0.47972127     83.28887     
     49880   82.642408      158.5          158.5          158.5          0.51867036     0.48996335     0.27179955     0.79424817     82.642408    
     49900   83.089032      158.5          158.5          158.5         -0.31837253    -0.56427154     0.1241116     -0.51495765     83.089032    
     49920   82.572571      158.5          158.5          158.5         -0.26034515     0.014403912   -0.083210462   -0.7122289      82.572571    
     49940   81.977416      158.5          158.5          158.5          0.12878359     0.084045106    0.049052523    0.25325315     81.977416    
     49960   82.29019       158.5          158.5          158.5          0.26103089     0.10707746     0.17794801     0.49806721     82.29019     
     49980   81.72284       158.5          158.5          158.5         -0.12417298     0.050098399   -0.11767086    -0.30494647     81.72284     
     50000   81.844579      158.5          158.5          158.5         -0.28992857    -0.37215532    -0.32013896    -0.17749143     81.844579    
     50020   82.939019      158.5          158.5          158.5          0.41029348     0.64238744     0.35237156     0.23612145     82.939019    
     50040   81.810477      158.5          158.5          158.5         -0.023942599   -0.2554222      0.095069588    0.088524816    81.810477    
     50060   81.636643      158.5          158.5          158.5         -0.28242766    -0.3523834     -0.25616677    -0.23873281     81.636643    
     50080   82.533273      158.5          158.5          158.5          0.19673503     0.33533963     0.15618011     0.098685363    82.533273    
     50100   82.767084      158.5          158.5          158.5         -0.0099044787   0.094511744   -0.22032029     0.096095111    82.767084    
     50120   81.873171      158.5          158.5          158.5         -0.072591685   -0.01425797    -0.063700309   -0.13981677     81.873171    
     50140   83.340193      158.5          158.5          158.5          0.080093181   -0.084248244    0.22743665     0.097091133    83.340193    
     50160   81.984651      158.5          158.5          158.5         -0.21388885    -0.40411785    -0.22594579    -0.011602925    81.984651    
     50180   83.014064      158.5          158.5          158.5          0.2874933      0.38359658     0.49047511    -0.011591789    83.014064    
     50200   83.214447      158.5          158.5          158.5          0.12779604     0.38161528    -0.095062676    0.09683551     83.214447    
     50220   83.350606      158.5          158.5          158.5         -0.53188562    -0.83876936    -0.70679459    -0.050092913    83.350606    
     50240   83.36407       158.5          158.5          158.5          0.5200789      0.38982403     1.0870525      0.083360145    83.36407     
     50260   82.903618      158.5          158.5          158.5         -0.021332981    0.16638559    -0.22109428    -0.009290259    82.903618    
     50280   84.906958      158.5          158.5          158.5         -0.60975527    -0.25393768    -1.5295395     -0.045788593    84.906958    
     50300   85.201809      158.5          158.5          158.5          0.85257678     0.63987378     1.6598346      0.25802202     85.201809    
     50320   85.91104       158.5          158.5          158.5         -0.60759544    -0.5853096     -1.1113229     -0.12615377     85.91104     
     50340   84.756063      158.5          158.5          158.5          0.041253191   -0.30053691     0.59679932    -0.17250284     84.756063    
     50360   84.157296      158.5          158.5          158.5          0.069512549    0.3046284     -0.50436029     0.40826954     84.157296    
     50380   83.648968      158.5          158.5          158.5          0.26383011     0.24908969     0.56640565    -0.024005013    83.648968    
     50400   83.39421       158.5          158.5          158.5         -0.1967382     -0.23463258     0.20287406    -0.55845608     83.39421     
     50420   85.180258      158.5          158.5          158.5         -0.28442217    -0.033505865   -1.2195594      0.39979877     85.180258    
     50440   83.818831      158.5          158.5          158.5          0.42818258     0.08946694     0.95416132     0.24091947     83.818831    
     50460   85.167557      158.5          158.5          158.5         -0.49463946    -0.30384534    -0.43209525    -0.74797779     85.167557    
     50480   83.019446      158.5          158.5          158.5          0.37813601     0.3812534      0.29110678     0.46204785     83.019446    
     50500   82.939172      158.5          158.5          158.5          0.10688611     0.22573867    -0.097828182    0.19274784     82.939172    
     50520   84.648235      158.5          158.5          158.5         -0.63015733    -0.83687088    -0.44836837    -0.60523273     84.648235    
     50540   83.437611      158.5          158.5          158.5          0.43768709     0.55115712     0.53451464     0.22738949     83.437611    
     50560   82.981098      158.5          158.5          158.5          0.19951145     0.27139238    -0.14143875     0.46858072     82.981098    
     50580   83.917263      158.5          158.5          158.5         -0.51163685    -0.88852278    -0.05831026    -0.58807751     83.917263    
     50600   83.679674      158.5          158.5          158.5          0.27188721     0.77526016     0.045212116   -0.0048106317   83.679674    
     50620   82.735619      158.5          158.5          158.5          0.1982352      0.090074844    0.0041580665   0.50047269     82.735619    
     50640   83.660946      158.5          158.5          158.5         -0.46233832    -0.89740429    -0.064884651   -0.42472602     83.660946    
     50660   83.840798      158.5          158.5          158.5          0.14637814     0.88350956    -0.20549944    -0.23887571     83.840798    
     50680   83.595898      158.5          158.5          158.5          0.34706598    -0.19652337     0.71783236     0.51988895     83.595898    
     50700   83.149206      158.5          158.5          158.5         -0.25011993    -0.22429655    -0.65645853     0.13039529     83.149206    
     50720   82.984344      158.5          158.5          158.5         -0.42998602    -0.073751573   -0.27129566    -0.94491083     82.984344    
     50740   83.045012      158.5          158.5          158.5          0.46325747     0.056682708    0.63284453     0.70024518     83.045012    
     50760   82.195405      158.5          158.5          158.5          0.53989272     0.64163289     0.17274103     0.80530425     82.195405    
     50780   84.349412      158.5          158.5          158.5         -0.65981176    -0.39844199    -0.079652144   -1.5013411      84.349412    
     50800   82.181267      158.5          158.5          158.5         -0.16817162    -0.18381827    -0.86842974     0.54773315     82.181267    
     50820   84.636639      158.5          158.5          158.5          0.44498109    -0.15220393     1.0947792      0.39236796     84.636639    
     50840   83.795649      158.5          158.5          158.5          0.29337953     1.097339      -0.11449889    -0.10270151     83.795649    
     50860   83.597796      158.5          158.5          158.5         -0.43056556    -0.95896472    -0.15552206    -0.17720992     83.597796    
     50880   82.432106      158.5          158.5          158.5         -0.0013653469  -0.22277311    -0.039695663    0.25837273     82.432106    
     50900   84.370572      158.5          158.5          158.5          0.42182719     1.2156056      0.17837922    -0.12850325     84.370572    
     50920   83.820563      158.5          158.5          158.5         -0.39388395    -1.186525       0.13095255    -0.12607938     83.820563    
     50940   82.783673      158.5          158.5          158.5          0.10387603     0.16383448    -0.17131141     0.31910502     82.783673    
     50960   83.423533      158.5          158.5          158.5          0.20486751     0.91036927    -0.086277208   -0.20948951     83.423533    
     50980   84.020233      158.5          158.5          158.5         -0.47135353    -0.99800483    -0.18790921    -0.22814656     84.020233    
     51000   83.467291      158.5          158.5          158.5          0.52063304     0.31506961     0.8384568      0.40837271     83.467291    
     51020   83.285897      158.5          158.5          158.5         -0.16818025     0.058434931   -0.73327178     0.17029611     83.285897    
     51040   83.166646      158.5          158.5          158.5         -0.25306308     0.11834798    -0.15363972    -0.72389749     83.166646    
     51060   82.851181      158.5          158.5          158.5          0.15785255    -0.14878593     0.1688461      0.45349747     82.851181    
     51080   82.970617      158.5          158.5          158.5          0.1997798     -0.079007674    0.14183165     0.53651542     82.970617    
     51100   83.20578       158.5          158.5          158.5         -0.14994094     0.1490608      0.18830231    -0.78718593     83.20578     
     51120   83.374726      158.5          158.5          158.5         -0.22261692    -0.2155809     -0.54103855     0.088768691    83.374726    
     51140   83.66316       158.5          158.5          158.5          0.35623052     0.20582421     0.31079611     0.55207124     83.66316     
     51160   84.273606      158.5          158.5          158.5         -0.60391268    -0.12211982    -1.1132384     -0.57637979     84.273606    
     51180   83.93956       158.5          158.5          158.5          0.47120229     0.22764648     1.15478        0.031180388    83.93956     
     51200   83.650544      158.5          158.5          158.5          0.0049435412  -0.34616674    -0.11685691     0.47785428     83.650544    
     51220   84.589899      158.5          158.5          158.5         -0.43353309     0.24449366    -0.89249599    -0.65259696     84.589899    
     51240   83.726948      158.5          158.5          158.5          0.37641442     0.044940734    0.87343932     0.21086322     83.726948    
     51260   83.429665      158.5          158.5          158.5          0.082330296   -0.14881664    -0.19088993     0.58669746     83.429665    
     51280   83.555051      158.5          158.5          158.5         -0.43961194     0.062911639   -0.4702874     -0.91146007     83.555051    
     51300   82.163457      158.5          158.5          158.5          0.25185563     0.17781587     0.55853392     0.019217097    82.163457    
     51320   84.021349      158.5          158.5          158.5          0.36846913     0.065705723    0.16152183     0.87817983     84.021349    
     51340   82.921512      158.5          158.5          158.5         -0.1777652     -0.12169891     0.28621016    -0.69780685     82.921512    
     51360   83.628698      158.5          158.5          158.5         -0.37491984    -0.14451431    -0.54416536    -0.43607985     83.628698    
     51380   82.996163      158.5          158.5          158.5          0.43187383     0.26380927     0.21626389     0.81554835     82.996163    
     51400   81.888233      158.5          158.5          158.5         -0.021433931    0.13565506     0.043253351   -0.2432102      81.888233    
     51420   82.094606      158.5          158.5          158.5         -0.20777046    -0.33396938     0.048099635   -0.33744164     82.094606    
     51440   81.947405      158.5          158.5          158.5          0.17186176    -0.11347772     0.12796122     0.50110178     81.947405    
     51460   82.714932      158.5          158.5          158.5          0.057930703    0.32298051     0.03466908    -0.18385748     82.714932    
     51480   82.385549      158.5          158.5          158.5         -0.2146021     -0.21704851    -0.28134649    -0.14541129     82.385549    
     51500   82.074743      158.5          158.5          158.5          0.17243161     0.23265538     0.10176745     0.18287199     82.074743    
     51520   82.865145      158.5          158.5          158.5         -0.064146665   -0.006240873    0.074414567   -0.26061369     82.865145    
     51540   82.57056       158.5          158.5          158.5         -0.13685565    -0.35937935    -0.15373315     0.10254553     82.57056     
     51560   83.27103       158.5          158.5          158.5          0.26318214     0.27414593     0.12076986     0.39463063     83.27103     
     51580   83.11153       158.5          158.5          158.5         -0.40015245    -0.16807853    -0.33917281    -0.69320601     83.11153     
     51600   82.363426      158.5          158.5          158.5          0.22532741     0.27741937     0.2940089      0.10455395     82.363426    
     51620   83.015384      158.5          158.5          158.5          0.3354308      0.21827305     0.14472126     0.6432981      83.015384    
     51640   83.24781       158.5          158.5          158.5         -0.74627679    -0.9003621     -0.54492333    -0.79354495     83.24781     
     51660   82.32462       158.5          158.5          158.5          0.31684215     0.43518102     0.33571295     0.17963249     82.32462     
     51680   83.19743       158.5          158.5          158.5          0.63467581     0.57433039     0.50347077     0.82622626     83.19743     
     51700   82.425841      158.5          158.5          158.5         -0.46565948    -0.41625442    -0.35595779    -0.62476625     82.425841    
     51720   83.694875      158.5          158.5          158.5         -0.50559175    -0.24156676    -0.68833483    -0.58687365     83.694875    
     51740   82.464241      158.5          158.5          158.5          0.35954715     0.13379371     0.52617672     0.41867102     82.464241    
     51760   84.62169       158.5          158.5          158.5          0.82769655     0.39065126     0.76713908     1.3252993      84.62169     
     51780   81.987275      158.5          158.5          158.5         -0.076242327    0.18319406     0.11696059    -0.52888164     81.987275    
     51800   84.341209      158.5          158.5          158.5         -0.81002547    -0.52117862    -1.1676688     -0.74122893     84.341209    
     51820   82.393537      158.5          158.5          158.5          0.11865512    -0.056774875    0.18125009     0.23149014     82.393537    
     51840   84.398103      158.5          158.5          158.5          0.78425029     0.6677701      1.1212609      0.56371988     84.398103    
     51860   83.075572      158.5          158.5          158.5         -0.35066954    -0.25045971    -0.6272173     -0.17433159     83.075572    
     51880   83.772206      158.5          158.5          158.5         -0.61436628    -0.50537917    -0.7582457     -0.57947396     83.772206    
     51900   84.304368      158.5          158.5          158.5          0.74384794     0.61850208     0.97306993     0.63997181     84.304368    
     51920   82.564488      158.5          158.5          158.5         -0.010240057    0.00076197862  0.11609604    -0.14757819     82.564488    
     51940   84.388086      158.5          158.5          158.5         -0.66047352    -0.63567894    -0.99716881    -0.3485728      84.388086    
     51960   83.554886      158.5          158.5          158.5          0.52897493     0.55485993     0.62683227     0.40523258     83.554886    
     51980   82.892366      158.5          158.5          158.5          0.075782383   -0.019529123    0.33538235    -0.088506074    82.892366    
     52000   85.040463      158.5          158.5          158.5         -0.53625621    -0.67979754    -0.78503032    -0.14394075     85.040463    
     52020   83.340733      158.5          158.5          158.5          0.15531834     0.081968173    0.46724386    -0.083257013    83.340733    
     52040   83.307991      158.5          158.5          158.5          0.44872921     0.71286392     0.52236729     0.1109564      83.307991    
     52060   85.196641      158.5          158.5          158.5         -0.81837995    -1.0044715     -1.3347545     -0.11591386     85.196641    
     52080   82.929852      158.5          158.5          158.5          0.33830908     0.10779552     0.73267847     0.17445323     82.929852    
     52100   83.712953      158.5          158.5          158.5          0.52185555     0.57134763     0.98465914     0.0095598809   83.712953    
     52120   85.719221      158.5          158.5          158.5         -0.92800891    -0.68556526    -1.7941663     -0.30429519     85.719221    
     52140   82.645948      158.5          158.5          158.5          0.36485119     0.35112361     0.51811022     0.22531975     82.645948    
     52160   84.471721      158.5          158.5          158.5          0.57907608     0.14857706     1.4257833      0.16286792     84.471721    
     52180   85.089166      158.5          158.5          158.5         -0.71907891    -0.2836139     -1.7313419     -0.14228091     85.089166    
     52200   83.019971      158.5          158.5          158.5         -0.012497154    0.23515066     0.071446095   -0.34408821     83.019971    
     52220   84.318199      158.5          158.5          158.5          0.59136195    -0.029764504    1.2804838      0.52336651     84.318199    
     52240   82.54357       158.5          158.5          158.5         -0.1572237      0.062221429   -0.76394503     0.23005251     82.54357     
     52260   82.73544       158.5          158.5          158.5         -0.40066781     0.053146563   -0.54628289    -0.70886711     82.73544     
     52280   83.260413      158.5          158.5          158.5          0.19907037    -0.026762969    0.73030333    -0.10632925     83.260413    
     52300   82.389165      158.5          158.5          158.5          0.30735126     0.073826033    0.055611571    0.79261619     82.389165    
     52320   82.558287      158.5          158.5          158.5         -0.2296511     -0.001315128   -0.85013618     0.16249802     82.558287    
     52340   83.183099      158.5          158.5          158.5         -0.061872135    0.053753658    0.77331771    -1.0126878      83.183099    
     52360   81.792307      158.5          158.5          158.5         -0.10623669     0.011491076   -0.35574459     0.025543436    81.792307    
     52380   82.424433      158.5          158.5          158.5          0.20488799     0.0036658255  -0.18503646     0.79603462     82.424433    
     52400   82.380762      158.5          158.5          158.5          0.17102119     0.029360193    0.57098704    -0.087283665    82.380762    
     52420   81.908256      158.5          158.5          158.5         -0.33175072    -0.015618631   -0.26198011    -0.71765342     81.908256    
     52440   82.234769      158.5          158.5          158.5         -0.19414723    -0.037052688   -0.67321419     0.12782519     82.234769    
     52460   82.56656       158.5          158.5          158.5          0.46960739     0.10771226     0.70081312     0.60029679     82.56656     
     52480   81.524571      158.5          158.5          158.5          0.211837       0.11426878     0.42776051     0.093481717    81.524571    
     52500   83.56545       158.5          158.5          158.5         -0.6797103     -0.36409583    -1.0897127     -0.58532232     83.56545     
     52520   82.204675      158.5          158.5          158.5          0.054699063    0.22299235     0.53060537    -0.58950053     82.204675    
     52540   83.273282      158.5          158.5          158.5          0.42684871     0.052138813    0.43085554     0.79755178     83.273282    
     52560   83.822141      158.5          158.5          158.5          0.072563022    0.22411933    -0.57190547     0.56547521     83.822141    
     52580   84.093332      158.5          158.5          158.5         -0.45169368    -0.55013793     0.056188017   -0.86113114     84.093332    
     52600   82.939308      158.5          158.5          158.5         -0.088286626    0.25672706     0.34177883    -0.86336576     82.939308    
     52620   85.004111      158.5          158.5          158.5          0.1937674     -0.15428186    -0.48549466     1.2210787      85.004111    
     52640   82.739023      158.5          158.5          158.5          0.45737524     0.77393629     0.33352342     0.264666       82.739023    
     52660   83.407707      158.5          158.5          158.5         -0.3325866     -0.18862698     0.16449368    -0.97362652     83.407707    
     52680   85.042105      158.5          158.5          158.5         -0.60814173    -1.7221558     -0.25205888     0.14978951     85.042105    
     52700   83.62462       158.5          158.5          158.5          0.65940003     1.4374605      0.23179638     0.30894324     83.62462     
     52720   84.540771      158.5          158.5          158.5          0.32268588     0.34184314    -0.084393351    0.71060785     84.540771    
     52740   85.136426      158.5          158.5          158.5         -0.62628029    -0.95384636     0.18439883    -1.1093933      85.136426    
     52760   82.820432      158.5          158.5          158.5         -0.10933022    -0.3029989     -0.1964048      0.17141305     82.820432    
     52780   84.100028      158.5          158.5          158.5          0.55302063     0.89742305     0.028522675    0.73311616     84.100028    
     52800   84.557376      158.5          158.5          158.5         -0.22916594    -0.37306899     0.37055265    -0.68498146     84.557376    
     52820   84.161501      158.5          158.5          158.5         -0.47148091    -0.52963448    -0.63541126    -0.24939698     84.161501    
     52840   84.377521      158.5          158.5          158.5          0.62606276     0.93960661     0.47559162     0.46299005     84.377521    
     52860   83.611655      158.5          158.5          158.5         -0.012265783   -0.47494451     0.32658051     0.11156665     83.611655    
     52880   84.308769      158.5          158.5          158.5         -0.75073181    -0.59498451    -1.0190752     -0.63813574     84.308769    
     52900   84.501686      158.5          158.5          158.5          0.74307426     0.81023837     0.93191428     0.48707013     84.501686    
     52920   82.494219      158.5          158.5          158.5          0.13808974     0.099302116    0.039514101    0.27545301     82.494219    
     52940   84.62905       158.5          158.5          158.5         -0.81408652    -0.6804208     -1.1899502     -0.57188859     84.62905     
     52960   84.411598      158.5          158.5          158.5          0.70290433     0.26434079     1.4561522      0.38822002     84.411598    
     52980   83.380271      158.5          158.5          158.5         -0.18162272     0.15557741    -0.50696858    -0.19347698     83.380271    
     53000   84.185354      158.5          158.5          158.5         -0.22727284     0.069581123   -0.91166219     0.16026256     84.185354    
     53020   83.565173      158.5          158.5          158.5          0.28573405    -0.074985929    1.0467841     -0.11459603     83.565173    
     53040   82.921499      158.5          158.5          158.5         -0.049717437   -0.22138915     0.17671864    -0.10448179     82.921499    
     53060   84.468449      158.5          158.5          158.5         -0.21480915     0.3125519     -1.1461505      0.18917116     84.468449    
     53080   84.850388      158.5          158.5          158.5          0.068972792   -0.16687947     0.53937158    -0.16557373     84.850388    
     53100   84.100057      158.5          158.5          158.5          0.53538831     0.463838       0.82979512     0.31253182     84.100057    
     53120   85.651851      158.5          158.5          158.5         -0.98870721    -0.78834252    -1.8706286     -0.30715053     85.651851    
     53140   83.748231      158.5          158.5          158.5          0.46203341     0.075347583    1.1176812      0.19307144     83.748231    
     53160   84.323646      158.5          158.5          158.5          0.73387755     0.90649099     0.86389948     0.43124219     84.323646    
     53180   87.514578      158.5          158.5          158.5         -1.100935      -0.81843108    -1.532333      -0.95204091     87.514578    
     53200   82.904385      158.5          158.5          158.5         -0.087084472   -0.37896375     0.053524323    0.064186009    82.904385    
     53220   88.216546      158.5          158.5          158.5          0.97714806     1.3886508      0.66527243     0.87752096     88.216546    
     53240   82.959249      158.5          158.5          158.5          0.15729085     0.20924257    -0.03442696     0.29705693     82.959249    
     53260   87.370424      158.5          158.5          158.5         -0.99470147    -1.0488069     -0.23971219    -1.6955853      87.370424    
     53280   83.960651      158.5          158.5          158.5         -0.35541679    -0.51978831     0.027579      -0.57404106     83.960651    
     53300   84.783186      158.5          158.5          158.5          0.56674446     0.92430795    -0.022050014    0.79797544     84.783186    
     53320   85.501628      158.5          158.5          158.5          0.73335215     0.87579757     0.057580184    1.2666787      85.501628    
     53340   82.694194      158.5          158.5          158.5         -0.13306962    -0.080554907    0.035763063   -0.35441703     82.694194    
     53360   85.827196      158.5          158.5          158.5         -0.81559859    -0.9148164     -0.0040873809  -1.527892       85.827196    
     53380   82.835001      158.5          158.5          158.5         -0.33092464    -0.31819901    -0.023445843   -0.65112908     82.835001    
     53400   84.491345      158.5          158.5          158.5          0.62259407     0.61092897     0.032827282    1.224026       84.491345    
     53420   84.189162      158.5          158.5          158.5          0.55548786     0.80286838     0.031491737    0.83210347     84.189162    
     53440   83.067381      158.5          158.5          158.5         -0.17587286    -0.093712523    0.004952087   -0.43885813     83.067381    
     53460   85.194858      158.5          158.5          158.5         -0.74234697    -0.82935613    -0.067465032   -1.3302197      85.194858    
     53480   82.787992      158.5          158.5          158.5         -0.17630614    -0.32500275    -0.033645345   -0.17027034     82.787992    
     53500   84.975377      158.5          158.5          158.5          0.61135922     0.73813057     0.16305951     0.9328876      84.975377    
     53520   83.407623      158.5          158.5          158.5          0.56333857     0.68548737     0.13205225     0.87247608     83.407623    
     53540   84.476019      158.5          158.5          158.5         -0.58400353    -0.47661096    -0.19566916    -1.0797305      84.476019    
     53560   84.131838      158.5          158.5          158.5         -0.65932671    -0.76403686    -0.27751235    -0.93643093     84.131838    
     53580   84.325183      158.5          158.5          158.5          0.50538503     0.44479768     0.36725965     0.70409775     84.325183    
     53600   83.933857      158.5          158.5          158.5          0.66778361     0.74905011     0.42802535     0.82627537     83.933857    
     53620   84.799311      158.5          158.5          158.5         -0.71830858    -0.52667361    -0.65192768    -0.97632445     84.799311    
     53640   82.915872      158.5          158.5          158.5         -0.3385458     -0.21653934    -0.35377179    -0.44532626     82.915872    
     53660   85.741051      158.5          158.5          158.5          0.87971729     0.85285264     1.0863435      0.69995569     85.741051    
     53680   83.565689      158.5          158.5          158.5         -0.39185394    -0.62063866    -0.44315361    -0.11176954     83.565689    
     53700   83.523939      158.5          158.5          158.5         -0.43075366    -0.27857097    -0.71052103    -0.30316899     83.523939    
     53720   84.914459      158.5          158.5          158.5          0.74300818     0.91693728     1.0289505      0.28313681     84.914459    
     53740   84.74574       158.5          158.5          158.5         -0.46794131    -0.47209594    -1.0254457      0.093717705    84.74574     
     53760   85.05838       158.5          158.5          158.5          0.10412467    -0.52156912     0.93306315    -0.099120009    85.05838     
     53780   84.862993      158.5          158.5          158.5         -0.20869397     0.30842628    -0.84083621    -0.093671967    84.862993    
     53800   83.872554      158.5          158.5          158.5          0.35890076     0.2406664      0.64451904     0.19151686     83.872554    
     53820   84.191732      158.5          158.5          158.5         -0.45266176    -0.27915564    -1.0751201     -0.0037095108   84.191732    
     53840   83.111383      158.5          158.5          158.5          0.34481735     0.41878499     0.47453517     0.14113188     83.111383    
     53860   83.355063      158.5          158.5          158.5          0.11554698    -0.21488487     0.54395301     0.017572812    83.355063    
     53880   83.847293      158.5          158.5          158.5         -0.64453518    -0.39751489    -1.0502116     -0.48587905     83.847293    
     53900   84.108219      158.5          158.5          158.5          0.64033107     0.47111333     0.77699687     0.67288301     84.108219    
     53920   82.690742      158.5          158.5          158.5          0.0096930476   0.45224315    -0.16674052    -0.25642349     82.690742    
     53940   83.625762      158.5          158.5          158.5         -0.56380263    -0.98440061    -0.34597402    -0.36103327     83.625762    
     53960   82.990555      158.5          158.5          158.5          0.41627841     0.19164259     0.52264973     0.53454291     82.990555    
     53980   83.385825      158.5          158.5          158.5          0.18702555     0.92303155    -0.22606884    -0.13588607     83.385825    
     54000   83.479051      158.5          158.5          158.5         -0.44875104    -0.97322562    -0.17305519    -0.19997232     83.479051    
     54020   82.70013       158.5          158.5          158.5          0.1267403     -0.070987286    0.28911259     0.1620956      82.70013     
     54040   83.900108      158.5          158.5          158.5          0.29277542     0.98180698    -0.1919287      0.088447975    83.900108    
     54060   83.203561      158.5          158.5          158.5         -0.33069868    -0.83051015     0.033014367   -0.19460026     83.203561    
     54080   82.819466      158.5          158.5          158.5         -0.16318275    -0.34011863     0.042868596   -0.1922982      82.819466    
     54100   84.017495      158.5          158.5          158.5          0.41183601     1.1697095     -0.16177235     0.22757086     84.017495    
     54120   82.979294      158.5          158.5          158.5         -0.012141495   -0.61142791     0.21445868     0.36054474     82.979294    
     54140   84.85172       158.5          158.5          158.5         -0.079577769   -0.59272948     0.54479023    -0.19079406     84.85172     
     54160   83.302034      158.5          158.5          158.5          0.18198581     0.90476199     0.12979936    -0.48860393     83.302034    
     54180   82.697477      158.5          158.5          158.5          0.14770668     0.040869173   -0.041083246    0.4433341      82.697477    
     54200   83.867853      158.5          158.5          158.5         -0.12408948    -0.6712949      0.32085322    -0.021826766    83.867853    
     54220   83.580279      158.5          158.5          158.5         -0.15408144     0.3285759     -0.50727212    -0.2835481      83.580279    
     54240   83.26386       158.5          158.5          158.5          0.2184384     -0.0034575784   0.090048886    0.56872388     83.26386     
     54260   82.910726      158.5          158.5          158.5         -0.08731847    -0.099783159    0.041810614   -0.20398286     82.910726    
     54280   83.248503      158.5          158.5          158.5         -0.083481501    0.17011668    -0.22146401    -0.19909717     83.248503    
     54300   83.163568      158.5          158.5          158.5         -0.012344195   -0.13172495    -0.031127419    0.12581978     83.163568    
     54320   83.70017       158.5          158.5          158.5         -0.24943003    -0.41102795    -0.19219795    -0.14506419     83.70017     
     54340   82.60513       158.5          158.5          158.5          0.2561365      0.18790554     0.40781166     0.17269229     82.60513     
     54360   83.641451      158.5          158.5          158.5         -0.11854866     0.18422135    -0.68780104     0.1479337      83.641451    
     54380   82.724129      158.5          158.5          158.5          0.046585702   -0.21100187     0.31507212     0.035686851    82.724129    
     54400   84.042166      158.5          158.5          158.5         -0.19252767     0.069694139   -0.058884118   -0.58839302     84.042166    
     54420   82.751573      158.5          158.5          158.5          0.30929662     0.099512956    0.36463604     0.46374086     82.751573    
     54440   83.410577      158.5          158.5          158.5         -0.24023237    -0.13316772    -0.59755406     0.010024651    83.410577    
     54460   82.708469      158.5          158.5          158.5         -0.11113053     0.02129075     0.15766221    -0.51234455     82.708469    
     54480   83.334102      158.5          158.5          158.5          0.48917925     0.16226165     0.59796289     0.70731322     83.334102    
     54500   82.446385      158.5          158.5          158.5         -0.29471743    -0.13572217    -0.56817952    -0.1802506      82.446385    
     54520   82.27782       158.5          158.5          158.5         -0.34993435     0.00065209831 -0.089373767   -0.96108137     82.27782     
     54540   82.100401      158.5          158.5          158.5          0.54418868     0.27212914     0.41698166     0.94345524     82.100401    
     54560   82.606803      158.5          158.5          158.5          0.13427071    -0.080907985    0.38307247     0.10064764     82.606803    
     54580   83.088413      158.5          158.5          158.5         -0.54239157    -0.15323651    -0.72477284    -0.74916537     83.088413    
     54600   82.398243      158.5          158.5          158.5         -0.10150382    -0.019800085   -0.16854692    -0.11616446     82.398243    
     54620   83.211722      158.5          158.5          158.5          0.53471251     0.3313056      0.66598585     0.6068461      83.211722    
     54640   81.894438      158.5          158.5          158.5          0.31342871     0.43566086     0.1877276      0.31689767     81.894438    
     54660   83.274275      158.5          158.5          158.5         -0.54553981    -0.58323152    -0.43901946    -0.61436845     83.274275    
     54680   82.166614      158.5          158.5          158.5         -0.39891505    -0.56827603    -0.3893725     -0.23909664     82.166614    
     54700   83.215679      158.5          158.5          158.5          0.47095226     0.5770817      0.4962111      0.33956398     83.215679    
     54720   82.915928      158.5          158.5          158.5          0.49434071     1.0053028      0.24670667     0.2310127      82.915928    
     54740   83.54423       158.5          158.5          158.5         -0.52414016    -1.1878889     -0.27071557    -0.11381601     83.54423     
     54760   83.153216      158.5          158.5          158.5         -0.38275378    -0.45642853    -0.48518408    -0.20664873     83.153216    
     54780   83.338626      158.5          158.5          158.5          0.53181153     0.75955552     0.43592952     0.39994957     83.338626    
     54800   83.034555      158.5          158.5          158.5          0.18720892     0.19313794     0.23767897     0.13080985     83.034555    
     54820   83.299385      158.5          158.5          158.5         -0.4672385     -0.44067678    -0.42987197    -0.53116676     83.299385    
     54840   83.60094       158.5          158.5          158.5          0.15886306     0.084810804    0.071498539    0.32027985     83.60094     
     54860   83.218931      158.5          158.5          158.5         -0.012420378   -0.33772798    -0.01001356     0.31048041     83.218931    
     54880   83.225224      158.5          158.5          158.5         -0.0019264407   0.22114165     0.14182846    -0.36874943     83.225224    
     54900   83.213736      158.5          158.5          158.5         -0.047817682    0.23608971    -0.074672243   -0.30487051     83.213736    
     54920   82.933189      158.5          158.5          158.5          0.16138578     0.058646849   -0.07111893     0.49662941     82.933189    
     54940   83.694364      158.5          158.5          158.5         -0.32792687    -0.37242492    -0.067787768   -0.54356791     83.694364    
     54960   82.703441      158.5          158.5          158.5          0.070425764    0.2511355      0.095747857   -0.13560607     82.703441    
     54980   84.117947      158.5          158.5          158.5          0.21028613    -0.087726358    0.15323974     0.56534501     84.117947    
     55000   83.012783      158.5          158.5          158.5         -0.14594441    -0.084819433   -0.026076493   -0.32693731     83.012783    
     55020   83.429087      158.5          158.5          158.5         -0.17480446    -0.084032903   -0.086508339   -0.35387213     83.429087    
     55040   83.483703      158.5          158.5          158.5          0.15297743    -0.061312247    0.17157863     0.3486659      83.483703    
     55060   84.27725       158.5          158.5          158.5          0.25444443     0.55011109     0.064039205    0.149183       84.27725     
     55080   83.229971      158.5          158.5          158.5         -0.36682326    -0.29418431    -0.39111593    -0.41516953     83.229971    
     55100   82.883131      158.5          158.5          158.5         -0.11102421    -0.39469303     0.061590464    2.9935286e-05  82.883131    
     55120   83.049855      158.5          158.5          158.5          0.32849683     0.4606525      0.21036983     0.31446815     83.049855    
     55140   81.498793      158.5          158.5          158.5          0.28257362     0.64464459     0.13135261     0.071723661    81.498793    
     55160   83.233814      158.5          158.5          158.5         -0.27554127    -0.29340179    -0.23171484    -0.30150719     83.233814    
     55180   81.416286      158.5          158.5          158.5         -0.32585193    -0.35262128    -0.28082009    -0.34411441     81.416286    
     55200   83.263904      158.5          158.5          158.5          0.25917815     0.21001445     0.36265886     0.20486113     83.263904    
     55220   81.906092      158.5          158.5          158.5          0.3014392      0.21577551     0.38210441     0.30643768     81.906092    
     55240   82.790454      158.5          158.5          158.5         -0.31955146    -0.12624891    -0.57029122    -0.26211426     82.790454    
     55260   82.202168      158.5          158.5          158.5         -0.30896738    -0.15873803    -0.5864442     -0.1817199      82.202168    
     55280   82.406315      158.5          158.5          158.5          0.31216805     0.24877708     0.44416432     0.24356275     82.406315    
     55300   82.629918      158.5          158.5          158.5          0.35020174     0.17705983     0.61988346     0.25366193     82.629918    
     55320   81.984069      158.5          158.5          158.5         -0.25285973    -0.032968615   -0.50545543    -0.22015513     81.984069    
     55340   83.55693       158.5          158.5          158.5         -0.3244062     -0.26670488    -0.60145734    -0.10505637     83.55693     
     55360   82.063014      158.5          158.5          158.5          0.20429085     0.29062678     0.24779635     0.074449431    82.063014    
     55380   83.959123      158.5          158.5          158.5          0.32017187     0.13656635     0.63850632     0.18544293     83.959123    
     55400   82.254301      158.5          158.5          158.5         -0.25968186    -0.30101987    -0.3443045     -0.13372121     82.254301    
     55420   83.99301       158.5          158.5          158.5         -0.42763245    -0.20948969    -0.93938117    -0.1340265      83.99301     
     55440   82.298408      158.5          158.5          158.5          0.25026698     0.4073359      0.23623095     0.1072341      82.298408    
     55460   83.62104       158.5          158.5          158.5          0.55711019     0.37568262     1.1202608      0.17538712     83.62104     
     55480   82.91346       158.5          158.5          158.5         -0.11186541    -0.32813221     0.047406883   -0.054870914    82.91346     
     55500   83.641712      158.5          158.5          158.5         -0.70891067    -0.28051938    -1.7216413     -0.12457136     83.641712    
     55520   83.281585      158.5          158.5          158.5          0.13983724     0.17400847     0.18142652     0.064076741    83.281585    
     55540   83.800001      158.5          158.5          158.5          0.66256254     0.68685059     1.2185758      0.082261275    83.800001    
     55560   83.861316      158.5          158.5          158.5         -0.11221549    -0.42775391     0.11557352    -0.024466071    83.861316    
     55580   84.136162      158.5          158.5          158.5         -0.77037411    -0.66108383    -1.6038722     -0.046166268    84.136162    
     55600   83.036177      158.5          158.5          158.5          0.25127383     0.33361949     0.3858457      0.034356315    83.036177    
     55620   84.749165      158.5          158.5          158.5          0.78239814     0.8690246      1.4308598      0.047310054    84.749165    
     55640   83.065519      158.5          158.5          158.5         -0.39154129    -0.44515254    -0.71840754    -0.011063787    83.065519    
     55660   84.562074      158.5          158.5          158.5         -0.61414946    -0.85489047    -0.97161638    -0.015941532    84.562074    
     55680   83.731905      158.5          158.5          158.5          0.58744666     0.72078957     0.928361       0.1131894      83.731905    
     55700   84.393146      158.5          158.5          158.5         -0.0076586337  -0.1117783      0.11301065    -0.024208249    84.393146    
     55720   84.091779      158.5          158.5          158.5         -0.10771566     0.37351116    -0.62394565    -0.072712486    84.091779    
     55740   82.988271      158.5          158.5          158.5          0.067543046   -0.45746205     0.52851593     0.13157525     82.988271    
     55760   84.668163      158.5          158.5          158.5         -0.10119566    -0.44589641     0.092887632    0.049421791    84.668163    
     55780   83.59016       158.5          158.5          158.5         -0.261165       0.34245456    -0.81709642    -0.30885315     83.59016     
     55800   84.101286      158.5          158.5          158.5          0.20059562     0.10254803     0.44027952     0.058959333    84.101286    
     55820   83.61352       158.5          158.5          158.5          0.44535578     0.29098538     0.70835462     0.33672735     83.61352     
     55840   85.135824      158.5          158.5          158.5         -0.66721291    -0.58078099    -0.91871675    -0.50214099     85.135824    
     55860   83.834661      158.5          158.5          158.5          0.12053885     0.32643943    -0.19448843     0.22966555     83.834661    
     55880   84.14835       158.5          158.5          158.5          0.22455605    -0.340879       0.64780576     0.3667414      84.14835     
     55900   84.512381      158.5          158.5          158.5          0.055746869    0.24002916     0.28692385    -0.3597124      84.512381    
     55920   83.59951       158.5          158.5          158.5         -0.42203451    -0.42301169    -0.51263891    -0.33045292     83.59951     
     55940   85.094829      158.5          158.5          158.5          0.504759       0.83352363     0.08449654     0.59625682     85.094829    
     55960   83.431483      158.5          158.5          158.5         -0.45212084    -0.84129687    -0.27397682    -0.24108883     83.431483    
     55980   83.950223      158.5          158.5          158.5          0.12108807     0.26986618     0.39776781    -0.30436977     83.950223    
     56000   82.819535      158.5          158.5          158.5          0.28803364     0.31614408     0.33370317     0.21425366     82.819535    
     56020   83.867065      158.5          158.5          158.5         -0.40191387    -0.55697143    -0.65105478     0.0022846038   83.867065    
     56040   83.267322      158.5          158.5          158.5          0.11731685     0.41840275     0.0090882161  -0.07554042     83.267322    
     56060   81.698332      158.5          158.5          158.5          0.18025606     0.13213655     0.27017942     0.1384522      81.698332    
     56080   84.312899      158.5          158.5          158.5         -0.13573949    -0.30898594    -0.085332557   -0.012899976    84.312899    
     56100   82.219276      158.5          158.5          158.5          0.10387899     0.32775176     0.24200275    -0.25811753     82.219276    
     56120   83.396183      158.5          158.5          158.5          0.070386672    0.056226586   -0.10525146     0.26018489     83.396183    
     56140   82.263085      158.5          158.5          158.5         -0.15772308    -0.19602819    -0.44689781     0.16975675     82.263085    
     56160   83.229505      158.5          158.5          158.5         -0.13254826     0.024805468    0.2012218     -0.62367203     83.229505    
     56180   82.973307      158.5          158.5          158.5          0.20885908    -0.13840763     0.59649359     0.16849128     82.973307    
     56200   82.457041      158.5          158.5          158.5          0.26108972     0.21169774    -0.066133451    0.63770489     82.457041    
     56220   85.065775      158.5          158.5          158.5         -0.53416819     0.045378026   -1.0898116     -0.55807098     85.065775    
     56240   81.575488      158.5          158.5          158.5          0.033032712    0.15750552     0.20096423    -0.25937161     81.575488    
     56260   85.790464      158.5          158.5          158.5          0.38238474    -0.31384291     0.66000158     0.80099557     85.790464    
     56280   81.922079      158.5          158.5          158.5          0.18353528     0.23024287     0.47543231    -0.15506936     81.922079    
     56300   85.322543      158.5          158.5          158.5         -0.51142951    -0.034133779   -1.1545438     -0.34561093     85.322543    
     56320   84.263324      158.5          158.5          158.5          0.052741274    0.07039756    -0.45603697     0.54386323     84.263324    
     56340   83.875547      158.5          158.5          158.5          0.44099376     0.34817499     0.85437086     0.12043542     83.875547    
     56360   86.709209      158.5          158.5          158.5         -0.49864049    -0.78353183     0.14799101    -0.86038066     86.709209    
     56380   82.286342      158.5          158.5          158.5          0.18590424     0.078802493    0.36952987     0.10938035     82.286342    
     56400   85.723215      158.5          158.5          158.5          0.34056134     0.59748028    -0.17715468     0.60135841     85.723215    
     56420   84.595238      158.5          158.5          158.5         -0.70057009    -0.63737844    -1.0639324     -0.40039943     84.595238    
     56440   83.9401        158.5          158.5          158.5          0.34410799     0.29529084     0.6203006      0.11673252     83.9401      
     56460   84.947954      158.5          158.5          158.5          0.28970772     0.2678588      0.72650455    -0.1252402      84.947954    
     56480   82.98358       158.5          158.5          158.5         -0.34204202    -0.39592165    -0.4775984     -0.15260601     82.98358     
     56500   84.763244      158.5          158.5          158.5          0.018673465    0.21590812    -0.59759207     0.43770435     84.763244    
     56520   83.000478      158.5          158.5          158.5          0.081519318    0.26429331     0.24532868    -0.26506403     83.000478    
     56540   84.734926      158.5          158.5          158.5          0.015888977   -0.16418302     0.34761165    -0.1357617      84.734926    
     56560   83.190577      158.5          158.5          158.5         -0.064026165   -0.51344186     0.19504153     0.12632183     83.190577    
     56580   83.745965      158.5          158.5          158.5          0.042483822    0.31316867    -0.24597661     0.060259398    83.745965    
     56600   84.146637      158.5          158.5          158.5         -0.055794505    0.387037      -0.48765491    -0.066765604    84.146637    
     56620   83.580355      158.5          158.5          158.5         -0.12105523    -0.64836863     0.23215941     0.053043537    83.580355    
     56640   84.439796      158.5          158.5          158.5          0.17436738    -0.025635278    0.52094573     0.027791674    84.439796    
     56660   82.729063      158.5          158.5          158.5          0.11878415     0.46155797     0.07300559    -0.1782111      82.729063    
     56680   85.691844      158.5          158.5          158.5         -0.26540911    -0.27941764    -0.74231534     0.22550565     85.691844    
     56700   82.667989      158.5          158.5          158.5         -0.14890114     0.061670914   -0.25767983    -0.25069451     82.667989    
     56720   85.000432      158.5          158.5          158.5          0.41088592     0.21112411     0.7404897      0.28104395     85.000432    
     56740   83.066025      158.5          158.5          158.5          0.098596793   -0.08316417     0.47935451    -0.10039996     83.066025    
     56760   84.295855      158.5          158.5          158.5         -0.49839375    -0.12339802    -1.0522739     -0.31950937     84.295855    
     56780   83.785766      158.5          158.5          158.5          0.1267324      0.11538148    -0.24095579     0.5057715      83.785766    
     56800   83.536713      158.5          158.5          158.5          0.36260912     0.5780597      0.55271582    -0.042948142    83.536713    
     56820   86.305812      158.5          158.5          158.5         -0.0054204724  -0.65682993     0.40307013     0.23749839     86.305812    
     56840   82.26854       158.5          158.5          158.5         -0.28483658     0.0028467747  -0.15707678    -0.70027973     82.26854     
     56860   86.30004       158.5          158.5          158.5          0.023285269    0.057401866   -0.29388855     0.30634249     86.30004     
     56880   82.843891      158.5          158.5          158.5         -0.033175201    0.26361586    -0.44406068     0.08091922     82.843891    
     56900   84.757386      158.5          158.5          158.5          0.23095568    -0.39109372     0.73661751     0.34734325     84.757386    
     56920   83.281934      158.5          158.5          158.5          0.052921561    0.1164929      0.48696772    -0.44469594     83.281934    
     56940   82.345317      158.5          158.5          158.5         -0.10231872     0.0084610603  -0.42087738     0.10546016     82.345317    
     56960   84.156354      158.5          158.5          158.5          0.077778866    0.018103602   -0.28092816     0.49616115     84.156354    
     56980   82.513493      158.5          158.5          158.5         -0.051683893    0.35362013     0.067002457   -0.57567426     82.513493    
     57000   83.787656      158.5          158.5          158.5         -0.083327928   -0.6815154      0.25518264     0.17634898     83.787656    
     57020   82.00924       158.5          158.5          158.5         -0.022894874    0.1648094      0.037404883   -0.27089891     82.00924     
     57040   83.447855      158.5          158.5          158.5          0.25235868     0.2606744      0.081385772    0.41501588     83.447855    
     57060   82.12171       158.5          158.5          158.5         -0.15828668     0.14195998    -0.46813171    -0.14868831     82.12171     
     57080   82.429076      158.5          158.5          158.5         -0.068350706   -0.43629474     0.11954816     0.11169447     82.429076    
     57100   82.935505      158.5          158.5          158.5          0.11536589     0.21852527     0.4881718     -0.3605994      82.935505    
     57120   82.078758      158.5          158.5          158.5          0.07474747     0.092848642   -0.079374531    0.2107683      82.078758    
     57140   83.241062      158.5          158.5          158.5         -0.12947569    -0.14186926    -0.54555029     0.29899249     83.241062    
     57160   82.565844      158.5          158.5          158.5         -0.090955266    0.2489122      0.057567245   -0.57934525     82.565844    
     57180   83.726285      158.5          158.5          158.5          0.1560123     -0.38562188     0.45367172     0.39998706     83.726285    
     57200   82.993964      158.5          158.5          158.5         -0.03309294     0.1649823     -0.060733867   -0.20352725     82.993964    
     57220   83.356065      158.5          158.5          158.5          0.023467654   -0.060396376    0.0049553037   0.12584403     83.356065    
     57240   82.490669      158.5          158.5          158.5         -0.27045849     0.088192682   -0.63480095    -0.2647672      82.490669    
     57260   81.92774       158.5          158.5          158.5          0.025922515   -0.2952833      0.099942084    0.27310876     81.92774     
     57280   83.903406      158.5          158.5          158.5          0.41830927     0.51638032     0.69682134     0.041726167    83.903406    
     57300   81.649914      158.5          158.5          158.5          0.1378346      0.071429143    0.28978869     0.052285977    81.649914    
     57320   85.313731      158.5          158.5          158.5         -0.45751557    -0.33312392    -1.119135       0.079712225    85.313731    
     57340   83.563979      158.5          158.5          158.5          0.071227802    0.37108329    -0.074054098   -0.083345785    83.563979    
     57360   83.634363      158.5          158.5          158.5          0.26052243    -0.0043479666   0.64627078     0.13964447     83.634363    
     57380   85.745728      158.5          158.5          158.5         -0.083672836   -0.26026306     0.11495748    -0.10571293     85.745728    
     57400   82.775617      158.5          158.5          158.5          0.026840102   -0.031146641    0.23744148    -0.12577453     82.775617    
     57420   86.016244      158.5          158.5          158.5         -0.27278883     0.2140308     -0.91357941    -0.11881787     86.016244    
     57440   82.914518      158.5          158.5          158.5         -0.032168019   -0.28795551    -0.21537559     0.40682704     82.914518    
     57460   85.177076      158.5          158.5          158.5          0.38144557     0.56157207     0.73824956    -0.15548493     85.177076    
     57480   84.62428       158.5          158.5          158.5          0.24780906    -0.14957071     0.75243735     0.14056052     84.62428     
     57500   83.404485      158.5          158.5          158.5         -0.4272088     -0.20526342    -0.95942189    -0.11694109     83.404485    
     57520   86.154864      158.5          158.5          158.5         -0.029763522    0.13284424    -0.40465932     0.18252452     86.154864    
     57540   82.233325      158.5          158.5          158.5          0.22822782     0.37082887     0.37243864    -0.058584039    82.233325    
     57560   86.555025      158.5          158.5          158.5         -0.06548746    -0.53012        0.24149449     0.092163134    86.555025    
     57580   82.882395      158.5          158.5          158.5         -0.075331759   -0.044029398    0.20806711    -0.39003298     82.882395    
     57600   83.693258      158.5          158.5          158.5          0.0097441867   0.13247851    -0.039956521   -0.063289431    83.693258    
     57620   84.095597      158.5          158.5          158.5         -0.18989618     0.021260931   -0.76206418     0.1711147      84.095597    
     57640   82.441559      158.5          158.5          158.5          0.061495293   -0.19261553     0.026225968    0.35087544     82.441559    
     57660   83.233247      158.5          158.5          158.5          0.22953871     0.32238808     0.57701499    -0.21078693     83.233247    
     57680   82.34188       158.5          158.5          158.5         -0.05248944    -0.18613644     0.15585676    -0.12718864     82.34188     
     57700   83.096246      158.5          158.5          158.5         -0.29432008    -0.16152416    -0.684614      -0.036822071    83.096246    
     57720   83.256606      158.5          158.5          158.5          0.22754782     0.27053708     0.18556742     0.22653896     83.256606    
     57740   82.526704      158.5          158.5          158.5          0.094863275    0.10703778     0.19493515    -0.017383109    82.526704    
     57760   83.657552      158.5          158.5          158.5         -0.14536743    -0.36440289    -0.036363309   -0.035336081    83.657552    
     57780   82.799297      158.5          158.5          158.5         -0.018487507    0.065069044    0.21200377    -0.33253533     82.799297    
     57800   83.438306      158.5          158.5          158.5         -0.014534411    0.06618297    -0.26029154     0.15050534     83.438306    
     57820   83.267747      158.5          158.5          158.5         -0.14966851    -0.040123295   -0.45426591     0.045383666    83.267747    
     57840   83.809664      158.5          158.5          158.5          0.34315507     0.1370792      0.59956308     0.29282293     83.809664    
     57860   83.297559      158.5          158.5          158.5          0.069034466    0.027989144    0.43318539    -0.25407114     83.297559    
     57880   84.378797      158.5          158.5          158.5         -0.39771773    -0.22265626    -0.90179235    -0.06870459     84.378797    
     57900   84.204868      158.5          158.5          158.5         -0.038501562    0.079301083   -0.1053813     -0.089424468    84.204868    
     57920   88.27934       158.5          158.5          158.5          1.0715342      0.24259413     2.4329267      0.5390817      88.27934     
     57940   89.150256      158.5          158.5          158.5         -0.27987836    -0.43984298     0.17930286    -0.57909496     89.150256    
     57960   86.863673      158.5          158.5          158.5         -0.020579531    0.26214986    -0.77519651     0.45130806     86.863673    
     57980   84.08056       158.5          158.5          158.5          0.084321965    0.14449295    -0.066935737    0.17540868     84.08056     
     58000   85.452726      158.5          158.5          158.5         -0.46027502    -0.43855063    -0.19431678    -0.74795766     85.452726    
     58020   83.291329      158.5          158.5          158.5          0.10881728     0.23996655    -0.33439834     0.42088362     83.291329    
     58040   83.851236      158.5          158.5          158.5          0.43511616     0.17590973     0.82390249     0.30553627     83.851236    
     58060   83.825904      158.5          158.5          158.5         -0.64408469    -0.38395834    -0.9565675     -0.59172823     83.825904    
     58080   83.49776       158.5          158.5          158.5          0.25740261     0.148697       0.42611169     0.19739913     83.49776     
     58100   82.855308      158.5          158.5          158.5          0.15957002     0.20006204    -0.040567044    0.31921508     82.855308    
     58120   83.353505      158.5          158.5          158.5         -0.21547816    -0.21855057    -0.11716205    -0.31072187     83.353505    
     58140   82.89213       158.5          158.5          158.5         -0.01668435     0.086547412   -0.2850205      0.14842003     82.89213     
     58160   82.85435       158.5          158.5          158.5          0.30888035     0.13605062     0.57270254     0.21788789     82.85435     
     58180   83.508958      158.5          158.5          158.5         -0.42212016    -0.28880188    -0.45873287    -0.51882572     83.508958    
     58200   82.904053      158.5          158.5          158.5          0.35126427     0.14595954     0.6169519      0.29088137     82.904053    
     58220   83.634124      158.5          158.5          158.5         -0.18219914     0.12620225    -0.86321431     0.19041464     83.634124    
     58240   83.413906      158.5          158.5          158.5          0.027903251   -0.16583028     0.51680761    -0.26726758     83.413906    
     58260   82.561892      158.5          158.5          158.5         -0.037789804   -0.041147931    0.01713481    -0.08935629     82.561892    
     58280   81.654252      158.5          158.5          158.5          0.051009374    0.13693748    -0.21399522     0.23008586     81.654252    
     58300   83.340073      158.5          158.5          158.5          0.22978267     0.027636944    0.56671347     0.094997606    83.340073    
     58320   83.660318      158.5          158.5          158.5         -0.20363968    -0.14940471    -0.23469636    -0.22681798     83.660318    
     58340   82.378603      158.5          158.5          158.5          0.1708523      0.098620755    0.31515149     0.098784668    82.378603    
     58360   83.183249      158.5          158.5          158.5         -0.17031614    -0.064734344   -0.29094039    -0.15527367     83.183249    
     58380   83.917705      158.5          158.5          158.5          0.063013993    0.1262435     -0.37738067     0.44017915     83.917705    
     58400   83.338159      158.5          158.5          158.5          0.39372741     0.078908141    1.0864735      0.015800623    83.338159    
     58420   85.355445      158.5          158.5          158.5         -0.77450244    -0.38194219    -1.2561748     -0.68539029     85.355445    
     58440   83.836027      158.5          158.5          158.5          0.65347573     0.21935164     1.3792265      0.3618491      83.836027    
     58460   85.622684      158.5          158.5          158.5         -0.37625142     0.094446078   -1.6139225      0.39072217     85.622684    
     58480   84.755055      158.5          158.5          158.5          0.21479991    -0.20210475     1.55766       -0.7111555      84.755055    
     58500   85.100875      158.5          158.5          158.5         -0.2787206      0.16342096    -1.5890029      0.58942016     85.100875    
     58520   84.029587      158.5          158.5          158.5          0.19099371     0.0055703181   0.6467207     -0.079309897    84.029587    
     58540   84.748269      158.5          158.5          158.5         -0.72700204    -0.18191556    -1.3522187     -0.64687189     84.748269    
     58560   84.80253       158.5          158.5          158.5          0.8138329      0.20307988     1.6616616      0.57675722     84.80253     
     58580   84.291899      158.5          158.5          158.5         -0.2133379     -0.020434662   -0.83261724     0.2130382      84.291899    
     58600   84.632992      158.5          158.5          158.5         -0.36181847    -0.092290092   -0.27722452    -0.71594079     84.632992    
     58620   83.116072      158.5          158.5          158.5          0.21425121     0.17263504     0.017775134    0.45234345     83.116072    
     58640   83.875024      158.5          158.5          158.5          0.018450087   -0.09550985     0.017642529    0.13321758     83.875024    
     58660   84.184783      158.5          158.5          158.5         -0.12442246    -0.050248221    0.16450028    -0.48751944     84.184783    
     58680   82.299756      158.5          158.5          158.5          0.16466374     0.09642237     0.1442064      0.25336244     82.299756    
     58700   83.709902      158.5          158.5          158.5          0.019595652   -0.077023821    0.019863999    0.11594678     83.709902    
     58720   83.310842      158.5          158.5          158.5         -0.32980464    -0.04561165    -0.632863      -0.31093926     83.310842    
     58740   82.04159       158.5          158.5          158.5          0.072272756   -0.0037426807   0.31331024    -0.09274929     82.04159     
     58760   83.829438      158.5          158.5          158.5          0.49571366     0.10114898     0.80364465     0.58234735     83.829438    
     58780   82.556643      158.5          158.5          158.5         -0.25138859    -0.046121693   -0.38846312    -0.31958096     82.556643    
     58800   82.606353      158.5          158.5          158.5         -0.1996635     -0.0031399384  -0.5818622     -0.013988358    82.606353    
     58820   83.164914      158.5          158.5          158.5          0.24046436     0.028204657    0.4647867      0.22840173     83.164914    
     58840   83.463568      158.5          158.5          158.5          0.066273278    0.024228116    0.24252915    -0.067937435    83.463568    
     58860   82.460004      158.5          158.5          158.5         -0.12985492    -0.082847256   -0.067493992   -0.23922353     82.460004    
     58880   84.502169      158.5          158.5          158.5         -0.020850722   -0.027703269   -0.17093275     0.13608385     84.502169    
     58900   83.447857      158.5          158.5          158.5         -0.05340172     0.07010229    -0.29694309     0.066635635    83.447857    
     58920   83.329512      158.5          158.5          158.5         -0.065207101   -0.078532466    0.25064287    -0.36773171     83.329512    
     58940   85.594978      158.5          158.5          158.5          0.23408346     0.086933964    0.14914284     0.46617357     85.594978    
     58960   83.816376      158.5          158.5          158.5          0.24322746     0.038219805    0.69564799    -0.0041854175   83.816376    
     58980   84.883196      158.5          158.5          158.5         -0.66418755    -0.1829431     -1.2443139     -0.56530563     84.883196    
     59000   84.537604      158.5          158.5          158.5          0.15502538     0.30349111    -0.40808962     0.56967465     84.537604    
     59020   83.172178      158.5          158.5          158.5          0.30683073    -0.025190671    0.9865928     -0.040909941    83.172178    
     59040   85.579334      158.5          158.5          158.5         -0.52778095    -0.34022701    -0.70700574    -0.53611012     85.579334    
     59060   83.479504      158.5          158.5          158.5          0.61131545     0.3485368      0.90327104     0.5821385      83.479504    
     59080   85.293481      158.5          158.5          158.5         -0.48582232     0.026604777   -1.5192495      0.03517771     85.293481    
     59100   84.242665      158.5          158.5          158.5         -0.071013631   -0.41942791     0.92034333    -0.71395632     84.242665    
     59120   84.35563       158.5          158.5          158.5          0.08512424     0.26102563    -0.50115522     0.49550231     84.35563     
     59140   83.552523      158.5          158.5          158.5          0.45781443     0.27470102     0.70292901     0.39581325     83.552523    
     59160   84.315711      158.5          158.5          158.5         -0.66092453    -0.44896107    -0.92778944    -0.60602308     84.315711    
     59180   84.180683      158.5          158.5          158.5          0.41181166     0.127885       1.0897108      0.017839151    84.180683    
     59200   83.606541      158.5          158.5          158.5         -0.20141742     0.082254014   -0.84688671     0.16038044     83.606541    
     59220   85.057422      158.5          158.5          158.5          0.18321534    -0.078265007    0.54326199     0.084649029    85.057422    
     59240   83.61952       158.5          158.5          158.5         -0.32916472     0.015651811   -0.92453284    -0.07861312     83.61952     
     59260   83.705009      158.5          158.5          158.5          0.35141503     0.13567226     0.78286857     0.13570426     83.705009    
     59280   82.44383       158.5          158.5          158.5         -0.17192533    -0.25694597     0.035795527   -0.29462553     82.44383     
     59300   82.670312      158.5          158.5          158.5         -0.26250206    -0.015342629   -0.6699411     -0.10222244     82.670312    
     59320   83.722753      158.5          158.5          158.5          0.65770955     0.35679302     0.94431052     0.67202512     83.722753    
     59340   82.461818      158.5          158.5          158.5         -0.25929025    -0.22179896    -0.15915089    -0.39692091     82.461818    
     59360   83.504594      158.5          158.5          158.5         -0.28614567    -0.15400609    -0.33190466    -0.37252625     83.504594    
     59380   82.993875      158.5          158.5          158.5          0.44243926     0.20087283     0.72343213     0.40301282     82.993875    
     59400   84.965409      158.5          158.5          158.5         -0.33801101    -0.038818262   -0.84776253    -0.12745225     84.965409    
     59420   83.261659      158.5          158.5          158.5          0.21964367     0.013883054    0.38121923     0.26382873     83.261659    
     59440   83.484537      158.5          158.5          158.5         -0.072203089    0.059611474   -0.16730289    -0.10891785     83.484537    
     59460   84.035254      158.5          158.5          158.5         -0.20428082    -0.1447378     -0.076944741   -0.39115992     84.035254    
     59480   83.854692      158.5          158.5          158.5          0.35929507    -0.018492277    0.81877515     0.27760233     83.854692    
     59500   87.279269      158.5          158.5          158.5         -0.40860751     0.18306792    -1.4828727      0.073982271    87.279269    
     59520   84.274399      158.5          158.5          158.5          0.3704252     -0.0073677094   0.77554301     0.34310031     84.274399    
     59540   85.865453      158.5          158.5          158.5         -0.33378915    -0.2611539     -0.11198787    -0.62822567     85.865453    
     59560   83.945853      158.5          158.5          158.5          0.0040269674   0.10953237     0.0035165043  -0.10096797     83.945853    
     59580   85.273077      158.5          158.5          158.5          0.33260145     0.10794539     0.35229075     0.53756822     85.273077    
     59600   88.364813      158.5          158.5          158.5         -0.68209699    -0.19607865    -1.4543489     -0.39586345     88.364813    
     59620   83.390386      158.5          158.5          158.5          0.65458467     0.29945324     1.0200823      0.64421852     83.390386    
     59640   84.229145      158.5          158.5          158.5          0.081447635    0.078369275    0.20232917    -0.036355543    84.229145    
     59660   88.093466      158.5          158.5          158.5         -0.59076591    -0.60255108    -0.21538235    -0.9543643      88.093466    
     59680   82.685464      158.5          158.5          158.5          0.37856305     0.12765054     0.86605439     0.14198423     82.685464    
     59700   82.949826      158.5          158.5          158.5          0.40748187     0.45100514     0.19208449     0.57935597     82.949826    
     59720   85.402772      158.5          158.5          158.5         -0.65279392    -0.37280696    -1.3503648     -0.23521003     85.402772    
     59740   83.811776      158.5          158.5          158.5          0.44519055     0.10837099     1.0555779      0.17162275     83.811776    
     59760   85.291577      158.5          158.5          158.5         -0.16487052     0.075702748   -0.53977781    -0.030536496    85.291577    
     59780   83.365832      158.5          158.5          158.5         -0.016160026   -0.1329137      0.43057178    -0.34613816     83.365832    
     59800   83.41171       158.5          158.5          158.5         -0.19825269    -0.060272146   -0.64749473     0.11300882     83.41171     
     59820   83.994258      158.5          158.5          158.5          0.533196       0.33479136     0.70828572     0.5565109      83.994258    
     59840   82.950198      158.5          158.5          158.5         -0.33033295    -0.24878938    -0.37732412    -0.36488534     82.950198    
     59860   83.740322      158.5          158.5          158.5         -0.039151637   -0.086588532    0.33112053    -0.36198691     83.740322    
     59880   82.85915       158.5          158.5          158.5          0.13282991     0.2462271     -0.27362156     0.42588418     82.85915     
     59900   84.447453      158.5          158.5          158.5          0.094116621   -0.091598808    0.43772       -0.063771324    84.447453    
     59920   82.798535      158.5          158.5          158.5         -0.19895659    -0.054246449   -0.59637882     0.053755503    82.798535    
     59940   84.842716      158.5          158.5          158.5          0.36089556     0.2019628      0.71887796     0.16184592     84.842716    
     59960   84.073651      158.5          158.5          158.5         -0.65614423    -0.21377089    -1.3370907     -0.41757109     84.073651    
     59980   83.703552      158.5          158.5          158.5          0.3017817     -0.030657402    0.96653947    -0.030536971    83.703552    
     60000   84.91555       158.5          158.5          158.5          0.30621969     0.28636402    -0.10871248     0.74100752     84.91555     
     60020   83.35894       158.5          158.5          158.5         -0.014896029   -0.13181186     0.57088762    -0.48376385     83.35894     
     60040   85.143754      158.5          158.5          158.5         -0.66292958    -0.10773351    -1.4867349     -0.39432037     85.143754    
     60060   84.071601      158.5          158.5          158.5          0.44196676     0.28889843     0.35644711     0.68055475     84.071601    
     60080   83.569602      158.5          158.5          158.5         -0.15109669    -0.17987618     0.022717043   -0.29613093     83.569602    
     60100   84.315531      158.5          158.5          158.5         -0.11378374    -0.19127181     0.27896374    -0.42904314     84.315531    
     60120   83.655099      158.5          158.5          158.5          0.58816816     0.34010781     0.5780531      0.84634356     83.655099    
     60140   84.705952      158.5          158.5          158.5         -0.44759645    -0.11978149    -0.87195717    -0.3510507      84.705952    
     60160   83.774517      158.5          158.5          158.5         -0.52147203    -0.24072162    -0.60394542    -0.71974904     83.774517    
     60180   84.280565      158.5          158.5          158.5          0.67138399     0.35563835     0.72307882     0.9354348      84.280565    
     60200   84.502911      158.5          158.5          158.5          0.36030532     0.1796286      0.68408836     0.21719899     84.502911    
     60220   83.524447      158.5          158.5          158.5         -0.58624345    -0.41005169    -0.64936269    -0.69931597     83.524447    
     60240   84.402623      158.5          158.5          158.5         -0.31248231    -0.14876072    -0.52642982    -0.26225637     84.402623    
     60260   82.373783      158.5          158.5          158.5          0.51901897     0.39549187     0.375529       0.78603603     82.373783    
     60280   83.866758      158.5          158.5          158.5          0.46864633     0.21256755     0.92294438     0.27042706     83.866758    
     60300   82.384435      158.5          158.5          158.5         -0.22300219    -0.2994754     -0.071304634   -0.29822653     82.384435    
     60320   83.420269      158.5          158.5          158.5         -0.38313013    -0.19457748    -0.52559891    -0.42921399     83.420269    
     60340   83.23929       158.5          158.5          158.5          0.20023467     0.28484834     0.027222584    0.28863309     83.23929     
     60360   82.631037      158.5          158.5          158.5          0.18076796     0.046723769    0.24026467     0.25531544     82.631037    
     60380   83.647937      158.5          158.5          158.5         -0.23189202    -0.26080362     0.018110037   -0.45298249     83.647937    
     60400   82.452331      158.5          158.5          158.5          0.18796339     0.090982196    0.25513638     0.21777158     82.452331    
     60420   83.016726      158.5          158.5          158.5          0.027775525    0.11621944    -0.20933049     0.17643762     83.016726    
     60440   83.082506      158.5          158.5          158.5         -0.37854811    -0.13547409    -0.5815583     -0.41861194     83.082506    
     60460   82.534108      158.5          158.5          158.5          0.20619215     0.10244351     0.40905312     0.10707983     82.534108    
     60480   83.102736      158.5          158.5          158.5          0.15110686     0.053070282    0.11876976     0.28148055     83.102736    
     60500   82.687206      158.5          158.5          158.5         -0.072329306   -0.22443219     0.2364358     -0.22899153     82.687206    
     60520   82.819475      158.5          158.5          158.5         -0.13636822     0.098413176   -0.49043197    -0.017085875    82.819475    
     60540   83.092828      158.5          158.5          158.5          0.09628778     0.23814418    -0.075782935    0.12650209     83.092828    
     60560   82.706226      158.5          158.5          158.5         -0.23203511    -0.31318984    -0.14964634    -0.23326916     82.706226    
     60580   83.133331      158.5          158.5          158.5          0.18121746    -0.045275497    0.50178097     0.087146919    83.133331    
     60600   82.876231      158.5          158.5          158.5          0.19114104     0.337544      -0.13986302     0.37574215     82.876231    
     60620   83.59328       158.5          158.5          158.5         -0.28451239    -0.27626171    -0.20623942    -0.37103604     83.59328     
     60640   83.000062      158.5          158.5          158.5         -0.17660324    -0.11734897    -0.20710177    -0.20535898     83.000062    
     60660   83.365421      158.5          158.5          158.5          0.40169847     0.41784829     0.40293642     0.38431071     83.365421    
     60680   83.70096       158.5          158.5          158.5         -0.16986723    -0.24808336    -0.32584952     0.06433118     83.70096     
     60700   82.613933      158.5          158.5          158.5         -0.16030505    -0.21393879    -0.10672897    -0.16024739     82.613933    
     60720   84.314118      158.5          158.5          158.5          0.27375617     0.39115186     0.40228432     0.027832341    84.314118    
     60740   82.466432      158.5          158.5          158.5         -0.19490542    -0.26912125    -0.18671021    -0.1288848      82.466432    
     60760   83.483943      158.5          158.5          158.5         -0.10146826    -0.14324504    -0.31806916     0.15690942     83.483943    
     60780   82.637073      158.5          158.5          158.5          0.27295109     0.36523993     0.22535594     0.22825739     82.637073    
     60800   82.742689      158.5          158.5          158.5          0.14214561    -0.11242849     0.49968704     0.039178284    82.742689    
     60820   85.967408      158.5          158.5          158.5         -0.35670997    -0.23725962    -0.2004748     -0.63239548     85.967408    
     60840   82.46193       158.5          158.5          158.5          0.22650709     0.16677097     0.42232288     0.090427421    82.46193     
     60860   83.021152      158.5          158.5          158.5          0.18108739    -0.0052156127   0.28679641     0.26168136     83.021152    
     60880   83.257627      158.5          158.5          158.5         -0.082323578    0.035928147   -0.4232417      0.14034282     83.257627    
     60900   82.724814      158.5          158.5          158.5         -0.018498661   -0.027999373    0.06407885    -0.091575459    82.724814    
     60920   84.125549      158.5          158.5          158.5         -0.031357596   -0.093091822    0.23639352    -0.23737449     84.125549    
     60940   82.584197      158.5          158.5          158.5         -0.0097629313   0.02844585    -0.14310758     0.085372931    82.584197    
     60960   83.914737      158.5          158.5          158.5          0.072397199   -0.010266292    0.01454286     0.21291503     83.914737    
     60980   82.876751      158.5          158.5          158.5          0.038168925   -0.075578412    0.17451284     0.015572352    82.876751    
     61000   83.506693      158.5          158.5          158.5         -0.14279357     0.0012889823  -0.24610666    -0.18356304     83.506693    
     61020   83.276219      158.5          158.5          158.5         -0.066976729    0.091779981   -0.25340239    -0.039307777    83.276219    
     61040   82.882848      158.5          158.5          158.5         -0.021513475    0.0046397253  -0.17539163     0.10621148     82.882848    
     61060   83.344337      158.5          158.5          158.5          0.23563841    -0.065900643    0.6339977      0.13881817     83.344337    
     61080   82.631788      158.5          158.5          158.5         -0.09904956    -0.10977593    -0.19090259     0.003529836    82.631788    
     61100   83.483347      158.5          158.5          158.5         -0.15392773     0.08023617    -0.37505221    -0.16696714     83.483347    
     61120   83.026488      158.5          158.5          158.5         -0.086040801    0.1264998     -0.27401862    -0.11060358     83.026488    
     61140   82.719193      158.5          158.5          158.5          0.019758237   -0.087151499    0.035003017    0.11142319     82.719193    
     61160   83.398524      158.5          158.5          158.5          0.19261601    -0.088005313    0.55808307     0.10777029     83.398524    
     61180   82.745565      158.5          158.5          158.5         -0.06173566     0.021628593   -0.0097014922  -0.19713408     82.745565    
     61200   83.343099      158.5          158.5          158.5         -0.098961323    0.068558294   -0.42855973     0.063117467    83.343099    
     61220   83.06648       158.5          158.5          158.5         -0.045513109    0.064480032   -0.26497994     0.063960581    83.06648     
     61240   82.834457      158.5          158.5          158.5          0.064377671   -0.056447293    0.36314255    -0.11356225     82.834457    
     61260   83.055857      158.5          158.5          158.5          0.054681718   -0.12122397     0.33287128    -0.047602163    83.055857    
     61280   84.479068      158.5          158.5          158.5          0.21833992     0.051790723    0.58712799     0.016101043    84.479068    
     61300   85.252836      158.5          158.5          158.5          0.024463472    0.32262372    -0.78248718     0.53325388     85.252836    
     61320   83.537679      158.5          158.5          158.5          0.15777084    -0.0075550544   0.45102547     0.029842107    83.537679    
     61340   86.03431       158.5          158.5          158.5         -0.26874961    -0.40527108     0.20814732    -0.60912507     86.03431     
     61360   83.965936      158.5          158.5          158.5         -0.034746786   -0.13737241     0.3727747     -0.33964265     83.965936    
     61380   85.784512      158.5          158.5          158.5          0.39261403     0.28989031     0.092516434    0.79543536     85.784512    
     61400   85.988273      158.5          158.5          158.5         -0.39784119    -0.015890923   -0.86255507    -0.31507759     85.988273    
     61420   83.336312      158.5          158.5          158.5         -0.38367591    -0.26414284    -0.17378591    -0.71309898     83.336312    
     61440   86.845988      158.5          158.5          158.5          0.61819299     0.28692139     0.6372184      0.93043917     86.845988    
     61460   84.188092      158.5          158.5          158.5          0.39630825     0.11649453     1.0177042      0.054725979    84.188092    
     61480   84.548884      158.5          158.5          158.5         -0.75314115    -0.32423957    -1.2785985     -0.6565854      84.548884    
     61500   85.681173      158.5          158.5          158.5          0.17843669     0.25499033    -0.18405577     0.46437551     85.681173    
     61520   82.488794      158.5          158.5          158.5         -0.04980863     0.022561659   -0.14691638    -0.025071171    82.488794    
     61540   84.244646      158.5          158.5          158.5         -0.13530541    -0.22278581     0.26057902    -0.44370945     84.244646    
     61560   83.773076      158.5          158.5          158.5          0.49196163     0.18480143     0.7370926      0.55399088     83.773076    
     61580   82.742072      158.5          158.5          158.5         -0.13305345     0.016725653   -0.4867907      0.070904699    82.742072    
     61600   84.361844      158.5          158.5          158.5         -0.39712797    -0.20975187    -0.31951257    -0.66211947     84.361844    
     61620   82.931371      158.5          158.5          158.5          0.077181282    0.20741318    -0.34752649     0.37165716     82.931371    
     61640   83.516581      158.5          158.5          158.5          0.40727087     0.10529059     0.82889872     0.2876233      83.516581    
     61660   83.992343      158.5          158.5          158.5         -0.30034467    -0.30219371    -0.16057972    -0.43826058     83.992343    
     61680   82.857613      158.5          158.5          158.5          0.11846664     0.10407481     0.092118495    0.15920662     82.857613    
     61700   84.27215       158.5          158.5          158.5         -0.079554715    0.16897893    -0.6414156      0.23377252     84.27215     
     61720   83.263624      158.5          158.5          158.5         -0.23376532    -0.29029545     0.14944427    -0.56044479     83.263624    
     61740   84.230072      158.5          158.5          158.5          0.21720622     0.097370269    0.26406986     0.29017854     84.230072    
     61760   83.510016      158.5          158.5          158.5          0.44233585     0.28668329     0.49142381     0.54890045     83.510016    
     61780   84.647243      158.5          158.5          158.5         -0.61120649    -0.36570387    -0.731978      -0.73593758     84.647243    
     61800   83.772264      158.5          158.5          158.5         -0.0036374587  -0.033127607    0.17372615    -0.15151092     83.772264    
     61820   84.134933      158.5          158.5          158.5          0.36261854     0.33398326     0.049253767    0.70461859     84.134933    
     61840   85.18662       158.5          158.5          158.5         -0.011125614   -0.18109339     0.37600627    -0.22828973     85.18662     
     61860   82.927495      158.5          158.5          158.5         -0.19720088    -0.034191016   -0.42208291    -0.1353287      82.927495    
     61880   85.813538      158.5          158.5          158.5          0.15515267     0.22354317     0.097018958    0.14489589     85.813538    
     61900   82.841326      158.5          158.5          158.5         -0.20329249    -0.22981129    -0.082386872   -0.29767932     82.841326    
     61920   85.373688      158.5          158.5          158.5          0.055727343    0.039662583   -0.12558623     0.25310568     85.373688    
     61940   83.570789      158.5          158.5          158.5          0.58245309     0.36519326     0.87517524     0.50699078     83.570789    
     61960   85.07552       158.5          158.5          158.5         -0.65746023    -0.3491766     -1.0082495     -0.61495458     85.07552     
     61980   84.084127      158.5          158.5          158.5          0.2485866      0.014037727    0.96929686    -0.23757479     84.084127    
     62000   84.539294      158.5          158.5          158.5          0.041331911    0.26049859    -0.74998007     0.61347721     84.539294    
     62020   86.537191      158.5          158.5          158.5          0.2294386     -0.19611068     1.1123405     -0.227914       86.537191    
     62040   84.245768      158.5          158.5          158.5         -0.47994753    -0.0045820793  -1.5479572      0.1126967      84.245768    
     62060   87.082115      158.5          158.5          158.5          0.62331015     0.35556704     1.4189135      0.095449896    87.082115    
     62080   84.708332      158.5          158.5          158.5         -0.85301603    -0.4900633     -1.540269      -0.52871578     84.708332    
     62100   86.111058      158.5          158.5          158.5          0.57955608     0.13130594     1.3394544      0.26790791     86.111058    
     62120   85.578187      158.5          158.5          158.5          0.10204823     0.4604645     -0.88804074     0.73372093     85.578187    
     62140   86.055721      158.5          158.5          158.5         -0.15103744    -0.48111035     0.87772723    -0.84972919     86.055721    
     62160   84.52701       158.5          158.5          158.5         -0.50363653    -0.1645666     -0.94279617    -0.40354683     84.52701     
     62180   85.227101      158.5          158.5          158.5          0.83949567     0.60915117     1.1322632      0.77707262     85.227101    
     62200   85.627853      158.5          158.5          158.5         -0.42749345    -0.27219089    -0.98615134    -0.024138122    85.627853    
     62220   83.115372      158.5          158.5          158.5          0.027406951   -0.2087809      0.5626162     -0.27161445     83.115372    
     62240   85.74557       158.5          158.5          158.5          0.046616044    0.39778649    -0.39723259     0.13929423     85.74557     
     62260   82.745069      158.5          158.5          158.5          0.0047915317  -0.1802274      0.34938274    -0.15478074     82.745069    
     62280   84.44937       158.5          158.5          158.5         -0.268773      -0.15752016    -0.71765011     0.068851273    84.44937     
     62300   83.492557      158.5          158.5          158.5          0.5825659      0.40009914     0.85809323     0.48950534     83.492557    
     62320   83.743155      158.5          158.5          158.5         -0.4126825     -0.18737949    -0.63137479    -0.41929322     83.743155    
     62340   83.297043      158.5          158.5          158.5         -0.023871654   -0.22584942     0.50191611    -0.34768165     83.297043    
     62360   83.712759      158.5          158.5          158.5          0.1417652      0.36886458    -0.41748906     0.47392008     83.712759    
     62380   83.848703      158.5          158.5          158.5          0.2241991     -0.081043305    0.66421846     0.089422153    83.848703    
     62400   83.204642      158.5          158.5          158.5         -0.47018659    -0.22531918    -0.88866955    -0.29657103     83.204642    
     62420   84.687209      158.5          158.5          158.5          0.46447408     0.33242699     0.89909796     0.16189728     84.687209    
     62440   83.002746      158.5          158.5          158.5         -0.3910153     -0.15314606    -0.88596702    -0.13393283     83.002746    
     62460   84.746348      158.5          158.5          158.5          0.13200975    -0.22215723     0.64984622    -0.031659751    84.746348    
     62480   84.3958        158.5          158.5          158.5          0.15773616     0.49608292    -0.59594509     0.57307066     84.3958      
     62500   84.511734      158.5          158.5          158.5          0.095494804   -0.14633803     0.81567466    -0.38285222     84.511734    
     62520   84.769266      158.5          158.5          158.5         -0.74312619    -0.52141549    -0.99189025    -0.71607281     84.769266    
     62540   85.637477      158.5          158.5          158.5          0.82908263     0.6239297      1.0794498      0.78386839     85.637477    
     62560   84.869217      158.5          158.5          158.5         -0.070767067    0.082463425   -0.60511983     0.3103552      84.869217    
     62580   85.216496      158.5          158.5          158.5         -0.34648357    -0.62459955     0.42077759    -0.83562877     85.216496    
     62600   86.410666      158.5          158.5          158.5          0.076097749    0.39388386    -0.39434073     0.22875012     86.410666    
     62620   83.23486       158.5          158.5          158.5          0.32218843     0.21513977     0.45259173     0.29883377     83.23486     
     62640   87.378366      158.5          158.5          158.5         -0.61185047    -0.47961341    -1.0561644     -0.29977364     87.378366    
     62660   83.814823      158.5          158.5          158.5          0.67290791     0.37593728     1.1586109      0.48417561     83.814823    
     62680   85.993953      158.5          158.5          158.5         -0.30733724     0.033837282   -0.90924594    -0.046603058    85.993953    
     62700   84.751297      158.5          158.5          158.5         -0.13886333    -0.45586892     0.84688772    -0.80760878     84.751297    
     62720   86.25448       158.5          158.5          158.5         -0.068766891    0.33935473    -1.2103846      0.6647292      86.25448     
     62740   85.413802      158.5          158.5          158.5          0.77902533     0.19006504     1.9463054      0.20070551     85.413802    
     62760   86.75724       158.5          158.5          158.5         -1.0761401     -0.53175823    -2.1864409     -0.51022123     86.75724     
     62780   86.44607       158.5          158.5          158.5          0.73082709     0.20614392     1.9438769      0.042460454    86.44607     
     62800   85.683715      158.5          158.5          158.5         -0.57473892     0.091799691   -2.1491722      0.3331558      85.683715    
     62820   86.828739      158.5          158.5          158.5          0.33666883    -0.28322496     1.8582102     -0.56497877     86.828739    
     62840   84.588116      158.5          158.5          158.5         -0.26028448     0.22945769    -1.5572043      0.54689318     84.588116    
     62860   84.851898      158.5          158.5          158.5          0.38460282     0.012075826    1.2944849     -0.15275223     84.851898    
     62880   84.011824      158.5          158.5          158.5         -0.69602147    -0.30670643    -1.362734      -0.418624       84.011824    
     62900   83.521617      158.5          158.5          158.5          0.53961927     0.2396785      1.0005967      0.3785826      83.521617    
     62920   83.185493      158.5          158.5          158.5          0.072368952    0.066413777   -0.056168093    0.20686117     83.185493    
     62940   82.902366      158.5          158.5          158.5         -0.28289362    -0.27011408    -0.12464795    -0.45391883     82.902366    
     62960   83.496523      158.5          158.5          158.5          0.19078851     0.20573968     0.11986582     0.24676004     83.496523    
     62980   82.551836      158.5          158.5          158.5         -0.090531791    0.065247078   -0.45558342     0.11874097     82.551836    
     63000   83.613773      158.5          158.5          158.5         -0.0022908373  -0.28559078     0.70127343    -0.42255516     83.613773    
     63020   83.282904      158.5          158.5          158.5          0.059147168    0.19192075    -0.45637491     0.44189567     83.282904    
     63040   83.059618      158.5          158.5          158.5          0.26318271     0.074134129    0.70268106     0.012732949    83.059618    
     63060   84.091506      158.5          158.5          158.5         -0.68516946    -0.26778768    -1.3073177     -0.48040303     84.091506    
     63080   83.258951      158.5          158.5          158.5          0.51876352     0.19837785     1.0914471      0.26646563     83.258951    
     63100   83.920413      158.5          158.5          158.5         -0.027420294    0.13817311    -0.6437357      0.42330171     83.920413    
     63120   84.322619      158.5          158.5          158.5         -0.056358987   -0.43816088     1.0285412     -0.75945731     84.322619    
     63140   84.154932      158.5          158.5          158.5         -0.30034721     0.21295749    -1.4677299      0.35373078     84.154932    
     63160   84.627773      158.5          158.5          158.5          0.5502676      0.31595277     1.0370728      0.29777721     84.627773    
     63180   85.725977      158.5          158.5          158.5         -0.91904567    -0.574263      -1.4562099     -0.72666406     85.725977    
     63200   85.086805      158.5          158.5          158.5          0.72630284     0.13149958     1.7734037      0.27400519     85.086805    
     63220   84.896816      158.5          158.5          158.5          0.072384855    0.34545488    -0.94019138     0.81189106     84.896816    
     63240   86.683747      158.5          158.5          158.5         -0.37420506    -0.43428937     0.50809978    -1.1964256      86.683747    
     63260   84.208025      158.5          158.5          158.5         -0.41494771     0.087968855   -1.4746885      0.14187653     84.208025    
     63280   85.422766      158.5          158.5          158.5          0.94004958     0.53083809     1.3818136      0.90749704     85.422766    
     63300   85.756937      158.5          158.5          158.5         -0.65660468    -0.70025946    -0.48408154    -0.78547304     85.756937    
     63320   82.718167      158.5          158.5          158.5          0.070710613   -0.056696633    0.44941621    -0.18058773     82.718167    
     63340   85.888771      158.5          158.5          158.5          0.57782691     0.65654652     0.1349717      0.94196252     85.888771    
     63360   84.635373      158.5          158.5          158.5         -0.7873087     -0.42396672    -1.2350596     -0.70289982     84.635373    
     63380   84.094096      158.5          158.5          158.5          0.10902079    -0.20385146     0.91437906    -0.38346523     84.094096    
     63400   87.670805      158.5          158.5          158.5          0.37957625     0.47617291    -0.36681197     1.0293678      87.670805    
     63420   85.974665      158.5          158.5          158.5          0.25394709    -0.086077799    1.307229      -0.45930996     85.974665    
     63440   85.03641       158.5          158.5          158.5         -0.83583872    -0.41643602    -1.577101      -0.51397916     85.03641     
     63460   86.738584      158.5          158.5          158.5          0.63805353     0.50850008     0.51997483     0.88568569     86.738584    
     63480   83.048958      158.5          158.5          158.5         -0.28982763    -0.16833075    -0.28020524    -0.42094689     83.048958    
     63500   84.521583      158.5          158.5          158.5         -0.35358566    -0.33030924    -0.17976307    -0.55068468     84.521583    
     63520   86.74351       158.5          158.5          158.5          1.0475451      0.5253611      1.5339148      1.0833595      86.74351     
     63540   84.139005      158.5          158.5          158.5         -0.59655549    -0.1935238     -1.3023719     -0.2937708      84.139005    
     63560   86.881772      158.5          158.5          158.5         -0.26481012    -0.30971672     0.33857643    -0.82329009     86.881772    
     63580   85.292924      158.5          158.5          158.5          0.12232301     0.51474053    -0.83141346     0.68364197     85.292924    
     63600   83.888544      158.5          158.5          158.5          0.3551997     -0.091749453    1.0152971      0.14205151     83.888544    
     63620   84.80935       158.5          158.5          158.5         -0.49589265    -0.57494954    -0.22186108    -0.69086734     84.80935     
     63640   83.635305      158.5          158.5          158.5          0.48103941     0.50007625     0.32343152     0.61961045     83.635305    
     63660   83.391219      158.5          158.5          158.5          0.032226391    0.14898838    -0.13013982     0.077830605    83.391219    
     63680   84.255026      158.5          158.5          158.5         -0.72141047    -0.53721901    -0.90339601    -0.72361638     84.255026    
     63700   83.779573      158.5          158.5          158.5          0.65474589     0.37234768     1.0022113      0.58967872     83.779573    
     63720   83.732474      158.5          158.5          158.5          0.041037487    0.17261435    -0.27237138     0.22286949     83.732474    
     63740   84.114932      158.5          158.5          158.5         -0.15404851    -0.46861739     0.62418447    -0.61771261     84.114932    
     63760   84.04183       158.5          158.5          158.5         -0.09255343     0.35567028    -1.0139643      0.38063375     84.04183     
     63780   83.538217      158.5          158.5          158.5          0.27274492     0.11535314     0.57398265     0.12889896     83.538217    
     63800   84.094085      158.5          158.5          158.5         -0.61271515    -0.56089173    -0.72622088    -0.55103283     84.094085    
     63820   83.856824      158.5          158.5          158.5          0.61183753     0.38643225     1.0457686      0.40331177     83.856824    
     63840   83.06409       158.5          158.5          158.5          0.078498473    0.35550642    -0.49488338     0.37487238     83.06409     
     63860   84.514423      158.5          158.5          158.5         -0.45857579    -0.67938361     0.077211318   -0.77355508     84.514423    
     63880   83.085984      158.5          158.5          158.5          0.018816394    0.26685916    -0.44403024     0.23362026     83.085984    
     63900   83.394723      158.5          158.5          158.5          0.52403682     0.46797604     0.63269143     0.471443       83.394723    
     63920   85.119806      158.5          158.5          158.5         -0.4871512     -0.74198505    -0.13516274    -0.58430581     85.119806    
     63940   82.615495      158.5          158.5          158.5          0.12710979     0.28344158    -0.16058006     0.25846784     82.615495    
     63960   85.144176      158.5          158.5          158.5          0.41486144     0.65555297     0.17331474     0.41571661     85.144176    
     63980   85.727644      158.5          158.5          158.5         -0.83776204    -1.0601244     -0.63288496    -0.82027673     85.727644    
     64000   83.520778      158.5          158.5          158.5          0.39251423     0.18436321     0.78609931     0.20708016     83.520778    
     64020   86.694022      158.5          158.5          158.5          0.58254156     1.0615863     -0.18348054     0.86951893     86.694022    
     64040   86.656156      158.5          158.5          158.5         -0.60365938    -1.0426163      0.14118699    -0.90954884     86.656156    
     64060   83.423139      158.5          158.5          158.5         -0.28845649    -0.1471715     -0.43752337    -0.28067461     83.423139    
     64080   87.320322      158.5          158.5          158.5          0.93680207     1.1414106      0.84752785     0.82146773     87.320322    
     64100   85.973696      158.5          158.5          158.5         -0.61578013    -0.84388952    -0.74007008    -0.2633808      85.973696    
     64120   83.232036      158.5          158.5          158.5         -0.16385064    -0.29956898    -0.0083346499  -0.18364828     83.232036    
     64140   87.579127      158.5          158.5          158.5          0.70422061     1.0774419      0.57914999     0.45606998     87.579127    
     64160   84.393275      158.5          158.5          158.5         -0.65340766    -0.76956869    -0.73607246    -0.45458183     84.393275    
     64180   84.065425      158.5          158.5          158.5         -0.022473759   -0.28672337     0.081456007    0.13784608     84.065425    
     64200   86.273128      158.5          158.5          158.5          0.52483545     0.98957675     0.095401071    0.48952853     86.273128    
     64220   84.33474       158.5          158.5          158.5         -0.11309877    -0.55501318     0.48179483    -0.26607797     84.33474     
     64240   84.189021      158.5          158.5          158.5         -0.66238633    -0.46309216    -0.80693519    -0.71713164     84.189021    
     64260   84.496137      158.5          158.5          158.5          0.77582822     0.85346704     0.76673397     0.70728366     84.496137    
     64280   83.527344      158.5          158.5          158.5         -0.078588597   -0.29205111     0.02709457     0.02919075     83.527344    
     64300   83.143326      158.5          158.5          158.5         -0.64106432    -0.38437884    -1.0322669     -0.50654726     83.143326    
     64320   83.232002      158.5          158.5          158.5          0.63536966     0.57519763     0.6355715      0.69533985     83.232002    
     64340   83.732559      158.5          158.5          158.5          0.15216811    -0.1785808      0.75021957    -0.11513445     83.732559    
     64360   83.549396      158.5          158.5          158.5         -0.63985096    -0.29819665    -0.83631095    -0.78504527     83.549396    
     64380   82.322826      158.5          158.5          158.5          0.42052775     0.2925975      0.40590999     0.56307577     82.322826    
     64400   83.872017      158.5          158.5          158.5          0.12261116     0.013331474    0.27419375     0.080308241    83.872017    
     64420   82.456936      158.5          158.5          158.5         -0.28941621    -0.058906822   -0.62349929    -0.18584253     82.456936    
     64440   84.219831      158.5          158.5          158.5          0.17095576     0.0095936695   0.16545038     0.33782323     84.219831    
     64460   83.900943      158.5          158.5          158.5         -0.17434588    -0.086425091    0.089164525   -0.52577707     83.900943    
     64480   81.580608      158.5          158.5          158.5          0.070554515    0.090481076    0.056015429    0.065167039    81.580608    
     64500   84.963594      158.5          158.5          158.5          0.22733342     0.090127833   -0.1110109      0.70288333     84.963594    
     64520   82.832812      158.5          158.5          158.5         -0.42187252    -0.24045281    -0.36995081    -0.65521392     82.832812    
     64540   83.346656      158.5          158.5          158.5          0.31124353     0.19022711     0.64578127     0.097722209    83.346656    
     64560   83.740051      158.5          158.5          158.5          0.10096751     0.060792225   -0.10025638     0.34236668     83.740051    
     64580   83.791889      158.5          158.5          158.5         -0.6523475     -0.40457933    -0.87166934    -0.68079383     83.791889    
     64600   84.095135      158.5          158.5          158.5          0.62990957     0.34916408     0.88852234     0.6520423      84.095135    
     64620   82.32159       158.5          158.5          158.5          0.30086788     0.33949675     0.15184566     0.41126122     82.32159     
     64640   85.685912      158.5          158.5          158.5         -1.0463681     -0.79133275    -0.93910774    -1.4086638      85.685912    
     64660   82.849333      158.5          158.5          158.5          0.59986211     0.30248048     0.94929831     0.54780754     82.849333    
     64680   83.477625      158.5          158.5          158.5          0.66952908     0.66331836     0.56818052     0.77708834     83.477625    
     64700   85.609851      158.5          158.5          158.5         -1.1145427     -0.97269527    -1.4087516     -0.96218118     85.609851    
     64720   83.099132      158.5          158.5          158.5          0.43742158     0.19410402     0.73441893     0.3837418      83.099132    
     64740   84.881633      158.5          158.5          158.5          0.49423493     0.78826906     0.36646338     0.32797234     84.881633    
     64760   85.057108      158.5          158.5          158.5         -0.82579589    -0.96651618    -0.87080871    -0.64006278     85.057108    
     64780   83.517293      158.5          158.5          158.5          0.32484307     0.11720567     0.47496489     0.38235865     83.517293    
     64800   85.845626      158.5          158.5          158.5          0.38757918     0.93733818    -0.22781578     0.45321516     85.845626    
     64820   86.568275      158.5          158.5          158.5         -0.40334396    -1.0301634      0.53118311    -0.71105164     86.568275    
     64840   83.342627      158.5          158.5          158.5         -0.37130669    -0.075121952   -0.8222559     -0.21654223     83.342627    
     64860   86.959286      158.5          158.5          158.5          1.0437598      1.0922402      1.2325527      0.80648653     86.959286    
     64880   86.10428       158.5          158.5          158.5         -0.87832615    -0.96549733    -1.205067      -0.46441417     86.10428     
     64900   83.476017      158.5          158.5          158.5          0.081520232   -0.26116706     0.7775221     -0.27179434     83.476017    
     64920   87.96326       158.5          158.5          158.5          0.354598       1.0905742     -0.83301517     0.80623499     87.96326     
     64940   84.262893      158.5          158.5          158.5         -0.28506824    -0.6810005      0.43528904    -0.60949327     84.262893    
     64960   84.237058      158.5          158.5          158.5         -0.42681125    -0.4857564     -0.56540197    -0.22927539     84.237058    
     64980   86.186926      158.5          158.5          158.5          0.96505414     0.86528144     1.1388795      0.89100151     86.186926    
     65000   83.946812      158.5          158.5          158.5         -0.62697763    -0.3061191     -1.1269622     -0.44785161     83.946812    
     65020   84.230188      158.5          158.5          158.5         -0.2610972     -0.41229529     0.2400724     -0.61106872     84.230188    
     65040   85.310207      158.5          158.5          158.5          0.39262048     0.67007595    -0.37466009     0.88244558     85.310207    
     65060   83.525194      158.5          158.5          158.5          0.17634663    -0.21038449     0.87950038    -0.14007599     83.525194    
     65080   84.098695      158.5          158.5          158.5         -0.65631753    -0.49847225    -0.75153124    -0.71894911     84.098695    
     65100   84.579153      158.5          158.5          158.5          0.64970206     0.55219232     0.59619032     0.80072353     84.579153    
     65120   82.780781      158.5          158.5          158.5         -0.19818695    -0.0022878089  -0.48218035    -0.11009269     82.780781    
     65140   83.821816      158.5          158.5          158.5         -0.57687853    -0.51407306    -0.43256161    -0.78400092     83.821816    
     65160   84.270313      158.5          158.5          158.5          0.75262299     0.45243833     0.91484232     0.89058831     84.270313    
     65180   83.110244      158.5          158.5          158.5          0.024898108    0.14999194    -0.13318211     0.057884495    83.110244    
     65200   84.611882      158.5          158.5          158.5         -0.56636907    -0.51804204    -0.2908932     -0.89017196     84.611882    
     65220   84.039625      158.5          158.5          158.5          0.27339197     0.29359163    -0.18810115     0.71468544     84.039625    
     65240   83.24826       158.5          158.5          158.5          0.22336597     0.27209219     0.17749032     0.2205154      83.24826     
     65260   84.954738      158.5          158.5          158.5         -0.43033562    -0.50277211     0.12267755    -0.91091229     84.954738    
     65280   84.722507      158.5          158.5          158.5          0.11622515     0.017586686   -0.1601255      0.49121425     84.722507    
     65300   85.757905      158.5          158.5          158.5          0.39467287     0.3655548      0.58990425     0.22855958     85.757905    
     65320   84.828882      158.5          158.5          158.5         -0.33320605    -0.12824625    -0.7321432     -0.13922871     84.828882    
     65340   83.723914      158.5          158.5          158.5         -0.39124997    -0.27975294    -0.33183251    -0.56216445     83.723914    
     65360   83.805025      158.5          158.5          158.5          0.36239818     0.17137296     0.66969414     0.24612744     83.805025    
     65380   85.015802      158.5          158.5          158.5          0.49875189     0.42373824     0.11174252     0.9607749      85.015802    
     65400   85.895138      158.5          158.5          158.5          0.13369168    -0.068972333    0.56678989    -0.096742522    85.895138    
     65420   85.498395      158.5          158.5          158.5         -0.57192348    -0.28766927    -0.96992416    -0.45817701     85.498395    
     65440   84.830663      158.5          158.5          158.5         -0.20669281    -0.33129106     0.36271906    -0.65150644     84.830663    
     65460   87.023195      158.5          158.5          158.5          0.55439052     0.47711046     0.34167648     0.84438462     87.023195    
     65480   84.249655      158.5          158.5          158.5          0.086325102   -0.095503099    0.40561625    -0.05113784     84.249655    
     65500   84.929012      158.5          158.5          158.5         -0.4531916     -0.19916548    -0.93809907    -0.22231026     84.929012    
     65520   83.083999      158.5          158.5          158.5         -0.10160554     0.082462637   -0.20697263    -0.18030663     83.083999    
     65540   84.507967      158.5          158.5          158.5          0.41961916     0.025881336    0.78852086     0.44445529     84.507967    
     65560   85.372311      158.5          158.5          158.5          0.088631453    0.091038129   -0.18906596     0.36392219     85.372311    
     65580   84.558584      158.5          158.5          158.5         -0.42584436    -0.12124189    -0.0011041952  -1.155187       84.558584    
     65600   83.726292      158.5          158.5          158.5          0.14697165    -0.028927537   -0.099557134    0.56939962     83.726292    
     65620   83.961425      158.5          158.5          158.5          0.16938478     0.128161      -0.32232397     0.70231731     83.961425    
     65640   85.562744      158.5          158.5          158.5         -0.3945003     -0.1064792      0.30426546    -1.3812872      85.562744    
     65660   84.060083      158.5          158.5          158.5          0.16571754    -0.017889983   -0.019137015    0.53417963     84.060083    
     65680   83.698227      158.5          158.5          158.5          0.58438418     0.20179676     0.61623266     0.93512311     83.698227    
     65700   85.401892      158.5          158.5          158.5         -0.7876362     -0.19981236    -0.76988024    -1.393216       85.401892    
     65720   83.219247      158.5          158.5          158.5         -0.071219596   -0.045997843   -0.57947174     0.4118108      83.219247    
     65740   85.342838      158.5          158.5          158.5          0.93068831     0.21658341     1.3725297      1.2029518      85.342838    
     65760   86.964321      158.5          158.5          158.5         -0.9050733     -0.16476666    -0.92315415    -1.6272991      86.964321    
     65780   83.145007      158.5          158.5          158.5          0.35211905     0.025619571    0.96574795     0.064989631    83.145007    
     65800   87.559742      158.5          158.5          158.5          0.22840889     0.089831857   -1.0548178      1.6502127      87.559742    
     65820   86.194123      158.5          158.5          158.5         -0.6295875     -0.10568927    -0.097976946   -1.6850963      86.194123    
     65840   83.30273       158.5          158.5          158.5         -0.13921529     0.016336702   -0.28842071    -0.14556185     83.30273     
     65860   87.785596      158.5          158.5          158.5          1.1475293      0.16351704     1.4783138      1.8007572      87.785596    
     65880   84.225842      158.5          158.5          158.5         -0.64297162    -0.045115308   -1.1786758     -0.70512378     84.225842    
     65900   86.141092      158.5          158.5          158.5         -0.1992644     -0.11459163     0.52399479    -1.0071964      86.141092    
     65920   85.431456      158.5          158.5          158.5          0.30069292    -0.0075289617  -0.40222347     1.3118312      85.431456    
     65940   85.700531      158.5          158.5          158.5          0.11009863     0.11980187     0.73401505    -0.52352104     85.700531    
     65960   84.890335      158.5          158.5          158.5         -0.46377887    -0.00377177    -1.3252959     -0.062268905    84.890335    
     65980   85.151496      158.5          158.5          158.5          0.6646309      0.089557954    1.0090519      0.89528284     85.151496    
     66000   84.66249       158.5          158.5          158.5         -0.46605076    -0.17664857    -0.33037699    -0.8911267      84.66249     
     66020   82.959442      158.5          158.5          158.5         -0.15360603     0.0054535026  -0.13003267    -0.33623891     82.959442    
     66040   86.104232      158.5          158.5          158.5          0.6912164      0.194506       0.65955315     1.2195901      86.104232    
     66060   82.958257      158.5          158.5          158.5         -0.4031104     -0.072264664   -0.67176138    -0.46530514     82.958257    
     66080   85.056071      158.5          158.5          158.5         -0.053730974   -0.088221389    0.56533551    -0.63830704     85.056071    
     66100   85.13662       158.5          158.5          158.5          0.059562763   -0.013604567   -0.27719005     0.46948291     85.13662     
     66120   83.940633      158.5          158.5          158.5          0.19244283     0.075078793    0.41889641     0.083353277    83.940633    
     66140   83.784058      158.5          158.5          158.5         -0.38112839    -0.0053548499  -0.8850519     -0.25297844     83.784058    
     66160   82.308422      158.5          158.5          158.5          0.16602353     0.059804608   -0.076311463    0.51457744     82.308422    
     66180   84.8743        158.5          158.5          158.5          0.35595361     0.0047562418   1.0334313      0.02967326     84.8743      
     66200   84.170396      158.5          158.5          158.5         -0.31411522    -0.069027151   -0.37330407    -0.50001444     84.170396    
     66220   82.014127      158.5          158.5          158.5         -0.098279408   -0.012114241   -0.10690439    -0.1758196      82.014127    
     66240   84.349698      158.5          158.5          158.5          0.37607023     0.021082118    0.78634245     0.32078611     84.349698    
     66260   84.655455      158.5          158.5          158.5         -0.23408736     0.15347232    -0.92905693     0.073322548    84.655455    
     66280   82.498121      158.5          158.5          158.5         -0.015529519   -0.12006335    -0.0047199637   0.078194756    82.498121    
     66300   84.082681      158.5          158.5          158.5          0.09705845    -0.11860602     0.64761098    -0.2378296      84.082681    
     66320   83.669094      158.5          158.5          158.5         -0.17429197     0.13796691    -0.48804898    -0.17279382     83.669094    
     66340   84.388536      158.5          158.5          158.5          0.13410328    -0.1232402      0.10221087     0.42333919     84.388536    
     66360   83.341199      158.5          158.5          158.5         -0.17908005     0.096220213   -0.45910847    -0.17435188     83.341199    
     66380   82.493142      158.5          158.5          158.5          0.16967917     0.11214091     0.24106949     0.15582712     82.493142    
     66400   84.32989       158.5          158.5          158.5          0.074727586   -0.25236324     0.41138458     0.065161421    84.32989     
     66420   82.754193      158.5          158.5          158.5         -0.45145547    -0.01059833    -0.68993201    -0.65383606     82.754193    
     66440   82.939326      158.5          158.5          158.5          0.37591833     0.17034073     0.48177841     0.47563584     82.939326    
     66460   82.387452      158.5          158.5          158.5          0.35778639     0.065900449    0.39187784     0.61558088     82.387452    
     66480   84.197678      158.5          158.5          158.5         -0.63191024    -0.099282099   -0.81138323    -0.98506539     84.197678    
     66500   83.406121      158.5          158.5          158.5          0.15475308    -0.12050686     0.58730502    -0.0025389133   83.406121    
     66520   82.312158      158.5          158.5          158.5          0.40235046     0.082727376    0.41422049     0.71010352     82.312158    
     66540   85.572069      158.5          158.5          158.5         -0.57245722     0.070442017   -1.2536418     -0.53417185     85.572069    
     66560   83.119108      158.5          158.5          158.5          0.21744713    -0.065414196    0.32277959     0.39497599     83.119108    
     66580   83.902691      158.5          158.5          158.5          0.34767449     0.07254139     0.49404508     0.47643699     83.902691    
     66600   85.239549      158.5          158.5          158.5         -0.60124002    -0.12570746    -0.35058137    -1.3274312      85.239549    
     66620   83.131018      158.5          158.5          158.5          0.13746066    -0.057939394    0.32878291     0.14153846     83.131018    
     66640   83.498733      158.5          158.5          158.5          0.59589008     0.20646749     0.47300284     1.1081999      83.498733    
     66660   84.860572      158.5          158.5          158.5         -0.45611505     0.0048078803  -0.69098198    -0.68217105     84.860572    
     66680   83.916881      158.5          158.5          158.5          0.093634741   -0.10939691     0.62843591    -0.23813478     83.916881    
     66700   86.74658       158.5          158.5          158.5          0.024015513    0.11847957    -0.74811496     0.70168193     86.74658     
     66720   83.289598      158.5          158.5          158.5          0.10905556    -0.11845728     0.76680452    -0.32118057     83.289598    
     66740   85.247605      158.5          158.5          158.5         -0.62226446    -0.045556885   -1.3802655     -0.44097098     85.247605    
     66760   85.084582      158.5          158.5          158.5          0.90098341     0.27153665     1.5256458      0.90576782     85.084582    
     66780   83.588891      158.5          158.5          158.5         -0.47429334    -0.069473278   -1.2108429     -0.14256385     83.588891    
     66800   84.718592      158.5          158.5          158.5         -0.20273996    -0.30800962     0.62489604    -0.92510629     84.718592    
     66820   83.941322      158.5          158.5          158.5          0.092021516    0.23388582    -0.83749277     0.87967151     83.941322    
     66840   83.740051      158.5          158.5          158.5          0.37631316     0.022927598    1.0302775      0.075734338    83.740051    
     66860   83.662828      158.5          158.5          158.5         -0.54480783    -0.1468723     -0.89842491    -0.58912628     83.662828    
     66880   84.06866       158.5          158.5          158.5          0.43312075     0.10389727     0.75907377     0.4363912      84.06866     
     66900   83.575332      158.5          158.5          158.5         -0.35171738     0.020343905   -1.1296654      0.054169306    83.575332    
     66920   84.024159      158.5          158.5          158.5         -0.027008509   -0.21600112     0.68989598    -0.55492038     84.024159    
     66940   83.910958      158.5          158.5          158.5          0.099808912    0.17702051    -0.35391595     0.47632218     83.910958    
     66960   83.042325      158.5          158.5          158.5          0.35108544     0.10224087     0.64659821     0.30441723     83.042325    
     66980   83.407955      158.5          158.5          158.5         -0.48937964    -0.23568359    -0.43192349    -0.80053184     83.407955    
     67000   83.674382      158.5          158.5          158.5         -0.061239018    0.050880871   -0.52105801     0.28646008     83.674382    
     67020   83.926956      158.5          158.5          158.5          0.57685336     0.14609604     0.8179395      0.76652456     83.926956    
     67040   84.054494      158.5          158.5          158.5         -0.52911607    -0.15174869    -0.40941809    -1.0261814      84.054494    
     67060   82.846244      158.5          158.5          158.5         -0.14697301    -0.062232583   -0.067977339   -0.31070912     82.846244    
     67080   85.048892      158.5          158.5          158.5          0.73365899     0.24237205     0.65215151     1.3064534      85.048892    
     67100   82.928167      158.5          158.5          158.5         -0.24389571    -0.060665516   -0.43714938    -0.23387224     82.928167    
     67120   84.711354      158.5          158.5          158.5         -0.83290252    -0.31614952    -0.60746442    -1.5750936      84.711354    
     67140   83.542301      158.5          158.5          158.5          0.53075211     0.21629518     0.48834996     0.88761119     83.542301    
     67160   84.648057      158.5          158.5          158.5          0.84683634     0.26085838     0.77413164     1.505519       84.648057    
     67180   82.956498      158.5          158.5          158.5         -0.49715742    -0.14533407    -0.57588028    -0.77025791     82.956498    
     67200   85.05235       158.5          158.5          158.5         -1.046209      -0.38625623    -0.77816202    -1.9742088      85.05235     
     67220   83.160258      158.5          158.5          158.5          0.57876339     0.23308798     0.78723663     0.71596556     83.160258    
     67240   85.67902       158.5          158.5          158.5          0.90671715     0.36007127     0.58103707     1.7790431      85.67902     
     67260   82.160311      158.5          158.5          158.5         -0.013563429    0.083249813   -0.21405862     0.090118519    82.160311    
     67280   86.785054      158.5          158.5          158.5         -0.96576953    -0.56908675    -0.65533818    -1.6728837      86.785054    
     67300   82.526898      158.5          158.5          158.5          0.14467089     0.11628704     0.10956284     0.20816278     82.526898    
     67320   85.321629      158.5          158.5          158.5          0.84705167     0.57597267     0.73641782     1.2287645      85.321629    
     67340   85.159317      158.5          158.5          158.5         -0.53733562    -0.61058791    -0.40815035    -0.59326859     85.159317    
     67360   83.309384      158.5          158.5          158.5         -0.18311882     0.14327593    -0.11770149    -0.57493091     83.309384    
     67380   83.570996      158.5          158.5          158.5          0.39490407     0.35160602     0.13876565     0.69434052     83.570996    
     67400   83.395311      158.5          158.5          158.5         -0.28418377    -0.41302216    -0.4516064      0.012077243    83.395311    
     67420   84.266447      158.5          158.5          158.5          0.13531251     0.27663743     0.5961026     -0.4668025      84.266447    
     67440   83.969944      158.5          158.5          158.5         -0.12719654    -0.33555633    -0.53904591     0.4930126      83.969944    
     67460   83.651918      158.5          158.5          158.5          0.29100136     0.40456273     0.57016746    -0.10172611     83.651918    
     67480   83.698868      158.5          158.5          158.5         -0.64135347    -0.51846747    -0.95051832    -0.45507461     83.698868    
     67500   83.576357      158.5          158.5          158.5          0.51812748     0.49963332     0.62829741     0.42645171     83.576357    
     67520   83.104301      158.5          158.5          158.5         -0.17025111    -0.27260801    -0.49957453     0.26142922     83.104301    
     67540   83.252138      158.5          158.5          158.5         -0.0072939581   0.12313689     0.4649983     -0.61001707     83.252138    
     67560   83.3207        158.5          158.5          158.5         -0.13059422    -0.37542818    -0.39005656     0.37370209     83.3207      
     67580   82.820091      158.5          158.5          158.5          0.31404202     0.3694268      0.44634282     0.12635645     82.820091    
     67600   83.630543      158.5          158.5          158.5         -0.47611414    -0.22450891    -0.68235705    -0.52147646     83.630543    
     67620   83.10299       158.5          158.5          158.5          0.48997378     0.45101337     0.57355229     0.44535567     83.10299     
     67640   83.589231      158.5          158.5          158.5         -0.24384036    -0.6178635     -0.40705632     0.29339874     83.589231    
     67660   84.452034      158.5          158.5          158.5          0.01106474     0.28456134     0.54718415    -0.79855127     84.452034    
     67680   84.608213      158.5          158.5          158.5         -0.27943467    -0.19088753    -0.77547532     0.12805885     84.608213    
     67700   84.32475       158.5          158.5          158.5          0.73432615     0.72731349     0.67308906     0.80257591     84.32475     
     67720   83.800205      158.5          158.5          158.5         -0.62767714    -0.83145855    -0.22842768    -0.8231452      83.800205    
     67740   82.705543      158.5          158.5          158.5         -0.18719348    -0.14011463    -0.20328923    -0.21817657     82.705543    
     67760   85.654243      158.5          158.5          158.5          0.96395792     1.1396319      0.51342047     1.2388214      85.654243    
     67780   83.02732       158.5          158.5          158.5         -0.62139396    -0.76080839    -0.20544379    -0.89792972     83.02732     
     67800   83.01461       158.5          158.5          158.5         -0.44571472    -0.64064931     0.066094693   -0.76258953     83.01461     
     67820   86.045864      158.5          158.5          158.5          0.89360759     1.1054103      0.38053433     1.1948781      86.045864    
     67840   82.487379      158.5          158.5          158.5         -0.12799493    -0.093263284   -0.13758477    -0.15313674     82.487379    
     67860   84.99061       158.5          158.5          158.5         -0.82300289    -1.1837185     -0.33676054    -0.94852967     84.99061     
     67880   84.841089      158.5          158.5          158.5          0.74143686     0.72943815     0.45498147     1.039891       84.841089    
     67900   83.646289      158.5          158.5          158.5          0.18081908     0.41040064    -0.19295043     0.32500704     83.646289    
     67920   85.107698      158.5          158.5          158.5         -0.7650843     -0.6731652     -0.22034306    -1.4017446      85.107698    
     67940   83.376602      158.5          158.5          158.5          0.40728878     0.26002582     0.46182531     0.50001522     83.376602    
     67960   85.553899      158.5          158.5          158.5          0.24043362     0.44792871    -0.41559964     0.68897179     85.553899    
     67980   83.638917      158.5          158.5          158.5         -0.2423717     -0.085180741   -0.027763589   -0.61417078     83.638917    
     68000   84.368456      158.5          158.5          158.5         -0.058142189   -0.56766056     0.27761077     0.11562323     84.368456    
     68020   84.624108      158.5          158.5          158.5          0.07981671     0.39611811    -0.34568838     0.1890204      84.624108    
     68040   84.239973      158.5          158.5          158.5          0.076647302    0.61158916     0.037805298   -0.41945255     84.239973    
     68060   85.840062      158.5          158.5          158.5         -0.2199169     -1.2814507      0.17832131     0.44337872     85.840062    
     68080   82.352167      158.5          158.5          158.5          0.12870066     0.12776741     0.10589398     0.15244059     82.352167    
     68100   86.665854      158.5          158.5          158.5          0.072226718    1.159156      -0.21457654    -0.7278993      86.665854    
     68120   85.091749      158.5          158.5          158.5         -0.30820008    -1.1671265     -0.018492403    0.26101869     85.091749    
     68140   85.083226      158.5          158.5          158.5          0.15803031    -0.25603771     0.57328799     0.15684063     85.083226    
     68160   86.198703      158.5          158.5          158.5          0.051585062    0.96656837    -0.74819999    -0.063613194    86.198703    
     68180   85.598498      158.5          158.5          158.5          0.097319907   -0.43876756     0.10963435     0.62109294     85.598498    
     68200   87.156207      158.5          158.5          158.5         -0.251995      -0.059987074    0.28542961    -0.98142754     87.156207    
     68220   84.856583      158.5          158.5          158.5         -0.026756526    0.54945985    -0.65905414     0.029324707    84.856583    
     68240   87.050042      158.5          158.5          158.5          0.48640742    -0.3141906      0.45804427     1.3153686      87.050042    
     68260   87.949293      158.5          158.5          158.5         -0.27354176     0.48600479    -0.15598621    -1.1506439      87.949293    
     68280   85.390302      158.5          158.5          158.5         -0.04037761    -0.40744858     0.16909746     0.11721829     85.390302    
     68300   83.570388      158.5          158.5          158.5         -0.12919151    -0.14838785    -0.18789416    -0.051292527    83.570388    
     68320   85.542106      158.5          158.5          158.5         -0.18608776    -0.26612112    -0.11950415    -0.17263802     85.542106    
     68340   82.700721      158.5          158.5          158.5          0.48307892     0.61893954     0.21188913     0.61840809     82.700721    
     68360   82.51107       158.5          158.5          158.5          0.22455967     0.20759934     0.10625615     0.35982352     82.51107     
     68380   84.312386      158.5          158.5          158.5         -0.63459061    -0.68171662    -0.11700266    -1.1050526      84.312386    
     68400   81.218998      158.5          158.5          158.5          0.088436383    0.40557302    -0.092290781   -0.047973093    81.218998    
     68420   83.916126      158.5          158.5          158.5          0.64903826     0.33202833     0.24177515     1.3733113      83.916126    
     68440   83.290107      158.5          158.5          158.5         -0.38149347     0.023242227   -0.04481985    -1.1229028      83.290107    
     68460   82.691719      158.5          158.5          158.5         -0.2802393     -0.82223516    -0.0055310901  -0.012951638    82.691719    
     68480   83.736703      158.5          158.5          158.5          0.29313886     0.72864768    -0.09237543     0.24314431     83.736703    
     68500   82.40993       158.5          158.5          158.5          0.052343582    0.02693666     0.085549084    0.044545002    82.40993     
     68520   82.962349      158.5          158.5          158.5         -0.25817871    -0.89449845     0.061145768    0.058816571    82.962349    
     68540   83.206831      158.5          158.5          158.5         -0.022170966    0.50475904    -0.19942232    -0.37184962     83.206831    
     68560   84.17994       158.5          158.5          158.5          0.28922852     0.0053695703   0.14998894     0.71232704     84.17994     
     68580   82.059961      158.5          158.5          158.5         -0.12866882     0.40417343    -0.059373299   -0.7308066      82.059961    
     68600   83.942532      158.5          158.5          158.5         -0.068381486   -0.57544969     0.15863394     0.21167129     83.942532    
     68620   81.478351      158.5          158.5          158.5         -0.075458485   -0.090612466   -0.099584983   -0.036178005    81.478351    
     68640   82.230617      158.5          158.5          158.5          0.31685955     0.56735324     0.13304877     0.25017664     82.230617    
     68660   83.324248      158.5          158.5          158.5          0.36840655     0.40816277     0.2634339      0.43362298     83.324248    
     68680   82.369713      158.5          158.5          158.5         -0.56301589    -0.65884588    -0.31165076    -0.71855105     82.369713    
     68700   83.800315      158.5          158.5          158.5         -0.22244534    -0.7916907      0.14817388    -0.023819218    83.800315    
     68720   84.906922      158.5          158.5          158.5          0.60280771     1.3079635     -0.10105545     0.60151508     84.906922    
     68740   83.262164      158.5          158.5          158.5          0.092961971   -0.24905517     0.22381206     0.30412902     83.262164    
     68760   85.067185      158.5          158.5          158.5         -0.85403182    -0.77192834    -0.28263092    -1.5075362      85.067185    
     68780   84.019656      158.5          158.5          158.5          0.51093038     0.78738208    -0.065003779    0.81041282     84.019656    
     68800   83.83956       158.5          158.5          158.5          0.67678069     0.46462172     0.4329623      1.132758       83.83956     
     68820   86.574296      158.5          158.5          158.5         -1.1028477     -0.93620779    -0.42654812    -1.9457872      86.574296    
     68840   83.395722      158.5          158.5          158.5          0.34127352     0.32863798     0.14860068     0.54658189     83.395722    
     68860   84.067408      158.5          158.5          158.5          0.64933897     0.52780641     0.17411955     1.2460909      84.067408    
     68880   87.293466      158.5          158.5          158.5         -0.91693625    -0.61744194    -0.43679884    -1.696568       87.293466    
     68900   82.839422      158.5          158.5          158.5          0.32368547     0.034018524    0.22072801     0.71630987     82.839422    
     68920   85.719018      158.5          158.5          158.5          0.39700861     0.092539625   -0.27563818     1.3741244      85.719018    
     68940   86.513705      158.5          158.5          158.5         -0.69304875    -0.14230443     0.20874367    -2.1455855      86.513705    
     68960   83.189446      158.5          158.5          158.5          0.016576414   -0.23728167    -0.13989343     0.42690435     83.189446    
     68980   85.857959      158.5          158.5          158.5          0.93250603     0.50510052     0.52176058     1.770657       85.857959    
     69000   85.598289      158.5          158.5          158.5         -0.96738121    -0.29321692    -0.76732921    -1.8415975      85.598289    
     69020   83.04544       158.5          158.5          158.5          0.11384526     0.21816634     0.34495097    -0.22158152     83.04544     
     69040   85.239408      158.5          158.5          158.5          0.46028139    -0.24876566    -0.1244009      1.7540107      85.239408    
     69060   84.427563      158.5          158.5          158.5         -0.24911511     0.018715052    0.47747534    -1.2435357      84.427563    
     69080   82.812117      158.5          158.5          158.5         -0.29962926     0.060545243   -0.64144039    -0.31799263     82.812117    
     69100   84.317871      158.5          158.5          158.5          0.52341557     0.32782537     0.060037289    1.182384       84.317871    
     69120   83.459037      158.5          158.5          158.5         -0.28241287    -0.50850006     0.43358699    -0.77232554     83.459037    
     69140   83.268629      158.5          158.5          158.5         -0.33510682    -0.056025141   -0.61148799    -0.33780733     83.268629    
     69160   83.717133      158.5          158.5          158.5          0.66825092     0.86085245     0.40988878     0.73401152     83.717133    
     69180   83.626376      158.5          158.5          158.5         -0.24993172    -0.90599371     0.37283795    -0.21663938     83.626376    
     69200   83.361452      158.5          158.5          158.5         -0.42382183    -0.0044990427  -0.90364261    -0.36332383     83.361452    
     69220   82.936969      158.5          158.5          158.5          0.4890595      0.84752146     0.32399781     0.29565922     82.936969    
     69240   84.162136      158.5          158.5          158.5          0.052584114   -0.76782157     0.68088101     0.24469291     84.162136    
     69260   84.041257      158.5          158.5          158.5         -0.33729539     0.18055574    -0.97973792    -0.21270399     84.041257    
     69280   83.313826      158.5          158.5          158.5         -0.018343699   -0.032431987    0.34944282    -0.37204193     83.313826    
     69300   82.906009      158.5          158.5          158.5          0.42931421     0.46429647     0.2994321      0.52421407     82.906009    
     69320   82.790515      158.5          158.5          158.5         -0.15999799    -0.15190445    -0.28375664    -0.044332887    82.790515    
     69340   83.873585      158.5          158.5          158.5         -0.55746134    -1.3452999      0.25573719    -0.58282129     83.873585    
     69360   84.22427       158.5          158.5          158.5          0.56327275     1.0050104      0.1761359      0.50867199     84.22427     
     69380   84.093626      158.5          158.5          158.5          0.2476066      0.57784747     0.025151667    0.13982065     84.093626    
     69400   83.677531      158.5          158.5          158.5         -0.24118587    -0.50331428    -0.50332083     0.28307751     83.677531    
     69420   86.998968      158.5          158.5          158.5         -0.20101159    -0.38914        0.60634467    -0.82023945     86.998968    
     69440   83.881463      158.5          158.5          158.5          0.47922346     0.54212338     0.090679365    0.80486765     83.881463    
     69460   83.93067       158.5          158.5          158.5         -0.20732187    -0.45067465    -0.37606522     0.20477427     83.93067     
     69480   84.914688      158.5          158.5          158.5         -0.39186723     0.1521356     -0.17989709    -1.1478402      84.914688    
     69500   84.367529      158.5          158.5          158.5          0.71091602     0.40795462     0.44252917     1.2822643      84.367529    
     69520   85.327067      158.5          158.5          158.5         -0.634227      -0.49979668    -0.25574968    -1.1471347      85.327067    
     69540   82.885216      158.5          158.5          158.5          0.25315053    -0.05488115     0.12907545     0.68525729     82.885216    
     69560   85.255299      158.5          158.5          158.5         -0.14943905     0.3445829     -0.14219706    -0.65070298     85.255299    
     69580   83.095726      158.5          158.5          158.5          0.087809467   -0.2153647      0.067306042    0.41148706     83.095726    
     69600   84.858765      158.5          158.5          158.5         -0.36970621     0.10599473     0.070258553   -1.2853719      84.858765    
     69620   83.483036      158.5          158.5          158.5          0.59316101     0.3025504      0.35227417     1.1246584      83.483036    
     69640   84.489641      158.5          158.5          158.5         -0.61876323    -0.50996241    -0.49021119    -0.85611608     84.489641    
     69660   82.849777      158.5          158.5          158.5          0.21133642     0.081108857   -0.046598478    0.59949887     82.849777    
     69680   83.600103      158.5          158.5          158.5          0.23766535     0.21803452     0.53820742    -0.043245876    83.600103    
     69700   83.091807      158.5          158.5          158.5         -0.34783376    -0.053553598   -0.35861552    -0.63133215     83.091807    
     69720   83.298012      158.5          158.5          158.5          0.24390691     0.24148861    -0.1213018      0.61153391     83.298012    
     69740   84.427841      158.5          158.5          158.5         -0.020817358   -0.48605726     0.57109063    -0.14748544     84.427841    
     69760   83.098509      158.5          158.5          158.5         -0.31328282     0.012858005   -0.70489333    -0.24781315     83.098509    
     69780   83.051075      158.5          158.5          158.5          0.26950005     0.50085656     0.18132185     0.12632174     83.051075    
     69800   83.420912      158.5          158.5          158.5          0.24107352    -0.19158906     0.81877217     0.096037438    83.420912    
     69820   83.560202      158.5          158.5          158.5         -0.48503121    -0.37208858    -1.0060269     -0.076978121    83.560202    
     69840   81.467948      158.5          158.5          158.5          0.022617865    0.13633262    -0.046784972   -0.021694053    81.467948    
     69860   85.608006      158.5          158.5          158.5          0.61079609     0.10290928     1.231334       0.49814495     85.608006    
     69880   82.802421      158.5          158.5          158.5         -0.11795782     0.36404897    -0.60289103    -0.11503142     82.802421    
     69900   82.837902      158.5          158.5          158.5         -0.38815343    -0.37237466    -0.73966997    -0.052415668    82.837902    
     69920   85.646295      158.5          158.5          158.5          0.29113816    -0.39577515     1.2114361      0.057753484    85.646295    
     69940   83.850336      158.5          158.5          158.5         -0.0285472      0.39452856    -0.62351719     0.14334703     83.850336    
     69960   84.043484      158.5          158.5          158.5         -0.18923423     0.12757326    -0.16605087    -0.52922507     84.043484    
     69980   83.916007      158.5          158.5          158.5          0.19793639    -0.14993757     0.67590761     0.067839121    83.916007    
     70000   86.684224      158.5          158.5          158.5          0.072690094   -0.010009532   -0.61016254     0.83824235     86.684224    
     70020   84.256674      158.5          158.5          158.5         -0.58994832    -0.37344029    -0.17793233    -1.2184723      84.256674    
     70040   86.030254      158.5          158.5          158.5          0.70037076     0.53318714     0.66799265     0.89993248     86.030254    
     70060   84.298255      158.5          158.5          158.5         -0.4144578     -0.097545354   -0.04037378    -1.1054543      84.298255    
     70080   85.341685      158.5          158.5          158.5          0.11765431    -0.2015452     -0.0099051573   0.56441329     85.341685    
     70100   83.714963      158.5          158.5          158.5         -0.095495352    0.20472954    -0.32163804    -0.16957756     83.714963    
     70120   85.209373      158.5          158.5          158.5          0.050180743   -0.19101928    -0.014085329    0.35564684     85.209373    
     70140   83.667627      158.5          158.5          158.5         -0.2114323     -0.040712036    0.04248361    -0.63606846     83.667627    
     70160   83.886617      158.5          158.5          158.5          0.35822307     0.34020808     0.50050916     0.23395198     83.886617    
     70180   83.365482      158.5          158.5          158.5         -0.2008053     -0.096459528   -0.18984626    -0.3161101      83.365482    
     70200   83.295246      158.5          158.5          158.5         -0.22082648    -0.28955659    -0.4306752      0.057752358    83.295246    
     70220   83.396106      158.5          158.5          158.5          0.43167857     0.2077442      0.37559133     0.71170019     83.396106    
     70240   83.976173      158.5          158.5          158.5         -0.2622036      0.11128019     0.23921408    -1.1371051      83.976173    
     70260   83.523401      158.5          158.5          158.5          0.14175943    -0.12361846    -0.15883029     0.70772704     83.523401    
     70280   83.032504      158.5          158.5          158.5         -0.16071609    -0.018381003   -0.60029974     0.13653248     83.032504    
     70300   83.709187      158.5          158.5          158.5         -0.10531814    -0.079599298    0.47411575    -0.71047087     83.709187    
     70320   83.377394      158.5          158.5          158.5          0.49982647     0.35767019     0.43169639     0.71011282     83.377394    
     70340   82.767888      158.5          158.5          158.5         -0.22583658    -0.066147682   -0.55426105    -0.057101021    82.767888    
     70360   84.019747      158.5          158.5          158.5         -0.50364057    -0.53098986    -0.25858207    -0.72134977     84.019747    
     70380   83.878464      158.5          158.5          158.5          0.52601705     0.68662303     0.10470548     0.78672265     83.878464    
     70400   83.739962      158.5          158.5          158.5          0.25711702     0.24644759     0.71634872    -0.19144525     83.739962    
     70420   82.905248      158.5          158.5          158.5         -0.46725307    -0.6964855     -0.59092852    -0.1143452      82.905248    
     70440   82.493969      158.5          158.5          158.5         -0.36441624    -0.46154082    -0.44252264    -0.18918526     82.493969    
     70460   83.733721      158.5          158.5          158.5          0.73177627     1.2004645      0.4073974      0.5874669      83.733721    
     70480   82.414525      158.5          158.5          158.5          0.305978       0.18065528     0.7087915      0.028487226    82.414525    
     70500   82.90655       158.5          158.5          158.5         -0.28289547    -0.51976731    -0.2313563     -0.097562803    82.90655     
     70520   82.678597      158.5          158.5          158.5         -0.31470814    -0.40783632    -0.43363682    -0.10265128     82.678597    
     70540   84.577893      158.5          158.5          158.5          0.25265228     0.10972707     0.78511421    -0.13688444     84.577893    
     70560   83.88679       158.5          158.5          158.5          0.16788208     0.79111752    -0.64664731     0.35917604     83.88679     
     70580   84.046525      158.5          158.5          158.5         -0.48245834    -1.020241      -0.054551021   -0.37258301     84.046525    
     70600   82.967643      158.5          158.5          158.5          0.36818789     0.1832667      0.84702102     0.074275946    82.967643    
     70620   83.860775      158.5          158.5          158.5          0.1434681      0.7094823     -0.66445239     0.38537438     83.860775    
     70640   83.099156      158.5          158.5          158.5         -0.43656774    -0.63159095    -0.18253349    -0.49557877     83.099156    
     70660   82.889072      158.5          158.5          158.5          0.077111007   -0.1468326      0.39750083    -0.019335216    82.889072    
     70680   82.86378       158.5          158.5          158.5          0.28361157     0.46755992    -0.050322252    0.43359704     82.86378     
     70700   83.367781      158.5          158.5          158.5         -0.14610754    -0.18499754     0.059567475   -0.31289256     83.367781    
     70720   82.278951      158.5          158.5          158.5         -0.21165723    -0.1198388     -0.46895406    -0.046178814    82.278951    
     70740   83.612078      158.5          158.5          158.5          0.3972636      0.28896389     0.59538354     0.30744338     83.612078    
     70760   82.727683      158.5          158.5          158.5         -0.40452952    -0.35928585    -0.57292766    -0.28137504     82.727683    
     70780   82.799337      158.5          158.5          158.5          0.073723527   -0.0085239787   0.34629767    -0.11660311     82.799337    
     70800   83.550005      158.5          158.5          158.5          0.24473687     0.43135979    -0.1796155      0.48246632     83.550005    
     70820   82.629822      158.5          158.5          158.5         -0.11293507    -0.21832145     0.18655542    -0.30703919     82.629822    
     70840   83.569226      158.5          158.5          158.5         -0.34478936    -0.2337626     -0.56346584    -0.23713965     83.569226    
     70860   83.211316      158.5          158.5          158.5          0.50456987     0.30975833     0.72711623     0.47683505     83.211316    
     70880   83.547853      158.5          158.5          158.5         -0.20156116    -0.049551079   -0.4003962     -0.15473619     83.547853    
     70900   83.292873      158.5          158.5          158.5         -0.28944719    -0.13455372    -0.46983077    -0.26395706     83.292873    
     70920   84.198447      158.5          158.5          158.5          0.420241       0.1855952      0.63607603     0.43905176     84.198447    
     70940   83.677107      158.5          158.5          158.5         -0.1619443     -0.0020443815  -0.28082627    -0.20296225     83.677107    
     70960   83.181183      158.5          158.5          158.5         -0.30812648     0.0037728313  -0.64480433    -0.28334795     83.181183    
     70980   85.626139      158.5          158.5          158.5          0.50712666     0.084088099    0.86876191     0.56852997     85.626139    
     71000   82.358739      158.5          158.5          158.5         -0.23679558    -0.10660517    -0.39420513    -0.20957643     82.358739    
     71020   84.496974      158.5          158.5          158.5         -0.20631641     0.046577861   -0.20770635    -0.45782073     84.496974    
     71040   84.413221      158.5          158.5          158.5          0.34410613    -0.18788962     0.69013322     0.53007478     84.413221    
     71060   82.505554      158.5          158.5          158.5         -0.12365469     0.30795786    -0.48822522    -0.19069671     82.505554    
     71080   82.794607      158.5          158.5          158.5         -0.0081677597   0.011792483   -0.24054804     0.20425228     82.794607    
     71100   84.436267      158.5          158.5          158.5          0.23398108    -0.44444769     0.69269073     0.45370019     84.436267    
     71120   84.377904      158.5          158.5          158.5         -0.23814601     0.36775381    -0.28170829    -0.80048353     84.377904    
     71140   82.283519      158.5          158.5          158.5         -0.0035550813  -0.064040468   -0.060219963    0.11359519     82.283519    
     71160   83.668903      158.5          158.5          158.5          0.084859931   -0.22210399    -0.048400837    0.52508462     83.668903    
     71180   81.480872      158.5          158.5          158.5          0.048642297    0.58520714    -0.053271152   -0.3860091      81.480872    
     71200   81.880358      158.5          158.5          158.5          0.075582636    0.10776078     0.21324455    -0.094257422    81.880358    
     71220   81.811007      158.5          158.5          158.5         -0.10901319    -0.68505307     0.20595509     0.15205841     81.811007    
     71240   82.634588      158.5          158.5          158.5         -0.039051429   -0.045987176   -0.16562764     0.094460528    82.634588    
     71260   81.544765      158.5          158.5          158.5          0.068034767    0.38231763    -0.10862001    -0.069593325    81.544765    
     71280   81.791923      158.5          158.5          158.5          0.25935823     0.03739335     0.30626959     0.43441176     81.791923    
     71300   82.364304      158.5          158.5          158.5         -0.30487506    -0.23387974    -0.18151541    -0.49923005     82.364304    
     71320   81.643772      158.5          158.5          158.5         -0.10659229    -0.21556162    -0.052420348   -0.051794887    81.643772    
     71340   82.396227      158.5          158.5          158.5          0.15130588     0.22199925    -0.073262731    0.30518113     82.396227    
     71360   81.388119      158.5          158.5          158.5          0.18828275     0.3273099      0.11271881     0.12481954     81.388119    
     71380   82.003546      158.5          158.5          158.5         -0.19655258    -0.13670749     0.038673179   -0.49162344     82.003546    
     71400   81.472235      158.5          158.5          158.5         -0.058365714   -0.47234002     0.063805287    0.23343759     81.472235    
     71420   81.596376      158.5          158.5          158.5          0.026301313    0.15002204    -0.091128435    0.020010331    81.596376    
     71440   82.023432      158.5          158.5          158.5          0.15493485     0.50576729    -0.00091633899 -0.040046416    82.023432    
     71460   81.584169      158.5          158.5          158.5          0.059844714   -0.15709843     0.059236871    0.2773957      81.584169    
     71480   82.843455      158.5          158.5          158.5         -0.36230107    -0.51323875    -0.13327363    -0.44039082     82.843455    
     71500   81.652688      158.5          158.5          158.5          0.015499551    0.045359109    0.12355246    -0.12241292     81.652688    
     71520   84.221921      158.5          158.5          158.5          0.38316673     0.54706042     0.11595748     0.48648228     84.221921    
     71540   82.298032      158.5          158.5          158.5          0.23208733     0.26924465     0.13065745     0.29635989     82.298032    
     71560   84.257483      158.5          158.5          158.5         -0.58571258    -0.41991507    -0.36759927    -0.9696234      84.257483    
     71580   84.678861      158.5          158.5          158.5          0.051920497   -0.63107901     0.28437787     0.50246263     84.678861    
     71600   83.163934      158.5          158.5          158.5          0.15243573     0.46455656    -0.13241418     0.12516481     83.163934    
     71620   86.137503      158.5          158.5          158.5          0.12224136     0.55679724    -0.22948598     0.039412811    86.137503    
     71640   81.889039      158.5          158.5          158.5         -0.19155748    -0.67436848    -0.10584221     0.20553825     81.889039    
     71660   84.381398      158.5          158.5          158.5         -0.12116473    -0.75142542     0.39500286    -0.0070716383   84.381398    
     71680   81.898108      158.5          158.5          158.5          0.053082161    0.71727668    -0.038697107   -0.51933309     81.898108    
     71700   83.754106      158.5          158.5          158.5          0.45550266     0.54922997     0.1794681      0.63780993     83.754106    
     71720   82.500918      158.5          158.5          158.5         -0.047278903   -0.27222843    -0.11072825     0.24111997     82.500918    
     71740   83.498167      158.5          158.5          158.5         -0.49258133    -0.24135969    -0.28866155    -0.94772273     83.498167    
     71760   84.275286      158.5          158.5          158.5          0.31883421     0.075389187    0.3223943      0.55871914     84.275286    
     71780   82.742123      158.5          158.5          158.5          0.14647404     0.42303464    -0.094845499    0.11123298     82.742123    
     71800   85.123727      158.5          158.5          158.5         -0.15732059    -0.18037196     0.078118949   -0.36970875     85.123727    
     71820   82.903368      158.5          158.5          158.5         -0.228413      -0.53706229    -0.14707418    -0.0011025282   82.903368    
     71840   84.242598      158.5          158.5          158.5          0.15030756    -0.22240385     0.21349768     0.45982884     84.242598    
     71860   83.675239      158.5          158.5          158.5         -0.13876107     0.58648202    -0.16698407    -0.83578117     83.675239    
     71880   83.527541      158.5          158.5          158.5          0.14176229    -0.1222694      0.041723244    0.50583303     83.527541    
     71900   83.052289      158.5          158.5          158.5         -0.12048465    -0.22136054    -0.24797306     0.10787964     83.052289    
     71920   82.208123      158.5          158.5          158.5         -0.046245906    0.19632949     0.03768457    -0.37275178     82.208123    
     71940   82.273063      158.5          158.5          158.5          0.15147222     0.26170695     0.15013339     0.042576332    82.273063    
     71960   81.449527      158.5          158.5          158.5          0.10207108    -0.1704134      0.18415519     0.29247147     81.449527    
     71980   82.862766      158.5          158.5          158.5         -0.245049      -0.10463767    -0.19522182    -0.43528751     82.862766    
     72000   81.074768      158.5          158.5          158.5          0.062156097   -0.0088078952  -0.014022261    0.20929845     81.074768    
     72020   82.714761      158.5          158.5          158.5          0.26181611     0.1665562      0.26513894     0.3537532      82.714761    
     72040   82.448768      158.5          158.5          158.5         -0.26401333     0.20185113    -0.21404204    -0.77984906     82.448768    
     72060   82.466234      158.5          158.5          158.5         -0.030655878   -0.35121373    -0.0086065212   0.26785261     82.466234    
     72080   83.937142      158.5          158.5          158.5          0.069321168   -0.21733931    -0.04690506     0.47220787     83.937142    
     72100   84.544806      158.5          158.5          158.5          0.25888629     0.66693799     0.31812614    -0.20840525     84.544806    
     72120   84.354617      158.5          158.5          158.5         -0.061043528    0.27162431    -0.058034225   -0.39672067     84.354617    
     72140   84.071519      158.5          158.5          158.5         -0.14549808    -1.0165445      0.23562816     0.34442211     84.071519    
     72160   84.25385       158.5          158.5          158.5         -0.23666288     0.23801415    -0.65310274    -0.29490007     84.25385     
     72180   83.607164      158.5          158.5          158.5          0.43407739     0.60104319     0.35546379     0.34572518     83.607164    
     72200   83.483954      158.5          158.5          158.5          0.07786588    -0.37886562     0.31079758     0.30166567     83.483954    
     72220   86.82084       158.5          158.5          158.5         -0.58934264    -0.26875078    -0.68625192    -0.81302522     86.82084     
     72240   82.339617      158.5          158.5          158.5          0.3512299      0.11293007     0.72236713     0.21839251     82.339617    
     72260   84.23959       158.5          158.5          158.5          0.19743827     0.1411105      0.11370449     0.33749982     84.23959     
     72280   84.874432      158.5          158.5          158.5         -0.50394488     0.065316501   -1.4139719     -0.16317927     84.874432    
     72300   82.856601      158.5          158.5          158.5          0.20443766     0.039864803    0.55697999     0.016468202    82.856601    
     72320   83.36381       158.5          158.5          158.5          0.29375134    -0.071137805    0.79922804     0.15316377     83.36381     
     72340   83.303667      158.5          158.5          158.5         -0.61282402    -0.33935629    -1.2181356     -0.28098014     83.303667    
     72360   82.866033      158.5          158.5          158.5          0.19180529     0.28512138     0.23707083     0.053223673    82.866033    
     72380   82.301179      158.5          158.5          158.5          0.54620708     0.35931855     0.74370012     0.53560255     82.301179    
     72400   82.396727      158.5          158.5          158.5         -0.49097856    -0.41671271    -0.67594298    -0.38028        82.396727    
     72420   83.136105      158.5          158.5          158.5         -0.21259996    -0.17297978     0.096815061   -0.56163517     83.136105    
     72440   82.262722      158.5          158.5          158.5          0.4938435      0.31369914     0.54970457     0.61812679     82.262722    
     72460   82.002881      158.5          158.5          158.5          0.12048418     0.035253372   -0.20023028     0.52642944     82.002881    
     72480   82.639928      158.5          158.5          158.5         -0.47949614     0.059460337   -0.41276505    -1.0851837      82.639928    
     72500   81.343174      158.5          158.5          158.5         -0.075883574   -0.028680588    0.035166873   -0.23413701     81.343174    
     72520   83.1527        158.5          158.5          158.5          0.46596438    -0.23049036     0.34813326     1.2802502      83.1527      
     72540   81.598431      158.5          158.5          158.5          0.26480294     0.10675456     0.21828867     0.46936558     81.598431    
     72560   83.733468      158.5          158.5          158.5         -0.3714475      0.30788965    -0.3030124     -1.1192197      83.733468    
     72580   82.211369      158.5          158.5          158.5         -0.4224666     -0.38441481    -0.33203676    -0.55094822     82.211369    
     72600   84.396555      158.5          158.5          158.5          0.49768579     0.047732284    0.36222344     1.0831017      84.396555    
     72620   82.728731      158.5          158.5          158.5          0.22032982     0.04186361     0.2415554      0.37757047     82.728731    
     72640   84.545355      158.5          158.5          158.5         -0.55416159    -0.10407372    -0.59403506    -0.96437598     84.545355    
     72660   82.93304       158.5          158.5          158.5         -0.28565675    -0.1066376     -0.22030944    -0.53002321     82.93304     
     72680   83.678726      158.5          158.5          158.5          0.64966499     0.44866723     0.32750068     1.1728271      83.678726    
     72700   83.146989      158.5          158.5          158.5          0.18544624    -0.46002945     0.15939731     0.85697087     83.146989    
     72720   83.354532      158.5          158.5          158.5         -0.46448096    -0.063656902   -0.049954649   -1.2798313      83.354532    
     72740   84.264948      158.5          158.5          158.5         -0.31196404     0.29087502    -0.10210469    -1.1246624      84.264948    
     72760   82.391524      158.5          158.5          158.5          0.47575136     0.3031169      0.10856524     1.0155719      82.391524    
     72780   85.244872      158.5          158.5          158.5          0.35044121    -0.22765237     0.15243567     1.1265403      85.244872    
     72800   84.058078      158.5          158.5          158.5         -0.57938488    -0.67722235    -0.079556807   -0.9813755      84.058078    
     72820   85.211937      158.5          158.5          158.5         -0.2524093      0.36833033    -0.33994878    -0.78560944     85.211937    
     72840   85.959018      158.5          158.5          158.5          0.61375534     0.52326569     0.32683442     0.99116592     85.959018    
     72860   84.313619      158.5          158.5          158.5          0.23457356     0.54163608     0.027914001    0.13417061     84.313619    
     72880   86.161622      158.5          158.5          158.5         -0.89694768    -1.6546913     -0.24759147    -0.78856027     86.161622    
     72900   83.958227      158.5          158.5          158.5          0.17991602    -0.28952052     0.29157162     0.53769696     83.958227    
     72920   86.399402      158.5          158.5          158.5          0.62290045     1.4029615     -0.013058274    0.47879807     86.399402    
     72940   84.494058      158.5          158.5          158.5         -0.23979957     0.0048156032  -0.065009735   -0.65920457     84.494058    
     72960   83.055866      158.5          158.5          158.5         -0.32426439    -0.78085009    -0.024351355   -0.16759172     83.055866    
     72980   86.245865      158.5          158.5          158.5          0.32242377     0.12416887    -0.013898621    0.85700105     86.245865    
     73000   83.28308       158.5          158.5          158.5         -0.23024154    -0.19550682     0.0091746359  -0.50439244     83.28308     
     73020   84.100543      158.5          158.5          158.5         -0.33403562    -0.22828288    -0.16105884    -0.61276513     84.100543    
     73040   84.975977      158.5          158.5          158.5          0.83322554     1.3122531      0.21527586     0.97214762     84.975977    
     73060   83.024532      158.5          158.5          158.5         -0.37241041    -0.82912806    -0.072906865   -0.2151963      83.024532    
     73080   84.44236       158.5          158.5          158.5         -0.37175149    -0.53032035     0.059253482   -0.64418761     84.44236     
     73100   83.843428      158.5          158.5          158.5          0.30351367     0.12189671    -0.079858822    0.8685031      83.843428    
     73120   83.616941      158.5          158.5          158.5          0.23075713     0.743617       0.079012386   -0.130358       83.616941    
     73140   83.815378      158.5          158.5          158.5         -0.46295005    -0.4470377     -0.094029047   -0.84778339     83.815378    
     73160   84.317591      158.5          158.5          158.5          0.43141365     0.23209817     0.091809129    0.97033366     84.317591    
     73180   83.410081      158.5          158.5          158.5         -0.2988411     -0.65691367    -0.12350213    -0.11610751     83.410081    
     73200   84.047073      158.5          158.5          158.5         -0.17880171     0.41965669     0.024517433   -0.98057925     84.047073    
     73220   85.22027       158.5          158.5          158.5          0.38675512     0.11373286    -0.0085627432   1.0550952      85.22027     
     73240   82.689583      158.5          158.5          158.5          0.24073048     0.38830014     0.10517923     0.22871206     82.689583    
     73260   86.362198      158.5          158.5          158.5         -0.89583857    -0.96496092    -0.081387432   -1.6411674      86.362198    
     73280   84.055462      158.5          158.5          158.5          0.6794821      0.57430816     0.093754342    1.3703838      84.055462    
     73300   84.960724      158.5          158.5          158.5          0.070636723   -0.16239776    -0.048214311    0.42252224     84.960724    
     73320   85.909937      158.5          158.5          158.5         -0.45727709     0.44220829    -0.0070800732  -1.8069595      85.909937    
     73340   86.037633      158.5          158.5          158.5          0.12636439    -0.68852054    -0.028242505    1.0958562      86.037633    
     73360   84.151657      158.5          158.5          158.5          0.41414345     0.230081       0.10708466     0.9052647      84.151657    
     73380   87.055668      158.5          158.5          158.5         -0.90219971    -0.29785242    -0.12758391    -2.2811628      87.055668    
     73400   85.222044      158.5          158.5          158.5          0.55143594     0.22291645     0.09142507     1.3399663      85.222044    
     73420   83.418715      158.5          158.5          158.5          0.4943846      0.35332302     0.036352447    1.0934783      83.418715    
     73440   87.83242       158.5          158.5          158.5         -1.0308624     -0.42752695    -0.17622928    -2.488831       87.83242     
     73460   83.439071      158.5          158.5          158.5          0.49800657     0.021442711    0.29332499     1.179252       83.439071    
     73480   84.258507      158.5          158.5          158.5          0.40036984     0.31878913    -0.10171432     0.98403472     84.258507    
     73500   84.211484      158.5          158.5          158.5         -0.57728606     0.19069342    -0.29233134    -1.6302203      84.211484    
     73520   83.090056      158.5          158.5          158.5          0.15994846    -0.66141569     0.23346125     0.90779983     83.090056    
     73540   85.34794       158.5          158.5          158.5          0.28867417     0.76067491     0.035373582    0.069974006    85.34794     
     73560   82.482957      158.5          158.5          158.5         -0.26926172    -0.38931476     0.12001478    -0.53848517     82.482957    
     73580   81.561009      158.5          158.5          158.5         -0.18520079    -0.28912529    -0.098679726   -0.16779736     81.561009    
     73600   84.053408      158.5          158.5          158.5          0.36362558     0.63512223    -0.13156058     0.5873151      84.053408    
     73620   82.20188       158.5          158.5          158.5          0.26379702    -0.16692439     0.46367617     0.49463927     82.20188     
     73640   83.848561      158.5          158.5          158.5         -0.5293009      0.071744512   -0.34694807    -1.3126991      83.848561    
     73660   83.270706      158.5          158.5          158.5         -0.031341253   -0.60759924    -0.094093171    0.60766865     83.270706    
     73680   83.561307      158.5          158.5          158.5          0.12141523     0.6080947     -0.25051749     0.0066684692   83.561307    
     73700   83.787274      158.5          158.5          158.5          0.28470953    -0.01354827     0.64717311     0.22050374     83.787274    
     73720   82.994224      158.5          158.5          158.5         -0.16735417     0.041048342   -0.36923148    -0.17387936     82.994224    
     73740   83.708671      158.5          158.5          158.5         -0.36259127    -0.81982037    -0.038601494   -0.22935193     83.708671    
     73760   81.640595      158.5          158.5          158.5          0.013549523    0.32102481     0.024432004   -0.30480824     81.640595    
     73780   84.040522      158.5          158.5          158.5          0.60002208     0.44034989     0.52976807     0.82994829     84.040522    
     73800   81.569123      158.5          158.5          158.5          0.098996       0.25044054    -0.0713689      0.11791636     81.569123    
     73820   83.629879      158.5          158.5          158.5         -0.58591417    -0.50514035    -0.27881302    -0.97378913     83.629879    
     73840   82.496417      158.5          158.5          158.5          0.11914268    -0.24298445     0.14452794     0.45588456     82.496417    
     73860   83.666885      158.5          158.5          158.5          0.40486815     0.76461221     0.079156885    0.37083535     83.666885    
     73880   85.101047      158.5          158.5          158.5         -0.065753541   -0.47280791     0.34588952    -0.070342232    85.101047    
     73900   84.350852      158.5          158.5          158.5         -0.53312881     0.050790631   -0.87606576    -0.77411129     84.350852    
     73920   85.622368      158.5          158.5          158.5          0.27298977    -0.60677161     0.50846439     0.91727654     85.622368    
     73940   83.150925      158.5          158.5          158.5          0.1486604      0.73909259     0.28173684    -0.57484822     83.150925    
     73960   84.824432      158.5          158.5          158.5         -0.18299216    -0.11993208    -0.53157701     0.10253259     84.824432    
     73980   83.599078      158.5          158.5          158.5          0.091843252   -0.32799279     0.030390896    0.57313165     83.599078    
     74000   87.733823      158.5          158.5          158.5          0.042429771    1.135149       0.30387859    -1.3117383      87.733823    
     74020   87.332264      158.5          158.5          158.5          0.21064672    -0.86736469     0.43039811     1.0689067      87.332264    
     74040   85.018901      158.5          158.5          158.5         -0.51673663    -0.063124722   -1.1473492     -0.33973594     85.018901    
     74060   88.268835      158.5          158.5          158.5          0.073570313    0.080176597    0.3271639     -0.18662956     88.268835    
     74080   82.454201      158.5          158.5          158.5          0.52716853     0.22851245     0.44450268     0.90849045     82.454201    
     74100   86.403738      158.5          158.5          158.5         -0.37135078    -0.022921903   -0.3930205     -0.69810993     86.403738    
     74120   84.716645      158.5          158.5          158.5         -0.38670834    -0.96672286     0.23516565    -0.42856779     84.716645    
     74140   83.887872      158.5          158.5          158.5          0.28178677     0.79971907    -0.11767049     0.16331174     83.887872    
     74160   83.958356      158.5          158.5          158.5          0.49891571    -0.020928847    0.35249965     1.1651763      83.958356    
     74180   82.1928        158.5          158.5          158.5         -0.42443963     0.16593457    -0.27712516    -1.1621283      82.1928      
     74200   81.850989      158.5          158.5          158.5         -0.29073553    -0.59404427    -0.14488678    -0.13327555     81.850989    
     74220   81.52512       158.5          158.5          158.5          0.14571732     0.35386566     0.095987419   -0.012701128    81.52512     
     74240   81.497636      158.5          158.5          158.5          0.24308765     0.33451004     0.23938775     0.15536516     81.497636    
     74260   82.186337      158.5          158.5          158.5         -0.069428786   -0.33518048    -0.038467647    0.16536177     82.186337    
     74280   82.540187      158.5          158.5          158.5         -0.20591174     0.23810309    -0.34017897    -0.51565933     82.540187    
     74300   82.648373      158.5          158.5          158.5          0.29895058     0.074081724    0.35223057     0.47053945     82.648373    
     74320   82.261373      158.5          158.5          158.5         -0.15864389    -0.39706833    -0.023122834   -0.055740507    82.261373    
     74340   82.678906      158.5          158.5          158.5         -0.11797377     0.33347897    -0.24053622    -0.44686405     82.678906    
     74360   82.466223      158.5          158.5          158.5          0.32807559     0.26858704     0.13160179     0.58403794     82.466223    
     74380   82.515148      158.5          158.5          158.5         -0.16087581    -0.50041014     0.060449852   -0.042667161    82.515148    
     74400   82.729935      158.5          158.5          158.5         -0.18712899     0.052959517    0.013930148   -0.62827663     82.729935    
     74420   82.870614      158.5          158.5          158.5          0.108462      -0.23832306    -0.091377426    0.65508647     82.870614    
     74440   82.696428      158.5          158.5          158.5          0.20295573     0.32842822     0.057198847    0.22324013     82.696428    
     74460   83.134691      158.5          158.5          158.5         -0.43382409    -0.43693016    -0.085019243   -0.77952286     83.134691    
     74480   83.569683      158.5          158.5          158.5          0.16519375     0.27337375    -0.09707205     0.31927954     83.569683    
     74500   83.055993      158.5          158.5          158.5         -0.14780442    -0.6470699     -0.093043796    0.29670045     83.055993    
     74520   83.571567      158.5          158.5          158.5         -0.08484329    -0.14393641     0.24073036    -0.35132381     83.571567    
     74540   83.546414      158.5          158.5          158.5          0.18931879     0.64977493    -0.14336718     0.061548611    83.546414    
     74560   82.604326      158.5          158.5          158.5         -0.018565016   -0.32849183     0.16241566     0.11038112     82.604326    
     74580   82.759015      158.5          158.5          158.5         -0.15918725    -0.35011756    -0.14665238     0.01920818     82.759015    
     74600   85.398572      158.5          158.5          158.5          0.51189639     1.2748434      0.21027048     0.05057526     85.398572    
     74620   81.797425      158.5          158.5          158.5         -0.13204152    -0.35234955    -0.0077405282  -0.036034472    81.797425    
     74640   82.136279      158.5          158.5          158.5         -0.0045688852   0.083075468   -0.0038538719  -0.092928251    82.136279    
     74660   82.451776      158.5          158.5          158.5          0.082684895    0.069476234    0.2130745     -0.034496045    82.451776    
     74680   82.885091      158.5          158.5          158.5         -0.02356986    -0.036783648   -0.22528667     0.19136073     82.885091    
     74700   82.664513      158.5          158.5          158.5         -0.12054384    -0.28568616     0.13768089    -0.21362625     82.664513    
     74720   82.484209      158.5          158.5          158.5          0.15295315     0.28038277     0.14857974     0.029896938    82.484209    
     74740   82.778971      158.5          158.5          158.5          0.0035737787   0.019515536   -0.1605116      0.1517174      82.778971    
     74760   82.617207      158.5          158.5          158.5         -0.2592863     -0.35360037    -0.29828674    -0.12597177     82.617207    
     74780   82.962414      158.5          158.5          158.5          0.27617539     0.20267185     0.61294723     0.012907092    82.962414    
     74800   82.507211      158.5          158.5          158.5         -0.14270019    -0.098743193   -0.30674597    -0.022611406    82.507211    
     74820   82.95783       158.5          158.5          158.5         -0.088324781   -0.22540578    -0.07605235     0.036483789    82.95783     
     74840   82.793731      158.5          158.5          158.5         -0.018235906    0.18771294    -0.25957315     0.017152497    82.793731    
     74860   82.667477      158.5          158.5          158.5          0.15301821     0.046077936    0.3436715      0.069305193    82.667477    
     74880   83.202778      158.5          158.5          158.5         -0.34964823    -0.31973697    -0.76367315     0.034465428    83.202778    
     74900   82.627013      158.5          158.5          158.5          0.30190647     0.22461048     0.61942046     0.061688472    82.627013    
     74920   83.018229      158.5          158.5          158.5         -0.12449183     0.010137213   -0.15711879    -0.2264939      83.018229    
     74940   82.84263       158.5          158.5          158.5         -0.11579254    -0.20266473    -0.30752874     0.16281587     82.84263     
     74960   82.541749      158.5          158.5          158.5          0.19807899     0.26864032     0.28834943     0.037247219    82.541749    
     74980   81.917614      158.5          158.5          158.5          0.0048222604   0.074656138    0.11716779    -0.17735714     81.917614    
     75000   81.918614      158.5          158.5          158.5         -0.14969484    -0.15002196    -0.55300641     0.25394387     81.918614    
     75020   81.633091      158.5          158.5          158.5          0.22447147     0.44491663     0.30410878    -0.075611004    81.633091    
     75040   82.506846      158.5          158.5          158.5         -0.042905784   -0.081912067    0.2309559     -0.27776118     82.506846    
     75060   81.646538      158.5          158.5          158.5         -0.25067216    -0.47126245    -0.3820254      0.10127137     81.646538    
     75080   83.007322      158.5          158.5          158.5          0.26833433     0.42427872     0.33359987     0.047124406    83.007322    
     75100   81.923732      158.5          158.5          158.5          0.29041869     0.59723155     0.17285653     0.101168       81.923732    
     75120   82.534617      158.5          158.5          158.5         -0.27590542    -0.65574122    -0.19031622     0.018341174    82.534617    
     75140   82.456272      158.5          158.5          158.5         -0.14342939    -0.26919961    -0.04167604    -0.11941253     82.456272    
     75160   82.2507        158.5          158.5          158.5          0.22628329     0.50140977     0.1403214      0.037118701    82.2507      
     75180   83.071885      158.5          158.5          158.5          0.0094418449  -0.065064719   -0.11707988     0.21047013     83.071885    
     75200   81.819261      158.5          158.5          158.5         -0.084781201   -0.022265165   -0.027116419   -0.20496202     81.819261    
     75220   82.959328      158.5          158.5          158.5         -0.066308391   -0.0596134      0.044420371   -0.18373214     82.959328    
     75240   82.053612      158.5          158.5          158.5         -0.050930853   -0.34421459    -0.036796525    0.22821855     82.053612    
     75260   82.683854      158.5          158.5          158.5          0.12220465     0.26853662    -0.00023037475  0.098307723    82.683854    
     75280   82.377491      158.5          158.5          158.5          0.060456463    0.37445807     0.019473741   -0.21256242     82.377491    
     75300   82.328975      158.5          158.5          158.5         -0.23828487    -0.69644408     0.00092121244 -0.01933175     82.328975    
     75320   81.986368      158.5          158.5          158.5          0.023446269   -0.23172838     0.028301487    0.2737657      81.986368    
     75340   82.73847       158.5          158.5          158.5          0.3871658      1.0872848      0.024008224    0.050204397    82.73847     
     75360   82.471989      158.5          158.5          158.5         -0.16423429    -0.2933923      0.020462439   -0.21977301     82.471989    
     75380   82.262664      158.5          158.5          158.5         -0.21586986    -0.3337499      0.025499661   -0.33935935     82.262664    
     75400   84.122711      158.5          158.5          158.5          0.16522576     0.17202586     0.098023993    0.22562741     84.122711    
     75420   82.647964      158.5          158.5          158.5          0.007534569   -0.1178107     -0.029277227    0.16969164     82.647964    
     75440   83.868008      158.5          158.5          158.5         -0.21167621     0.030147589   -0.16572637    -0.49944986     83.868008    
     75460   83.527429      158.5          158.5          158.5          0.25244355     0.29974944     0.27941492     0.17816629     83.527429    
     75480   83.301915      158.5          158.5          158.5          0.16341948     0.0038265555   0.11506868     0.37136319     83.301915    
     75500   84.8124        158.5          158.5          158.5         -0.72857139    -1.2505886     -0.66171531    -0.27341022     84.8124      
     75520   83.054072      158.5          158.5          158.5          0.41861642     0.59116062     0.53368486     0.13100377     83.054072    
     75540   83.811752      158.5          158.5          158.5         -0.018426072   -0.12567388     0.00076261014  0.069633057    83.811752    
     75560   83.239324      158.5          158.5          158.5         -0.15036135     0.13431527    -0.51539253    -0.070006795    83.239324    
     75580   83.834916      158.5          158.5          158.5         -0.08958416    -0.54825452     0.36980005    -0.090298009    83.834916    
     75600   82.851587      158.5          158.5          158.5          0.21275007     0.15217122     0.17240047     0.31367853     82.851587    
     75620   83.661801      158.5          158.5          158.5         -0.29643229     0.022861701   -0.66047717    -0.25168139     83.661801    
     75640   82.735404      158.5          158.5          158.5          0.15732426     0.14110739     0.32810768     0.0027577225   82.735404    
     75660   83.15452       158.5          158.5          158.5          0.27857748     0.052227925    0.31847814     0.46502639     83.15452     
     75680   83.216164      158.5          158.5          158.5         -0.39170585    -0.25051002    -0.44133361    -0.48327392     83.216164    
     75700   82.837456      158.5          158.5          158.5         -0.079759627    0.039932905    0.046696575   -0.32590836     82.837456    
     75720   83.413336      158.5          158.5          158.5          0.35478286     0.25603245     0.20718659     0.60112953     83.413336    
     75740   82.326972      158.5          158.5          158.5          0.16589008     0.020150503    0.010399219    0.46712051     82.326972    
     75760   83.080819      158.5          158.5          158.5         -0.3315882     -0.1711793     -0.024106162   -0.79947913     83.080819    
     75780   82.22427       158.5          158.5          158.5         -0.26683782    -0.044756488   -0.090188886   -0.66556809     82.22427     
     75800   82.178314      158.5          158.5          158.5          0.22252132     0.12102587    -0.034874692    0.58141279     82.178314    
     75820   83.014484      158.5          158.5          158.5          0.49664622     0.25836822     0.27996243     0.95160802     83.014484    
     75840   81.786832      158.5          158.5          158.5          0.062303753    0.047146628    0.29282959    -0.15306495     81.786832    
     75860   83.917773      158.5          158.5          158.5         -0.64623703    -0.32138497    -0.44483276    -1.1724934      83.917773    
     75880   2618.0177      158.5          158.5          158.5         -50.282449     -138.67856     -3.8194843     -8.349298       2618.0177    
     75900   132.86672      158.5          158.5          158.5         -0.96119118    -5.124018       1.6651428      0.57530174     132.86672    
     75920   87.984161      158.5          158.5          158.5          0.2707551      0.33279119     0.34029218     0.13918193     87.984161    
     75940   83.495288      158.5          158.5          158.5          0.089829704   -0.12071983     0.28243003     0.10777891     83.495288    
     75960   82.460824      158.5          158.5          158.5          0.028234381   -0.040943713    0.091069928    0.034576926    82.460824    
     75980   82.353973      158.5          158.5          158.5          0.0018331311   0.0031126835   0.0014900111   0.00089669871  82.353973    
     76000   82.354912      158.5          158.5          158.5         -0.0048199977  -0.0012963399  -0.0094994678  -0.0036641854   82.354912    
     76020   82.353728      158.5          158.5          158.5         -0.00048469276  0.0044955992  -0.0043842799  -0.0015653976   82.353728    
     76040   82.353433      158.5          158.5          158.5         -0.00084943829 -0.0026388477   2.3736268e-05  6.6796557e-05  82.353433    
     76060   82.353432      158.5          158.5          158.5          0.00046526368 -6.1185872e-05  0.00099021665  0.00046676027  82.353432    
     76080   82.353396      158.5          158.5          158.5         -0.00031861186 -0.0010895061   4.8602071e-05  8.5068454e-05  82.353396    
     76100   82.353378      158.5          158.5          158.5         -0.00029028123 -0.00019704258 -0.00054571576 -0.00012808535  82.353378    
     76120   82.353358      158.5          158.5          158.5         -0.00036366074 -0.00063365535 -0.00038328858 -7.40383e-05    82.353358    
     76140   82.353338      158.5          158.5          158.5         -0.00021518528 -0.00045158866 -0.00019609483  2.1276602e-06  82.353338    
     76160   82.353316      158.5          158.5          158.5         -0.00027278084 -0.00064215251 -0.000181705    5.5149872e-06  82.353316    
     76180   82.353292      158.5          158.5          158.5         -0.0002524638  -0.00050543408 -0.00023754419 -1.441313e-05   82.353292    
     76200   82.353268      158.5          158.5          158.5         -0.00028433211 -0.00055891696 -0.00026737715 -2.6702209e-05  82.353268    
     76220   82.353241      158.5          158.5          158.5         -0.00026884753 -0.00053023835 -0.00025521304 -2.1091195e-05  82.353241    
     76240   82.353213      158.5          158.5          158.5         -0.00027036839 -0.00056420191 -0.00023369997 -1.3203291e-05  82.353213    
     76260   82.353182      158.5          158.5          158.5         -0.00026548387 -0.00054579433 -0.00023675416 -1.3903135e-05  82.353182    
     76280   82.35315       158.5          158.5          158.5         -0.00027494166 -0.00055817415 -0.00024832792 -1.832291e-05   82.35315     
     76300   82.353115      158.5          158.5          158.5         -0.0002724923  -0.00054924158 -0.00024971432 -1.8521011e-05  82.353115    
     76320   82.353078      158.5          158.5          158.5         -0.00027380647 -0.00055974044 -0.00024505283 -1.6626154e-05  82.353078    
     76340   82.353038      158.5          158.5          158.5         -0.00027286585 -0.00055880939 -0.00024392493 -1.5863243e-05  82.353038    
     76360   82.352995      158.5          158.5          158.5         -0.00027547929 -0.00056358317 -0.00024627545 -1.6579237e-05  82.352995    
     76380   82.352948      158.5          158.5          158.5         -0.00027620569 -0.00056247462 -0.00024888103 -1.7261427e-05  82.352948    
     76400   82.352897      158.5          158.5          158.5         -0.00027808313 -0.00056819044 -0.00024901824 -1.7040723e-05  82.352897    
     76420   82.352841      158.5          158.5          158.5         -0.0002781639  -0.00057026796 -0.00024794578 -1.6277959e-05  82.352841    
     76440   82.35278       158.5          158.5          158.5         -0.00027995425 -0.00057502849 -0.00024862866 -1.6205589e-05  82.35278     
     76460   82.352712      158.5          158.5          158.5         -0.00028171579 -0.00057765707 -0.00025085136 -1.6638946e-05  82.352712    
     76480   82.352637      158.5          158.5          158.5         -0.00028380439 -0.00058285691 -0.00025192782 -1.662843e-05   82.352637    
     76500   82.352553      158.5          158.5          158.5         -0.00028518299 -0.0005875633  -0.00025187981 -1.6105863e-05  82.352553    
     76520   82.352458      158.5          158.5          158.5         -0.00028760421 -0.00059460729 -0.00025243655 -1.5768799e-05  82.352458    
     76540   82.352349      158.5          158.5          158.5         -0.00029018752 -0.00060086529 -0.00025398001 -1.5717275e-05  82.352349    
     76560   82.352223      158.5          158.5          158.5         -0.00029353708 -0.0006094898  -0.00025552988 -1.5591574e-05  82.352223    
     76580   82.352076      158.5          158.5          158.5         -0.00029702327 -0.00061983213 -0.0002562377  -1.4999994e-05  82.352076    
     76600   82.351901      158.5          158.5          158.5         -0.00030133127 -0.00063382857 -0.0002561855  -1.397974e-05   82.351901    
     76620   82.351689      158.5          158.5          158.5         -0.00030665396 -0.00065069335 -0.00025641054 -1.2857981e-05  82.351689    
     76640   82.351428      158.5          158.5          158.5         -0.00031412754 -0.00067438111 -0.00025654477 -1.1456736e-05  82.351428    
     76660   82.351098      158.5          158.5          158.5         -0.00032330414 -0.00070746873 -0.00025381884 -8.6248533e-06  82.351098    
     76680   82.350671      158.5          158.5          158.5         -0.00033560858 -0.00075812509 -0.00024545667 -3.2439639e-06  82.350671    
     76700   82.350099      158.5          158.5          158.5         -0.0003532191  -0.00083741056 -0.00022823483  5.9880935e-06  82.350099    
     76720   82.349308      158.5          158.5          158.5         -0.00037967396 -0.0009700888  -0.0001917737   2.2840628e-05  82.349308    
     76740   82.348162      158.5          158.5          158.5         -0.00041888118 -0.0012046106  -0.00010884916  5.6816232e-05  82.348162    
     76760   82.346415      158.5          158.5          158.5         -0.0004777796  -0.0016468238   8.4744546e-05  0.0001287404   82.346415    
     76780   82.343563      158.5          158.5          158.5         -0.00055693001 -0.0025038532   0.00054754783  0.00028551536  82.343563    
     76800   82.338458      158.5          158.5          158.5         -0.00061427735 -0.0041663737   0.0016903048   0.00063323684  82.338458    
     76820   82.328003      158.5          158.5          158.5         -0.00036780624 -0.0070867642   0.0045903064   0.001393039    82.328003    
     76840   82.301293      158.5          158.5          158.5          0.0015213731  -0.010116748    0.01183564     0.0028452269   82.301293    
     76860   82.197336      158.5          158.5          158.5          0.010063853   -0.0011283185   0.027235705    0.0040841737   82.197336    
     76880   81.424493      158.5          158.5          158.5          0.047266455    0.092811151    0.051141474   -0.0021532602   81.424493    
     76900   84.619648      158.5          158.5          158.5          0.41807295     0.8014123      0.30286809     0.14993846     84.619648    
     76920   95.544506      158.5          158.5          158.5         -0.25041757     0.77363893    -1.0454836     -0.47940805     95.544506    
     76940   84.134917      158.5          158.5          158.5         -0.44592837    -1.3173581      0.034798649   -0.055225633    84.134917    
     76960   95.878649      158.5          158.5          158.5          0.44329763    -0.18597843     1.1717149      0.34415643     95.878649    
     76980   85.46693       158.5          158.5          158.5          0.64406143     1.4459636      0.39505479     0.091165935    85.46693     
     77000   87.792949      158.5          158.5          158.5         -0.9045002     -1.4702652     -1.0547858     -0.18844961     87.792949    
     77020   85.741197      158.5          158.5          158.5          0.18780089     0.52313856     0.029617243    0.01064688     85.741197    
     77040   83.298863      158.5          158.5          158.5         -0.17809813    -0.75320152     0.18297204     0.035935106    83.298863    
     77060   84.437832      158.5          158.5          158.5          0.22507939     0.73261714    -0.048469031   -0.0089099427   84.437832    
     77080   82.788539      158.5          158.5          158.5          0.044438487   -0.29758746     0.37469905     0.056203864    82.788539    
     77100   82.952654      158.5          158.5          158.5          0.02021694     0.24631997    -0.16622126    -0.019447892    82.952654    
     77120   82.910182      158.5          158.5          158.5         -0.32139296    -0.49891783    -0.39460259    -0.070658441    82.910182    
     77140   82.470682      158.5          158.5          158.5          0.17492271     0.25757513     0.22308294     0.044110047    82.470682    
     77160   82.675636      158.5          158.5          158.5          0.058446675   -0.019004716    0.17081394     0.023530796    82.675636    
     77180   82.484325      158.5          158.5          158.5         -0.0042080987   0.14708114    -0.13451641    -0.025189027    82.484325    
     77200   82.454886      158.5          158.5          158.5         -0.0090753859  -0.083438297    0.046979487    0.0092326518   82.454886    
     77220   82.522429      158.5          158.5          158.5         -0.042526876   -0.11295981    -0.016105502    0.0014846788   82.522429    
     77240   82.396077      158.5          158.5          158.5         -0.059749241    0.0012127503  -0.15424193    -0.026218541    82.396077    
     77260   82.494451      158.5          158.5          158.5          0.064018001    0.031801998    0.14027942     0.01997259     82.494451    
     77280   82.452858      158.5          158.5          158.5          0.12921872     0.21403218     0.14682429     0.026799677    82.452858    
     77300   82.433552      158.5          158.5          158.5         -0.14265946    -0.21405982    -0.17920498    -0.034713588    82.433552    
     77320   82.53252       158.5          158.5          158.5         -0.00053051986  0.041819147   -0.044252113    0.00084140601  82.53252     
     77340   82.416544      158.5          158.5          158.5         -0.019063259   -0.15616112     0.08706237     0.011908973    82.416544    
     77360   82.529989      158.5          158.5          158.5          0.046590989    0.22845751    -0.074887986   -0.013796555    82.529989    
     77380   82.52356       158.5          158.5          158.5          0.026431724   -0.039029963    0.10541897     0.012906169    82.52356     
     77400   82.411619      158.5          158.5          158.5          0.079153667    0.05899137     0.14685551     0.031614122    82.411619    
     77420   82.709046      158.5          158.5          158.5         -0.18384586    -0.16614286    -0.32887563    -0.056519076    82.709046    
     77440   82.47782       158.5          158.5          158.5         -0.078721986   -0.12937852    -0.089120095   -0.017667349    82.47782     
     77460   82.709159      158.5          158.5          158.5          0.2727016      0.33384677     0.40603282     0.078225222    82.709159    
     77480   83.278139      158.5          158.5          158.5         -0.11640221    -0.17986323    -0.12829163    -0.041051764    83.278139    
     77500   82.581028      158.5          158.5          158.5          0.095376247    0.40363477    -0.10604055    -0.011465484    82.581028    
     77520   84.238714      158.5          158.5          158.5         -0.048674239   -0.47646391     0.27433017     0.056111029    84.238714    
     77540   83.976496      158.5          158.5          158.5         -0.37843111    -0.40644575    -0.61539848    -0.11344909     83.976496    
     77560   83.258462      158.5          158.5          158.5          0.11503867     0.46486959    -0.091522391   -0.02823119     83.258462    
     77580   89.188384      158.5          158.5          158.5          0.52389746     0.34445849     0.9953527      0.2318812      89.188384    
     77600   83.075073      158.5          158.5          158.5         -0.0014589055   0.84502306    -0.66050391    -0.18889587     83.075073    
     77620   98.519692      158.5          158.5          158.5          0.49531181    -0.048236044    1.4731952      0.060976288    98.519692    
     77640   87.669364      158.5          158.5          158.5         -0.41196322    -0.77768372    -0.34517572    -0.11303021     87.669364    
     77660   86.656392      158.5          158.5          158.5          0.63118126     0.64752602     0.65579963     0.59021814     86.656392    
     77680   89.578226      158.5          158.5          158.5          0.26048172     1.040375      -0.15071297    -0.10821685     89.578226    
     77700   83.684069      158.5          158.5          158.5         -0.15132263    -0.60627834     0.51118515    -0.3588747      83.684069    
     77720   85.625441      158.5          158.5          158.5         -0.21817119    -0.48470696    -0.43911849     0.26931187     85.625441    
     77740   83.28118       158.5          158.5          158.5         -0.026066463    0.30631672    -0.480162       0.095645887    83.28118     
     77760   83.159427      158.5          158.5          158.5         -0.0082586358  -0.11116444     0.3264197     -0.24003117     83.159427    
     77780   83.144143      158.5          158.5          158.5          0.1512452      0.19669331     0.35705188    -0.10000959     83.144143    
     77800   82.353609      158.5          158.5          158.5          0.064521659    0.24713545    -0.19077506     0.13720459     82.353609    
     77820   82.660176      158.5          158.5          158.5         -0.14129036    -0.27177946    -0.21281596     0.060724336    82.660176    
     77840   82.436067      158.5          158.5          158.5         -0.078562366   -0.1969554      0.078471496   -0.1172032      82.436067    
     77860   82.215404      158.5          158.5          158.5          0.022796231    0.057075037    0.010545306    0.00076834966  82.215404    
     77880   82.491425      158.5          158.5          158.5          0.15749761     0.29696154     0.07131982     0.10421146     82.491425    
     77900   82.094221      158.5          158.5          158.5          0.00062141061 -0.038543975    0.071010072   -0.030601865    82.094221    
     77920   82.350734      158.5          158.5          158.5         -0.13470788    -0.24455853    -0.075009768   -0.084555337    82.350734    
     77940   82.22729       158.5          158.5          158.5         -0.0059298482   0.014682185   -0.11159793     0.079126205    82.22729     
     77960   82.165984      158.5          158.5          158.5          0.036804127    0.070386176   -0.024926247    0.064952452    82.165984    
     77980   82.363305      158.5          158.5          158.5          0.067801347    0.11459092     0.19520566    -0.10639254     82.363305    
     78000   82.121097      158.5          158.5          158.5         -0.015667887   -0.063106847    0.069876501   -0.053773316    82.121097    
     78020   82.329297      158.5          158.5          158.5         -0.018940674   -0.0004866346  -0.16543843     0.10910304     82.329297    
     78040   82.288851      158.5          158.5          158.5         -0.08137093    -0.083469667   -0.18783447     0.027191349    82.288851    
     78060   82.215591      158.5          158.5          158.5         -0.022489535   -0.086245229    0.12807321    -0.10929659     82.215591    
     78080   82.507554      158.5          158.5          158.5          0.14822933     0.2152485      0.24696955    -0.017530058    82.507554    
     78100   82.396559      158.5          158.5          158.5          0.037571364    0.11007886    -0.085839028    0.088474257    82.396559    
     78120   82.402789      158.5          158.5          158.5         -0.041545777   -0.042137808   -0.12049112     0.037991601    82.402789    
     78140   83.259952      158.5          158.5          158.5         -0.24619556    -0.50084147    -0.13106148    -0.10668374     83.259952    
     78160   82.083575      158.5          158.5          158.5          0.041926775    0.084095337    0.0010106389   0.040674348    82.083575    
     78180   84.152312      158.5          158.5          158.5          0.25949283     0.40415482     0.1747449      0.19957877     84.152312    
     78200   83.3117        158.5          158.5          158.5          0.14894972     0.12291416     0.39864827    -0.074713259    83.3117      
     78220   84.168509      158.5          158.5          158.5         -0.25405783    -0.08385313    -0.44998107    -0.2283393      84.168509    
     78240   89.376237      158.5          158.5          158.5         -0.42545647    -0.80039948    -0.62658823     0.15061832     89.376237    
     78260   82.1976        158.5          158.5          158.5          0.34333129     0.29483112     0.44820852     0.28695423     82.1976      
     78280   92.729788      158.5          158.5          158.5          0.19867169     0.63061467     0.49788585    -0.53248545     92.729788    
     78300   86.7083        158.5          158.5          158.5         -0.43456261    -0.88375543     0.56769157    -0.98762399     86.7083      
     78320   88.78574       158.5          158.5          158.5          0.068625336    0.23593212    -0.18828536     0.15822925     88.78574     
     78340   85.28509       158.5          158.5          158.5          0.021953303    0.35346947    -0.92394486     0.63633529     85.28509     
     78360   84.350256      158.5          158.5          158.5          0.43260733     0.18208008     0.96492844     0.15081349     84.350256    
     78380   83.670511      158.5          158.5          158.5          0.05813816    -0.16703912     0.5311835     -0.18972989     83.670511    
     78400   81.073784      158.5          158.5          158.5         -0.20596405    -0.038640111   -0.40394413    -0.17530792     81.073784    
     78420   82.416938      158.5          158.5          158.5          0.054639542    0.11120477    -0.21820743     0.27092129     82.416938    
     78440   80.880437      158.5          158.5          158.5          0.096581429    0.013807816    0.10931568     0.16662079     80.880437    
     78460   81.543234      158.5          158.5          158.5         -0.10233118    -0.044073519    0.013656847   -0.27657688     81.543234    
     78480   80.989444      158.5          158.5          158.5         -0.033761397   -0.085388578    0.10843922    -0.12433484     80.989444    
     78500   80.78323       158.5          158.5          158.5          0.10296729     0.10187246     0.16134084     0.045688563    80.78323     
     78520   80.705682      158.5          158.5          158.5         -0.06754088    -0.0034623297  -0.38067278     0.18151247     80.705682    
     78540   80.269885      158.5          158.5          158.5          0.013348455   -0.0059169654   0.15565538    -0.10969305     80.269885    
     78560   80.752314      158.5          158.5          158.5          0.013952277   -0.043405907    0.080874462    0.0043882763   80.752314    
     78580   80.216247      158.5          158.5          158.5          0.012233049    0.02146591     0.038619689   -0.023386453    80.216247    
     78600   80.533193      158.5          158.5          158.5         -0.025014984    0.033435474   -0.25687987     0.14839944     80.533193    
     78620   80.348242      158.5          158.5          158.5          0.048855223    0.031115373    0.18432928    -0.068878987    80.348242    
     78640   80.481073      158.5          158.5          158.5         -0.06726047    -0.086606789   -0.027619883   -0.087554739    80.481073    
     78660   80.19872       158.5          158.5          158.5          0.0038025598  -0.014571982    0.076986292   -0.051006631    80.19872     
     78680   80.343888      158.5          158.5          158.5          0.074746267    0.052682952    0.024458166    0.14709768     80.343888    
     78700   80.537695      158.5          158.5          158.5         -0.0215611      0.052419772   -0.1463623      0.029259226    80.537695    
     78720   80.154918      158.5          158.5          158.5         -0.084116464   -0.023550349   -0.12478925    -0.10400979     80.154918    
     78740   80.56326       158.5          158.5          158.5          0.052576334   -0.057461261    0.23107842    -0.015888159    80.56326     
     78760   80.544911      158.5          158.5          158.5          0.10090352     0.022813876    0.21545835     0.064438336    80.544911    
     78780   80.931049      158.5          158.5          158.5         -0.080755512    0.04822766    -0.39031936     0.099825159    80.931049    
     78800   81.151585      158.5          158.5          158.5         -0.02417866     0.033090256    0.044534897   -0.15016113     81.151585    
     78820   81.019175      158.5          158.5          158.5         -0.07833443    -0.14902054    -0.047005565   -0.038977186    81.019175    
     78840   82.231899      158.5          158.5          158.5          0.074977455    0.022580348    0.25870528    -0.056353258    82.231899    
     78860   81.11578       158.5          158.5          158.5          0.083160077   -0.079625211    0.033903017    0.29520243     81.11578     
     78880   82.989505      158.5          158.5          158.5          0.0034294345   0.11145924     0.20542183    -0.30659276     82.989505    
     78900   85.416624      158.5          158.5          158.5         -0.43347354    -0.020892727   -1.3387039      0.059176023    85.416624    
     78920   80.528646      158.5          158.5          158.5          0.30743118     0.17965307     0.24479031     0.49785016     80.528646    
     78940   87.820108      158.5          158.5          158.5          0.53695667    -0.039080389    1.2572982      0.39265217     87.820108    
     78960   86.096188      158.5          158.5          158.5         -0.032515013   -0.042126609    0.46068463    -0.51610306     86.096188    
     78980   86.362737      158.5          158.5          158.5         -0.48826279     0.14077178    -1.0475393     -0.55802085     86.362737    
     79000   90.91954       158.5          158.5          158.5         -0.073456331   -0.069426741   -0.72509447     0.57415222     90.91954     
     79020   83.480963      158.5          158.5          158.5          0.3740387      0.24932788     0.45069144     0.42209679     83.480963    
     79040   91.034405      158.5          158.5          158.5          0.13201587    -0.0075436711   0.71823397    -0.3146427      91.034405    
     79060   83.481397      158.5          158.5          158.5         -0.015812847    0.051852118    0.2820326     -0.38132326     83.481397    
     79080   87.382292      158.5          158.5          158.5         -0.37948023    -0.3022025     -0.93642696     0.10018878     87.382292    
     79100   83.251692      158.5          158.5          158.5          0.15405284     0.012635806   -0.15989676     0.60941947     83.251692    
     79120   83.559865      158.5          158.5          158.5          0.090322689    0.080853854    0.36357445    -0.17346024     83.559865    
     79140   83.240362      158.5          158.5          158.5         -0.062095299    0.067237524    0.1425118     -0.39603522     83.240362    
     79160   81.897583      158.5          158.5          158.5         -0.0099490821  -0.039959881   -0.090931264    0.1010439      81.897583    
     79180   82.80867       158.5          158.5          158.5          0.01940626    -0.064316144   -0.1651292      0.28766412     82.80867     
     79200   81.761728      158.5          158.5          158.5         -0.085360907   -0.045462244   -0.10874923    -0.10187124     81.761728    
     79220   82.235435      158.5          158.5          158.5         -0.047996579    0.033338536    0.11195302    -0.28928129     82.235435    
     79240   81.605737      158.5          158.5          158.5          0.118794       0.093486382    0.13150251     0.13139312     81.605737    
     79260   81.548857      158.5          158.5          158.5         -0.042672599   -0.1122977     -0.18006676     0.16434666     81.548857    
     79280   81.569153      158.5          158.5          158.5          0.0016542335  -0.019463218   -0.048122014    0.072547932    81.569153    
     79300   81.530412      158.5          158.5          158.5          0.039357356    0.11878562     0.24103096    -0.2417445      81.530412    
     79320   81.360677      158.5          158.5          158.5         -0.0068829479   0.020705119    0.042494066   -0.083848028    81.360677    
     79340   81.488957      158.5          158.5          158.5         -0.012905223   -0.06853815    -0.065692979    0.09551546     81.488957    
     79360   81.823539      158.5          158.5          158.5          0.062488128    0.030627725   -0.056966651    0.21380331     81.823539    
     79380   81.654743      158.5          158.5          158.5         -0.12580363    -0.067175116   -0.10275421    -0.20748156     81.654743    
     79400   81.823867      158.5          158.5          158.5         -0.063624009   -0.018629699   -0.013276387   -0.15896594     81.823867    
     79420   81.687564      158.5          158.5          158.5          0.13831715     0.10550805     0.14165323     0.16779017     81.687564    
     79440   81.42193       158.5          158.5          158.5          0.030160481   -0.047956837   -0.1035346      0.24197288     81.42193     
     79460   81.441068      158.5          158.5          158.5         -0.16789857    -0.14838309    -0.17873142    -0.17658121     81.441068    
     79480   82.388624      158.5          158.5          158.5          0.15269943     0.25968003     0.45745329    -0.25903503     82.388624    
     79500   81.293314      158.5          158.5          158.5          0.033394653   -0.0021253536   0.10036904     0.0019402742   81.293314    
     79520   81.903316      158.5          158.5          158.5          0.070193345   -0.086362335    0.030375239    0.26656713     81.903316    
     79540   82.59234       158.5          158.5          158.5          0.026256386    0.10644273    -0.1025259      0.074852324    82.59234     
     79560   83.01893       158.5          158.5          158.5         -0.2328257     -0.18858333    -0.14153214    -0.36836163     83.01893     
     79580   82.913103      158.5          158.5          158.5          0.074896448   -0.027973291    0.27744344    -0.024780809    82.913103    
     79600   83.381363      158.5          158.5          158.5         -0.1276423      0.090254859   -0.86561069     0.39242894     83.381363    
     79620   84.532457      158.5          158.5          158.5         -0.24145168    -0.2876846     -0.37371784    -0.062952595    84.532457    
     79640   84.534095      158.5          158.5          158.5         -0.23235979    -0.19051341    -0.12686416    -0.37970181     84.534095    
     79660   82.534278      158.5          158.5          158.5          0.27755015     0.15614896     0.23929175     0.43720973     82.534278    
     79680   83.645149      158.5          158.5          158.5         -0.098757659    0.049458072   -0.60866321     0.26293216     83.645149    
     79700   82.210815      158.5          158.5          158.5         -0.11614818    -0.046296787    0.10572591    -0.40787368     82.210815    
     79720   82.569167      158.5          158.5          158.5          0.22101558     0.038952111    0.48887479     0.13521986     82.569167    
     79740   81.520848      158.5          158.5          158.5         -0.11749597    -0.014531796   -0.36253487     0.024578759    81.520848    
     79760   82.397205      158.5          158.5          158.5         -0.01943578     0.117751       0.092259539   -0.26831787     82.397205    
     79780   81.228979      158.5          158.5          158.5          0.19297287     0.055763928    0.23881607     0.2843386      81.228979    
     79800   81.688376      158.5          158.5          158.5         -0.0030508116  -0.017007465    0.013044997   -0.0051899665   81.688376    
     79820   81.643178      158.5          158.5          158.5         -0.23106585    -0.088391712   -0.19997542    -0.40483041     81.643178    
     79840   81.807966      158.5          158.5          158.5          0.13069944     0.041980365    0.0024315939   0.34768637     81.807966    
     79860   81.597479      158.5          158.5          158.5          0.11633608    -0.0042833778   0.15254461     0.200747       81.597479    
     79880   81.372091      158.5          158.5          158.5         -0.19981783    -0.072002071   -0.21567695    -0.31177447     81.372091    
     79900   81.213481      158.5          158.5          158.5         -0.022372231    0.020084484   -0.055974862   -0.031226314    81.213481    
     79920   81.856588      158.5          158.5          158.5          0.25693127     0.17042975     0.43090929     0.16945476     81.856588    
     79940   81.040557      158.5          158.5          158.5         -0.071374126   -0.0043824958  -0.16242741    -0.047312472    81.040557    
     79960   81.402071      158.5          158.5          158.5         -0.17766882    -0.054599445   -0.19838406    -0.28002295     81.402071    
     79980   81.715479      158.5          158.5          158.5          0.1553858      0.046567939    0.21097679     0.20861267     81.715479    
     80000   81.82842       158.5          158.5          158.5          0.14339009     0.077330885    0.00045345582  0.35238593     81.82842     
     80020   82.039275      158.5          158.5          158.5         -0.29635656    -0.21795506    -0.1541042     -0.51701041     82.039275    
     80040   81.876077      158.5          158.5          158.5         -0.036097335    0.083941308   -0.13675087    -0.055482442    81.876077    
     80060   81.883683      158.5          158.5          158.5          0.29536749     0.25368208     0.27386721     0.3585532      81.883683    
     80080   81.400842      158.5          158.5          158.5          0.077975457   -0.039047309    0.069061282    0.2039124      81.400842    
     80100   83.290242      158.5          158.5          158.5         -0.21197375    -0.43102066     0.1844266     -0.38932719     83.290242    
     80120   81.923378      158.5          158.5          158.5         -0.22451657    -0.31745861    -0.10206038    -0.25403072     81.923378    
     80140   83.178005      158.5          158.5          158.5          0.45633573     0.79393543     0.20458824     0.37048351     83.178005    
     80160   82.31551       158.5          158.5          158.5          0.090230455   -0.24518593     0.1331623      0.38271499     82.31551     
     80180   83.411468      158.5          158.5          158.5         -0.48370799    -0.80436792    -0.41607181    -0.23068425     83.411468    
     80200   82.628695      158.5          158.5          158.5          0.15061914     0.15217269     0.013244837    0.28643989     82.628695    
     80220   83.581482      158.5          158.5          158.5         -0.14564905    -0.059153813   -0.12655932    -0.251234       83.581482    
     80240   82.657877      158.5          158.5          158.5         -0.060869626   -0.35138235     0.2015769     -0.032803426    82.657877    
     80260   82.695571      158.5          158.5          158.5         -0.063164786    0.18750011    -0.14698206    -0.23001241     82.695571    
     80280   82.422412      158.5          158.5          158.5          0.24069934     0.20728145     0.054255895    0.46056066     82.422412    
     80300   82.50745       158.5          158.5          158.5         -0.30054458    -0.2848369     -0.11135611    -0.50544073     82.50745     
     80320   82.365718      158.5          158.5          158.5          0.12894575     0.069854627    0.095036377    0.22194624     82.365718    
     80340   82.28016       158.5          158.5          158.5          0.015875177    0.11070066    -0.058856926   -0.0042182036   82.28016     
     80360   82.396393      158.5          158.5          158.5         -0.001451574    0.050519218    0.054755125   -0.10962906     82.396393    
     80380   82.124196      158.5          158.5          158.5         -0.12468507    -0.15675723    -0.059142087   -0.1581559      82.124196    
     80400   82.324432      158.5          158.5          158.5          0.1806962      0.095599137    0.047364506    0.39912496     82.324432    
     80420   82.033039      158.5          158.5          158.5         -0.11499713    -0.050801048   -0.033858847   -0.26033149     82.033039    
     80440   82.161367      158.5          158.5          158.5         -0.057580063   -0.011136807   -0.00045205517 -0.16115133     82.161367    
     80460   81.988333      158.5          158.5          158.5          0.18034424     0.19114558     0.038893136    0.31099401     81.988333    
     80480   82.003211      158.5          158.5          158.5         -0.15739755    -0.16104485    -0.081264363   -0.22988344     82.003211    
     80500   81.564042      158.5          158.5          158.5          0.0010704434  -0.040724135    0.036347165    0.0075883      81.564042    
     80520   81.821727      158.5          158.5          158.5          0.21913637     0.29654094     0.16409512     0.19677304     81.821727    
     80540   81.467606      158.5          158.5          158.5         -0.13181791    -0.22639383    -0.020489803   -0.1485701      81.467606    
     80560   82.519229      158.5          158.5          158.5          0.05075176    -0.20399304     0.20116846     0.15507986     82.519229    
     80580   81.890321      158.5          158.5          158.5          0.0068841163   0.13301537    -0.036610442   -0.075752575    81.890321    
     80600   83.554285      158.5          158.5          158.5         -0.024526671    0.25543228    -0.26897395    -0.060038344    83.554285    
     80620   82.547217      158.5          158.5          158.5          0.18385869     0.12874595     0.46570492    -0.042874795    82.547217    
     80640   83.815149      158.5          158.5          158.5         -0.16596796    -0.20268803    -0.33443792     0.039222067    83.815149    
     80660   82.98141       158.5          158.5          158.5         -0.16592041    -0.43684195    -0.15633221     0.095412912    82.98141     
     80680   82.635797      158.5          158.5          158.5          0.14397995     0.32271381     0.058633557    0.050592493    82.635797    
     80700   82.696633      158.5          158.5          158.5          0.14995253     0.39743061    -0.1396514      0.19207838     82.696633    
     80720   83.105417      158.5          158.5          158.5         -0.12481793    -0.49168315     0.23018916    -0.1129598      83.105417    
     80740   83.965499      158.5          158.5          158.5         -0.22975429     0.1288921     -0.81216437    -0.0059906131   83.965499    
     80760   82.058765      158.5          158.5          158.5          0.062846636    0.14395558     0.013317341    0.031266991    82.058765    
     80780   83.310773      158.5          158.5          158.5          0.144966      -0.15326413     0.50463857     0.083523576    83.310773    
     80800   82.499216      158.5          158.5          158.5         -0.0060959708   0.18044672    -0.29025376     0.091519123    82.499216    
     80820   82.896224      158.5          158.5          158.5         -0.15027949    -0.18782818    -0.031705233   -0.23130505     82.896224    
     80840   82.478593      158.5          158.5          158.5          0.11007953     0.21291277     0.036860411    0.080465408    82.478593    
     80860   82.56659       158.5          158.5          158.5         -0.11132776    -0.24966222    -0.068372893   -0.015948154    82.56659     
     80880   82.56861       158.5          158.5          158.5          0.066725383   -0.070016783    0.20513982     0.065053113    82.56861     
     80900   82.223681      158.5          158.5          158.5          0.14823565     0.28944593     0.057397758    0.097863259    82.223681    
     80920   82.836593      158.5          158.5          158.5         -0.30013488    -0.30674561    -0.31483627    -0.27882277     82.836593    
     80940   82.121954      158.5          158.5          158.5          0.15150434     0.28899644     0.064298984    0.1012176      82.121954    
     80960   82.893923      158.5          158.5          158.5          0.042584996   -0.21706735     0.22882758     0.11599476     82.893923    
     80980   82.277107      158.5          158.5          158.5         -0.022975885   -0.09180992     0.092908929   -0.070026664    82.277107    
     81000   82.413624      158.5          158.5          158.5         -0.11702708    -0.053993437   -0.23768077    -0.059407043    82.413624    
     81020   82.283122      158.5          158.5          158.5          0.097570641    0.25038039    -0.049884604    0.092216138    82.283122    
     81040   81.90003       158.5          158.5          158.5          0.012889206   -0.10695431     0.28743878    -0.14181686     81.90003     
     81060   82.795333      158.5          158.5          158.5         -0.13196531    -0.31097868    -0.21517093     0.13025367     82.795333    
     81080   81.396676      158.5          158.5          158.5          0.1765309      0.13654071     0.28593125     0.10712075     81.396676    
     81100   83.208797      158.5          158.5          158.5          0.12220676     0.24341397     0.25123641    -0.12803008     83.208797    
     81120   81.530333      158.5          158.5          158.5         -0.1985162      0.0028419805  -0.58322373    -0.015166842    81.530333    
     81140   85.255053      158.5          158.5          158.5         -0.31416056     0.16601666    -0.70819831    -0.40030003     85.255053    
     81160   84.578321      158.5          158.5          158.5          0.28457428     0.082983836    0.42805745     0.34268154     84.578321    
     81180   82.810752      158.5          158.5          158.5          0.33965468     0.10423954     0.78332891     0.13139559     82.810752    
     81200   86.34888       158.5          158.5          158.5         -0.25027239     0.12865217    -0.53788149    -0.34158785     86.34888     
     81220   83.042495      158.5          158.5          158.5         -0.41608099    -0.45443876    -0.58909135    -0.20471287     83.042495    
     81240   85.817038      158.5          158.5          158.5          0.41579946     0.24116042     0.55866495     0.44757299     85.817038    
     81260   83.35914       158.5          158.5          158.5          0.28394583     0.15572903     0.49424633     0.20186215     83.35914     
     81280   84.699485      158.5          158.5          158.5         -0.52235899    -0.4056655     -0.7386575     -0.42275397     84.699485    
     81300   84.788042      158.5          158.5          158.5          0.017800325    0.3584953     -0.21812596    -0.086968365    84.788042    
     81320   82.966475      158.5          158.5          158.5          0.30965413     0.22233531     0.59796299     0.10866408     82.966475    
     81340   85.554985      158.5          158.5          158.5         -0.20138361    -0.65848206    -0.20636149     0.26069272     85.554985    
     81360   82.191166      158.5          158.5          158.5          0.0018710376  -0.12381956     0.098680131    0.030752538    82.191166    
     81380   83.84463       158.5          158.5          158.5          0.11102242     0.43365396     0.16069966    -0.26128636     83.84463     
     81400   84.051371      158.5          158.5          158.5         -0.00075223965  0.26622872    -0.34461342     0.076127982    84.051371    
     81420   81.778511      158.5          158.5          158.5         -0.12687132    -0.069462012   -0.17837612    -0.13277585     81.778511    
     81440   82.386064      158.5          158.5          158.5          0.21431999     0.27611131     0.317096       0.049752672    82.386064    
     81460   83.800703      158.5          158.5          158.5         -0.07615894    -0.44447362     0.04269487     0.17330193     83.800703    
     81480   83.00592       158.5          158.5          158.5          0.16120064     0.41308002     0.1178953     -0.047373402    83.00592     
     81500   83.354268      158.5          158.5          158.5         -0.36041126    -0.58365026    -0.28927451    -0.20830903     83.354268    
     81520   82.951885      158.5          158.5          158.5          0.36471055     0.83383325     0.10840677     0.15189163     82.951885    
     81540   83.249555      158.5          158.5          158.5         -0.30660054    -0.94514277     0.051726068   -0.026384918    83.249555    
     81560   83.092773      158.5          158.5          158.5          0.22193442     0.61853938     0.067753127   -0.020489249    83.092773    
     81580   83.16305       158.5          158.5          158.5         -0.087486789   -0.5827584      0.16814118     0.15215686     83.16305     
     81600   83.354895      158.5          158.5          158.5          0.0063507945   0.47800278    -0.25565508    -0.20329532     83.354895    
     81620   83.108811      158.5          158.5          158.5         -0.41494288    -0.92949611    -0.27554855    -0.039783968    83.108811    
     81640   83.429749      158.5          158.5          158.5          0.54101615     0.97551355     0.45767837     0.18985653     83.429749    
     81660   82.849722      158.5          158.5          158.5         -0.18601888    -0.49386294    -0.091472428    0.027278731    82.849722    
     81680   83.224816      158.5          158.5          158.5         -0.19403436    -0.032350548   -0.3951801     -0.15457244     83.224816    
     81700   83.289812      158.5          158.5          158.5          0.10200149    -0.039626187    0.24633299     0.099297668    83.289812    
     81720   82.707142      158.5          158.5          158.5         -0.15507233    -0.22707288    -0.16874969    -0.069394426    82.707142    
     81740   83.492614      158.5          158.5          158.5          0.028845905    0.28439969    -0.25348587     0.055623894    83.492614    
     81760   82.301736      158.5          158.5          158.5          0.23008386     0.24733213     0.38755761     0.055361842    82.301736    
     81780   82.558572      158.5          158.5          158.5         -0.099102372   -0.096909272    0.0099024858  -0.21030033     82.558572    
     81800   82.723349      158.5          158.5          158.5         -0.32581668    -0.47059994    -0.58172609     0.074875999    82.723349    
     81820   84.240377      158.5          158.5          158.5          0.55216894     0.72213455     0.8259697      0.10840256     84.240377    
     81840   81.780595      158.5          158.5          158.5          0.20621866     0.19274212     0.13480188     0.29111198     81.780595    
     81860   82.62867       158.5          158.5          158.5         -0.29305484     0.12952233    -0.85821461    -0.15047224     82.62867     
     81880   83.1211        158.5          158.5          158.5          0.0022667787  -0.63507031     0.60461524     0.03725541     83.1211      
     81900   82.509056      158.5          158.5          158.5          0.16044331     0.51457713    -0.016052681   -0.017194533    82.509056    
     81920   82.417072      158.5          158.5          158.5         -0.17137376     0.055298331   -0.39918194    -0.17023766     82.417072    
     81940   82.781071      158.5          158.5          158.5          0.10139453    -0.3484761      0.35473681     0.29792288     82.781071    
     81960   82.172474      158.5          158.5          158.5          0.038871002    0.073507033   -0.070948571    0.11405455     82.172474    
     81980   83.150006      158.5          158.5          158.5         -0.26453041    -0.16820622    -0.21891334    -0.40647165     83.150006    
     82000   82.555923      158.5          158.5          158.5          0.18695539     0.15491623     0.26375419     0.14219576     82.555923    
     82020   82.713834      158.5          158.5          158.5         -0.019347684    0.036172015    0.066442967   -0.16065803     82.713834    
     82040   82.811668      158.5          158.5          158.5         -0.16794796     0.058971745   -0.23313059    -0.32968503     82.811668    
     82060   82.659221      158.5          158.5          158.5          0.057364746   -0.12518481     0.096490893    0.20078816     82.659221    
     82080   82.807149      158.5          158.5          158.5          0.10047746    -0.17797788     0.032800861    0.44660939     82.807149    
     82100   82.861842      158.5          158.5          158.5         -0.26121692    -0.16312961    -0.071891622   -0.54862951     82.861842    
     82120   83.039595      158.5          158.5          158.5          0.27273068     0.70991364     0.13964814    -0.031369736    83.039595    
     82140   83.032453      158.5          158.5          158.5         -0.051159665   -0.52501047     0.0055217823   0.36600969     83.032453    
     82160   82.606889      158.5          158.5          158.5         -0.21841513    -0.016638819   -0.27131389    -0.36729267     82.606889    
     82180   82.120562      158.5          158.5          158.5          0.10013329     0.21871667    -0.0099688239   0.091652015    82.120562    
     82200   83.802483      158.5          158.5          158.5          0.54317831     0.56293919     0.45902636     0.60756937     83.802483    
     82220   81.420005      158.5          158.5          158.5         -0.0059103227   0.010249707   -0.022454635   -0.0055260401   81.420005    
     82240   82.745733      158.5          158.5          158.5         -0.41256766    -0.44675247    -0.51948522    -0.2714653      82.745733    
     82260   82.972664      158.5          158.5          158.5          0.17887642     0.48384068     0.26234895    -0.20956036     82.972664    
     82280   83.653576      158.5          158.5          158.5          0.16137526    -0.26643001     0.0060100306   0.74454577     83.653576    
     82300   82.866327      158.5          158.5          158.5         -0.17925858    -0.2360073      0.062957541   -0.36472598     82.866327    
     82320   83.593878      158.5          158.5          158.5          0.11475816     0.48468101     0.063447611   -0.20385415     83.593878    
     82340   82.713045      158.5          158.5          158.5         -0.24050251    -0.20101803    -0.30416391    -0.21632559     82.713045    
     82360   83.492653      158.5          158.5          158.5          0.17309881     0.24080692     0.14786652     0.13062299     83.492653    
     82380   82.664401      158.5          158.5          158.5         -0.0074627454  -0.15082531     0.24972206    -0.12128499     82.664401    
     82400   83.374677      158.5          158.5          158.5         -0.08029592    -0.35802352    -0.29389387     0.41102962     83.374677    
     82420   82.598202      158.5          158.5          158.5         -0.079637963   -0.27595504    -0.087944155    0.12498531     82.598202    
     82440   83.259442      158.5          158.5          158.5          0.043203885    0.46387115     0.27357425    -0.60783375     83.259442    
     82460   82.581675      158.5          158.5          158.5          0.18187899     0.32940078    -0.047153486    0.26338967     82.581675    
     82480   83.42572       158.5          158.5          158.5         -0.27063547    -0.90975978    -0.067270741    0.16512412     83.42572     
     82500   82.909897      158.5          158.5          158.5         -0.026347345    0.5277864     -0.20919338    -0.39763505     82.909897    
     82520   82.790959      158.5          158.5          158.5          0.35030227     0.13046886     0.29134303     0.62909492     82.790959    
     82540   82.172316      158.5          158.5          158.5         -0.15927721    -0.1570423     -0.094810437   -0.22597889     82.172316    
     82560   82.236564      158.5          158.5          158.5         -0.35116287    -0.12169489    -0.23978789    -0.69200584     82.236564    
     82580   82.095122      158.5          158.5          158.5          0.2980943      0.15284195     0.32726517     0.41417579     82.095122    
     82600   82.280401      158.5          158.5          158.5          0.32870187     0.31346885     0.11506554     0.55757124     82.280401    
     82620   81.914727      158.5          158.5          158.5         -0.039269865   -0.17635695    -0.0096935243   0.068240878    81.914727    
     82640   83.13971       158.5          158.5          158.5         -0.33964596    -0.011252169   -0.25247377    -0.75521195     83.13971     
     82660   82.983293      158.5          158.5          158.5          0.11904075    -0.070743245    0.3270514      0.10081409     82.983293    
     82680   83.213063      158.5          158.5          158.5          0.23709112     0.35779514     0.10256105     0.25091718     83.213063    
     82700   83.072857      158.5          158.5          158.5         -0.22082761    -0.35140343    -0.35890433     0.04782492     83.072857    
     82720   82.922655      158.5          158.5          158.5         -0.10981138    -0.18429558     0.25711162    -0.40225018     82.922655    
     82740   83.023841      158.5          158.5          158.5          0.17317292     0.29636421     0.088328864    0.13482568     83.023841    
     82760   83.044778      158.5          158.5          158.5          0.087850648    0.15755686    -0.36659757     0.47259265     83.044778    
     82780   83.061822      158.5          158.5          158.5         -0.13321267    -0.20015138     0.17759901    -0.37708564     83.061822    
     82800   83.339563      158.5          158.5          158.5         -0.26651387    -0.20422135    -0.47115889    -0.12416138     83.339563    
     82820   82.754949      158.5          158.5          158.5          0.31706185     0.19080108     0.40603494     0.35434952     82.754949    
     82840   83.53106       158.5          158.5          158.5         -0.17047945    -0.067807173   -0.43705298    -0.0065781874   83.53106     
     82860   82.527419      158.5          158.5          158.5          0.020317476   -0.039767013    0.16488071    -0.064161272    82.527419    
     82880   83.735644      158.5          158.5          158.5         -0.032499822    0.23565323    -0.33656688     0.0034141812   83.735644    
     82900   82.855153      158.5          158.5          158.5          0.036108175   -0.16960895     0.29300043    -0.015066948    82.855153    
     82920   83.411661      158.5          158.5          158.5         -0.13291741    -0.13148244    -0.2041143     -0.0631555      83.411661    
     82940   82.665458      158.5          158.5          158.5          0.20749657     0.30969344    -0.0055028247   0.3182991      82.665458    
     82960   83.215639      158.5          158.5          158.5          0.0050427777  -0.23219221     0.27107007    -0.023749521    83.215639    
     82980   82.041846      158.5          158.5          158.5          0.082479381    0.21515903     0.18034975    -0.14807064     82.041846    
     83000   82.506291      158.5          158.5          158.5         -0.23336844    -0.31948242     0.032091274   -0.41271419     82.506291    
     83020   83.147653      158.5          158.5          158.5         -0.20078831    -0.5793857     -0.25162991     0.22865068     83.147653    
     83040   82.026991      158.5          158.5          158.5          0.29173068     0.30563287     0.2719676      0.29759156     82.026991    
     83060   82.618747      158.5          158.5          158.5          0.10062992     0.26554472     0.1953241     -0.15897904     82.618747    
     83080   82.418935      158.5          158.5          158.5         -0.38687905    -0.251388      -0.63710554    -0.27214363     82.418935    
     83100   82.908496      158.5          158.5          158.5          0.12681875     0.085422708    0.40168062    -0.10664706     82.908496    
     83120   82.353309      158.5          158.5          158.5          0.43206139     0.18111926     0.43282745     0.68223746     82.353309    
     83140   82.79499       158.5          158.5          158.5         -0.32673421    -0.10675631    -0.39421167    -0.47923465     82.79499     
     83160   82.482914      158.5          158.5          158.5         -0.21844214    -0.056027544   -0.098901502   -0.50039739     82.482914    
     83180   83.529794      158.5          158.5          158.5          0.50010747     0.11835735     0.56821653     0.81374852     83.529794    
     83200   82.846187      158.5          158.5          158.5         -0.20466088    -0.014968962   -0.41714053    -0.18187314     82.846187    
     83220   82.918265      158.5          158.5          158.5         -0.26600903    -0.032291397   -0.28623697    -0.47949871     82.918265    
     83240   83.817029      158.5          158.5          158.5          0.3743552      0.043546967    0.39119309     0.68832555     83.817029    
     83260   82.69136       158.5          158.5          158.5         -0.14955965    -0.022778858   -0.14937613    -0.27652398     82.69136     
     83280   83.487648      158.5          158.5          158.5         -0.25357994     0.0012429201  -0.25989421    -0.50208852     83.487648    
     83300   84.004156      158.5          158.5          158.5          0.43703114     0.063169998    0.1950189      1.0529045      84.004156    
     83320   82.82878       158.5          158.5          158.5         -0.1280743     -0.0084229657   0.01562814    -0.39142807     82.82878     
     83340   84.156034      158.5          158.5          158.5         -0.51896275    -0.1084755     -0.46780878    -0.98060396     84.156034    
     83360   84.011473      158.5          158.5          158.5          0.6242117      0.16192993     0.44170909     1.2689961      84.011473    
     83380   83.088619      158.5          158.5          158.5          0.027319463   -0.068102163    0.10171492     0.048345631    83.088619    
     83400   84.472406      158.5          158.5          158.5         -0.61496121    -0.21195       -0.28771927    -1.3452144      84.472406    
     83420   85.029178      158.5          158.5          158.5          0.36729587     0.23753714    -0.05432541     0.91867588     85.029178    
     83440   82.843728      158.5          158.5          158.5          0.13368704     0.15767443    -0.049534554    0.29292125     82.843728    
     83460   84.780101      158.5          158.5          158.5         -0.64892593    -0.59794444    -0.33806038    -1.010773       84.780101    
     83480   83.328412      158.5          158.5          158.5          0.25441442     0.18357775     0.3352445      0.24442102     83.328412    
     83500   83.596981      158.5          158.5          158.5          0.48676991     0.52991807     0.41422565     0.51616602     83.596981    
     83520   83.838617      158.5          158.5          158.5         -0.37196104    -0.47458874    -0.75293956     0.11164518     83.838617    
     83540   83.231499      158.5          158.5          158.5         -0.34230351    -0.0039513819  -0.094446438   -0.92851272     83.231499    
     83560   82.85915       158.5          158.5          158.5          0.37235943     0.32583246     0.49175044     0.29949539     82.85915     
     83580   83.064395      158.5          158.5          158.5          0.27191229    -0.17966814     0.13310689     0.86229811     83.064395    
     83600   82.714339      158.5          158.5          158.5         -0.28317864     0.080714708   -0.30608179    -0.62416884     82.714339    
     83620   82.338826      158.5          158.5          158.5         -0.28821333    -0.070359208   -0.35225718    -0.44202361     82.338826    
     83640   81.816326      158.5          158.5          158.5          0.13492516    -0.24260278     0.23601198     0.41136627     81.816326    
     83660   81.318892      158.5          158.5          158.5          0.50755928     0.48496855     0.51632399     0.52138532     81.318892    
     83680   82.420663      158.5          158.5          158.5         -0.025395258    0.15566867     0.0036271533  -0.23548159     82.420663    
     83700   81.442245      158.5          158.5          158.5         -0.45310718    -0.45947861    -0.54779877    -0.35204418     81.442245    
     83720   81.082468      158.5          158.5          158.5         -0.020012411   -0.041719439   -0.049960835    0.031643042    81.082468    
     83740   82.522171      158.5          158.5          158.5          0.49937563     0.66455203     0.4641524      0.36942247     82.522171    
     83760   81.978544      158.5          158.5          158.5         -0.11159246    -0.27193627     0.029031111   -0.091872205    81.978544    
     83780   82.511886      158.5          158.5          158.5         -0.45621419    -0.56913947    -0.45210398    -0.34739912     82.511886    
     83800   82.666027      158.5          158.5          158.5          0.30998596     0.64047878     0.033691708    0.2557874      82.666027    
     83820   82.145976      158.5          158.5          158.5          0.20702024     0.23426266     0.26546698     0.12133109     82.145976    
     83840   83.124714      158.5          158.5          158.5         -0.48098494    -0.90024295    -0.25670239    -0.28600947     83.124714    
     83860   81.637176      158.5          158.5          158.5          0.099345712    0.058585807    0.16882826     0.070623066    81.637176    
     83880   82.472817      158.5          158.5          158.5          0.46663194     0.69655253     0.50633602     0.19700727     82.472817    
     83900   83.256245      158.5          158.5          158.5         -0.40491687    -0.34709375    -0.77195067    -0.095706202    83.256245    
     83920   81.77881       158.5          158.5          158.5         -0.22832211    -0.27871883    -0.26895436    -0.13729314     81.77881     
     83940   83.683597      158.5          158.5          158.5          0.63396854     0.53860521     0.89809097     0.46520945     83.683597    
     83960   84.211566      158.5          158.5          158.5         -0.16394992    -0.40824078    -0.20370138     0.12009239     84.211566    
     83980   84.06929       158.5          158.5          158.5         -0.45399029    -0.13558109    -0.14131313    -1.0850767      84.06929     
     84000   84.701212      158.5          158.5          158.5          0.41432665     0.39234746     0.11608352     0.73454898     84.701212    
     84020   83.091437      158.5          158.5          158.5          0.096974475   -0.25807067    -0.17821889     0.72721298     83.091437    
     84040   86.006248      158.5          158.5          158.5         -0.56445703    -0.033530747    0.041455128   -1.7012955      86.006248    
     84060   82.540581      158.5          158.5          158.5          0.18746292     0.11326286     0.2502469      0.19887899     82.540581    
     84080   84.039751      158.5          158.5          158.5          0.42382571     0.16463661     0.11201089     0.99482963     84.039751    
     84100   83.99542       158.5          158.5          158.5         -0.39575722    -0.239655      -0.39834716    -0.5492695      83.99542     
     84120   82.294695      158.5          158.5          158.5         -0.20098698    -0.13093414    -0.064495593   -0.4075312      82.294695    
     84140   83.400353      158.5          158.5          158.5          0.28379255     0.44292772     0.18512369     0.22332623     83.400353    
     84160   82.676453      158.5          158.5          158.5          0.039992883   -0.40624992     0.28580431     0.24042426     82.676453    
     84180   82.423284      158.5          158.5          158.5         -0.048213431    0.012772214   -0.2388421      0.081429589    82.423284    
     84200   82.340065      158.5          158.5          158.5         -0.083754991    0.45496794    -0.32507618    -0.38115673     82.340065    
     84220   82.429052      158.5          158.5          158.5         -0.18458634    -0.59707345     0.12390628    -0.080591846    82.429052    
     84240   81.719848      158.5          158.5          158.5          0.20312109     0.012905892    0.36220336     0.23425403     81.719848    
     84260   82.295829      158.5          158.5          158.5          0.27330549     0.73105265    -0.026786124    0.11564994     82.295829    
     84280   82.079727      158.5          158.5          158.5         -0.33782803    -0.60267913    -0.33700039    -0.073804573    82.079727    
     84300   81.704511      158.5          158.5          158.5         -0.18946716    -0.30593747    -0.094628127   -0.1678359      81.704511    
     84320   82.388994      158.5          158.5          158.5          0.34473069     0.81205567     0.30671022    -0.084573811    82.388994    
     84340   81.293927      158.5          158.5          158.5          0.10819228    -0.25693243     0.28717368     0.29433558     81.293927    
     84360   81.283805      158.5          158.5          158.5         -0.24191805    -0.45483203    -0.29936946     0.028447334    81.283805    
     84380   83.394423      158.5          158.5          158.5          0.15672363     0.72263842    -0.22399988    -0.028467643    83.394423    
     84400   80.515841      158.5          158.5          158.5          0.1316889      0.33060107     0.022373489    0.042092137    80.515841    
     84420   82.646368      158.5          158.5          158.5         -0.034972232   -1.0320038      0.47010027     0.45698684     82.646368    
     84440   81.978515      158.5          158.5          158.5          0.20732286     0.8016322     -0.0053689136  -0.1742947      81.978515    
     84460   81.930939      158.5          158.5          158.5         -0.15020485     0.3690772     -0.32247941    -0.49721233     81.930939    
     84480   83.39099       158.5          158.5          158.5         -0.37116745    -1.2444772     -0.10840233     0.23937716     83.39099     
     84500   82.327533      158.5          158.5          158.5          0.44752653     0.72565258     0.35371363     0.26321337     82.327533    
     84520   82.022821      158.5          158.5          158.5          0.30296515     0.662913       0.057849702    0.18813276     82.022821    
     84540   84.228403      158.5          158.5          158.5         -0.66542326    -1.0108587     -0.1525367     -0.83287442     84.228403    
     84560   82.168634      158.5          158.5          158.5         -0.024259898    0.10847507    -0.33734351     0.15608874     82.168634    
     84580   83.144355      158.5          158.5          158.5          0.43259256     0.28776379     0.30440042     0.70561348     83.144355    
     84600   84.486255      158.5          158.5          158.5         -0.15266572     0.28577836     0.074867527   -0.81864306     84.486255    
     84620   82.905276      158.5          158.5          158.5         -0.20531969    -0.40246483    -0.20053022    -0.012964041    82.905276    
     84640   83.191541      158.5          158.5          158.5          0.16818697    -0.2618843      0.017884467    0.74856074     83.191541    
     84660   84.714457      158.5          158.5          158.5          0.087759466    0.88037203     0.21955085    -0.83664448     84.714457    
     84680   83.061928      158.5          158.5          158.5         -0.30294577    -0.57770649    -0.40611009     0.074979285    83.061928    
     84700   82.84603       158.5          158.5          158.5          0.25267676    -0.076136834    0.26047151     0.57369561     82.84603     
     84720   83.319567      158.5          158.5          158.5          0.16106657     0.54395754     0.34803566    -0.40879349     83.319567    
     84740   84.102383      158.5          158.5          158.5         -0.57593089    -0.88311027    -0.83102002    -0.013662374    84.102383    
     84760   83.89194       158.5          158.5          158.5          0.60391638     1.0867534      0.54460035     0.18039541     83.89194     
     84780   83.526381      158.5          158.5          158.5         -0.44513057    -1.0473676     -0.20033775    -0.087686378    83.526381    
     84800   82.931382      158.5          158.5          158.5          0.15831268     0.23835584     0.1445626      0.092019615    82.931382    
     84820   82.641255      158.5          158.5          158.5          0.056405074    0.090000834   -0.060717678    0.13993207     82.641255    
     84840   82.600254      158.5          158.5          158.5         -0.19172643    -0.31460541    -0.060053843   -0.20052003     82.600254    
     84860   83.131838      158.5          158.5          158.5          0.30406925     0.49408095     0.10532135     0.31280546     83.131838    
     84880   84.194979      158.5          158.5          158.5         -0.32652692    -0.51823055     0.048676801   -0.51002702     84.194979    
     84900   83.156884      158.5          158.5          158.5          0.064679714   -0.022572762   -0.16681795     0.38342985     83.156884    
     84920   82.447218      158.5          158.5          158.5          0.32866433     0.40121497     0.166572       0.418206       82.447218    
     84940   83.512035      158.5          158.5          158.5         -0.30882961    -0.12270082     0.21015796    -1.013946       83.512035    
     84960   82.824263      158.5          158.5          158.5         -0.34939526    -0.37726658    -0.68710803     0.016188824    82.824263    
     84980   82.660703      158.5          158.5          158.5          0.62873592     0.37031133     0.42469284     1.0912036      82.660703    
     85000   82.834331      158.5          158.5          158.5          0.34965184     0.50421543     0.53857037     0.0061697192   82.834331    
     85020   84.170439      158.5          158.5          158.5         -0.68125198    -0.82085609    -0.5740293     -0.64887055     84.170439    
     85040   82.780114      158.5          158.5          158.5         -0.2438244      0.02066595    -0.23943434    -0.51270481     82.780114    
     85060   84.521793      158.5          158.5          158.5          0.79217714     0.96060709     0.64243428     0.77349006     84.521793    
     85080   82.932598      158.5          158.5          158.5         -0.23964735    -0.52729515    -0.26193316     0.070286268    82.932598    
     85100   83.736503      158.5          158.5          158.5         -0.61648812    -0.92566997    -0.2433695     -0.68042491     83.736503    
     85120   84.857856      158.5          158.5          158.5          0.83875761     1.3810454      0.45212018     0.68310728     84.857856    
     85140   82.83894       158.5          158.5          158.5         -0.33438758    -0.53215969    -0.19581152    -0.27519151     82.83894     
     85160   83.242238      158.5          158.5          158.5         -0.37490805    -0.70747623    -0.14585233    -0.27139558     83.242238    
     85180   84.433005      158.5          158.5          158.5          0.62439918     1.0664675      0.23103454     0.57569547     84.433005    
     85200   82.649293      158.5          158.5          158.5         -0.2428904     -0.54702138    -0.066165674   -0.11548416     82.649293    
     85220   83.856958      158.5          158.5          158.5         -0.30111835    -0.44288737     0.030651569   -0.49111926     83.856958    
     85240   84.544089      158.5          158.5          158.5          0.30759763     0.21778664    -0.11251116     0.81751742     84.544089    
     85260   82.880482      158.5          158.5          158.5          0.22977067     0.58767272     0.22728596    -0.12564668     82.880482    
     85280   84.807838      158.5          158.5          158.5         -0.84765564    -1.1299185     -0.43412734    -0.97892113     84.807838    
     85300   84.244129      158.5          158.5          158.5          0.74880716     0.89013383     0.39396248     0.96232518     84.244129    
     85320   82.627603      158.5          158.5          158.5          0.067893394   -0.18159495     0.05761791     0.32765722     82.627603    
     85340   84.732381      158.5          158.5          158.5         -0.84498595    -0.52022072    -0.57082191    -1.4439152      84.732381    
     85360   83.452584      158.5          158.5          158.5          0.5826322      0.69419656     0.30319572     0.75050431     83.452584    
     85380   83.834953      158.5          158.5          158.5          0.47912877    -0.12501297     0.59694252     0.96545675     83.834953    
     85400   84.464746      158.5          158.5          158.5         -0.76406871    -0.19604431    -0.83578767    -1.2603741      84.464746    
     85420   82.422895      158.5          158.5          158.5         -0.26439047    -0.20204916    -0.18948386    -0.4016384      82.422895    
     85440   84.19926       158.5          158.5          158.5          0.7992334      0.47340868     0.6211501      1.3031414      84.19926     
     85460   82.428617      158.5          158.5          158.5          0.17460822     0.11037369     0.052292824    0.36115813     82.428617    
     85480   83.134525      158.5          158.5          158.5         -0.71425535    -0.52184766    -0.37065019    -1.2502682      83.134525    
     85500   83.086308      158.5          158.5          158.5         -0.15689619     0.38390911    -0.35258252    -0.50201517     83.086308    
     85520   82.407463      158.5          158.5          158.5          0.34275405    -0.05739596     0.43283331     0.6528248      82.407463    
     85540   83.045866      158.5          158.5          158.5          0.38423004    -0.17611208     0.22212447     1.1066777      83.045866    
     85560   83.141612      158.5          158.5          158.5         -0.14560068     0.57225607    -0.021981883   -0.98707621     83.141612    
     85580   83.014173      158.5          158.5          158.5         -0.50227465    -0.42205902    -0.67974136    -0.40502357     83.014173    
     85600   82.922404      158.5          158.5          158.5          0.069047247   -0.54078161     0.38166253     0.36626082     82.922404    
     85620   83.3455        158.5          158.5          158.5          0.66791455     1.142261       0.29306197     0.56842064     83.3455      
     85640   81.871857      158.5          158.5          158.5         -0.31908119    -0.25525827    -0.17257581    -0.52940949     81.871857    
     85660   82.131575      158.5          158.5          158.5         -0.5906868     -1.080069      -0.4118475     -0.28014396     82.131575    
     85680   82.315742      158.5          158.5          158.5          0.52598255     0.71978375     0.50213317     0.35603073     82.315742    
     85700   82.361376      158.5          158.5          158.5          0.44289951     0.7211947      0.22641516     0.38108868     82.361376    
     85720   82.04684       158.5          158.5          158.5         -0.46166546    -1.0717428     -0.24147443    -0.07177915     82.04684     
     85740   83.299978      158.5          158.5          158.5         -0.35283031     0.044330046   -0.12683062    -0.97599034     83.299978    
     85760   81.968824      158.5          158.5          158.5          0.37506947     0.69084249     0.22581358     0.20855234     81.968824    
     85780   83.910454      158.5          158.5          158.5          0.20549241    -0.62964805     0.42819549     0.81792978     83.910454    
     85800   82.338289      158.5          158.5          158.5         -0.015818926    0.16688754    -0.40123975     0.18689543     82.338289    
     85820   83.639304      158.5          158.5          158.5         -0.39285794     0.4334974     -0.25557033    -1.3565009      83.639304    
     85840   83.842864      158.5          158.5          158.5         -0.15167548    -0.92688572     0.11658996     0.35526932     83.842864    
     85860   82.612877      158.5          158.5          158.5          0.50888474     0.2563146      0.64787785     0.62246179     82.612877    
     85880   84.243818      158.5          158.5          158.5          0.3641061      1.0443042     -0.2861846      0.33419871     84.243818    
     85900   83.886032      158.5          158.5          158.5         -0.88452159    -1.2893423     -0.49317151    -0.87105093     83.886032    
     85920   83.368169      158.5          158.5          158.5         -0.15967374    -0.22918721    -0.10755109    -0.14228291     83.368169    
     85940   85.071752      158.5          158.5          158.5          0.86216489     1.3450455      0.84380008     0.39764906     85.071752    
     85960   83.022225      158.5          158.5          158.5          0.12477623    -0.38733525     0.16575277     0.59591117     83.022225    
     85980   85.114908      158.5          158.5          158.5         -0.82358372    -0.74254623    -1.2153405     -0.51286441     85.114908    
     86000   82.908231      158.5          158.5          158.5         -0.01388791     0.95043417    -0.1513102     -0.8407877      82.908231    
     86020   86.503496      158.5          158.5          158.5          0.72824953    -0.05729431     0.96933778     1.2727051      86.503496    
     86040   82.646427      158.5          158.5          158.5          0.3319531     -0.14732755     0.71612561     0.42706125     82.646427    
     86060   84.242413      158.5          158.5          158.5         -0.41604934     0.54900172    -1.1375961     -0.65955362     84.242413    
     86080   83.952354      158.5          158.5          158.5         -0.79958836    -0.9532982     -0.44650894    -0.99895793     83.952354    
     86100   84.076132      158.5          158.5          158.5          0.61800977     0.19963833     0.51507929     1.1393117      84.076132    
     86120   83.716942      158.5          158.5          158.5          0.52056854     0.94554172     0.5414369      0.074727008    83.716942    
     86140   83.899503      158.5          158.5          158.5         -0.71242313    -0.68513003    -0.48995562    -0.96218373     83.899503    
     86160   84.159614      158.5          158.5          158.5          0.068659656   -0.30163498    -0.41194315     0.9195571      84.159614    
     86180   83.319111      158.5          158.5          158.5          0.36946347     0.71850706     0.48293418    -0.093050834    83.319111    
     86200   83.587962      158.5          158.5          158.5         -0.26997809    -0.17089188     0.19698245    -0.83602486     83.587962    
     86220   84.112717      158.5          158.5          158.5          0.081588706   -0.32809653    -0.20473323     0.77759589     84.112717    
     86240   83.14582       158.5          158.5          158.5         -0.080858259    0.32197069    -0.63001314     0.065467682    83.14582     
     86260   84.300236      158.5          158.5          158.5          0.067503039   -0.18491058     0.78702659    -0.3996069      84.300236    
     86280   82.481475      158.5          158.5          158.5         -0.069887508   -0.067741964    0.043808282   -0.18572884     82.481475    
     86300   84.493274      158.5          158.5          158.5          0.096300152    0.28921077    -0.50359412     0.50328381     84.493274    
     86320   82.474229      158.5          158.5          158.5         -0.095581718   -0.24603642    -0.037170605   -0.0035381266   82.474229    
     86340   84.595983      158.5          158.5          158.5         -0.080879549   -0.21344829     0.31561638    -0.34480674     84.595983    
     86360   82.723146      158.5          158.5          158.5          0.30664452     0.25022278     0.37799319     0.29171759     82.723146    
     86380   84.945006      158.5          158.5          158.5         -0.37065075    -0.057550346   -0.62429428    -0.43010763     84.945006    
     86400   83.461831      158.5          158.5          158.5          0.12782455     0.17415451     0.10480372     0.10451541     83.461831    
     86420   84.804082      158.5          158.5          158.5         -0.014690469   -0.18686993    -0.032561874    0.1753604      84.804082    
     86440   84.601694      158.5          158.5          158.5          0.14073464    -0.35804778     0.4307462      0.34950548     84.601694    
     86460   85.070934      158.5          158.5          158.5         -0.4711591      0.061858343   -0.44878839    -1.0265473      85.070934    
     86480   85.319495      158.5          158.5          158.5          0.45159217     0.87657073     0.48085298    -0.0026472076   85.319495    
     86500   85.615817      158.5          158.5          158.5         -0.22385808    -0.92396892    -0.19407049     0.44646517     85.615817    
     86520   83.482839      158.5          158.5          158.5         -0.043268903   -0.1957807     -0.17976818     0.24574218     83.482839    
     86540   86.076793      158.5          158.5          158.5          0.26495255     1.0721209      0.26064211    -0.53790538     86.076793    
     86560   87.187661      158.5          158.5          158.5         -0.40396122    -0.9889959     -0.48706063     0.26417288     87.187661    
     86580   84.196884      158.5          158.5          158.5          0.12500226     0.22349769     0.55251721    -0.40100812     84.196884    
     86600   84.333152      158.5          158.5          158.5          0.12662601     0.66261969    -0.70368248     0.42094083     84.333152    
     86620   84.362302      158.5          158.5          158.5          0.50122191     0.1982997      0.98149268     0.32387335     84.362302    
     86640   82.711756      158.5          158.5          158.5         -0.27830295    -0.48410562    -0.26404182    -0.086761388    82.711756    
     86660   83.204112      158.5          158.5          158.5         -0.22453602    -0.026886476   -0.10789455    -0.53882705     83.204112    
     86680   82.715523      158.5          158.5          158.5          0.33985394     0.30613249     0.53151888     0.18191046     82.715523    
     86700   84.145928      158.5          158.5          158.5          0.034171493   -0.10180076    -0.43151849     0.63583373     84.145928    
     86720   84.267683      158.5          158.5          158.5         -0.30467702    -0.13897155     0.074877626   -0.84993713     84.267683    
     86740   83.203586      158.5          158.5          158.5         -0.029437139    0.062772502   -0.30727371     0.15618979     83.203586    
     86760   83.115794      158.5          158.5          158.5          0.41282236     0.13467008     0.57649968     0.52729731     83.115794    
     86780   83.270106      158.5          158.5          158.5         -0.12877311    -0.051706796    0.11034718    -0.44495971     83.270106    
     86800   83.71479       158.5          158.5          158.5         -0.43241375    -0.13446473    -1.1395287     -0.02324784     83.71479     
     86820   83.140557      158.5          158.5          158.5          0.39794441     0.061643213    0.70455669     0.42763333     83.140557    
     86840   82.982892      158.5          158.5          158.5          0.1832504      0.096080825    0.62284516    -0.16917478     82.982892    
     86860   83.757571      158.5          158.5          158.5         -0.52072478    -0.080589153   -1.0614197     -0.42016546     83.757571    
     86880   83.440882      158.5          158.5          158.5          0.29501363    -0.012195967    0.53745545     0.35978142     83.440882    
     86900   82.964006      158.5          158.5          158.5          0.21403785     0.073167071    0.33347383     0.23547264     82.964006    
     86920   84.476529      158.5          158.5          158.5         -0.71187773    -0.07811344    -1.371478      -0.68604171     84.476529    
     86940   83.536625      158.5          158.5          158.5          0.51771405     0.044051356    1.2031919      0.30589888     83.536625    
     86960   83.026247      158.5          158.5          158.5          0.48397714     0.053807618    0.92896224     0.46916155     83.026247    
     86980   86.012686      158.5          158.5          158.5         -1.044157      -0.052433568   -2.3797948     -0.70024264     86.012686    
     87000   84.140091      158.5          158.5          158.5          0.43660325     0.049451141    0.71348549     0.54687311     84.140091    
     87020   84.086362      158.5          158.5          158.5          0.30998        0.013837759    0.86753089     0.048571365    84.086362    
     87040   87.047571      158.5          158.5          158.5         -0.64120751    -0.049669809   -1.1411917     -0.73276099     87.047571    
     87060   82.814173      158.5          158.5          158.5          0.41712193     0.15259739     0.6500624      0.44870599     82.814173    
     87080   86.698953      158.5          158.5          158.5          0.25069131     0.23322971     0.23065483     0.2881894      86.698953    
     87100   88.582208      158.5          158.5          158.5         -0.74380275    -0.38343132    -1.0831058     -0.76487116     88.582208    
     87120   84.175752      158.5          158.5          158.5         -0.060207716   -0.22689054    -0.23367116     0.27993855     84.175752    
     87140   87.738669      158.5          158.5          158.5          1.2192134      1.0086578      1.3396306      1.3093517      87.738669    
     87160   86.26036       158.5          158.5          158.5         -1.0382097     -1.0209481     -0.69897246    -1.3947086      86.26036     
     87180   83.593441      158.5          158.5          158.5         -0.092554156   -0.085649706   -0.32723975     0.13522699     83.593441    
     87200   85.708358      158.5          158.5          158.5          0.94729952     1.1366789      0.49247109     1.2127486      85.708358    
     87220   85.752575      158.5          158.5          158.5         -0.84434031    -1.2295428     -0.16729784    -1.1361803      85.752575    
     87240   83.101839      158.5          158.5          158.5          0.096822874    0.38622327     0.15366676    -0.24942141     83.101839    
     87260   84.584857      158.5          158.5          158.5          0.46060691     0.82082312    -0.22070437     0.78170199     84.584857    
     87280   83.976403      158.5          158.5          158.5         -0.46424056    -1.144481       0.13922171    -0.38746239     83.976403    
     87300   82.341026      158.5          158.5          158.5         -0.0087794584   0.27127515    -0.095525097   -0.20208843     82.341026    
     87320   82.951048      158.5          158.5          158.5          0.28588847     0.69177602    -0.19428242     0.36017181     82.951048    
     87340   83.157512      158.5          158.5          158.5         -0.087955536   -0.82028116     0.76020096    -0.2037864      83.157512    
     87360   82.564653      158.5          158.5          158.5         -0.077852378    0.30477723    -0.52831201    -0.010022361    82.564653    
     87380   82.170023      158.5          158.5          158.5          0.10289994     0.22562286    -0.16023208     0.24330905     82.170023    
     87400   82.62479       158.5          158.5          158.5          0.0012005489  -0.60629502     0.70934482    -0.099448158    82.62479     
     87420   82.829053      158.5          158.5          158.5         -0.0047645702   0.57322472    -0.55456558    -0.032952854    82.829053    
     87440   81.714516      158.5          158.5          158.5          0.003566458    0.018035593    0.056169403   -0.063505622    81.714516    
     87460   83.005916      158.5          158.5          158.5         -0.077507314   -0.60494169     0.41092673    -0.038506976    83.005916    
     87480   82.873519      158.5          158.5          158.5          0.086409972    0.61568439    -0.58312932     0.22667484     82.873519    
     87500   82.36874       158.5          158.5          158.5         -0.087366757   -0.057544715   -0.0096466905  -0.19490887     82.36874     
     87520   82.894435      158.5          158.5          158.5         -0.17365591    -0.59990949     0.30223377    -0.223292       82.894435    
     87540   82.36129       158.5          158.5          158.5          0.43176895     0.87640154    -0.014341126    0.43324643     82.36129     
     87560   83.206033      158.5          158.5          158.5         -0.12009596    -0.28729647     0.094337745   -0.16732915     83.206033    
     87580   83.581785      158.5          158.5          158.5         -0.41653068    -0.83632115    -0.23886706    -0.17440382     83.581785    
     87600   83.104145      158.5          158.5          158.5          0.6031467      1.1380685      0.06471254     0.60665903     83.104145    
     87620   83.74193       158.5          158.5          158.5         -0.054140477   -0.39205819     0.46365623    -0.23401948     83.74193     
     87640   84.890983      158.5          158.5          158.5         -0.71340002    -0.63496372    -0.78260604    -0.72263031     84.890983    
     87660   85.767727      158.5          158.5          158.5          1.0281761      1.3253052      0.83098042     0.92824283     85.767727    
     87680   84.7598        158.5          158.5          158.5         -0.61109726    -1.0228122     -0.39307705    -0.41740258     84.7598      
     87700   82.63954       158.5          158.5          158.5         -0.20772971    -0.38024639    -0.17975897    -0.063183768    82.63954     
     87720   85.685071      158.5          158.5          158.5          0.84438978     1.4043786      0.48828215     0.64050856     85.685071    
     87740   83.94643       158.5          158.5          158.5         -0.32458014    -0.5817605      0.12493183    -0.51691176     83.94643     
     87760   84.58662       158.5          158.5          158.5         -0.2488865     -0.91620783     0.13013732     0.039411025    84.58662     
     87780   86.003185      158.5          158.5          158.5          0.3312106      1.3978716     -0.37062756    -0.033612266    86.003185    
     87800   82.822011      158.5          158.5          158.5         -0.10577241    -0.42024854     0.025768367    0.077162931    82.822011    
     87820   84.357068      158.5          158.5          158.5         -0.32416104    -1.0012478      0.043957688   -0.015192984    84.357068    
     87840   83.985639      158.5          158.5          158.5          0.63269073     1.0602858      0.57820299     0.25958335     83.985639    
     87860   83.356075      158.5          158.5          158.5         -0.28585559     0.15482895    -0.72476378    -0.28763194     83.356075    
     87880   84.557409      158.5          158.5          158.5         -0.30543812    -0.82591315    -0.2179686      0.12756738     84.557409    
     87900   84.202742      158.5          158.5          158.5          0.057504267    0.47188415     0.062109007   -0.36148036     84.202742    
     87920   84.053128      158.5          158.5          158.5          0.52921866     0.35731489     0.66264719     0.5676939      84.053128    
     87940   83.37977       158.5          158.5          158.5         -0.49796661    -0.64431269    -0.64176976    -0.20781737     83.37977     
     87960   82.990855      158.5          158.5          158.5          0.068080129    0.20902485     0.21683916    -0.22162363     82.990855    
     87980   83.399366      158.5          158.5          158.5          0.30007971     0.40184299     0.21211314     0.28628301     83.399366    
     88000   83.768766      158.5          158.5          158.5         -0.52709728    -0.53287076    -0.783959      -0.26446209     83.768766    
     88020   83.304928      158.5          158.5          158.5          0.25949839    -0.001712561    0.67416347     0.10604425     83.304928    
     88040   82.796723      158.5          158.5          158.5          0.37598979     0.43914218     0.41234269     0.2764845      82.796723    
     88060   83.75932       158.5          158.5          158.5         -0.49035015    -0.30585553    -0.88521165    -0.27998326     83.75932     
     88080   83.720068      158.5          158.5          158.5         -0.045686539   -0.13808563     0.14595313    -0.14492711     83.720068    
     88100   82.853682      158.5          158.5          158.5          0.38787784     0.50738645     0.40026653     0.25598054     82.853682    
     88120   83.839834      158.5          158.5          158.5         -0.14823268    -0.1593831     -0.28747567     0.0021607275   83.839834    
     88140   84.3678        158.5          158.5          158.5         -0.18233685    -0.52354703     0.10368686    -0.12715039     84.3678      
     88160   83.457739      158.5          158.5          158.5          0.24850477     0.50147848     0.039271604    0.20476422     83.457739    
     88180   83.780502      158.5          158.5          158.5         -0.015503355    0.17584183    -0.003956762   -0.21839513     83.780502    
     88200   85.46931       158.5          158.5          158.5         -0.49056115    -0.84834784    -0.45021369    -0.17312191     85.46931     
     88220   83.660336      158.5          158.5          158.5          0.31078914     0.24706903     0.24192434     0.44337405     83.660336    
     88240   84.586159      158.5          158.5          158.5          0.61018804     0.70361641     1.0867808      0.040166915    84.586159    
     88260   87.568836      158.5          158.5          158.5         -0.70886674    -0.27554368    -1.6015425     -0.24951403     87.568836    
     88280   85.599662      158.5          158.5          158.5          0.33570308    -0.093212396    1.1077354     -0.0074138019   85.599662    
     88300   84.074557      158.5          158.5          158.5          0.39144835     0.14095302     0.55707621     0.47631582     84.074557    
     88320   82.957798      158.5          158.5          158.5          0.054910613   -0.014871538    0.091714555    0.087888821    82.957798    
     88340   83.0674        158.5          158.5          158.5         -0.3302811     -0.27272889    -0.56329715    -0.15481725     83.0674      
     88360   84.357464      158.5          158.5          158.5          0.054731317    0.31385224    -0.12166528    -0.027993013    84.357464    
     88380   82.830214      158.5          158.5          158.5          0.085713068    0.010291508   -0.088446359    0.33529406     82.830214    
     88400   83.361452      158.5          158.5          158.5         -0.43124163    -0.33249845    -0.32275969    -0.63846675     83.361452    
     88420   82.900472      158.5          158.5          158.5          0.3978928      0.23722859     0.48867186     0.46777793     82.900472    
     88440   82.682593      158.5          158.5          158.5         -0.12361555     0.10758064    -0.15177672    -0.32665057     82.682593    
     88460   83.063831      158.5          158.5          158.5         -0.13231685    -0.27843527    -0.21199453     0.093479262    83.063831    
     88480   82.578216      158.5          158.5          158.5          0.011950809    0.16936228    -0.021170404   -0.11233945     82.578216    
     88500   82.688273      158.5          158.5          158.5          0.20144014     0.096122242    0.2021116      0.30608658     82.688273    
     88520   82.717273      158.5          158.5          158.5         -0.2845625     -0.19538298    -0.1500102     -0.50829432     82.717273    
     88540   82.569223      158.5          158.5          158.5          0.1631558      0.088593279    0.079236108    0.32163803     82.569223    
     88560   82.588611      158.5          158.5          158.5          0.012325012    0.062644114   -0.018318886   -0.0073501942   82.588611    
     88580   82.648782      158.5          158.5          158.5         -0.096292735   -0.17348128     0.033972678   -0.1493696      82.648782    
     88600   82.646206      158.5          158.5          158.5         -0.012917101    0.13250637    -0.063102133   -0.10815554     82.646206    
     88620   82.488952      158.5          158.5          158.5          0.2190205      0.15625438     0.089046328    0.41176078     82.488952    
     88640   82.989777      158.5          158.5          158.5         -0.33495723    -0.38074237    -0.090426692   -0.53370262     82.989777    
     88660   82.474336      158.5          158.5          158.5          0.237254       0.14958325     0.14522038     0.41695838     82.474336    
     88680   82.892443      158.5          158.5          158.5         -0.020182881    0.18893799    -0.18227406    -0.067212573    82.892443    
     88700   82.75324       158.5          158.5          158.5         -0.14216158    -0.21029337     0.22538385    -0.44157521     82.75324     
     88720   81.666873      158.5          158.5          158.5          0.13279228     0.020093643    0.02979743     0.34848577     81.666873    
     88740   84.02524       158.5          158.5          158.5          0.33566315     0.27849324     0.17726004     0.55123616     84.02524     
     88760   87.29042       158.5          158.5          158.5         -0.48709924    -0.81735101    -0.21340595    -0.43054076     87.29042     
     88780   81.99031       158.5          158.5          158.5          0.17788822     0.24049056    -0.13414354     0.42731764     81.99031     
     88800   87.567536      158.5          158.5          158.5          0.36767047     0.51971375     0.29031072     0.29298693     87.567536    
     88820   87.014033      158.5          158.5          158.5         -0.42660919    -0.34445905     0.42244701    -1.3578155      87.014033    
     88840   85.09352       158.5          158.5          158.5         -0.0037278741   0.12143643    -0.55483082     0.42221077     85.09352     
     88860   89.690616      158.5          158.5          158.5          0.33581328     0.20950738    -0.25828998     1.0562224      89.690616    
     88880   83.803997      158.5          158.5          158.5         -0.57248439    -0.71477881     0.18064387    -1.1833182      83.803997    
     88900   89.383387      158.5          158.5          158.5          0.19919037     0.50279514     0.11576676    -0.020990799    89.383387    
     88920   84.345547      158.5          158.5          158.5          0.52879826     0.61759163     0.5785687      0.39023446     84.345547    
     88940   85.719342      158.5          158.5          158.5         -0.5852596     -0.98124386    -0.40538407    -0.36915087     85.719342    
     88960   86.741535      158.5          158.5          158.5          0.024011467    0.15608098    -0.60481786     0.52077128     86.741535    
     88980   82.051994      158.5          158.5          158.5          0.2945434      0.34576741     0.3139606      0.2239022      82.051994    
     89000   86.434651      158.5          158.5          158.5         -0.2996338     -0.4549576      0.22148251    -0.66542631     86.434651    
     89020   82.568156      158.5          158.5          158.5          0.25949925     0.53391073     0.16815396     0.07643306     82.568156    
     89040   83.15463       158.5          158.5          158.5         -0.00030099901 -0.032813176   -0.19208443     0.22399461     83.15463     
     89060   83.798881      158.5          158.5          158.5         -0.3453704     -0.63037638    -0.35760197    -0.048132858    83.798881    
     89080   82.497925      158.5          158.5          158.5          0.32658498     0.4546033      0.3334845      0.19166713     82.497925    
     89100   82.212415      158.5          158.5          158.5          0.032899721    0.094599628    0.19597655    -0.19187701     82.212415    
     89120   82.228711      158.5          158.5          158.5         -0.14154694    -0.28825081    -0.0092473144  -0.1271427      82.228711    
     89140   83.023348      158.5          158.5          158.5          0.18209956     0.23332001    -0.071413884    0.38439256     83.023348    
     89160   82.490346      158.5          158.5          158.5         -0.20936028    -0.15779069    -0.24364076    -0.22664938     82.490346    
     89180   82.642249      158.5          158.5          158.5          0.034516619   -0.037075446    0.17877342    -0.038148122    82.642249    
     89200   82.853177      158.5          158.5          158.5          0.2361112      0.23158673     0.23791844     0.23882843     82.853177    
     89220   82.691912      158.5          158.5          158.5         -0.27080665    -0.15084422    -0.26898205    -0.39259369     82.691912    
     89240   83.313119      158.5          158.5          158.5          0.091249132    0.01359105    -0.069829507    0.32998585     83.313119    
     89260   82.765026      158.5          158.5          158.5         -0.046364569   -0.13498413    -0.021318571    0.017208992    82.765026    
     89280   83.212768      158.5          158.5          158.5          0.13218411     0.17292751     0.24197219    -0.018347371    83.212768    
     89300   82.936356      158.5          158.5          158.5         -0.14712761     0.042434738   -0.014236489   -0.46958109     82.936356    
     89320   83.090032      158.5          158.5          158.5          0.058016967   -0.0034992413  -0.13544792     0.31299806     83.090032    
     89340   83.830694      158.5          158.5          158.5          0.074288424   -0.13560251    -0.039513345    0.39798113     83.830694    
     89360   83.331225      158.5          158.5          158.5         -0.33632824    -0.14496081    -0.054127643   -0.80989626     83.331225    
     89380   85.835219      158.5          158.5          158.5          0.52824619     0.46483868     0.56498671     0.55491317     85.835219    
     89400   83.036977      158.5          158.5          158.5         -0.30998914    -0.10334064    -0.18647102    -0.64015577     83.036977    
     89420   88.132251      158.5          158.5          158.5         -0.038404194   -0.38483684    -0.37952309     0.64914735     88.132251    
     89440   84.941441      158.5          158.5          158.5         -0.29905179     0.12529562    -0.30649144    -0.71595954     84.941441    
     89460   86.228888      158.5          158.5          158.5          0.66746155     0.23322792     1.0575793      0.71157745     86.228888    
     89480   87.348415      158.5          158.5          158.5         -0.44075422    -0.45555376     0.174669      -1.0413779      87.348415    
     89500   84.882139      158.5          158.5          158.5          0.11370275     0.10385541    -0.26462603     0.50187887     84.882139    
     89520   91.722437      158.5          158.5          158.5         -0.490152       0.19565971    -1.0194623     -0.64665338     91.722437    
     89540   84.395362      158.5          158.5          158.5          0.091945868   -0.033866622   -0.093601816    0.40330604     84.395362    
     89560   86.600796      158.5          158.5          158.5         -0.091565552   -0.53627783     0.65245385    -0.39087268     86.600796    
     89580   84.961465      158.5          158.5          158.5          0.22842245     0.15734566     0.1218178      0.40610389     84.961465    
     89600   83.94117       158.5          158.5          158.5          0.25421377     0.48606259     0.097023301    0.17955541     83.94117     
     89620   84.638406      158.5          158.5          158.5         -0.38954828    -0.22733557    -0.46095424    -0.48035504     84.638406    
     89640   82.91156       158.5          158.5          158.5         -0.2461153     -0.30288281    -0.45974804     0.024284947    82.91156     
     89660   84.30449       158.5          158.5          158.5          0.37359365     0.24003249     0.73923343     0.14151503     84.30449     
     89680   82.809811      158.5          158.5          158.5          0.21960689     0.22276915     0.10473885     0.33131268     82.809811    
     89700   82.986456      158.5          158.5          158.5         -0.28361098    -0.28408006    -0.19603185    -0.37072104     82.986456    
     89720   82.770064      158.5          158.5          158.5         -0.29149066    -0.15776995    -0.51551019    -0.20119184     82.770064    
     89740   82.176282      158.5          158.5          158.5          0.27934002     0.33632737     0.28386149     0.21783119     82.176282    
     89760   82.464494      158.5          158.5          158.5          0.27751142     0.20558779     0.42416467     0.20278179     82.464494    
     89780   81.649342      158.5          158.5          158.5         -0.25248631    -0.30967408    -0.39475702    -0.053027832    81.649342    
     89800   82.681685      158.5          158.5          158.5         -0.15202218    -0.21832285     0.10023524    -0.33797893     82.681685    
     89820   81.763553      158.5          158.5          158.5          0.13576328     0.21323107     0.15965636     0.034402426    81.763553    
     89840   82.100907      158.5          158.5          158.5          0.20141953     0.21929488     0.17465367     0.21031002     82.100907    
     89860   82.339898      158.5          158.5          158.5         -0.019036605   -0.12862793    -0.077693925    0.14921204     82.339898    
     89880   82.412799      158.5          158.5          158.5         -0.18783906    -0.27134405    -0.018258649   -0.27391449     82.412799    
     89900   83.060312      158.5          158.5          158.5         -0.14666452     0.11478645    -0.4825875     -0.07219251     83.060312    
     89920   82.459952      158.5          158.5          158.5          0.26916354     0.32952053     0.41269008     0.065280004    82.459952    
     89940   83.491317      158.5          158.5          158.5          0.090312193   -0.016396987    0.039544783    0.24778878     83.491317    
     89960   82.836928      158.5          158.5          158.5         -0.28369996    -0.56605956    -0.14557303    -0.1394673      82.836928    
     89980   83.167328      158.5          158.5          158.5         -0.09365308     0.16635997    -0.34703017    -0.10028903     83.167328    
     90000   83.75298       158.5          158.5          158.5          0.34120644     0.63695696     0.3441914      0.042470962    83.75298     
     90020   82.617923      158.5          158.5          158.5         -0.068544236   -0.30930041     0.010469385    0.093198319    82.617923    
     90040   85.721811      158.5          158.5          158.5         -0.34789322    -0.92653418    -0.25340134     0.13625587     85.721811    
     90060   82.687009      158.5          158.5          158.5          0.17890169    -0.001478467    0.58652933    -0.048345778    82.687009    
     90080   88.462926      158.5          158.5          158.5          0.12228228     0.84682784    -0.29521002    -0.18477099     88.462926    
     90100   83.330976      158.5          158.5          158.5         -0.0081575197   0.20909859    -0.36534169     0.13177055     83.330976    
     90120   92.734689      158.5          158.5          158.5          0.030376592   -0.40469913     0.20649299     0.28933592     92.734689    
     90140   85.315787      158.5          158.5          158.5          0.011781811   -0.44526674     0.31709981     0.16351237     85.315787    
     90160   89.114161      158.5          158.5          158.5         -0.067347505    0.59539103    -0.84391192     0.046478375    89.114161    
     90180   89.906306      158.5          158.5          158.5          0.18422672     0.48401732     0.46057864    -0.39191581     89.906306    
     90200   84.397427      158.5          158.5          158.5         -0.4810912     -0.95661019    -0.49920235     0.012538953    84.397427    
     90220   89.02134       158.5          158.5          158.5         -0.06121839    -0.6142927      0.16661397     0.26402356     89.02134     
     90240   84.562699      158.5          158.5          158.5          0.70194896     0.68687429     1.2500027      0.16896985     84.562699    
     90260   85.41076       158.5          158.5          158.5         -0.22529562     0.19055733    -0.8411591     -0.025285074    85.41076     
     90280   85.312024      158.5          158.5          158.5         -0.6192168     -0.5297867     -0.83191997    -0.49594373     85.312024    
     90300   83.75628       158.5          158.5          158.5          0.33069189     0.33864299     0.43977155     0.21366114     83.75628     
     90320   84.409067      158.5          158.5          158.5          0.47987829     0.40386654     0.7101404      0.32562793     84.409067    
     90340   83.134814      158.5          158.5          158.5         -0.24691214    -0.41283101    -0.1548792     -0.1730262      83.134814    
     90360   84.021355      158.5          158.5          158.5         -0.32103945    -0.15651149    -0.67670644    -0.12990042     84.021355    
     90380   83.069611      158.5          158.5          158.5          0.23102355     0.39558884     0.27984155     0.017640257    83.069611    
     90400   82.920507      158.5          158.5          158.5          0.047626239   -0.079894513    0.14027062     0.082502606    82.920507    
     90420   83.739001      158.5          158.5          158.5         -0.16731019    -0.37643433    -0.10661442    -0.018881829    83.739001    
     90440   82.477749      158.5          158.5          158.5          0.20059776     0.22913879     0.35289662     0.019757874    82.477749    
     90460   83.41353       158.5          158.5          158.5          0.017571635    0.26319738    -0.26931966     0.058837189    83.41353     
     90480   83.044581      158.5          158.5          158.5         -0.3357238     -0.3488109     -0.44353579    -0.2148247      83.044581    
     90500   82.757405      158.5          158.5          158.5          0.093818835   -0.039889694    0.30032189     0.02102431     82.757405    
     90520   83.574418      158.5          158.5          158.5          0.37526947     0.33726451     0.45958202     0.32896188     83.574418    
     90540   82.828431      158.5          158.5          158.5         -0.12373942    -0.18190753    -0.0018455305  -0.18746519     82.828431    
     90560   83.628551      158.5          158.5          158.5         -0.37288562    -0.20992135    -0.7213285     -0.18740701     83.628551    
     90580   83.052741      158.5          158.5          158.5          0.20542607     0.40253687     0.025893624    0.18784771     83.052741    
     90600   83.847153      158.5          158.5          158.5          0.21353068     0.063908755    0.61959417    -0.0429109      83.847153    
     90620   84.472636      158.5          158.5          158.5         -0.20563743    -0.48038209    -0.22191298     0.085382772    84.472636    
     90640   82.683309      158.5          158.5          158.5          0.087887403    0.097785219    0.16483965     0.0010373381   82.683309    
     90660   86.587918      158.5          158.5          158.5          0.060133219    0.3105496      0.037717173   -0.16786711     86.587918    
     90680   84.110987      158.5          158.5          158.5         -0.47182178    -0.36831488    -1.0599626      0.012812112    84.110987    
     90700   85.415991      158.5          158.5          158.5          0.07978364    -0.31202104     0.61788032    -0.066508365    85.415991    
     90720   88.658227      158.5          158.5          158.5          0.68703289     0.64271327     1.1122815      0.30610385     88.658227    
     90740   83.877805      158.5          158.5          158.5          0.12321914     0.26271955    -0.39199319     0.49893105     83.877805    
     90760   92.337499      158.5          158.5          158.5         -1.0649121     -0.67046126    -1.450618      -1.0736569      92.337499    
     90780   85.600499      158.5          158.5          158.5          0.40372955     0.71882135     0.28459313     0.20777417     85.600499    
     90800   88.211619      158.5          158.5          158.5          0.38932169     0.35345581     0.078312719    0.73619655     88.211619    
     90820   90.908933      158.5          158.5          158.5         -0.24992665    -0.88186673     0.76808033    -0.63599356     90.908933    
     90840   85.964881      158.5          158.5          158.5          0.39963077    -0.18026535     1.2788106      0.10034702     85.964881    
     90860   88.310473      158.5          158.5          158.5         -0.51291026     0.34227103    -1.4920465     -0.38895532     88.310473    
     90880   87.640733      158.5          158.5          158.5         -0.16710278     0.091369318   -1.0920271      0.49934945     87.640733    
     90900   83.55884       158.5          158.5          158.5         -0.040930579   -0.19525196     0.37731118    -0.30485095     83.55884     
     90920   87.313831      158.5          158.5          158.5          0.40347329    -0.19627979     1.411018      -0.0043183477   87.313831    
     90940   82.949342      158.5          158.5          158.5         -0.036307804   -0.11625172    -0.030412216    0.037740527    82.949342    
     90960   84.779147      158.5          158.5          158.5         -0.084139525    0.26405261    -0.74872911     0.23225792     84.779147    
     90980   83.640473      158.5          158.5          158.5         -0.15908893     0.047155335   -0.43509314    -0.089328991    83.640473    
     91000   83.395634      158.5          158.5          158.5         -0.12282372    -0.29024303     0.29658754    -0.37481567     83.395634    
     91020   83.605029      158.5          158.5          158.5          0.29068713     0.0071603623   0.65857245     0.20632858     83.605029    
     91040   83.434006      158.5          158.5          158.5          0.07083443     0.19054856    -0.15160796     0.17356269     83.434006    
     91060   82.893564      158.5          158.5          158.5         -0.023726993    0.0045305572  -0.26300123     0.18728969     82.893564    
     91080   83.799448      158.5          158.5          158.5         -0.31417902    -0.091903514   -0.31967799    -0.53095555     83.799448    
     91100   82.629095      158.5          158.5          158.5          0.16093581     0.0086067625   0.37139812     0.10280255     82.629095    
     91120   83.642985      158.5          158.5          158.5         -0.012917456    0.0241438     -0.14432547     0.081429304    83.642985    
     91140   83.014153      158.5          158.5          158.5          0.25584692     0.10069013     0.30646407     0.36038658     83.014153    
     91160   83.012441      158.5          158.5          158.5         -0.11332182    -0.027562021    0.04803634    -0.36043977     83.012441    
     91180   83.541761      158.5          158.5          158.5         -0.22675286    -0.14100652    -0.35063275    -0.18861929     83.541761    
     91200   82.865609      158.5          158.5          158.5         -0.0081947128   0.13859716    -0.34611864     0.18293734     82.865609    
     91220   83.429409      158.5          158.5          158.5          0.21595147     0.18933919     0.25906253     0.19945268     83.429409    
     91240   84.023094      158.5          158.5          158.5          0.17410425    -0.23073476     0.7488897      0.0041578147   84.023094    
     91260   82.926669      158.5          158.5          158.5         -0.29735421    -0.24130993    -0.22648214    -0.42427056     82.926669    
     91280   85.597269      158.5          158.5          158.5          0.085917839    0.37290433    -0.56738696     0.45223614     85.597269    
     91300   83.333627      158.5          158.5          158.5         -0.29299587    -0.022075962   -0.65514172    -0.20176993     83.333627    
     91320   85.210013      158.5          158.5          158.5          0.038268511   -0.4009299      0.79904681    -0.28331138     85.210013    
     91340   85.597844      158.5          158.5          158.5          0.44480173     0.14878767     0.78916195     0.39645557     85.597844    
     91360   84.822436      158.5          158.5          158.5          0.019406832    0.16628808    -0.32140082     0.21333324     84.822436    
     91380   89.543285      158.5          158.5          158.5         -0.37410416     0.13568657    -0.74717254    -0.51082651     89.543285    
     91400   84.609157      158.5          158.5          158.5         -0.178947       0.06974689    -0.61363356     0.0070456679   84.609157    
     91420   86.543656      158.5          158.5          158.5          0.29777027    -0.059534559    0.74676715     0.20607823     86.543656    
     91440   90.715754      158.5          158.5          158.5          0.25938738     0.15192384     0.5541478      0.072090511    90.715754    
     91460   83.627488      158.5          158.5          158.5         -0.12972333    -0.041905902   -0.75088741     0.40362333     83.627488    
     91480   90.547129      158.5          158.5          158.5         -0.15944131    -0.49227466     0.76477739    -0.75082666     90.547129    
     91500   83.86273       158.5          158.5          158.5         -0.23077862    -0.7867243     -0.013638767    0.10802722     83.86273     
     91520   86.217647      158.5          158.5          158.5         -0.027342679    0.22845883    -0.4664204      0.15593353     86.217647    
     91540   84.262882      158.5          158.5          158.5          0.58136361     0.41508155     1.0519184      0.27709089     84.262882    
     91560   82.83555       158.5          158.5          158.5         -0.04452363    -0.037015742    0.055797913   -0.15235306     82.83555     
     91580   84.759941      158.5          158.5          158.5         -0.59374851    -0.26013667    -1.2962919     -0.22481699     84.759941    
     91600   82.830869      158.5          158.5          158.5          0.23777123     0.12266305     0.45164279     0.13900785     82.830869    
     91620   83.534005      158.5          158.5          158.5          0.40183608     0.31790357     0.81606078     0.071543898    83.534005    
     91640   83.162656      158.5          158.5          158.5         -0.24604939    -0.1561773     -0.70889084     0.12691996     83.162656    
     91660   83.283338      158.5          158.5          158.5         -0.1723131     -0.27240731     0.080660485   -0.32519248     83.283338    
     91680   82.686013      158.5          158.5          158.5          0.0894703      0.16189177     0.031941654    0.074577477    82.686013    
     91700   82.987321      158.5          158.5          158.5          0.060983285    0.18894818    -0.14632429     0.14032597     82.987321    
     91720   83.050884      158.5          158.5          158.5          0.0026090766  -0.23394457     0.34155502    -0.099783215    83.050884    
     91740   82.337059      158.5          158.5          158.5         -0.06815026    -0.12620112    -0.10355157     0.025301914    82.337059    
     91760   83.467703      158.5          158.5          158.5         -0.01671586     0.34306267    -0.32711356    -0.066096681    83.467703    
     91780   82.504365      158.5          158.5          158.5          0.079310669    0.077633509    0.051964108    0.10833439     82.504365    
     91800   82.879056      158.5          158.5          158.5         -0.057306978   -0.32412836     0.31881902    -0.1666116      82.879056    
     91820   82.963067      158.5          158.5          158.5         -0.1896557     -0.12084358    -0.58882368     0.14070017     82.963067    
     91840   82.117157      158.5          158.5          158.5          0.25673133     0.36398986     0.37645951     0.029744632    82.117157    
     91860   82.875112      158.5          158.5          158.5          0.16674045     0.11217332     0.41783968    -0.029791648    82.875112    
     91880   82.63078       158.5          158.5          158.5         -0.25852486    -0.54378267    -0.16657384    -0.06521807     82.63078     
     91900   82.369124      158.5          158.5          158.5         -0.051318846   -0.20812036    -0.042382391    0.09654621     82.369124    
     91920   82.858103      158.5          158.5          158.5          0.46717514     0.4999443      0.72927495     0.17230618     82.858103    
     91940   83.281139      158.5          158.5          158.5         -0.081409414    0.028112785   -0.18316502    -0.089176006    83.281139    
     91960   84.303942      158.5          158.5          158.5         -0.58490027    -0.27322091    -1.3234273     -0.15805257     84.303942    
     91980   82.928098      158.5          158.5          158.5          0.38436826     0.60369897     0.36061433     0.18879147     82.928098    
     92000   82.68839       158.5          158.5          158.5         -0.074974212   -0.13128921     0.026222503   -0.11985593     82.68839     
     92020   82.974969      158.5          158.5          158.5         -0.32237954    -0.57996467    -0.25790394    -0.12927002     82.974969    
     92040   83.384422      158.5          158.5          158.5          0.092976538    0.56772518    -0.22765235    -0.061143224    83.384422    
     92060   82.554247      158.5          158.5          158.5          0.125795      -0.00034311263  0.27284375     0.10488437     82.554247    
     92080   82.983528      158.5          158.5          158.5         -0.29528796    -0.55046561    -0.078740314   -0.25665795     82.983528    
     92100   82.659432      158.5          158.5          158.5          0.21873841     0.52141592    -0.015776925    0.15057623     82.659432    
     92120   82.331853      158.5          158.5          158.5          0.089565318    0.093279628    0.093765246    0.081651079    82.331853    
     92140   82.680893      158.5          158.5          158.5         -0.3334983     -0.69168316    -0.07974402    -0.22906773     82.680893    
     92160   82.181029      158.5          158.5          158.5          0.28990859     0.54802908     0.10656557     0.21513113     82.181029    
     92180   81.63302       158.5          158.5          158.5         -0.026536582    0.027938569   -0.065921634   -0.041626681    81.63302     
     92200   82.058707      158.5          158.5          158.5         -0.06126919    -0.42001154     0.31731245    -0.081108482    82.058707    
     92220   82.805566      158.5          158.5          158.5          0.14849977     0.40021202    -0.1723898      0.21767708     82.805566    
     92240   81.864215      158.5          158.5          158.5         -0.09392215    -0.1476915     -0.10939434    -0.024680616    81.864215    
     92260   82.267412      158.5          158.5          158.5         -0.11831775    -0.30045526     0.14236372    -0.19686171     82.267412    
     92280   82.980032      158.5          158.5          158.5          0.22974147     0.60893925    -0.030042391    0.11032755     82.980032    
     92300   81.45527       158.5          158.5          158.5         -0.10011025    -0.20742351    -0.020340516   -0.072566713    81.45527     
     92320   82.986463      158.5          158.5          158.5         -0.18361037    -0.4735178     -0.05584231    -0.021470983    82.986463    
     92340   82.944903      158.5          158.5          158.5          0.32362154     0.61677576     0.084606169    0.26948269     82.944903    
     92360   81.59269       158.5          158.5          158.5         -0.10261977    -0.40423586     0.2076826     -0.11130605     81.59269     
     92380   82.0839        158.5          158.5          158.5         -0.018446363   -0.075823706    0.064072383   -0.043587765    82.0839      
     92400   82.804943      158.5          158.5          158.5          0.19460366     0.49824769    -0.17161795     0.25718125     82.804943    
     92420   82.616058      158.5          158.5          158.5         -0.20890144    -0.45715064     0.020948134   -0.1905018      82.616058    
     92440   83.077909      158.5          158.5          158.5          0.040936703   -0.10506033     0.35060053    -0.12273008     83.077909    
     92460   82.737418      158.5          158.5          158.5          0.050566781    0.49414459    -0.2036352     -0.13880905     82.737418    
     92480   82.966531      158.5          158.5          158.5         -0.10294392    -0.47097596    -0.008160538    0.17030474     82.966531    
     92500   82.698294      158.5          158.5          158.5         -0.21184915    -0.24130498    -0.31209339    -0.082149089    82.698294    
     92520   83.881612      158.5          158.5          158.5          0.062033476    0.60319536    -0.37674515    -0.040349784    83.881612    
     92540   82.948788      158.5          158.5          158.5         -0.19634627    -0.079554658   -0.36923331    -0.14025084     82.948788    
     92560   82.787346      158.5          158.5          158.5         -0.12516095    -0.4032238      0.13601193    -0.10827098     82.787346    
     92580   82.879149      158.5          158.5          158.5          0.23942093     0.28590642     0.1179076      0.31444877     82.879149    
     92600   82.128895      158.5          158.5          158.5          0.139893       0.21437458     0.14109104     0.064213373    82.128895    
     92620   82.127636      158.5          158.5          158.5         -0.2647189     -0.25857391    -0.27223607    -0.26334674     82.127636    
     92640   82.113236      158.5          158.5          158.5          0.0045705659  -0.17607223     0.21750936    -0.027725439    82.113236    
     92660   81.671026      158.5          158.5          158.5          0.23808916     0.2432666      0.27245058     0.1985503      81.671026    
     92680   81.783883      158.5          158.5          158.5          0.12771262     0.1886703      0.081925809    0.11254176     81.783883    
     92700   82.352956      158.5          158.5          158.5         -0.20214882    -0.29113057    -0.10663002    -0.20868588     82.352956    
     92720   82.378538      158.5          158.5          158.5         -0.059135798    0.0024058324  -0.18905331     0.0092400881   82.378538    
     92740   82.375873      158.5          158.5          158.5          0.1695246      0.21558862     0.2194394      0.073545772    82.375873    
     92760   82.618783      158.5          158.5          158.5         -0.038689447   -0.13246422     0.021865308   -0.0054694263   82.618783    
     92780   82.555687      158.5          158.5          158.5         -0.0987455     -0.12360251    -0.16635705    -0.0062769357   82.555687    
     92800   82.432588      158.5          158.5          158.5          0.10219578     0.20695999     0.10095361    -0.0013262557   82.432588    
     92820   82.59155       158.5          158.5          158.5         -0.02479303    -0.046477519    0.030371859   -0.05827343     82.59155     
     92840   82.873703      158.5          158.5          158.5         -0.14341194    -0.15272002    -0.29039299     0.012877182    82.873703    
     92860   82.787966      158.5          158.5          158.5          0.28773626     0.16402256     0.6093464      0.089839807    82.787966    
     92880   82.87872       158.5          158.5          158.5         -0.29710891    -0.096846475   -0.72023301    -0.074247246    82.87872     
     92900   82.752211      158.5          158.5          158.5          0.11272334     0.16825027     0.19675216    -0.026832412    82.752211    
     92920   83.103246      158.5          158.5          158.5         -0.26472879     0.067013752   -0.8071354     -0.054064738    83.103246    
     92940   82.632379      158.5          158.5          158.5          0.038762491   -0.19831766     0.28687452     0.027730613    82.632379    
     92960   82.993694      158.5          158.5          158.5         -0.08833508     0.13554297    -0.3170396     -0.083508611    82.993694    
     92980   82.482162      158.5          158.5          158.5          0.056917707   -0.0022012131   0.16879961     0.0041547273   82.482162    
     93000   83.151931      158.5          158.5          158.5          0.29651263     0.178697       0.46159381     0.2492471      83.151931    
     93020   83.094201      158.5          158.5          158.5         -0.31194713    -0.41263379    -0.26362338    -0.25958423     83.094201    
     93040   80.855084      158.5          158.5          158.5         -0.13454814    -0.22335578    -0.040354019   -0.13993463     80.855084    
     93060   83.875122      158.5          158.5          158.5          0.33013597     0.27971968     0.5179735      0.19271472     83.875122    
     93080   81.202542      158.5          158.5          158.5          0.4419708      0.45615637     0.44140132     0.42835471     81.202542    
     93100   81.606259      158.5          158.5          158.5         -0.36522387    -0.3179898     -0.44023681    -0.337445       81.606259    
     93120   81.788875      158.5          158.5          158.5         -0.30963029    -0.5237478     -0.13656799    -0.26857509     81.788875    
     93140   82.245538      158.5          158.5          158.5          0.40656467     0.68296744     0.27354443     0.26318214     82.245538    
     93160   81.782146      158.5          158.5          158.5          0.068578434    0.065954633    0.090851248    0.048929421    81.782146    
     93180   82.218627      158.5          158.5          158.5         -0.41747371    -0.61130798    -0.41831463    -0.22279853     82.218627    
     93200   81.661301      158.5          158.5          158.5          0.13374784     0.34830606     0.016813471    0.036123994    81.661301    
     93220   81.673652      158.5          158.5          158.5          0.28181455     0.3237284      0.43232676     0.089388475    81.673652    
     93240   81.738674      158.5          158.5          158.5         -0.2236973     -0.36282045    -0.30046588    -0.0078055689   81.738674    
     93260   81.652956      158.5          158.5          158.5         -0.14384902    -0.28040514    -0.14980766    -0.0013342377   81.652956    
     93280   81.960094      158.5          158.5          158.5          0.32136289     0.39472479     0.50878011     0.060583773    81.960094    
     93300   81.532409      158.5          158.5          158.5         -0.064818938    0.081196689   -0.25479169    -0.020861813    81.532409    
     93320   82.299924      158.5          158.5          158.5         -0.33101345    -0.51584755    -0.40190787    -0.075284943    82.299924    
     93340   81.857663      158.5          158.5          158.5          0.33096748     0.53410726     0.42681027     0.031984912    81.857663    
     93360   81.959697      158.5          158.5          158.5          0.067639105    0.22544118    -0.04826513     0.025741267    81.959697    
     93380   82.507402      158.5          158.5          158.5         -0.49119128    -1.0736319     -0.4050307      0.0050887645   82.507402    
     93400   82.084779      158.5          158.5          158.5          0.41628689     0.71836979     0.51506766     0.015423226    82.084779    
     93420   82.316804      158.5          158.5          158.5          0.27869222     0.50676947     0.31292138     0.016385789    82.316804    
     93440   83.406353      158.5          158.5          158.5         -0.56756178    -1.3835046     -0.32231896     0.0031382014   83.406353    
     93460   83.07934       158.5          158.5          158.5          0.22250852     0.64928541    -0.034724712    0.052964849    83.07934     
     93480   83.634134      158.5          158.5          158.5          0.26305039     0.8503572     -0.13658444     0.075378419    83.634134    
     93500   85.225096      158.5          158.5          158.5         -0.38084818    -1.2827293      0.26569941    -0.12551463     85.225096    
     93520   82.794277      158.5          158.5          158.5         -0.028414712    0.080883682   -0.11744202    -0.048685797    82.794277    
     93540   84.196299      158.5          158.5          158.5          0.37514837     0.65904937     0.15650604     0.30988969     84.196299    
     93560   84.944037      158.5          158.5          158.5         -0.5513562     -0.22660747    -0.9935138     -0.43394732     84.944037    
     93580   82.964898      158.5          158.5          158.5         -0.1754838      0.022282499   -0.55430812     0.0055742175   82.964898    
     93600   83.751694      158.5          158.5          158.5          0.49480926     0.42441729     0.61471012     0.44530038     83.751694    
     93620   83.225599      158.5          158.5          158.5         -0.2696811     -0.17629636    -0.26534653    -0.36740041     83.225599    
     93640   82.740769      158.5          158.5          158.5         -0.22484213    -0.37272751    -0.21722557    -0.084573305    82.740769    
     93660   82.611161      158.5          158.5          158.5          0.30428575     0.4074573      0.23749815     0.26790181     82.611161    
     93680   82.569458      158.5          158.5          158.5          0.04962905     0.21504871    -0.0022671763  -0.063894377    82.569458    
     93700   82.796295      158.5          158.5          158.5         -0.22508601    -0.43941624    -0.13927719    -0.096564603    82.796295    
     93720   82.34669       158.5          158.5          158.5         -0.089967475   -0.19501974    -0.037014515   -0.037868171    82.34669     
     93740   82.406653      158.5          158.5          158.5          0.26878323     0.64842533     0.094484846    0.06343951     82.406653    
     93760   81.817926      158.5          158.5          158.5          0.031343338   -0.0092769176  -0.0021336737   0.10544061     81.817926    
     93780   81.658734      158.5          158.5          158.5         -0.25146074    -0.53105446    -0.083769145   -0.13955862     81.658734    
     93800   82.08656       158.5          158.5          158.5         -0.059210806   -0.31287045     0.15599616    -0.020758119    82.08656     
     93820   81.599135      158.5          158.5          158.5          0.29363446     0.5754139      0.11435705     0.19113243     81.599135    
     93840   81.711552      158.5          158.5          158.5          0.14777155     0.30453793     0.026189002    0.11258773     81.711552    
     93860   82.124594      158.5          158.5          158.5         -0.30880595    -0.50759909    -0.16937818    -0.24944056     82.124594    
     93880   82.026912      158.5          158.5          158.5         -0.1136786     -0.15798725    -0.10149492    -0.081553614    82.026912    
     93900   82.437708      158.5          158.5          158.5          0.28334895     0.37369729     0.21576143     0.26058814     82.437708    
     93920   81.816524      158.5          158.5          158.5          0.1252859      0.30222399    -0.067924835    0.14155855     81.816524    
     93940   82.153001      158.5          158.5          158.5         -0.43152978    -0.72988904     0.022409202   -0.58710951     82.153001    
     93960   82.058938      158.5          158.5          158.5          0.1571957      0.22708926     0.11424111     0.13025674     82.058938    
     93980   83.317589      158.5          158.5          158.5          0.35909385     0.46272938    -0.01532555     0.62987773     83.317589    
     94000   83.254029      158.5          158.5          158.5         -0.47743133    -0.71191304    -0.045378205   -0.67500275     83.254029    
     94020   84.98649       158.5          158.5          158.5          0.14839271     0.38412214     0.15053201    -0.089476026    84.98649     
     94040   82.967983      158.5          158.5          158.5          0.31115627     0.39854219     0.173477       0.36144963     82.967983    
     94060   85.870271      158.5          158.5          158.5         -0.47577171    -0.55898061    -0.26478745    -0.60354706     85.870271    
     94080   84.395734      158.5          158.5          158.5          0.24909583    -0.026231959    0.37985587     0.39366356     84.395734    
     94100   86.446795      158.5          158.5          158.5         -0.26608466     0.29105447    -0.75523447    -0.33407397     86.446795    
     94120   86.531372      158.5          158.5          158.5          0.32793374    -0.31820601     0.95670311     0.34530413     86.531372    
     94140   83.606541      158.5          158.5          158.5         -0.37194128     0.058262903   -0.50454588    -0.66954086     83.606541    
     94160   86.897028      158.5          158.5          158.5          0.27310923     0.44915854     0.03980871     0.33036043     86.897028    
     94180   84.39442       158.5          158.5          158.5         -0.6790478     -0.54230716    -0.93593015    -0.55890611     84.39442     
     94200   85.212603      158.5          158.5          158.5          0.51539508     0.036674714    1.0835863      0.42592422     85.212603    
     94220   83.820776      158.5          158.5          158.5          0.035258406    0.06138777     0.11393965    -0.069552206    83.820776    
     94240   83.064617      158.5          158.5          158.5         -0.13073355    -0.0076388964  -0.42499989     0.040438148    83.064617    
     94260   84.25903       158.5          158.5          158.5         -0.040111188    0.12444529    -0.22996197    -0.014816877    84.25903     
     94280   83.072639      158.5          158.5          158.5         -0.18978668    -0.15271794    -0.29615877    -0.12048333     83.072639    
     94300   83.671292      158.5          158.5          158.5          0.18496538     0.10115969     0.2551269      0.19860955     83.671292    
     94320   83.339027      158.5          158.5          158.5          0.21982133     0.072859566    0.61258459    -0.025980156    83.339027    
     94340   82.783093      158.5          158.5          158.5         -0.24914161    -0.25551134    -0.46306499    -0.028848496    82.783093    
     94360   83.415641      158.5          158.5          158.5         -0.098457197    0.10524915    -0.40657549     0.0059547457   83.415641    
     94380   82.940915      158.5          158.5          158.5          0.18794287     0.27039141     0.3888915     -0.0954543      82.940915    
     94400   83.632712      158.5          158.5          158.5         -0.1010495     -0.2538877     -0.20125044     0.15198964     83.632712    
     94420   82.858074      158.5          158.5          158.5          0.007488945   -0.23658394     0.24184426     0.01720651     82.858074    
     94440   82.669984      158.5          158.5          158.5          0.12435432     0.3483302      0.01182716     0.012905596    82.669984    
     94460   83.123026      158.5          158.5          158.5         -0.1073765      0.11862186    -0.33141696    -0.10933441     83.123026    
     94480   82.822624      158.5          158.5          158.5         -0.16860827    -0.48734365     0.090738821   -0.10921998     82.822624    
     94500   83.496933      158.5          158.5          158.5          0.051756605   -0.027433403   -0.083878798    0.26658202     83.496933    
     94520   82.60925       158.5          158.5          158.5          0.41346243     0.3674336      0.65294966     0.22000402     82.60925     
     94540   84.196325      158.5          158.5          158.5         -0.15319405     0.24321441    -0.30059401    -0.40220254     84.196325    
     94560   83.122593      158.5          158.5          158.5         -0.16603788    -0.40517162    -0.01107954    -0.081862481    83.122593    
     94580   84.970066      158.5          158.5          158.5         -0.022162669   -0.02057339    -0.1104587      0.064544082    84.970066    
     94600   83.848146      158.5          158.5          158.5          0.3794373      0.081232152    0.44855279     0.60852695     83.848146    
     94620   83.443476      158.5          158.5          158.5         -0.15453204    -0.078248816   -0.13333444    -0.25201288     83.443476    
     94640   85.550286      158.5          158.5          158.5         -0.3500116      0.21855552    -0.23368461    -1.0349057      85.550286    
     94660   83.482635      158.5          158.5          158.5          0.40590453     0.087142247    0.36348801     0.76708334     83.482635    
     94680   86.004417      158.5          158.5          158.5         -0.14432802    -0.30212598    -0.43279778     0.30193971     86.004417    
     94700   82.984747      158.5          158.5          158.5         -0.18123794    -0.080731041    0.15672165    -0.61970442     82.984747    
     94720   85.573465      158.5          158.5          158.5          0.16742533     0.10919971     0.18599246     0.20708381     85.573465    
     94740   82.676125      158.5          158.5          158.5         -0.065499136    0.11022937    -0.21922766    -0.087499119    82.676125    
     94760   84.959604      158.5          158.5          158.5         -0.24552703     0.11324977    -0.47297258    -0.37685827     84.959604    
     94780   83.466672      158.5          158.5          158.5          0.22271361    -0.053020785    0.10355624     0.61760537     83.466672    
     94800   83.534143      158.5          158.5          158.5          0.18423828    -0.032269903    0.53933325     0.045651499    83.534143    
     94820   84.263512      158.5          158.5          158.5         -0.45048122    -0.050972491   -0.60895979    -0.69151138     84.263512    
     94840   82.466729      158.5          158.5          158.5          0.092806713    0.12392062    -0.016370696    0.17087022     82.466729    
     94860   84.492862      158.5          158.5          158.5          0.36646683     0.047351684    0.49050056     0.56154824     84.492862    
     94880   82.552211      158.5          158.5          158.5         -0.10410703    -0.068108761   -0.24268572    -0.0015266186   82.552211    
     94900   83.63337       158.5          158.5          158.5         -0.38534357    -0.22073253    -0.18880507    -0.7464931      83.63337     
     94920   82.328264      158.5          158.5          158.5          0.25023643     0.30140215     0.042282695    0.40702445     82.328264    
     94940   82.366962      158.5          158.5          158.5          0.26716321     0.38221431     0.160028       0.25924733     82.366962    
     94960   83.940296      158.5          158.5          158.5         -0.11160629    -0.55711196     0.47504448    -0.25275137     83.940296    
     94980   81.837565      158.5          158.5          158.5         -0.08305868    -0.37243675    -0.15793387     0.28119458     81.837565    
     95000   82.988402      158.5          158.5          158.5          0.017484101    0.17741639     0.077705814   -0.2026699      82.988402    
     95020   82.879389      158.5          158.5          158.5          0.10147165     0.49538062    -0.062623396   -0.12834227     82.879389    
     95040   84.072071      158.5          158.5          158.5         -0.12823301    -0.60141228     0.080406497    0.13630676     84.072071    
     95060   82.488099      158.5          158.5          158.5          0.15045825     0.10199668    -0.054082797    0.40346087     82.488099    
     95080   83.498124      158.5          158.5          158.5          0.0046309775   0.39969463    -0.01838185    -0.36741985     83.498124    
     95100   83.755026      158.5          158.5          158.5         -0.3216884     -0.40524731    -0.096240563   -0.46357733     83.755026    
     95120   83.000375      158.5          158.5          158.5          0.40250892     0.14933062     0.40162514     0.65657099     83.000375    
     95140   84.259416      158.5          158.5          158.5         -0.14913866     0.11492084    -0.61898742     0.056650599    84.259416    
     95160   82.584201      158.5          158.5          158.5         -0.29226237    -0.058604561   -0.29695913    -0.52122341     82.584201    
     95180   84.440299      158.5          158.5          158.5          0.458208       0.26260214     0.7816194      0.33040245     84.440299    
     95200   83.188864      158.5          158.5          158.5         -0.37358338    -0.035440094   -0.69415882    -0.39115123     83.188864    
     95220   84.557781      158.5          158.5          158.5         -0.10552161    -0.54333033     0.064720261    0.16204523     84.557781    
     95240   83.717027      158.5          158.5          158.5          0.37168966     0.52252706     0.24286283     0.34967911     83.717027    
     95260   82.91598       158.5          158.5          158.5         -0.049914446    0.31132046    -0.15373608    -0.30732772     82.91598     
     95280   84.677103      158.5          158.5          158.5         -0.38713382    -0.76465971    -0.20646078    -0.19028097     84.677103    
     95300   81.952417      158.5          158.5          158.5          0.26301353     0.50837381     0.15016735     0.13049942     81.952417    
     95320   84.942658      158.5          158.5          158.5          0.4787498      0.42518273     0.78584003     0.22522663     84.942658    
     95340   82.963621      158.5          158.5          158.5         -0.31477326    -0.92363169    -0.0772623      0.05657421     82.963621    
     95360   83.420671      158.5          158.5          158.5         -0.03238087     0.41538497    -0.21645417    -0.29607341     83.420671    
     95380   82.764574      158.5          158.5          158.5          0.11178376     0.47383381    -0.045841631   -0.092640882    82.764574    
     95400   84.17796       158.5          158.5          158.5         -0.11470747    -0.81924023     0.24932423     0.22579358     84.17796     
     95420   83.028705      158.5          158.5          158.5          0.066444593    0.10652623     0.055080928    0.037726624    83.028705    
     95440   83.199884      158.5          158.5          158.5          0.091113776    0.46174104    -0.11010111    -0.078298611    83.199884    
     95460   84.138192      158.5          158.5          158.5         -0.16513927    -0.39652265    -0.055434937   -0.043460209    84.138192    
     95480   82.719155      158.5          158.5          158.5         -0.14567596    -0.10150253    -0.29570919    -0.039816154    82.719155    
     95500   83.878657      158.5          158.5          158.5          0.33563318     0.46464297     0.39763492     0.14462167     83.878657    
     95520   82.899134      158.5          158.5          158.5          0.15772247    -0.067273862    0.49399003     0.046451246    82.899134    
     95540   84.111338      158.5          158.5          158.5         -0.52924025    -0.37534794    -1.05624       -0.15613282     84.111338    
     95560   84.155956      158.5          158.5          158.5          0.22552817     0.35367233     0.28082276     0.042089425    84.155956    
     95580   82.71543       158.5          158.5          158.5         -0.050414785    0.027547618   -0.23918055     0.060388577    82.71543     
     95600   84.054258      158.5          158.5          158.5         -0.017462519   -0.47807198     0.36061662     0.065067805    84.054258    
     95620   82.560859      158.5          158.5          158.5          0.194043       0.19147975     0.32961227     0.061036975    82.560859    
     95640   84.962714      158.5          158.5          158.5         -0.26666362     0.38746499    -0.99865693    -0.18879892     84.962714    
     95660   84.551868      158.5          158.5          158.5         -0.033800455   -0.56729355     0.45168064     0.014211541    84.551868    
     95680   84.465297      158.5          158.5          158.5         -0.28820504    -0.027786983   -0.8315774     -0.0052507365   84.465297    
     95700   85.301506      158.5          158.5          158.5          0.64057647     0.17981485     1.2349136      0.50700098     85.301506    
     95720   84.848855      158.5          158.5          158.5         -0.4769634      0.17029888    -0.70563277    -0.89555632     84.848855    
     95740   84.839873      158.5          158.5          158.5          0.090532847   -0.24299782     0.28809792     0.22649844     84.839873    
     95760   83.54832       158.5          158.5          158.5          0.15263845     0.0005544192  -0.11888918     0.57625012     83.54832     
     95780   85.334822      158.5          158.5          158.5         -0.41611698    -0.090883864   -0.3578327     -0.79963436     85.334822    
     95800   83.810703      158.5          158.5          158.5          0.54826223     0.34138441     0.81460606     0.48879622     83.810703    
     95820   83.074346      158.5          158.5          158.5         -0.0077595586   0.30302039    -0.52836576     0.2020667      83.074346    
     95840   84.048929      158.5          158.5          158.5         -0.58460491    -0.92084236     0.040339272   -0.87331166     84.048929    
     95860   83.121045      158.5          158.5          158.5          0.51852529     0.46323254     0.46384837     0.62849495     83.121045    
     95880   81.964961      158.5          158.5          158.5          0.21861499     0.33120549     0.036575658    0.28806382     81.964961    
     95900   84.16717       158.5          158.5          158.5         -0.63321619    -0.67261432    -0.35769925    -0.86933501     84.16717     
     95920   83.660339      158.5          158.5          158.5          0.44483453     0.46126722     0.21466651     0.65856987     83.660339    
     95940   82.373005      158.5          158.5          158.5          0.081935846    0.27703495    -0.12950402     0.098276606    82.373005    
     95960   84.119755      158.5          158.5          158.5         -0.48110819    -0.7885769      0.0011814136  -0.65592908     84.119755    
     95980   83.020865      158.5          158.5          158.5          0.40455268     0.35723335     0.35719636     0.49922833     83.020865    
     96000   83.426771      158.5          158.5          158.5         -0.083870293    0.35160277    -0.6293285      0.026114844    83.426771    
     96020   83.844388      158.5          158.5          158.5         -0.17644031    -0.70036267     0.42402388    -0.25298214     83.844388    
     96040   83.065641      158.5          158.5          158.5          0.1995585      0.51462696     0.00089796913  0.08315058     83.065641    
     96060   83.328553      158.5          158.5          158.5          0.0048768623   0.21348186    -0.37970968     0.1808584      83.328553    
     96080   83.775166      158.5          158.5          158.5         -0.29403302    -0.92224645     0.21103956    -0.17089216     83.775166    
     96100   84.289265      158.5          158.5          158.5          0.17061407     0.78413972    -0.18717151    -0.085125991    84.289265    
     96120   83.108565      158.5          158.5          158.5          0.51141546     0.44800852     0.71955813     0.36667972     83.108565    
     96140   86.00262       158.5          158.5          158.5         -0.95730705    -1.3099614     -1.0157403     -0.54621948     86.00262     
     96160   83.514446      158.5          158.5          158.5          0.55410285     0.57634313     0.73457393     0.35139149     83.514446    
     96180   84.65357       158.5          158.5          158.5          0.23153409     0.88473263    -0.18995244    -0.0001779267   84.65357     
     96200   86.264606      158.5          158.5          158.5         -0.44638318    -1.3242494      0.29959803    -0.31449821     86.264606    
     96220   84.255939      158.5          158.5          158.5          0.053965572    0.54443928    -0.65150518     0.26896262     84.255939    
     96240   85.92481       158.5          158.5          158.5          0.47274367     0.9258683      0.072065448    0.42029727     85.92481     
     96260   87.528738      158.5          158.5          158.5         -0.86313658    -1.5824244     -0.3585066     -0.64847872     87.528738    
     96280   85.825272      158.5          158.5          158.5          0.49074116     0.66664091     0.62743357     0.17814901     85.825272    
     96300   85.778493      158.5          158.5          158.5          0.6830504      1.4283462      0.10973006     0.51107499     85.778493    
     96320   90.281844      158.5          158.5          158.5         -0.99432795    -1.9168393     -0.44621458    -0.61992994     90.281844    
     96340   82.719249      158.5          158.5          158.5         -0.042633212    0.10917052    -0.36216635     0.12509619     82.719249    
     96360   89.024037      158.5          158.5          158.5          0.97955442     1.4408579      0.74625556     0.75154981     89.024037    
     96380   86.164467      158.5          158.5          158.5         -0.45023035    -0.80198276    -0.11202706    -0.43668123     86.164467    
     96400   83.85877       158.5          158.5          158.5         -0.18228089    -0.32748684    -0.052353241   -0.16700259     83.85877     
     96420   87.01864       158.5          158.5          158.5          0.25413994     0.74875342    -0.34683024     0.36049664     87.01864     
     96440   83.513859      158.5          158.5          158.5         -0.31285993    -0.50040885    -0.098646736   -0.33952419     83.513859    
     96460   84.4685        158.5          158.5          158.5          0.059990408   -0.061588095    0.2542651     -0.012705782    84.4685      
     96480   84.100761      158.5          158.5          158.5          0.5619006      0.74425592     0.48634692     0.45509896     84.100761    
     96500   83.939498      158.5          158.5          158.5         -0.38436919    -0.55260274    -0.2960992     -0.30440562     83.939498    
     96520   83.313466      158.5          158.5          158.5         -0.42185384    -0.24338754    -0.85198126    -0.17019273     83.313466    
     96540   84.065014      158.5          158.5          158.5          0.67825795     0.57807304     0.81181531     0.6448855      84.065014    
     96560   83.63392       158.5          158.5          158.5         -0.22364919    -0.12633097    -0.22586208    -0.31875452     83.63392     
     96580   83.311733      158.5          158.5          158.5         -0.092931204   -0.40908689     0.45636776    -0.32607449     83.311733    
     96600   83.950302      158.5          158.5          158.5          0.14279345     0.4655406     -0.29910986     0.26194961     83.950302    
     96620   83.192587      158.5          158.5          158.5         -0.095829296   -0.10981317    -0.3363651      0.15869038     83.192587    
     96640   82.969364      158.5          158.5          158.5         -0.28997136    -0.32992703    -0.201107      -0.33888003     82.969364    
     96660   84.160127      158.5          158.5          158.5          0.42116474     0.3915269      0.74252644     0.12944089     84.160127    
     96680   82.764851      158.5          158.5          158.5          0.17767914    -0.039666833    0.43280716     0.13989711     82.764851    
     96700   84.017792      158.5          158.5          158.5         -0.61766294    -0.29622284    -1.2729747     -0.28379131     84.017792    
     96720   84.413671      158.5          158.5          158.5          0.38052232     0.30848436     0.46514411     0.36793848     84.413671    
     96740   82.573467      158.5          158.5          158.5         -0.075319852   -0.0015089154  -0.042164675   -0.18228597     82.573467    
     96760   84.946819      158.5          158.5          158.5         -0.34582028    -0.40660244    -0.27651013    -0.35434827     84.946819    
     96780   84.260817      158.5          158.5          158.5          0.73207749     0.50019012     1.2113374      0.48470493     84.260817    
     96800   83.274845      158.5          158.5          158.5         -0.14242052     0.041125392   -0.43584122    -0.032545738    83.274845    
     96820   87.074317      158.5          158.5          158.5         -0.85494191    -0.62373064    -1.5951506     -0.34594455     87.074317    
     96840   84.144435      158.5          158.5          158.5          0.63596154     0.56301569     0.82159583     0.52327309     84.144435    
     96860   84.689423      158.5          158.5          158.5          0.45837376     0.23473285     0.90898196     0.23140648     84.689423    
     96880   87.170938      158.5          158.5          158.5         -0.73715018    -0.70330471    -0.57581378    -0.93233205     87.170938    
     96900   86.37939       158.5          158.5          158.5          0.068395549    0.21202619    -0.17328076     0.16644122     86.37939     
     96920   87.50242       158.5          158.5          158.5          0.35836487     0.19180031     0.12281371     0.76048057     87.50242     
     96940   85.873305      158.5          158.5          158.5         -0.2974125      0.35080738    -0.3230491     -0.91999577     85.873305    
     96960   86.461968      158.5          158.5          158.5         -0.26533703    -1.2027479      0.57371351    -0.16697667     86.461968    
     96980   82.298519      158.5          158.5          158.5          0.27508975    -0.0117198      0.53905195     0.29793711     82.298519    
     97000   85.767179      158.5          158.5          158.5          0.16907582     1.0837964     -0.74179988     0.16523095     85.767179    
     97020   81.907158      158.5          158.5          158.5          0.22216386     0.31665326     0.090727302    0.25911101     81.907158    
     97040   84.470714      158.5          158.5          158.5         -0.1006449     -0.49624536     0.43144971    -0.23713904     84.470714    
     97060   83.646433      158.5          158.5          158.5         -0.28560018    -0.39452775    -0.051957928   -0.41031486     83.646433    
     97080   84.187308      158.5          158.5          158.5          0.3203564      0.91205287    -0.16030967     0.209326       84.187308    
     97100   84.195052      158.5          158.5          158.5         -0.052863781   -0.59980835    -0.059554885    0.50077189     84.195052    
     97120   83.591741      158.5          158.5          158.5         -0.2617211      0.18418362    -0.15322871    -0.81611821     83.591741    
     97140   83.138039      158.5          158.5          158.5         -0.017513664   -0.28866843     0.25102737    -0.01489993     83.138039    
     97160   82.396053      158.5          158.5          158.5          0.35234404     0.31712999     0.23622817     0.50367396     82.396053    
     97180   82.60873       158.5          158.5          158.5         -0.11722787     0.22720858    -0.42803779    -0.1508544      82.60873     
     97200   81.781478      158.5          158.5          158.5         -0.30636334    -0.49882063    -0.19096225    -0.22930714     81.781478    
     97220   82.510975      158.5          158.5          158.5          0.21031557     0.0033760362   0.41804579     0.20952488     82.510975    
     97240   82.34299       158.5          158.5          158.5          0.14022616     0.22940078     0.088853527    0.10242417     82.34299     
     97260   81.847054      158.5          158.5          158.5          0.054135174    0.48692384    -0.13699858    -0.18751973     81.847054    
     97280   83.023761      158.5          158.5          158.5         -0.24079964    -0.83174892    -0.21124674     0.32059674     83.023761    
     97300   82.073328      158.5          158.5          158.5         -0.053440393    0.34327225    -0.088407901   -0.41518553     82.073328    
     97320   83.24364       158.5          158.5          158.5          0.13949858     0.011800863    0.43206634    -0.025371473    83.24364     
     97340   81.730049      158.5          158.5          158.5          0.27166198     0.16215333     0.23676982     0.4160628      81.730049    
     97360   82.853784      158.5          158.5          158.5         -0.36257445    -0.26918514    -0.51105016    -0.30748804     82.853784    
     97380   82.246868      158.5          158.5          158.5         -0.14539011    -0.033501403   -0.26387497    -0.13879396     82.246868    
     97400   83.648336      158.5          158.5          158.5          0.48340349     0.45929685     0.49364086     0.49727277     83.648336    
     97420   84.054258      158.5          158.5          158.5         -0.068315713   -0.35275356     0.18544888    -0.037642454    84.054258    
     97440   83.658482      158.5          158.5          158.5         -0.30002892     0.14501283    -0.39032266    -0.65477693     83.658482    
     97460   85.157962      158.5          158.5          158.5         -0.13047963    -0.70278356    -0.22120865     0.53255332     85.157962    
     97480   83.58918       158.5          158.5          158.5          0.34284951     0.806829       0.23652531    -0.01480577     83.58918     
     97500   85.86173       158.5          158.5          158.5          0.05255474     0.046843769    0.13506029    -0.024239837    85.86173     
     97520   84.725549      158.5          158.5          158.5          0.13607383    -0.22046745     0.63734769    -0.0086587549   84.725549    
     97540   85.410428      158.5          158.5          158.5         -0.50308347    -0.57942886    -0.92383961    -0.0059819391   85.410428    
     97560   83.852463      158.5          158.5          158.5          0.034519516    0.65822723    -0.49941378    -0.055254909    83.852463    
     97580   84.618644      158.5          158.5          158.5          0.57253646     0.40902678     0.94359986     0.36498274     84.618644    
     97600   84.98623       158.5          158.5          158.5         -0.10295886    -0.42966072     0.1926678     -0.071883656    84.98623     
     97620   85.240144      158.5          158.5          158.5         -0.34382493    -0.043179626   -0.56651029    -0.42178488     85.240144    
     97640   87.578759      158.5          158.5          158.5          0.031333383    0.089438577   -0.37024912     0.3748107      87.578759    
     97660   83.27359       158.5          158.5          158.5          0.13160292     0.20822151     0.19940847    -0.01282122     83.27359     
     97680   84.968252      158.5          158.5          158.5         -0.25765463    -0.59832585     0.061154323   -0.23579236     84.968252    
     97700   84.062286      158.5          158.5          158.5          0.1676695      0.13475821     0.37027785    -0.0020275555   84.062286    
     97720   84.108305      158.5          158.5          158.5          0.315061       0.47983174     0.21829074     0.24706053     84.108305    
     97740   85.584112      158.5          158.5          158.5         -0.48892552    -0.38403116    -1.0571817     -0.02556366     85.584112    
     97760   83.297368      158.5          158.5          158.5         -0.11049665    -0.0017504908  -0.042663109   -0.28707636     83.297368    
     97780   84.146776      158.5          158.5          158.5          0.46426207     0.26821756     0.84356571     0.28100294     84.146776    
     97800   83.317675      158.5          158.5          158.5          0.06403735    -0.14141152     0.17041615     0.16310741     83.317675    
     97820   85.120391      158.5          158.5          158.5         -0.37200348     0.048352402   -0.67610922    -0.48825361     85.120391    
     97840   83.809453      158.5          158.5          158.5         -0.029945026    0.044359987   -0.24088875     0.10669369     83.809453    
     97860   82.881578      158.5          158.5          158.5          0.29801222     0.097902652    0.51197233     0.28416167     82.881578    
     97880   84.950584      158.5          158.5          158.5         -0.085015881   -0.12277828     0.10877291    -0.24104227     84.950584    
     97900   83.85906       158.5          158.5          158.5         -0.12599253    -0.42031676    -0.074978174    0.11731734     83.85906     
     97920   84.676174      158.5          158.5          158.5          0.18994686     0.51053515    -0.12784131     0.18714676     84.676174    
     97940   83.049272      158.5          158.5          158.5         -0.23667215     0.10726061    -0.39551628    -0.42176079     83.049272    
     97960   85.142156      158.5          158.5          158.5         -0.068494944   -0.70940169     0.33070836     0.1732085      85.142156    
     97980   85.117828      158.5          158.5          158.5          0.44672018     0.50913136     0.51243202     0.31859714     85.117828    
     98000   84.003076      158.5          158.5          158.5         -0.23937899     0.14851222    -0.39650451    -0.47014468     84.003076    
     98020   84.825683      158.5          158.5          158.5         -0.3159973     -0.61685169    -0.36952662     0.038386426    84.825683    
     98040   84.589988      158.5          158.5          158.5          0.33409737     0.50495957     0.22991765     0.26741489     84.589988    
     98060   87.630988      158.5          158.5          158.5          0.042522754    0.17212689     0.14898052    -0.19353914     87.630988    
     98080   83.460786      158.5          158.5          158.5          0.0083562995  -0.38582283     0.0096731436   0.40121858     83.460786    
     98100   85.466683      158.5          158.5          158.5         -0.16688506     0.2952905     -0.4685992     -0.3273465      85.466683    
     98120   84.1139        158.5          158.5          158.5         -0.077105993    0.13754251     0.019341751   -0.38820224     84.1139      
     98140   88.267532      158.5          158.5          158.5          0.27388115    -0.50785935     0.42664394     0.90285886     88.267532    
     98160   86.474645      158.5          158.5          158.5         -0.21754067     0.00044685211  0.020602396   -0.67367125     86.474645    
     98180   85.403268      158.5          158.5          158.5         -0.034320617    0.32835102    -0.25716897    -0.1741439      85.403268    
     98200   86.179967      158.5          158.5          158.5         -0.16420116    -0.0264258     -0.03276764    -0.43341005     86.179967    
     98220   83.975632      158.5          158.5          158.5          0.31244912    -0.20815687     0.19260538     0.95289885     83.975632    
     98240   85.163802      158.5          158.5          158.5          0.088586359    0.24884064     0.23493954    -0.2180211      85.163802    
     98260   82.042804      158.5          158.5          158.5         -0.10793474    -0.0043243747  -0.13985516    -0.17962469     82.042804    
     98280   84.250356      158.5          158.5          158.5         -0.094109918   -0.086526146   -0.33067065     0.13486704     84.250356    
     98300   82.745033      158.5          158.5          158.5          0.080573892    0.25857522     0.12974885    -0.14660239     82.745033    
     98320   84.157717      158.5          158.5          158.5          0.10771436    -0.1386501     -0.033633693    0.49542686     84.157717    
     98340   83.567001      158.5          158.5          158.5         -0.28987443    -0.41227517     0.15963778    -0.61698591     83.567001    
     98360   82.224426      158.5          158.5          158.5          0.20124085     0.31947044    -0.083567352    0.36781946     82.224426    
     98380   83.269994      158.5          158.5          158.5          0.003036022    0.15854535     0.060311569   -0.20974886     83.269994    
     98400   81.508456      158.5          158.5          158.5         -0.1004259     -0.44943241    -0.054260392    0.20241511     81.508456    
     98420   81.650213      158.5          158.5          158.5         -0.024321863    0.17696787     0.12047135    -0.37040481     81.650213    
     98440   82.032435      158.5          158.5          158.5          0.17708701     0.23473448     0.10677853     0.18974803     82.032435    
     98460   81.190033      158.5          158.5          158.5          0.006285218   -0.32620267    -0.00031715468  0.34537548     81.190033    
     98480   82.265508      158.5          158.5          158.5         -0.061844674    0.1357488     -0.16978467    -0.15149816     82.265508    
     98500   81.330272      158.5          158.5          158.5         -0.025855809    0.24868648    -0.14481501    -0.18143891     81.330272    
     98520   82.467064      158.5          158.5          158.5         -0.11243216    -0.36960396     0.130109      -0.097801518    82.467064    
     98540   81.886376      158.5          158.5          158.5          0.23561445     0.01252443     0.044094912    0.650224       81.886376    
     98560   82.10167       158.5          158.5          158.5         -0.0068102645   0.32853569     0.10533371    -0.4543002      82.10167     
     98580   83.665584      158.5          158.5          158.5         -0.21654137    -0.3431698     -0.24668529    -0.059769017    83.665584    
     98600   81.965154      158.5          158.5          158.5         -0.1364178     -0.10951114     0.21455074    -0.514293       81.965154    
     98620   83.31975       158.5          158.5          158.5          0.3998838      0.43816887     0.045987093    0.71549545     83.31975     
     98640   82.691525      158.5          158.5          158.5         -0.050339931   -0.27380416     0.18459971    -0.061815339    82.691525    
     98660   82.877981      158.5          158.5          158.5         -0.21157778    -0.16072838    -0.31733968    -0.15666529     82.877981    
     98680   83.158006      158.5          158.5          158.5         -0.073760622    0.49422137    -0.18575087    -0.52975237     83.158006    
     98700   81.959608      158.5          158.5          158.5          0.14308411    -0.22668266     0.15652862     0.49940637     81.959608    
     98720   83.924898      158.5          158.5          158.5          0.26551711    -0.17694016     0.45060905     0.52288245     83.924898    
     98740   81.956743      158.5          158.5          158.5          0.08040468     0.45672537     0.18291765    -0.39842899     81.956743    
     98760   84.642521      158.5          158.5          158.5         -0.39420066    -0.14379865    -0.62210587    -0.41669747     84.642521    
     98780   83.166294      158.5          158.5          158.5         -0.13512229    -0.36955743    -0.26306811     0.22725868     83.166294    
     98800   85.622986      158.5          158.5          158.5          0.56977524     0.66454535     0.74290699     0.30187339     85.622986    
     98820   85.0778        158.5          158.5          158.5         -0.013637381   -0.32920653     0.089395786    0.1988986      85.0778      
     98840   85.53412       158.5          158.5          158.5         -0.38867889     0.11187225    -0.6548734     -0.62303551     85.53412     
     98860   85.272675      158.5          158.5          158.5         -0.11516231    -0.34853561    -0.44705672     0.45010538     85.272675    
     98880   82.525642      158.5          158.5          158.5          0.30502811     0.30036069     0.38302043     0.23170322     82.525642    
     98900   85.05971       158.5          158.5          158.5         -0.014998986    0.24982458     0.37308485    -0.66790639     85.05971     
     98920   84.245414      158.5          158.5          158.5         -0.18146537    -0.77207784     0.046689511    0.18099221     84.245414    
     98940   85.14902       158.5          158.5          158.5          0.23283063     0.72583867    -0.21961926     0.19227249     85.14902     
     98960   83.459266      158.5          158.5          158.5         -0.23081601    -0.061150938   -0.57988623    -0.051410874    83.459266    
     98980   83.849682      158.5          158.5          158.5         -0.19855809    -0.69375509     0.15600428    -0.057923469    83.849682    
     99000   85.356363      158.5          158.5          158.5          0.56214865     0.91674487     0.73541236     0.034288739    85.356363    
     99020   82.883515      158.5          158.5          158.5         -0.14307518    -0.22782378    -0.13891842    -0.062483352    82.883515    
     99040   84.735407      158.5          158.5          158.5         -0.46845795    -0.81174324    -0.67403251     0.080401912    84.735407    
     99060   84.018031      158.5          158.5          158.5          0.46107602     0.98780555     0.17373923     0.22168328     84.018031    
     99080   84.30253       158.5          158.5          158.5         -0.12679178    -0.31165037     0.30336874    -0.37209372     84.30253     
     99100   83.299506      158.5          158.5          158.5         -0.12931224    -0.52990839     0.2188189     -0.076847221    83.299506    
     99120   85.162137      158.5          158.5          158.5          0.44517098     1.0569405     -0.19641933     0.47499176     85.162137    
     99140   84.428654      158.5          158.5          158.5         -0.63958911    -0.69174851    -0.79759938    -0.42941945     84.428654    
     99160   83.743682      158.5          158.5          158.5          0.17777604    -0.17504178     0.5297317      0.17863819     83.743682    
     99180   85.561625      158.5          158.5          158.5          0.56270277     0.51664453     0.60702407     0.56443971     85.561625    
     99200   83.445223      158.5          158.5          158.5         -0.52011649    -0.25921926    -0.48900203    -0.81212817     83.445223    
     99220   85.708829      158.5          158.5          158.5         -0.039400544    0.076960858   -0.32149305     0.12633056     85.708829    
     99240   84.729384      158.5          158.5          158.5          0.19226799    -0.24331038     0.033800733    0.78631361     84.729384    
     99260   86.42266       158.5          158.5          158.5          0.14506184     0.4052274      0.60011926    -0.57016113     86.42266     
     99280   84.651529      158.5          158.5          158.5         -0.64218696    -0.66451985    -0.29500281    -0.96703823     84.651529    
     99300   86.51407       158.5          158.5          158.5          0.7151969      0.78067305     0.19907537     1.1658423      86.51407     
     99320   84.638706      158.5          158.5          158.5         -0.44822092    -0.41043508    -0.49929058    -0.4349371      84.638706    
     99340   84.184074      158.5          158.5          158.5         -0.22309521    -0.34733989     0.20697587    -0.5289216      84.184074    
     99360   87.292312      158.5          158.5          158.5          0.61258896     0.66473769     0.28775962     0.88526958     87.292312    
     99380   82.960526      158.5          158.5          158.5         -0.27546172    -0.385177       0.1140487     -0.55525685     82.960526    
     99400   86.052774      158.5          158.5          158.5         -0.16512776    -0.081727516   -0.19203899    -0.22161677     86.052774    
     99420   84.998072      158.5          158.5          158.5          0.12731787     0.50090469    -0.72180091     0.60284983     84.998072    
     99440   84.333041      158.5          158.5          158.5          0.073916647   -0.25101969     0.66171855    -0.18894892     84.333041    
     99460   83.544919      158.5          158.5          158.5         -0.15594279    -0.33359752     0.30819141    -0.44242225     83.544919    
     99480   82.908766      158.5          158.5          158.5          0.075676127    0.37074716    -0.52230437     0.37858559     82.908766    
     99500   84.715695      158.5          158.5          158.5          0.043081595   -0.0862904      0.35186004    -0.13632486     84.715695    
     99520   82.741294      158.5          158.5          158.5          0.058397451   -0.11369907    -0.10528522     0.39417664     82.741294    
     99540   82.127468      158.5          158.5          158.5         -0.16076197     0.34921834    -0.21432196    -0.61718229     82.127468    
     99560   82.63322       158.5          158.5          158.5          0.0045111418  -0.30454983     0.28459475     0.03348851     82.63322     
     99580   82.285213      158.5          158.5          158.5          0.25327203    -0.11297161     0.18667565     0.68611204     82.285213    
     99600   82.486463      158.5          158.5          158.5         -0.078009752    0.48722718    -0.11668103    -0.6045754      82.486463    
     99620   83.045769      158.5          158.5          158.5         -0.26549524    -0.37787388    -0.50470297     0.086091123    83.045769    
     99640   82.270039      158.5          158.5          158.5         -0.042644444   -0.10806911     0.25174154    -0.27160577     82.270039    
     99660   83.451697      158.5          158.5          158.5          0.44727797     0.41551551     0.31373951     0.61257888     83.451697    
     99680   82.289565      158.5          158.5          158.5         -0.13740512    -0.044783488    0.065706339   -0.43313821     82.289565    
     99700   83.558118      158.5          158.5          158.5         -0.32482553    -0.3737591     -0.77222049     0.17150298     83.558118    
     99720   82.125505      158.5          158.5          158.5          0.029313329    0.46622587     0.10060472    -0.47889061     82.125505    
     99740   82.756844      158.5          158.5          158.5          0.31840378     0.0089891729   0.34437337     0.60184879     82.756844    
     99760   82.661217      158.5          158.5          158.5          0.025418977   -0.27565136     0.26137826     0.090530036    82.661217    
     99780   82.206502      158.5          158.5          158.5         -0.12514389     0.23928525    -0.35180235    -0.26291457     82.206502    
     99800   82.580698      158.5          158.5          158.5         -0.23235137    -0.036224043   -0.39610621    -0.26472386     82.580698    
     99820   82.560057      158.5          158.5          158.5          0.14070421    -0.19849013     0.31330831     0.30729445     82.560057    
     99840   84.30331       158.5          158.5          158.5          0.34311563     0.32079096     0.17615968     0.53239624     84.30331     
     99860   83.909036      158.5          158.5          158.5         -0.38910198    -0.11247306     0.21474867    -1.2695816      83.909036    
     99880   84.223081      158.5          158.5          158.5         -0.023423936   -0.17441867    -0.67397165     0.77811851     84.223081    
     99900   82.064875      158.5          158.5          158.5          0.24792352     0.32473423     0.12237362     0.2966627      82.064875    
     99920   84.118273      158.5          158.5          158.5         -0.013084594   -0.063505509    0.66834588    -0.64409416     84.118273    
     99940   84.433945      158.5          158.5          158.5          0.0041434919   0.27644569    -0.48980915     0.22579394     84.433945    
     99960   82.321681      158.5          158.5          158.5         -0.050941451    0.034121216   -0.095413626   -0.091531944    82.321681    
     99980   85.123818      158.5          158.5          158.5         -0.067969095   -0.81305962     0.51514391     0.094008428    85.123818    
    100000   82.603671      158.5          158.5          158.5          0.27418164     0.47859823     0.068148073    0.2757986      82.603671    
    100020   84.388378      158.5          158.5          158.5         -0.31620264     0.46535622    -0.58853619    -0.82542797     84.388378    
    100040   82.932708      158.5          158.5          158.5          0.0039918298  -0.342621       0.33464816     0.019948329    82.932708    
    100056   82.66772       158.5          158.5          158.5          0.13002693     0.080628981   -0.071282324    0.38073412     82.66772     
Loop time of 4.61647 on 1 procs for 100000 steps with 4 atoms

Performance: 1871.559 ns/day, 0.013 hours/ns, 21661.563 timesteps/s, 86.646 katom-step/s
22.7% CPU use with 1 MPI tasks x no OpenMP threads

MPI task timing breakdown:
Section |  min time  |  avg time  |  max time  |%varavg| %total
---------------------------------------------------------------
Pair    | 0.039381   | 0.039381   | 0.039381   |   0.0 |  0.85
Bond    | 0.088158   | 0.088158   | 0.088158   |   0.0 |  1.91
Neigh   | 0.0068466  | 0.0068466  | 0.0068466  |   0.0 |  0.15
Comm    | 0.031011   | 0.031011   | 0.031011   |   0.0 |  0.67
Output  | 2.0184     | 2.0184     | 2.0184     |   0.0 | 43.72
Modify  | 2.3433     | 2.3433     | 2.3433     |   0.0 | 50.76
Other   |            | 0.08939    |            |       |  1.94

Nlocal:              4 ave           4 max           4 min
Histogram: 1 0 0 0 0 0 0 0 0 0
Nghost:              0 ave           0 max           0 min
Histogram: 1 0 0 0 0 0 0 0 0 0
Neighs:              2 ave           2 max           2 min
Histogram: 1 0 0 0 0 0 0 0 0 0
FullNghs:            0 ave           0 max           0 min
Histogram: 1 0 0 0 0 0 0 0 0 0

Total # of neighbors = 2
Ave neighs/atom = 0.5
Ave special neighs/atom = 3
Neighbor list builds = 266
Dangerous builds = 1

# Access cumulative reaction counts after the simulation
variable react1_count equal f_3[1]
#variable react2_count equal f_3[2]
#variable react3_count equal f_3[3]
#variable react4_count equal f_3[4]

# Output cumulative reaction counts
print "Cumulative reaction count for reac1to2: ${react1_count}"
Cumulative reaction count for reac1to2: 1
#print "Cumulative reaction count for reac2to3: ${react2_count}"
#print "Cumulative reaction count for reac3to2: ${react3_count}"
#print "Cumulative reaction count for reac2to1: ${react4_count}"

#####################################################
print "All done"
All done
Total wall time: 0:00:05
