read_data	InitialFile.txt
Reading data file ...
  orthogonal box = (0 0 0) to (158.5 158.5 158.5)
  1 by 1 by 1 MPI processor grid
WARNING: Atom style in data file atomic differs from currently defined atom style molecular (src/src/read_data.cpp:621)
  reading atoms ...
  100 atoms
  scanning bonds ...
  1 = max bonds/atom
  scanning angles ...
  1 = max angles/atom
  scanning dihedrals ...
  1 = max dihedrals/atom
  reading bonds ...
  99 bonds
  reading angles ...
  98 angles
  reading dihedrals ...
  97 dihedrals
Finding 1-2 1-3 1-4 neighbors ...
  special bond factors lj:    0        0        0       
  special bond factors coul:  0        0        0       
     2 = max # of 1-2 neighbors
     2 = max # of 1-3 neighbors
     4 = max # of 1-4 neighbors
     6 = max # of special neighbors
  special bonds CPU = 0.000 seconds
  read_data CPU = 0.004 seconds

# Dreiding potential information
neighbor	0.4 bin
neigh_modify	every 10 one 10000

bond_style      harmonic
bond_coeff	1 350 1.53
bond_coeff	2 700 1.53

angle_style     harmonic
angle_coeff	1 60 109.5
angle_coeff	2 120 109.5

dihedral_style	multi/harmonic
dihedral_coeff	1 1.73 -4.49 0.776 6.99 0.0
dihedral_coeff	2 1.73 -4.49 0.776 6.99 0.0

pair_style	lj/cut 10.5
pair_coeff	* * 1.0 1.0 10.5
pair_coeff	3 3 2.0 0.5 10.5

compute csym all centro/atom fcc
compute peratom all pe/atom


#####################################################
# Equilibration (Brownian dynamics at 300 K)

velocity 	all create 300.0 1231
fix		1 all nve/limit 0.05
fix 2 all brownian 30.0 12908410 gamma_t 3.0 rng gaussian
thermo_style	custom step temp
thermo          10000
timestep	1
run		1000000
Generated 0 of 3 mixed pair_coeff terms from geometric mixing rule
WARNING: One or more atoms are time integrated more than once (src/src/modify.cpp:289)
Neighbor list info ...
  update: every = 10 steps, delay = 0 steps, check = yes
  max neighbors/atom: 10000, page size: 100000
  master list distance cutoff = 10.9
  ghost atom cutoff = 10.9
  binsize = 5.45, bins = 30 30 30
  2 neighbor lists, perpetual/occasional/extra = 1 1 0
  (1) pair lj/cut, perpetual
      attributes: half, newton on
      pair build: half/bin/newton
      stencil: half/bin/3d
      bin: standard
  (2) compute centro/atom, occasional
      attributes: full, newton on
      pair build: full/bin
      stencil: full/bin/3d
      bin: standard
Per MPI rank memory allocation (min/avg/max) = 8.15 | 8.15 | 8.15 Mbytes
   Step          Temp     
         0   300          
     10000   301.14599    
     20000   258.43265    
     30000   315.00716    
     40000   288.15873    
     50000   282.34048    
     60000   293.92088    
     70000   308.43796    
     80000   274.17263    
     90000   333.82677    
    100000   337.04712    
    110000   309.97176    
    120000   314.0924     
    130000   309.89061    
    140000   296.48134    
    150000   271.77809    
    160000   279.77006    
    170000   283.853      
    180000   335.99101    
    190000   357.796      
    200000   314.7671     
    210000   332.66729    
    220000   273.61032    
    230000   306.67298    
    240000   303.14073    
    250000   344.10215    
    260000   295.85945    
    270000   298.46466    
    280000   304.11064    
    290000   263.50919    
    300000   295.9124     
    310000   311.93657    
    320000   350.79045    
    330000   311.41237    
    340000   344.00264    
    350000   281.54883    
    360000   330.33302    
    370000   298.10743    
    380000   307.66511    
    390000   335.25319    
    400000   344.93276    
    410000   289.30938    
    420000   326.82922    
    430000   249.22892    
    440000   315.79941    
    450000   297.73533    
    460000   308.50711    
    470000   288.42693    
    480000   324.40317    
    490000   305.94542    
    500000   290.07966    
    510000   300.06157    
    520000   287.90675    
    530000   291.00178    
    540000   296.02708    
    550000   276.27628    
    560000   308.48626    
    570000   335.02201    
    580000   284.42159    
    590000   330.95438    
    600000   352.99151    
    610000   334.89492    
    620000   280.55252    
    630000   305.18101    
    640000   361.60053    
    650000   327.75436    
    660000   307.10484    
    670000   297.64916    
    680000   322.36729    
    690000   288.93618    
    700000   352.91649    
    710000   341.47914    
    720000   305.58465    
    730000   316.84542    
    740000   301.71003    
    750000   335.34097    
    760000   337.54496    
    770000   318.63287    
    780000   269.11127    
    790000   289.23663    
    800000   299.72077    
    810000   319.93784    
    820000   295.85271    
    830000   280.39542    
    840000   280.69223    
    850000   318.99566    
    860000   277.07941    
    870000   312.92708    
    880000   295.21949    
    890000   313.71523    
    900000   322.68429    
    910000   339.29066    
    920000   317.81231    
    930000   362.05726    
    940000   315.36712    
    950000   322.38208    
    960000   300.38349    
    970000   333.03024    
    980000   321.15436    
    990000   286.21431    
   1000000   271.72581    
Loop time of 31.0024 on 1 procs for 1000000 steps with 100 atoms

Performance: 2786.883 ns/day, 0.009 hours/ns, 32255.586 timesteps/s, 3.226 Matom-step/s
92.0% CPU use with 1 MPI tasks x no OpenMP threads

MPI task timing breakdown:
Section |  min time  |  avg time  |  max time  |%varavg| %total
---------------------------------------------------------------
Pair    | 7.1581     | 7.1581     | 7.1581     |   0.0 | 23.09
Bond    | 14.03      | 14.03      | 14.03      |   0.0 | 45.25
Neigh   | 0.63952    | 0.63952    | 0.63952    |   0.0 |  2.06
Comm    | 0.17568    | 0.17568    | 0.17568    |   0.0 |  0.57
Output  | 0.0024292  | 0.0024292  | 0.0024292  |   0.0 |  0.01
Modify  | 8.6425     | 8.6425     | 8.6425     |   0.0 | 27.88
Other   |            | 0.3543     |            |       |  1.14

Nlocal:            100 ave         100 max         100 min
Histogram: 1 0 0 0 0 0 0 0 0 0
Nghost:              0 ave           0 max           0 min
Histogram: 1 0 0 0 0 0 0 0 0 0
Neighs:            470 ave         470 max         470 min
Histogram: 1 0 0 0 0 0 0 0 0 0
FullNghs:            0 ave           0 max           0 min
Histogram: 1 0 0 0 0 0 0 0 0 0

Total # of neighbors = 470
Ave neighs/atom = 4.7
Ave special neighs/atom = 5.88
Neighbor list builds = 10471
Dangerous builds = 30
unfix 1
unfix 2
write_restart 	restart.${simname}.dreiding1
write_restart 	restart.InitialFile.dreiding1
System init for write_restart ...
Generated 0 of 3 mixed pair_coeff terms from geometric mixing rule

#####################################################
# Define Settings
compute eng all pe/atom
compute eatoms all reduce sum c_eng

#####################################################
# Minimization

dump mydmp all atom 100 dump.lammpstrj

reset_timestep 0
fix 1 all nvt temp 300.0 300.0 100.0
thermo 20
thermo_style custom step pe lx ly lz press pxx pyy pzz c_eatoms
min_style cg
minimize 1e-25 1e-25 500000 1000000
Switching to 'neigh_modify every 1 delay 0 check yes' setting during minimization
Generated 0 of 3 mixed pair_coeff terms from geometric mixing rule
Per MPI rank memory allocation (min/avg/max) = 9.275 | 9.275 | 9.275 Mbytes
   Step         PotEng           Lx             Ly             Lz           Press           Pxx            Pyy            Pzz          c_eatoms   
         0   18.131832      158.5          158.5          158.5         -0.54881319     0.28141613    -0.92358813    -1.0042676      18.131832    
        20   3.2544695      158.5          158.5          158.5          0.70581799     0.60519252     0.88816554     0.62409592     3.2544695    
        40   2.4512642      158.5          158.5          158.5          0.78299444     0.7153656      0.92531375     0.70830398     2.4512642    
        60   2.1095533      158.5          158.5          158.5          0.93854371     0.83446953     1.1218898      0.85927179     2.1095533    
        80   1.8928584      158.5          158.5          158.5          1.0559289      0.93568775     1.242882       0.98921714     1.8928584    
       100   1.6903759      158.5          158.5          158.5          1.1039295      0.98917191     1.2760437      1.0465728      1.6903759    
       120   1.5933193      158.5          158.5          158.5          1.1389457      1.0215062      1.2896082      1.1057227      1.5933193    
       140   1.4346546      158.5          158.5          158.5          1.1230093      1.0094201      1.2724925      1.0871152      1.4346546    
       160   1.3087729      158.5          158.5          158.5          1.0633705      0.95821577     1.2252765      1.0066194      1.3087729    
       180   1.2245061      158.5          158.5          158.5          0.98530676     0.88603822     1.1452306      0.92465146     1.2245061    
       200   1.1224768      158.5          158.5          158.5          0.94780635     0.83009478     1.1338503      0.87947392     1.1224768    
       220   1.0656479      158.5          158.5          158.5          0.92526811     0.79629448     1.0951512      0.88435863     1.0656479    
       240   1.0298682      158.5          158.5          158.5          0.91769342     0.80890368     1.0986165      0.84556007     1.0298682    
       260   1.0136474      158.5          158.5          158.5          0.9186699      0.8030818      1.0842194      0.86870848     1.0136474    
       280   1.0116843      158.5          158.5          158.5          0.92059341     0.80493032     1.0904574      0.8663925      1.0116843    
       300   0.99729245     158.5          158.5          158.5          0.95006713     0.83902385     1.126378       0.88479955     0.99729245   
       320   0.99319259     158.5          158.5          158.5          0.94963648     0.82921609     1.1215221      0.8981713      0.99319259   
       340   0.98750354     158.5          158.5          158.5          0.95260772     0.8397758      1.1248355      0.89321189     0.98750354   
       360   0.97503809     158.5          158.5          158.5          0.95774126     0.85261893     1.1384171      0.88218776     0.97503809   
       380   0.9480824      158.5          158.5          158.5          0.96950082     0.85044329     1.1251079      0.93295128     0.9480824    
       400   0.91536409     158.5          158.5          158.5          0.9718621      0.85666381     1.1326097      0.92631275     0.91536409   
       420   0.902038       158.5          158.5          158.5          0.93880073     0.82936879     1.10799        0.87904345     0.902038     
       440   0.8926712      158.5          158.5          158.5          0.93441185     0.81576761     1.1119742      0.87549374     0.8926712    
       460   0.88822918     158.5          158.5          158.5          0.93344516     0.82381472     1.1058914      0.87062932     0.88822918   
       480   0.87660812     158.5          158.5          158.5          0.93207247     0.82108324     1.1015427      0.87359149     0.87660812   
       500   0.86301614     158.5          158.5          158.5          0.92907687     0.82347973     1.110448       0.85330284     0.86301614   
       520   0.84396573     158.5          158.5          158.5          0.92912334     0.81977137     1.104158       0.86344061     0.84396573   
       540   0.83699777     158.5          158.5          158.5          0.93703304     0.82549758     1.1070234      0.87857815     0.83699777   
       560   0.82959495     158.5          158.5          158.5          0.93625588     0.82219077     1.101577       0.88499991     0.82959495   
       580   0.81921917     158.5          158.5          158.5          0.94463667     0.82526392     1.1166468      0.89199928     0.81921917   
       600   0.7982664      158.5          158.5          158.5          0.94522281     0.82869862     1.1164708      0.89049901     0.7982664    
       620   0.79323387     158.5          158.5          158.5          0.9371611      0.82779918     1.1147055      0.86897863     0.79323387   
       640   0.79133697     158.5          158.5          158.5          0.94229657     0.83050071     1.1183969      0.87799208     0.79133697   
       660   0.7887521      158.5          158.5          158.5          0.94351768     0.83238623     1.1171355      0.8810313      0.7887521    
       680   0.78396114     158.5          158.5          158.5          0.94643223     0.84077901     1.1179228      0.88059485     0.78396114   
       700   0.77615995     158.5          158.5          158.5          0.95292243     0.84835701     1.119416       0.89099427     0.77615995   
       720   0.7677601      158.5          158.5          158.5          0.93766529     0.82531468     1.1008941      0.88678712     0.7677601    
       740   0.75951465     158.5          158.5          158.5          0.94154978     0.82899901     1.1191714      0.87647895     0.75951465   
       760   0.7550155      158.5          158.5          158.5          0.93959106     0.82282921     1.1138172      0.88212679     0.7550155    
       780   0.75286422     158.5          158.5          158.5          0.93249368     0.81994332     1.1050018      0.87253589     0.75286422   
       800   0.75097605     158.5          158.5          158.5          0.93072571     0.81970104     1.0986966      0.87377951     0.75097605   
       820   0.74706628     158.5          158.5          158.5          0.94315053     0.83027093     1.1060318      0.8931489      0.74706628   
       840   0.7400321      158.5          158.5          158.5          0.93513473     0.82136469     1.0946162      0.88942333     0.7400321    
       860   0.72784352     158.5          158.5          158.5          0.93615763     0.82265529     1.1125565      0.87326109     0.72784352   
       880   0.71379513     158.5          158.5          158.5          0.92516583     0.81678079     1.1150401      0.84367658     0.71379513   
       900   0.70180777     158.5          158.5          158.5          0.89996622     0.77939399     1.0728526      0.84765208     0.70180777   
       920   0.70172781     158.5          158.5          158.5          0.90045712     0.7810077      1.0747496      0.84561405     0.70172781   
       940   0.70030084     158.5          158.5          158.5          0.90563942     0.77640964     1.0700401      0.87046855     0.70030084   
       960   0.69537931     158.5          158.5          158.5          0.90902953     0.79344969     1.0852928      0.84834607     0.69537931   
       980   0.69315881     158.5          158.5          158.5          0.91464322     0.8005646      1.0896094      0.85375564     0.69315881   
      1000   0.69216064     158.5          158.5          158.5          0.91703355     0.80505245     1.0934999      0.85254827     0.69216064   
      1020   0.68998877     158.5          158.5          158.5          0.93272811     0.82077832     1.1060932      0.87131279     0.68998877   
      1040   0.68368156     158.5          158.5          158.5          0.93890719     0.82905149     1.1067403      0.88092976     0.68368156   
      1060   0.6831442      158.5          158.5          158.5          0.93722281     0.82882245     1.1090508      0.87379523     0.6831442    
      1080   0.68286871     158.5          158.5          158.5          0.93750699     0.82758438     1.1084227      0.87651393     0.68286871   
      1100   0.68066121     158.5          158.5          158.5          0.93210741     0.8178115      1.1121133      0.86639747     0.68066121   
      1120   0.67719559     158.5          158.5          158.5          0.91993735     0.81143186     1.0999152      0.84846506     0.67719559   
      1140   0.67446684     158.5          158.5          158.5          0.91364858     0.80104882     1.0829362      0.8569607      0.67446684   
      1160   0.67278712     158.5          158.5          158.5          0.90718466     0.79767597     1.0787046      0.84517345     0.67278712   
      1180   0.67068742     158.5          158.5          158.5          0.91682542     0.80302356     1.087357       0.86009572     0.67068742   
      1200   0.66719205     158.5          158.5          158.5          0.91769281     0.80574016     1.0909533      0.85638499     0.66719205   
      1220   0.66631085     158.5          158.5          158.5          0.92010375     0.80912298     1.0950545      0.85613373     0.66631085   
      1240   0.66592018     158.5          158.5          158.5          0.91738671     0.80897173     1.0964465      0.84674192     0.66592018   
      1260   0.66592018     158.5          158.5          158.5          0.91738673     0.80897173     1.0964465      0.84674198     0.66592018   
      1262   0.66592018     158.5          158.5          158.5          0.91738673     0.80897173     1.0964465      0.84674198     0.66592018   
Loop time of 0.135995 on 1 procs for 1262 steps with 100 atoms

78.4% CPU use with 1 MPI tasks x no OpenMP threads

Minimization stats:
  Stopping criterion = energy tolerance
  Energy initial, next-to-last, final = 
      18.1318316870517  0.665920177019183  0.665920177019183
  Force two-norm initial, final = 150.12715 0.34210972
  Force max component initial, final = 23.531238 0.12533344
  Final line search alpha, max atom move = 0.09973396 0.0125
  Iterations, force evaluations = 1262 3231

MPI task timing breakdown:
Section |  min time  |  avg time  |  max time  |%varavg| %total
---------------------------------------------------------------
Pair    | 0.05384    | 0.05384    | 0.05384    |   0.0 | 39.59
Bond    | 0.057245   | 0.057245   | 0.057245   |   0.0 | 42.09
Neigh   | 0.0084713  | 0.0084713  | 0.0084713  |   0.0 |  6.23
Comm    | 0.00056535 | 0.00056535 | 0.00056535 |   0.0 |  0.42
Output  | 0.0050149  | 0.0050149  | 0.0050149  |   0.0 |  3.69
Modify  | 0          | 0          | 0          |   0.0 |  0.00
Other   |            | 0.01086    |            |       |  7.98

Nlocal:            100 ave         100 max         100 min
Histogram: 1 0 0 0 0 0 0 0 0 0
Nghost:              0 ave           0 max           0 min
Histogram: 1 0 0 0 0 0 0 0 0 0
Neighs:            470 ave         470 max         470 min
Histogram: 1 0 0 0 0 0 0 0 0 0
FullNghs:            0 ave           0 max           0 min
Histogram: 1 0 0 0 0 0 0 0 0 0

Total # of neighbors = 470
Ave neighs/atom = 4.7
Ave special neighs/atom = 5.88
Neighbor list builds = 21
Dangerous builds = 0

# Get the equilibrium distance of the harmonic bond (type 1)
variable eq_dist equal 1.0  # Replace with the actual equilibrium distance

# Continue with your simulation steps
thermo_style custom step temp
thermo 1000
timestep 1

# Specify the pair coefficients for your specific atom types
# For example, assuming you have three atom types, adjust as needed
pair_coeff * * 1.0 1.0 10.5
pair_coeff 3 3 2.0 0.5 10.5

# Specify the total number of timesteps
variable total_steps equal 10000  # Adjust as needed

# Loop over timesteps
label loop
  # Calculate distances at each timestep
  compute myDistances all pair lj/cut ${lj_sigma}  # Adjust the pair style accordingly
  compute myDistances all pair lj/cut 2  

  # Change atom of type 1 to type 2 if it's at a distance less than 2 from atom of type 2
  set type 1 type/subset 2 1 2304
Setting atom values ...
  1 settings made for type/subset

  # Change atom of type 2 to type 3 if it's at a distance less than 2 from atom of type 3
  set type 2 type/subset 3 1 2404
Setting atom values ...
  1 settings made for type/subset

  # Change atom of type 2 to type 1 if it's at a distance less than 2 from atom of type 1
  set type 2 type/subset 1 1 2604
Setting atom values ...
  1 settings made for type/subset

  # Change atom of type 3 to type 2 if it's at a distance less than 2 from atom of type 2
  set type 3 type/subset 2 1 2904
Setting atom values ...
  1 settings made for type/subset

  # Run a single timestep
  run 1
Generated 0 of 3 mixed pair_coeff terms from geometric mixing rule
Per MPI rank memory allocation (min/avg/max) = 9.279 | 9.279 | 9.279 Mbytes
   Step          Temp     
      1262   271.72581    
      1263   267.22225    
Loop time of 0.000517135 on 1 procs for 1 steps with 100 atoms

Performance: 167.074 ns/day, 0.144 hours/ns, 1933.731 timesteps/s, 193.373 katom-step/s
7.2% CPU use with 1 MPI tasks x no OpenMP threads

MPI task timing breakdown:
Section |  min time  |  avg time  |  max time  |%varavg| %total
---------------------------------------------------------------
Pair    | 6.591e-06  | 6.591e-06  | 6.591e-06  |   0.0 |  1.27
Bond    | 1.3101e-05 | 1.3101e-05 | 1.3101e-05 |   0.0 |  2.53
Neigh   | 0          | 0          | 0          |   0.0 |  0.00
Comm    | 3.94e-07   | 3.94e-07   | 3.94e-07   |   0.0 |  0.08
Output  | 9.545e-06  | 9.545e-06  | 9.545e-06  |   0.0 |  1.85
Modify  | 0.00048417 | 0.00048417 | 0.00048417 |   0.0 | 93.62
Other   |            | 3.337e-06  |            |       |  0.65

Nlocal:            100 ave         100 max         100 min
Histogram: 1 0 0 0 0 0 0 0 0 0
Nghost:              0 ave           0 max           0 min
Histogram: 1 0 0 0 0 0 0 0 0 0
Neighs:            470 ave         470 max         470 min
Histogram: 1 0 0 0 0 0 0 0 0 0
FullNghs:            0 ave           0 max           0 min
Histogram: 1 0 0 0 0 0 0 0 0 0

Total # of neighbors = 470
Ave neighs/atom = 4.7
Ave special neighs/atom = 5.88
Neighbor list builds = 0
Dangerous builds = 0

  # Increment timestep counter
  variable current_step equal ${current_step} + 1
ERROR on proc 0: Substitution for illegal variable current_step (src/src/input.cpp:651)
Last command:   variable current_step equal ${current_step} + 1
