read_data	InitialFile.txt
Reading data file ...
  orthogonal box = (0 0 0) to (158.5 158.5 158.5)
  1 by 1 by 1 MPI processor grid
WARNING: Atom style in data file atomic differs from currently defined atom style molecular (src/src/read_data.cpp:621)
  reading atoms ...
  100 atoms
  scanning bonds ...
  1 = max bonds/atom
  scanning angles ...
  1 = max angles/atom
  scanning dihedrals ...
  1 = max dihedrals/atom
  reading bonds ...
  99 bonds
  reading angles ...
  98 angles
  reading dihedrals ...
  97 dihedrals
Finding 1-2 1-3 1-4 neighbors ...
  special bond factors lj:    0        0        0       
  special bond factors coul:  0        0        0       
     2 = max # of 1-2 neighbors
     2 = max # of 1-3 neighbors
     4 = max # of 1-4 neighbors
     6 = max # of special neighbors
  special bonds CPU = 0.004 seconds
  read_data CPU = 0.013 seconds

# Dreiding potential information
neighbor	0.4 bin
neigh_modify	every 10 one 10000

bond_style      harmonic
bond_coeff	1 350 1.53
bond_coeff	2 700 1.53

angle_style     harmonic
angle_coeff	1 60 109.5
angle_coeff	2 120 109.5

dihedral_style	multi/harmonic
dihedral_coeff	1 1.73 -4.49 0.776 6.99 0.0
dihedral_coeff	2 1.73 -4.49 0.776 6.99 0.0

pair_style	lj/cut 10.5


pair_coeff	* * 1.0 1.0 10.5
pair_coeff	3 3 2.0 2.0 10.5

compute csym all centro/atom fcc
compute peratom all pe/atom



#####################################################
# Equilibration (Langevin dynamics at 300 K)

velocity 	all create 300.0 1231
fix		1 all nve/limit 0.05
fix		2 all langevin 300.0 300.0 10.0 904297
thermo_style	custom step temp
thermo          10000
timestep	1
run		1000000
Generated 0 of 3 mixed pair_coeff terms from geometric mixing rule
Neighbor list info ...
  update: every = 10 steps, delay = 0 steps, check = yes
  max neighbors/atom: 10000, page size: 100000
  master list distance cutoff = 10.9
  ghost atom cutoff = 10.9
  binsize = 5.45, bins = 30 30 30
  2 neighbor lists, perpetual/occasional/extra = 1 1 0
  (1) pair lj/cut, perpetual
      attributes: half, newton on
      pair build: half/bin/newton
      stencil: half/bin/3d
      bin: standard
  (2) compute centro/atom, occasional
      attributes: full, newton on
      pair build: full/bin
      stencil: full/bin/3d
      bin: standard
Per MPI rank memory allocation (min/avg/max) = 8.15 | 8.15 | 8.15 Mbytes
   Step          Temp     
         0   300          
     10000   290.80665    
     20000   269.97327    
     30000   285.31297    
     40000   317.97625    
     50000   331.32515    
     60000   294.7216     
     70000   360.09699    
     80000   293.39662    
     90000   281.9562     
    100000   304.22587    
    110000   279.95094    
    120000   327.9643     
    130000   281.24689    
    140000   281.25863    
    150000   277.0373     
    160000   284.21592    
    170000   278.49062    
    180000   279.06631    
    190000   287.82296    
    200000   284.59063    
    210000   295.44033    
    220000   302.88155    
    230000   296.95557    
    240000   334.47598    
    250000   293.46965    
    260000   278.19799    
    270000   275.96523    
    280000   298.29243    
    290000   321.29464    
    300000   297.5325     
    310000   300.68113    
    320000   277.33126    
    330000   260.2972     
    340000   297.20392    
    350000   301.56426    
    360000   320.76743    
    370000   319.61249    
    380000   285.38516    
    390000   288.88838    
    400000   310.76538    
    410000   297.24597    
    420000   326.11938    
    430000   316.13591    
    440000   318.79189    
    450000   342.19859    
    460000   331.34181    
    470000   318.6757     
    480000   297.70914    
    490000   296.95039    
    500000   327.58854    
    510000   308.55995    
    520000   324.64518    
    530000   306.00437    
    540000   326.70742    
    550000   290.60851    
    560000   303.16715    
    570000   294.13061    
    580000   314.25892    
    590000   283.20409    
    600000   279.40363    
    610000   356.80721    
    620000   314.6953     
    630000   302.91663    
    640000   294.78345    
    650000   303.87397    
    660000   367.38773    
    670000   343.11805    
    680000   301.554      
    690000   282.02716    
    700000   290.35809    
    710000   372.67092    
    720000   294.94717    
    730000   290.78535    
    740000   303.85402    
    750000   333.54176    
    760000   271.88261    
    770000   289.59651    
    780000   307.57259    
    790000   343.79966    
    800000   315.91633    
    810000   326.28892    
    820000   332.36813    
    830000   317.4513     
    840000   330.28261    
    850000   290.44724    
    860000   299.09256    
    870000   310.19212    
    880000   317.14425    
    890000   298.40456    
    900000   362.36274    
    910000   279.20888    
    920000   296.15282    
    930000   282.97992    
    940000   325.23517    
    950000   295.38656    
    960000   300.0955     
    970000   287.2869     
    980000   329.02841    
    990000   262.54443    
   1000000   278.89298    
Loop time of 25.5289 on 1 procs for 1000000 steps with 100 atoms

Performance: 3384.395 ns/day, 0.007 hours/ns, 39171.238 timesteps/s, 3.917 Matom-step/s
96.3% CPU use with 1 MPI tasks x no OpenMP threads

MPI task timing breakdown:
Section |  min time  |  avg time  |  max time  |%varavg| %total
---------------------------------------------------------------
Pair    | 7.3975     | 7.3975     | 7.3975     |   0.0 | 28.98
Bond    | 12.614     | 12.614     | 12.614     |   0.0 | 49.41
Neigh   | 2.008      | 2.008      | 2.008      |   0.0 |  7.87
Comm    | 0.19421    | 0.19421    | 0.19421    |   0.0 |  0.76
Output  | 0.0023974  | 0.0023974  | 0.0023974  |   0.0 |  0.01
Modify  | 2.9853     | 2.9853     | 2.9853     |   0.0 | 11.69
Other   |            | 0.3275     |            |       |  1.28

Nlocal:            100 ave         100 max         100 min
Histogram: 1 0 0 0 0 0 0 0 0 0
Nghost:              0 ave           0 max           0 min
Histogram: 1 0 0 0 0 0 0 0 0 0
Neighs:            651 ave         651 max         651 min
Histogram: 1 0 0 0 0 0 0 0 0 0
FullNghs:            0 ave           0 max           0 min
Histogram: 1 0 0 0 0 0 0 0 0 0

Total # of neighbors = 651
Ave neighs/atom = 6.51
Ave special neighs/atom = 5.88
Neighbor list builds = 37904
Dangerous builds = 51
unfix 1
unfix 2
write_restart 	restart.${simname}.dreiding1
write_restart 	restart.InitialFile.dreiding1
System init for write_restart ...
Generated 0 of 3 mixed pair_coeff terms from geometric mixing rule


#####################################################
# Define Settings
compute eng all pe/atom
compute eatoms all reduce sum c_eng

#####################################################
# Minimization

dump mydmp all atom 100 dump.lammpstrj

reset_timestep 0
fix 1 all nvt temp 500.0 500.0 100.0
thermo 20
thermo_style custom step pe lx ly lz press pxx pyy pzz c_eatoms
min_style cg
minimize 1e-25 1e-25 500000 1000000
Switching to 'neigh_modify every 1 delay 0 check yes' setting during minimization
Generated 0 of 3 mixed pair_coeff terms from geometric mixing rule
Per MPI rank memory allocation (min/avg/max) = 9.275 | 9.275 | 9.275 Mbytes
   Step         PotEng           Lx             Ly             Lz           Press           Pxx            Pyy            Pzz          c_eatoms   
         0   101.5443       158.5          158.5          158.5         -1.7991158     -1.8825927     -5.5896643      2.0749097      101.5443     
        20   26.218084      158.5          158.5          158.5          0.98135268     0.8483836      1.0035456      1.0921288      26.218084    
        40   21.027301      158.5          158.5          158.5          0.95358927     0.98001306     0.79641361     1.0843411      21.027301    
        60   17.841111      158.5          158.5          158.5          0.95638824     1.0177354      0.95835034     0.89307898     17.841111    
        80   15.788161      158.5          158.5          158.5          0.94016508     0.95528501     1.0056654      0.85954486     15.788161    
       100   14.525238      158.5          158.5          158.5          0.84014286     0.90796972     0.8143973      0.79806156     14.525238    
       120   13.889848      158.5          158.5          158.5          0.83432358     0.9367815      0.78840192     0.77778732     13.889848    
       140   13.462296      158.5          158.5          158.5          0.90888244     0.92791998     0.88321746     0.91550987     13.462296    
       160   13.10109       158.5          158.5          158.5          0.802755       0.83694657     0.84131126     0.73000716     13.10109     
       180   12.785594      158.5          158.5          158.5          0.76244108     0.78380656     0.80776407     0.6957526      12.785594    
       200   12.482974      158.5          158.5          158.5          0.86613971     0.94580132     0.84595627     0.80666155     12.482974    
       220   12.226126      158.5          158.5          158.5          0.83478825     0.90945345     0.90073366     0.69417762     12.226126    
       240   12.014386      158.5          158.5          158.5          0.83582015     0.87491148     0.85588794     0.77666103     12.014386    
       260   11.8132        158.5          158.5          158.5          0.80103721     0.8684178      0.83415467     0.70053916     11.8132      
       280   11.534753      158.5          158.5          158.5          0.85471371     0.92872388     0.8521804      0.78323684     11.534753    
       300   11.307672      158.5          158.5          158.5          0.88881522     0.94170903     0.90400972     0.8207269      11.307672    
       320   11.240783      158.5          158.5          158.5          0.79405387     0.8506739      0.7945431      0.73694461     11.240783    
       340   11.167381      158.5          158.5          158.5          0.90411819     0.95909278     0.92100209     0.83225971     11.167381    
       360   11.04375       158.5          158.5          158.5          0.86963476     0.95635884     0.84426939     0.80827605     11.04375     
       380   10.888879      158.5          158.5          158.5          0.91181183     0.99741558     0.90752076     0.83049914     10.888879    
       400   10.801222      158.5          158.5          158.5          0.9093757      0.98327103     0.93418717     0.81066889     10.801222    
       420   10.730221      158.5          158.5          158.5          0.92235451     0.97265442     0.93604743     0.85836169     10.730221    
       440   10.674641      158.5          158.5          158.5          0.85419912     0.93207973     0.85595838     0.77455924     10.674641    
       460   10.599711      158.5          158.5          158.5          0.89064548     0.95475238     0.89461626     0.8225678      10.599711    
       480   10.460341      158.5          158.5          158.5          0.8604885      0.89213839     0.909758       0.7795691      10.460341    
       500   10.354586      158.5          158.5          158.5          0.8695253      0.9291068      0.88774487     0.79172423     10.354586    
       520   10.204032      158.5          158.5          158.5          0.90236618     0.97955035     0.92402467     0.80352351     10.204032    
       540   10.082669      158.5          158.5          158.5          0.91363395     0.95417109     0.95842315     0.82830762     10.082669    
       560   9.9418168      158.5          158.5          158.5          0.8661787      0.8796925      0.88555794     0.83328564     9.9418168    
       580   9.8462523      158.5          158.5          158.5          0.9185054      0.99754457     0.93613909     0.82183253     9.8462523    
       600   9.8004851      158.5          158.5          158.5          0.87681208     0.94987857     0.89033804     0.79021962     9.8004851    
       620   9.7909148      158.5          158.5          158.5          0.90932889     0.98241044     0.90626973     0.8393065      9.7909148    
       640   9.7769844      158.5          158.5          158.5          0.918645       0.96888823     0.93880914     0.84823762     9.7769844    
       660   9.7661018      158.5          158.5          158.5          0.91387087     0.98460137     0.92102725     0.835984       9.7661018    
       680   9.7449973      158.5          158.5          158.5          0.89769578     0.97088272     0.89276524     0.82943939     9.7449973    
       700   9.7013053      158.5          158.5          158.5          0.88150716     0.9268353      0.91437365     0.80331255     9.7013053    
       720   9.6477285      158.5          158.5          158.5          0.91570652     0.96995574     0.90632373     0.87084009     9.6477285    
       740   9.6142144      158.5          158.5          158.5          0.88072166     0.93627296     0.90187796     0.80401406     9.6142144    
       760   9.5692511      158.5          158.5          158.5          0.89426681     0.95083047     0.91243724     0.81953272     9.5692511    
       780   9.5108257      158.5          158.5          158.5          0.88880234     0.94789917     0.89281769     0.82569015     9.5108257    
       800   9.475124       158.5          158.5          158.5          0.88910803     0.95719673     0.88071537     0.82941199     9.475124     
       820   9.4501378      158.5          158.5          158.5          0.89502227     0.98412785     0.88502256     0.81591641     9.4501378    
       840   9.4391403      158.5          158.5          158.5          0.89403002     0.95958877     0.89730691     0.82519439     9.4391403    
       860   9.4277185      158.5          158.5          158.5          0.8965865      0.96399939     0.9016068      0.82415333     9.4277185    
       880   9.4227323      158.5          158.5          158.5          0.88661014     0.9582798      0.89843916     0.80311147     9.4227323    
       900   9.415707       158.5          158.5          158.5          0.90433343     0.97160235     0.90771191     0.83368602     9.415707     
       920   9.4138959      158.5          158.5          158.5          0.89675481     0.96568211     0.902787       0.82179532     9.4138959    
       940   9.4113678      158.5          158.5          158.5          0.89999798     0.96770753     0.90777423     0.82451217     9.4113678    
       960   9.4063406      158.5          158.5          158.5          0.90847038     0.97392308     0.90265397     0.8488341      9.4063406    
       980   9.3995228      158.5          158.5          158.5          0.91998989     0.98449897     0.92821127     0.84725942     9.3995228    
      1000   9.3933943      158.5          158.5          158.5          0.92418619     0.98907848     0.9314276      0.8520525      9.3933943    
      1020   9.3841075      158.5          158.5          158.5          0.92608445     0.98453884     0.93197538     0.86173912     9.3841075    
      1040   9.3774035      158.5          158.5          158.5          0.92629138     0.98644469     0.93374201     0.85868743     9.3774035    
      1060   9.3694247      158.5          158.5          158.5          0.94535999     1.0080105      0.94976245     0.87830707     9.3694247    
      1080   9.361113       158.5          158.5          158.5          0.95650585     1.0178511      0.95136104     0.90030539     9.361113     
      1100   9.3492027      158.5          158.5          158.5          0.94511428     0.99782767     0.95772332     0.87979185     9.3492027    
      1120   9.3402858      158.5          158.5          158.5          0.93659961     1.0151021      0.9310031      0.86369366     9.3402858    
      1140   9.3308326      158.5          158.5          158.5          0.96442701     1.0299417      0.96729872     0.89604057     9.3308326    
      1160   9.3216528      158.5          158.5          158.5          0.96518722     1.0274934      0.96610268     0.90196557     9.3216528    
      1180   9.301434       158.5          158.5          158.5          0.92837835     0.99887812     0.92748481     0.85877213     9.301434     
      1200   9.2866895      158.5          158.5          158.5          0.94471496     1.0218834      0.93752783     0.87473359     9.2866895    
      1220   9.2803837      158.5          158.5          158.5          0.93187579     1.006644       0.93080599     0.85817741     9.2803837    
      1240   9.2736214      158.5          158.5          158.5          0.9460638      1.0248944      0.93853425     0.87476271     9.2736214    
      1260   9.2693201      158.5          158.5          158.5          0.95378002     1.0267614      0.94712204     0.88745663     9.2693201    
      1280   9.2660078      158.5          158.5          158.5          0.94669637     1.0160396      0.94380984     0.88023964     9.2660078    
      1300   9.2636363      158.5          158.5          158.5          0.9530482      1.0206387      0.94984445     0.88866143     9.2636363    
      1320   9.2602741      158.5          158.5          158.5          0.94885121     1.0177157      0.94710081     0.88173712     9.2602741    
      1340   9.2583906      158.5          158.5          158.5          0.94768352     1.0137794      0.95356137     0.87570982     9.2583906    
      1360   9.2565132      158.5          158.5          158.5          0.94877457     1.0159092      0.94740798     0.88300649     9.2565132    
      1380   9.2544434      158.5          158.5          158.5          0.94650511     1.0118255      0.94527137     0.88241849     9.2544434    
      1400   9.2499331      158.5          158.5          158.5          0.94363255     1.0112527      0.94209385     0.87755113     9.2499331    
      1420   9.2403723      158.5          158.5          158.5          0.93184718     0.99786841     0.93372754     0.86394558     9.2403723    
      1440   9.2354076      158.5          158.5          158.5          0.93232646     1.0012053      0.93541926     0.86035486     9.2354076    
      1460   9.2327878      158.5          158.5          158.5          0.94236821     1.012391       0.9436862      0.87102742     9.2327878    
      1480   9.2291206      158.5          158.5          158.5          0.93856301     1.0019998      0.94236482     0.87132444     9.2291206    
      1500   9.2223972      158.5          158.5          158.5          0.93454683     1.002259       0.93953732     0.8618442      9.2223972    
      1520   9.2210976      158.5          158.5          158.5          0.93377925     1.0024276      0.93430755     0.86460263     9.2210976    
      1540   9.2191129      158.5          158.5          158.5          0.92919409     0.99826686     0.92702629     0.86228914     9.2191129    
      1560   9.2163469      158.5          158.5          158.5          0.93069024     0.99970975     0.93153118     0.86082981     9.2163469    
      1580   9.2138169      158.5          158.5          158.5          0.92569056     0.99376254     0.92653435     0.85677479     9.2138169    
      1600   9.2092577      158.5          158.5          158.5          0.93343389     1.0006071      0.93644648     0.86324811     9.2092577    
      1620   9.2047554      158.5          158.5          158.5          0.94478138     1.0218472      0.93434127     0.87815569     9.2047554    
      1640   9.200873       158.5          158.5          158.5          0.94246337     1.010962       0.94067033     0.87575782     9.200873     
      1660   9.1988584      158.5          158.5          158.5          0.941013       1.0072801      0.94164096     0.87411789     9.1988584    
      1680   9.1957725      158.5          158.5          158.5          0.94727447     1.0118487      0.94264412     0.88733058     9.1957725    
      1700   9.1882271      158.5          158.5          158.5          0.95482951     1.0163742      0.96117123     0.88694309     9.1882271    
      1720   9.1750166      158.5          158.5          158.5          0.95824877     1.0017037      0.97021078     0.90283177     9.1750166    
      1740   9.1457183      158.5          158.5          158.5          0.9352821      0.9839496      0.93973538     0.88216132     9.1457183    
      1760   9.1197091      158.5          158.5          158.5          0.90694971     0.9501328      0.94609638     0.82461996     9.1197091    
      1780   9.0904533      158.5          158.5          158.5          0.91832149     0.98629887     0.91674403     0.85192156     9.0904533    
      1800   9.0749357      158.5          158.5          158.5          0.93168682     0.99906343     0.92915575     0.86684127     9.0749357    
      1820   9.0643041      158.5          158.5          158.5          0.94297996     1.0125284      0.94438967     0.87202182     9.0643041    
      1840   9.0504119      158.5          158.5          158.5          0.9407541      1.0088523      0.95175356     0.8616565      9.0504119    
      1860   9.0352826      158.5          158.5          158.5          0.93524614     0.99938944     0.94178015     0.86456882     9.0352826    
      1880   9.0226507      158.5          158.5          158.5          0.95605621     1.0162981      0.97256043     0.87931011     9.0226507    
      1900   9.0158993      158.5          158.5          158.5          0.94444453     1.0086953      0.94935995     0.87527834     9.0158993    
      1920   9.0071752      158.5          158.5          158.5          0.95004487     1.0204631      0.94734649     0.88232498     9.0071752    
      1940   8.9999571      158.5          158.5          158.5          0.93527056     1.0038269      0.93741816     0.86456663     8.9999571    
      1960   8.9935308      158.5          158.5          158.5          0.93796465     1.0064491      0.93011313     0.87733167     8.9935308    
      1980   8.9881282      158.5          158.5          158.5          0.94175703     1.0097515      0.9373238      0.87819575     8.9881282    
      2000   8.982978       158.5          158.5          158.5          0.93782388     0.99849543     0.93899624     0.87597997     8.982978     
      2020   8.9781662      158.5          158.5          158.5          0.93607648     0.99987027     0.93992723     0.86843194     8.9781662    
      2040   8.9741163      158.5          158.5          158.5          0.9384833      1.002688       0.93970481     0.87305711     8.9741163    
      2060   8.9699186      158.5          158.5          158.5          0.93902382     1.0135834      0.9417006      0.86178745     8.9699186    
      2080   8.9670735      158.5          158.5          158.5          0.93151548     1.0008551      0.9367583      0.856933       8.9670735    
      2100   8.9658311      158.5          158.5          158.5          0.93677733     1.001671       0.93943533     0.86922564     8.9658311    
      2120   8.965407       158.5          158.5          158.5          0.93301418     1.0004612      0.93667394     0.86190744     8.965407     
      2140   8.9638502      158.5          158.5          158.5          0.93962441     1.0077525      0.94189562     0.86922513     8.9638502    
      2160   8.9621397      158.5          158.5          158.5          0.93890866     1.0045229      0.9392494      0.87295363     8.9621397    
      2180   8.9603107      158.5          158.5          158.5          0.93857668     1.0027362      0.94334416     0.86964968     8.9603107    
      2200   8.9558832      158.5          158.5          158.5          0.93872052     1.0073669      0.93880806     0.86998662     8.9558832    
      2220   8.9532593      158.5          158.5          158.5          0.9381001      1.0082607      0.93509966     0.87093994     8.9532593    
      2240   8.9484504      158.5          158.5          158.5          0.93898958     1.0076274      0.9368769      0.87246438     8.9484504    
      2260   8.9403754      158.5          158.5          158.5          0.9545168      1.0193783      0.95544676     0.88872535     8.9403754    
      2280   8.9272054      158.5          158.5          158.5          0.95993162     1.0215339      0.97161359     0.88664742     8.9272054    
      2300   8.9014715      158.5          158.5          158.5          0.9783922      1.0499991      0.96938305     0.91579446     8.9014715    
      2320   8.8798434      158.5          158.5          158.5          0.95244334     1.0372994      0.94237909     0.87765154     8.8798434    
      2340   8.8635701      158.5          158.5          158.5          0.93776193     1.0140278      0.9423644      0.85689357     8.8635701    
      2360   8.8549928      158.5          158.5          158.5          0.93782117     1.0139011      0.93769043     0.86187197     8.8549928    
      2380   8.8431333      158.5          158.5          158.5          0.95207923     1.0362019      0.94319229     0.87684346     8.8431333    
      2400   8.8322447      158.5          158.5          158.5          0.93700559     1.0074569      0.93298307     0.87057681     8.8322447    
      2420   8.8272617      158.5          158.5          158.5          0.94408454     1.0179456      0.93898397     0.87532409     8.8272617    
      2440   8.8236081      158.5          158.5          158.5          0.94346562     1.0198539      0.94296379     0.8675792      8.8236081    
      2460   8.8207155      158.5          158.5          158.5          0.95517705     1.0321718      0.94697902     0.88638038     8.8207155    
      2480   8.8146463      158.5          158.5          158.5          0.949505       1.0275543      0.94916191     0.87179874     8.8146463    
      2500   8.8099532      158.5          158.5          158.5          0.9541516      1.0310645      0.94610945     0.88528089     8.8099532    
      2520   8.8043678      158.5          158.5          158.5          0.94991233     1.0140029      0.94727245     0.88846168     8.8043678    
      2540   8.7981829      158.5          158.5          158.5          0.96034515     1.0324247      0.95778177     0.89082898     8.7981829    
      2560   8.7918908      158.5          158.5          158.5          0.96707339     1.0302338      0.95611959     0.91486673     8.7918908    
      2580   8.7865499      158.5          158.5          158.5          0.94971097     1.0195763      0.94685562     0.88270099     8.7865499    
      2600   8.7822874      158.5          158.5          158.5          0.94507845     1.0064328      0.94704995     0.88175259     8.7822874    
      2620   8.7791139      158.5          158.5          158.5          0.95457582     1.023161       0.95318642     0.88738002     8.7791139    
      2640   8.7755026      158.5          158.5          158.5          0.95218386     1.0278316      0.95251493     0.87620506     8.7755026    
      2660   8.7698612      158.5          158.5          158.5          0.95305737     1.0157525      0.95184684     0.89157275     8.7698612    
      2680   8.7644291      158.5          158.5          158.5          0.94911957     1.0169182      0.95116184     0.87927866     8.7644291    
      2700   8.7614364      158.5          158.5          158.5          0.94271133     1.0138311      0.94372243     0.87058052     8.7614364    
      2720   8.7608721      158.5          158.5          158.5          0.94421483     1.0112703      0.94829134     0.87308285     8.7608721    
      2740   8.7597966      158.5          158.5          158.5          0.94424227     1.0081873      0.94487081     0.87966867     8.7597966    
      2760   8.7583916      158.5          158.5          158.5          0.94172275     1.0087711      0.9428485      0.87354863     8.7583916    
      2780   8.7566153      158.5          158.5          158.5          0.94005459     1.0087329      0.94222036     0.8692105      8.7566153    
      2800   8.7545349      158.5          158.5          158.5          0.9406006      1.0103948      0.940034       0.871373       8.7545349    
      2820   8.7510642      158.5          158.5          158.5          0.94859154     1.0217084      0.9458639      0.87820232     8.7510642    
      2840   8.7468444      158.5          158.5          158.5          0.95886563     1.0294947      0.95025937     0.89684288     8.7468444    
      2860   8.7418126      158.5          158.5          158.5          0.95332987     1.0287463      0.94507752     0.88616577     8.7418126    
      2880   8.7389212      158.5          158.5          158.5          0.95261373     1.0212427      0.95032301     0.88627551     8.7389212    
      2900   8.7355844      158.5          158.5          158.5          0.93828607     1.0050715      0.93907024     0.87071648     8.7355844    
      2920   8.7306118      158.5          158.5          158.5          0.9330768      1.0089742      0.93455915     0.8556971      8.7306118    
      2940   8.7263882      158.5          158.5          158.5          0.92459776     0.98595263     0.929295       0.85854566     8.7263882    
      2960   8.7214982      158.5          158.5          158.5          0.93061898     0.99994808     0.93087811     0.86103074     8.7214982    
      2980   8.7168776      158.5          158.5          158.5          0.91669141     0.98528775     0.92458727     0.84019921     8.7168776    
      3000   8.7095175      158.5          158.5          158.5          0.92547428     0.99450255     0.93501695     0.84690335     8.7095175    
      3020   8.7071966      158.5          158.5          158.5          0.92661637     1.006575       0.92735329     0.84592078     8.7071966    
      3040   8.7053585      158.5          158.5          158.5          0.92778998     0.99715285     0.93220672     0.85401037     8.7053585    
      3060   8.7035485      158.5          158.5          158.5          0.92843938     0.98957191     0.93358351     0.86216271     8.7035485    
      3080   8.702057       158.5          158.5          158.5          0.92962206     0.9984152      0.93230208     0.85814891     8.702057     
      3100   8.6999622      158.5          158.5          158.5          0.93312548     0.998796       0.93381877     0.86676168     8.6999622    
      3120   8.6985344      158.5          158.5          158.5          0.93982798     1.0031745      0.93925469     0.8770547      8.6985344    
      3140   8.6971376      158.5          158.5          158.5          0.94005375     1.0066589      0.94045424     0.87304814     8.6971376    
      3160   8.6958141      158.5          158.5          158.5          0.94373044     1.0110375      0.9446918      0.87546197     8.6958141    
      3180   8.692959       158.5          158.5          158.5          0.94078315     1.0085828      0.94220458     0.87156205     8.692959     
      3200   8.689374       158.5          158.5          158.5          0.93001068     1.0018692      0.93079498     0.85736788     8.689374     
      3220   8.686846       158.5          158.5          158.5          0.93065237     0.99473886     0.93655332     0.86066492     8.686846     
      3240   8.6849375      158.5          158.5          158.5          0.93772492     1.0034042      0.94082381     0.8689467      8.6849375    
      3260   8.6838324      158.5          158.5          158.5          0.94201325     1.005783       0.94662515     0.87363164     8.6838324    
      3280   8.6821858      158.5          158.5          158.5          0.93570617     1.0006707      0.94125806     0.86518975     8.6821858    
      3300   8.679026       158.5          158.5          158.5          0.94657279     1.014762       0.95156382     0.87339257     8.679026     
      3320   8.6772304      158.5          158.5          158.5          0.92842302     0.99164748     0.93347353     0.86014805     8.6772304    
      3340   8.6763235      158.5          158.5          158.5          0.93915882     1.0031748      0.94413327     0.87016841     8.6763235    
      3360   8.6755691      158.5          158.5          158.5          0.93488562     0.99971506     0.94118535     0.86375645     8.6755691    
      3380   8.6744302      158.5          158.5          158.5          0.93353109     0.99414612     0.94016051     0.86628664     8.6744302    
      3400   8.6728666      158.5          158.5          158.5          0.93576622     1.006683       0.93474724     0.86586846     8.6728666    
      3420   8.6705007      158.5          158.5          158.5          0.93553174     0.99854141     0.93664509     0.87140871     8.6705007    
      3440   8.6682554      158.5          158.5          158.5          0.95036019     1.0216491      0.94300223     0.88642925     8.6682554    
      3460   8.6669483      158.5          158.5          158.5          0.9416367      1.0103339      0.93854129     0.87603488     8.6669483    
      3480   8.6651974      158.5          158.5          158.5          0.94405289     1.0079941      0.94324074     0.88092386     8.6651974    
      3500   8.6638996      158.5          158.5          158.5          0.9377437      1.0048668      0.9393674      0.86899687     8.6638996    
      3520   8.6621833      158.5          158.5          158.5          0.93970734     1.0068534      0.94138176     0.87088684     8.6621833    
      3540   8.6606677      158.5          158.5          158.5          0.93600199     1.0068613      0.93753467     0.86360999     8.6606677    
      3560   8.658668       158.5          158.5          158.5          0.93385225     0.99902067     0.939178       0.86335809     8.658668     
      3580   8.6567001      158.5          158.5          158.5          0.93198473     1.0062716      0.93408512     0.85559751     8.6567001    
      3600   8.6545209      158.5          158.5          158.5          0.93550487     1.0083713      0.94096538     0.85717794     8.6545209    
      3620   8.6534995      158.5          158.5          158.5          0.93342739     1.003008       0.93837893     0.8588952      8.6534995    
      3640   8.6518749      158.5          158.5          158.5          0.93965761     1.0058583      0.94514826     0.86796626     8.6518749    
      3660   8.6505935      158.5          158.5          158.5          0.93673703     1.0031672      0.94007698     0.86696689     8.6505935    
      3680   8.6496752      158.5          158.5          158.5          0.93172806     0.99949954     0.9377259      0.85795873     8.6496752    
      3700   8.6485882      158.5          158.5          158.5          0.93737366     1.0045761      0.93948924     0.86805565     8.6485882    
      3720   8.6470933      158.5          158.5          158.5          0.94118763     1.0113291      0.94103633     0.87119747     8.6470933    
      3740   8.645509       158.5          158.5          158.5          0.9452033      1.0105641      0.94377173     0.88127407     8.645509     
      3760   8.6430587      158.5          158.5          158.5          0.94532779     1.0107848      0.94191237     0.88328622     8.6430587    
      3780   8.6408882      158.5          158.5          158.5          0.94603484     1.0074546      0.9474119      0.88323804     8.6408882    
      3800   8.6394164      158.5          158.5          158.5          0.94280117     1.0057917      0.9425012      0.88011067     8.6394164    
      3820   8.6372684      158.5          158.5          158.5          0.93770878     0.99580867     0.94189812     0.87541957     8.6372684    
      3840   8.6346693      158.5          158.5          158.5          0.93321476     0.99958267     0.9370635      0.86299813     8.6346693    
      3860   8.6326955      158.5          158.5          158.5          0.93520881     1.0019827      0.94116525     0.86247848     8.6326955    
      3880   8.6304084      158.5          158.5          158.5          0.9345         0.99693156     0.93839828     0.86817016     8.6304084    
      3900   8.6280067      158.5          158.5          158.5          0.93098578     0.99592307     0.93415222     0.86288205     8.6280067    
      3920   8.6273212      158.5          158.5          158.5          0.93625915     0.99973809     0.9433156      0.86572378     8.6273212    
      3940   8.6253053      158.5          158.5          158.5          0.93540302     0.99937176     0.9397486      0.8670887      8.6253053    
      3960   8.6230168      158.5          158.5          158.5          0.94042038     1.0054912      0.94180547     0.87396445     8.6230168    
      3980   8.621763       158.5          158.5          158.5          0.94284247     1.0067978      0.9437861      0.87794351     8.621763     
      4000   8.620362       158.5          158.5          158.5          0.94220927     1.0053917      0.94362421     0.87761195     8.620362     
      4020   8.6191967      158.5          158.5          158.5          0.94235597     1.005783       0.94155064     0.87973427     8.6191967    
      4040   8.6179369      158.5          158.5          158.5          0.94167218     1.0074122      0.94428751     0.87331686     8.6179369    
      4060   8.6163356      158.5          158.5          158.5          0.94440891     1.0092672      0.94385981     0.8800997      8.6163356    
      4080   8.6139515      158.5          158.5          158.5          0.94312773     1.0116546      0.94157374     0.87615482     8.6139515    
      4100   8.6127556      158.5          158.5          158.5          0.93958727     1.0061615      0.94116164     0.87143869     8.6127556    
      4120   8.6118444      158.5          158.5          158.5          0.93878836     1.0039275      0.94140113     0.87103643     8.6118444    
      4140   8.610963       158.5          158.5          158.5          0.93577172     1.0067095      0.94126907     0.85933662     8.610963     
      4160   8.6093805      158.5          158.5          158.5          0.92956473     0.99609341     0.93549464     0.85710614     8.6093805    
      4180   8.6045784      158.5          158.5          158.5          0.93609892     1.0036809      0.94978976     0.85482611     8.6045784    
      4200   8.5885374      158.5          158.5          158.5          0.89339005     0.96610725     0.91082276     0.80324015     8.5885374    
      4220   8.5821015      158.5          158.5          158.5          0.92680205     0.99792784     0.94561431     0.83686399     8.5821015    
      4240   8.5790755      158.5          158.5          158.5          0.92705067     0.99663876     0.93399374     0.8505195      8.5790755    
      4260   8.5773052      158.5          158.5          158.5          0.93462184     1.0080194      0.94136151     0.85448459     8.5773052    
      4280   8.5755709      158.5          158.5          158.5          0.94414992     1.0094888      0.944233       0.87872792     8.5755709    
      4300   8.5743186      158.5          158.5          158.5          0.94054059     1.0078083      0.94013338     0.8736801      8.5743186    
      4320   8.5734188      158.5          158.5          158.5          0.94528683     1.0163981      0.94668439     0.87277804     8.5734188    
      4340   8.5721187      158.5          158.5          158.5          0.94487578     1.0115318      0.94034164     0.88275393     8.5721187    
      4360   8.5712527      158.5          158.5          158.5          0.93946306     1.0044714      0.94166486     0.87225296     8.5712527    
      4380   8.5703548      158.5          158.5          158.5          0.93822434     1.0035008      0.94016895     0.87100324     8.5703548    
      4400   8.5696223      158.5          158.5          158.5          0.93787893     1.0034391      0.94038283     0.86981491     8.5696223    
      4420   8.5689085      158.5          158.5          158.5          0.94075726     1.0076655      0.94216827     0.87243795     8.5689085    
      4440   8.5682095      158.5          158.5          158.5          0.93903687     1.0068816      0.94062187     0.86960714     8.5682095    
      4460   8.5677124      158.5          158.5          158.5          0.94025847     1.0068486      0.94409396     0.86983285     8.5677124    
      4480   8.5661086      158.5          158.5          158.5          0.93436295     0.99877846     0.9372742      0.8670362      8.5661086    
      4500   8.5640671      158.5          158.5          158.5          0.93040901     0.99933237     0.938989       0.85290567     8.5640671    
      4520   8.5631729      158.5          158.5          158.5          0.93183774     0.99618705     0.94125231     0.85807387     8.5631729    
      4540   8.5626726      158.5          158.5          158.5          0.93325081     1.0001314      0.9402411      0.85937997     8.5626726    
      4560   8.5619709      158.5          158.5          158.5          0.9349032      1.0035011      0.93906433     0.86214421     8.5619709    
      4580   8.5615358      158.5          158.5          158.5          0.93994594     1.0042871      0.94354171     0.87200897     8.5615358    
      4600   8.5604822      158.5          158.5          158.5          0.93986782     1.0089064      0.94017491     0.87052218     8.5604822    
      4620   8.5598219      158.5          158.5          158.5          0.93880634     1.0045522      0.94110896     0.87075788     8.5598219    
      4640   8.5590504      158.5          158.5          158.5          0.94304671     1.0062419      0.94757366     0.87532461     8.5590504    
      4660   8.5576806      158.5          158.5          158.5          0.94493373     1.0112678      0.94144633     0.88208709     8.5576806    
      4680   8.5545318      158.5          158.5          158.5          0.94675375     1.0187504      0.93784793     0.88366292     8.5545318    
      4700   8.5481214      158.5          158.5          158.5          0.95109295     1.0104581      0.94201306     0.90080765     8.5481214    
      4720   8.5341826      158.5          158.5          158.5          0.96297957     1.0370423      0.95635929     0.8955371      8.5341826    
      4740   8.4923682      158.5          158.5          158.5          0.89019048     0.99469495     0.85580811     0.82006837     8.4923682    
      4760   8.4590904      158.5          158.5          158.5          0.89678977     0.98982073     0.90567557     0.794873       8.4590904    
      4780   8.4402384      158.5          158.5          158.5          0.88044806     0.98460688     0.89572974     0.76100757     8.4402384    
      4800   8.4234148      158.5          158.5          158.5          0.88720192     0.98410874     0.91329886     0.76419817     8.4234148    
      4820   8.410494       158.5          158.5          158.5          0.89459992     0.99054455     0.93339253     0.75986269     8.410494     
      4840   8.3941935      158.5          158.5          158.5          0.89770024     0.98977161     0.91416944     0.78915968     8.3941935    
      4860   8.3792278      158.5          158.5          158.5          0.93143956     1.0154306      0.94179088     0.83709718     8.3792278    
      4880   8.367425       158.5          158.5          158.5          0.92774102     1.0100437      0.93628614     0.83689325     8.367425     
      4900   8.3547444      158.5          158.5          158.5          0.92499676     1.0120468      0.93793079     0.8250127      8.3547444    
      4920   8.3422343      158.5          158.5          158.5          0.93629576     1.0097581      0.93854761     0.86058156     8.3422343    
      4940   8.3364365      158.5          158.5          158.5          0.93387439     1.00297        0.93520909     0.86344405     8.3364365    
      4960   8.333355       158.5          158.5          158.5          0.93804464     1.0062008      0.94188302     0.86605005     8.333355     
      4980   8.3307088      158.5          158.5          158.5          0.93777082     1.0036516      0.93680904     0.87285186     8.3307088    
      5000   8.3273645      158.5          158.5          158.5          0.93758028     1.0041778      0.94232356     0.86623949     8.3273645    
      5020   8.3249158      158.5          158.5          158.5          0.93060717     0.99714641     0.93486687     0.85980823     8.3249158    
      5040   8.3233239      158.5          158.5          158.5          0.93439487     1.0010307      0.93650844     0.86564542     8.3233239    
      5060   8.3224635      158.5          158.5          158.5          0.93110116     0.99651437     0.93555049     0.86123863     8.3224635    
      5080   8.3216907      158.5          158.5          158.5          0.92993718     0.99650295     0.93781388     0.85549472     8.3216907    
      5100   8.3209363      158.5          158.5          158.5          0.93058239     0.99448613     0.93881889     0.85844215     8.3209363    
      5120   8.3207453      158.5          158.5          158.5          0.93198483     0.99990292     0.93592465     0.86012693     8.3207453    
      5140   8.3204026      158.5          158.5          158.5          0.93083622     1.0009313      0.9304368      0.86114051     8.3204026    
      5160   8.3196045      158.5          158.5          158.5          0.93348897     0.99865524     0.93386905     0.86794263     8.3196045    
      5180   8.3185051      158.5          158.5          158.5          0.933156       0.99274491     0.93481679     0.8719063      8.3185051    
      5200   8.3170646      158.5          158.5          158.5          0.93697782     1.002772       0.93958194     0.86857947     8.3170646    
      5220   8.3160467      158.5          158.5          158.5          0.93105366     0.99630458     0.93929376     0.85756264     8.3160467    
      5240   8.3146184      158.5          158.5          158.5          0.92560997     0.99253823     0.92635804     0.85793363     8.3146184    
      5260   8.3136357      158.5          158.5          158.5          0.93446372     1.001095       0.93119048     0.87110575     8.3136357    
      5280   8.3115943      158.5          158.5          158.5          0.9323902      0.99503536     0.93542269     0.86671254     8.3115943    
      5300   8.3101052      158.5          158.5          158.5          0.93748223     1.0053877      0.93949902     0.86755996     8.3101052    
      5320   8.3089838      158.5          158.5          158.5          0.94054394     1.0037024      0.93828278     0.87964663     8.3089838    
      5340   8.3065243      158.5          158.5          158.5          0.93644181     1.0038339      0.92677958     0.87871195     8.3065243    
      5360   8.3023881      158.5          158.5          158.5          0.93359462     0.9976663      0.92517986     0.87793771     8.3023881    
      5380   8.2987173      158.5          158.5          158.5          0.92972747     0.99218386     0.9365119      0.86048665     8.2987173    
      5400   8.2930512      158.5          158.5          158.5          0.95047989     1.021915       0.94967249     0.87985223     8.2930512    
      5420   8.2891458      158.5          158.5          158.5          0.93299955     0.99499326     0.94166838     0.86233699     8.2891458    
      5440   8.2869777      158.5          158.5          158.5          0.94776651     1.0080788      0.95270127     0.88251942     8.2869777    
      5460   8.2847353      158.5          158.5          158.5          0.94868419     1.0114804      0.94795218     0.88662005     8.2847353    
      5480   8.283091       158.5          158.5          158.5          0.95716492     1.0233444      0.95638418     0.89176622     8.283091     
      5500   8.2818807      158.5          158.5          158.5          0.95100206     1.0092151      0.95774731     0.88604379     8.2818807    
      5520   8.2805066      158.5          158.5          158.5          0.95397679     1.0168491      0.95754036     0.88754091     8.2805066    
      5540   8.2794122      158.5          158.5          158.5          0.94704127     1.0137364      0.94795801     0.87942946     8.2794122    
      5560   8.2785329      158.5          158.5          158.5          0.94526512     1.0113553      0.94499399     0.87944606     8.2785329    
      5580   8.2777021      158.5          158.5          158.5          0.94315312     1.0115853      0.94286566     0.87500841     8.2777021    
      5600   8.2767966      158.5          158.5          158.5          0.94048347     1.0093582      0.94143545     0.87065678     8.2767966    
      5620   8.2757484      158.5          158.5          158.5          0.94402605     1.0125152      0.94726446     0.87229845     8.2757484    
      5640   8.2744994      158.5          158.5          158.5          0.93824017     1.0089978      0.93850765     0.86721507     8.2744994    
      5660   8.2732606      158.5          158.5          158.5          0.94166594     1.0125629      0.94105331     0.87138161     8.2732606    
      5680   8.2725848      158.5          158.5          158.5          0.94009152     1.009945       0.94142148     0.86890805     8.2725848    
      5700   8.2720316      158.5          158.5          158.5          0.94256643     1.0116402      0.94667749     0.86938163     8.2720316    
      5720   8.2718382      158.5          158.5          158.5          0.93927039     1.0079688      0.94175618     0.86808623     8.2718382    
      5740   8.2711805      158.5          158.5          158.5          0.94074005     1.0122649      0.9407658      0.86918944     8.2711805    
      5760   8.2703592      158.5          158.5          158.5          0.93633791     1.0007469      0.93926015     0.86900669     8.2703592    
      5780   8.2697216      158.5          158.5          158.5          0.93725504     1.0038186      0.94359961     0.86434689     8.2697216    
      5800   8.2691982      158.5          158.5          158.5          0.94105705     1.0066758      0.94724637     0.86924893     8.2691982    
      5820   8.2683885      158.5          158.5          158.5          0.94063233     1.004941       0.9460444      0.87091157     8.2683885    
      5840   8.2675627      158.5          158.5          158.5          0.93791285     1.0035788      0.93744646     0.87271332     8.2675627    
      5860   8.2670224      158.5          158.5          158.5          0.94381949     1.0079577      0.94431962     0.87918112     8.2670224    
      5880   8.2662785      158.5          158.5          158.5          0.94697632     1.0099195      0.95174566     0.87926382     8.2662785    
      5900   8.2651206      158.5          158.5          158.5          0.9457919      1.0077421      0.94815864     0.881475       8.2651206    
      5920   8.263733       158.5          158.5          158.5          0.95071524     1.0113072      0.95617392     0.88466463     8.263733     
      5940   8.2614455      158.5          158.5          158.5          0.93459334     0.99988766     0.93229964     0.87159271     8.2614455    
      5960   8.2589808      158.5          158.5          158.5          0.9315975      1.0046087      0.92484148     0.86534229     8.2589808    
      5980   8.2569138      158.5          158.5          158.5          0.92416679     0.99504383     0.91672604     0.86073049     8.2569138    
      6000   8.2541032      158.5          158.5          158.5          0.9258355      0.98869074     0.93354554     0.85527021     8.2541032    
      6020   8.2524151      158.5          158.5          158.5          0.92887899     0.99846789     0.92346859     0.86470049     8.2524151    
      6040   8.2504778      158.5          158.5          158.5          0.93189144     0.99648298     0.92756224     0.87162909     8.2504778    
      6060   8.2484254      158.5          158.5          158.5          0.93081612     0.99455765     0.92824976     0.86964096     8.2484254    
      6080   8.2465547      158.5          158.5          158.5          0.93296587     0.99919609     0.93254447     0.86715704     8.2465547    
      6100   8.2447383      158.5          158.5          158.5          0.94493356     1.0115925      0.94402802     0.87918017     8.2447383    
      6120   8.2434797      158.5          158.5          158.5          0.93733948     1.0002375      0.93949977     0.87228121     8.2434797    
      6140   8.2421696      158.5          158.5          158.5          0.93327429     0.99924615     0.93083423     0.86974247     8.2421696    
      6160   8.2409189      158.5          158.5          158.5          0.92707449     0.99157051     0.92523267     0.86442029     8.2409189    
      6180   8.2395001      158.5          158.5          158.5          0.9361329      0.99928023     0.94111871     0.86799975     8.2395001    
      6200   8.2390674      158.5          158.5          158.5          0.93928103     1.0016583      0.94555927     0.87062549     8.2390674    
      6220   8.2387356      158.5          158.5          158.5          0.9361931      1.0008453      0.93804779     0.86968626     8.2387356    
      6240   8.2382542      158.5          158.5          158.5          0.93555886     0.99991454     0.93852978     0.86823227     8.2382542    
      6260   8.2375039      158.5          158.5          158.5          0.93575707     1.0013565      0.93725225     0.86866248     8.2375039    
      6280   8.2371977      158.5          158.5          158.5          0.93522197     1.0013154      0.93921667     0.86513386     8.2371977    
      6300   8.236923       158.5          158.5          158.5          0.9381294      1.0037338      0.94419971     0.86645472     8.236923     
      6320   8.2368198      158.5          158.5          158.5          0.93800868     1.0038672      0.94114878     0.86901008     8.2368198    
      6340   8.2366397      158.5          158.5          158.5          0.93582601     1.0028869      0.93624125     0.86834985     8.2366397    
      6360   8.23599        158.5          158.5          158.5          0.93713866     1.0071675      0.92959977     0.87464868     8.23599      
      6380   8.2349481      158.5          158.5          158.5          0.92974582     0.99950626     0.92783105     0.86190016     8.2349481    
      6400   8.2340417      158.5          158.5          158.5          0.93416619     0.99875619     0.93495585     0.86878652     8.2340417    
      6420   8.2331714      158.5          158.5          158.5          0.94274475     1.0061296      0.94876797     0.87333668     8.2331714    
      6440   8.2317343      158.5          158.5          158.5          0.93259827     0.99713403     0.93694819     0.86371258     8.2317343    
      6460   8.2303287      158.5          158.5          158.5          0.92964273     1.0008448      0.92807642     0.860007       8.2303287    
      6480   8.2292193      158.5          158.5          158.5          0.93180664     0.99781214     0.9291475      0.86846029     8.2292193    
      6500   8.2270872      158.5          158.5          158.5          0.9437392      1.0065302      0.9416218      0.88306562     8.2270872    
      6520   8.2245722      158.5          158.5          158.5          0.95230839     1.0221404      0.96067464     0.87411012     8.2245722    
      6540   8.2212419      158.5          158.5          158.5          0.95273737     1.0169554      0.95561442     0.88564226     8.2212419    
      6560   8.2178152      158.5          158.5          158.5          0.94979438     1.0086058      0.94626666     0.89451069     8.2178152    
      6580   8.2146703      158.5          158.5          158.5          0.94628034     1.0100823      0.93424553     0.89451321     8.2146703    
      6600   8.2093989      158.5          158.5          158.5          0.92907904     0.98920177     0.93218011     0.86585524     8.2093989    
      6620   8.2068367      158.5          158.5          158.5          0.95093823     1.0142384      0.94847177     0.8901045      8.2068367    
      6640   8.2050971      158.5          158.5          158.5          0.94530691     1.0101655      0.94523174     0.88052345     8.2050971    
      6660   8.2028262      158.5          158.5          158.5          0.9507969      1.0105999      0.95085768     0.89093306     8.2028262    
      6680   8.2011833      158.5          158.5          158.5          0.94486513     1.0038802      0.95402467     0.87669056     8.2011833    
      6700   8.1994074      158.5          158.5          158.5          0.9485857      1.0127026      0.95114039     0.88191416     8.1994074    
      6720   8.1977817      158.5          158.5          158.5          0.94605816     1.0121763      0.95287042     0.87312772     8.1977817    
      6740   8.1966782      158.5          158.5          158.5          0.943653       1.0102437      0.94318821     0.87752712     8.1966782    
      6760   8.1958611      158.5          158.5          158.5          0.94192069     1.0070299      0.94792259     0.87080955     8.1958611    
      6780   8.1947583      158.5          158.5          158.5          0.94279696     1.0130168      0.94072944     0.87464465     8.1947583    
      6784   8.1946245      158.5          158.5          158.5          0.94403708     1.0127842      0.94265983     0.87666722     8.1946245    
Loop time of 0.642702 on 1 procs for 6784 steps with 100 atoms

79.3% CPU use with 1 MPI tasks x no OpenMP threads

Minimization stats:
  Stopping criterion = linesearch alpha is zero
  Energy initial, next-to-last, final = 
      101.544300410141   8.19462446794383   8.19462446794383
  Force two-norm initial, final = 301.64715 0.27820976
  Force max component initial, final = 58.048787 0.068857128
  Final line search alpha, max atom move = 1.0904498e-07 7.5085238e-09
  Iterations, force evaluations = 6784 13612

MPI task timing breakdown:
Section |  min time  |  avg time  |  max time  |%varavg| %total
---------------------------------------------------------------
Pair    | 0.29987    | 0.29987    | 0.29987    |   0.0 | 46.66
Bond    | 0.25656    | 0.25656    | 0.25656    |   0.0 | 39.92
Neigh   | 0.0087774  | 0.0087774  | 0.0087774  |   0.0 |  1.37
Comm    | 0.0023598  | 0.0023598  | 0.0023598  |   0.0 |  0.37
Output  | 0.039629   | 0.039629   | 0.039629   |   0.0 |  6.17
Modify  | 0          | 0          | 0          |   0.0 |  0.00
Other   |            | 0.0355     |            |       |  5.52

Nlocal:            100 ave         100 max         100 min
Histogram: 1 0 0 0 0 0 0 0 0 0
Nghost:              0 ave           0 max           0 min
Histogram: 1 0 0 0 0 0 0 0 0 0
Neighs:            644 ave         644 max         644 min
Histogram: 1 0 0 0 0 0 0 0 0 0
FullNghs:            0 ave           0 max           0 min
Histogram: 1 0 0 0 0 0 0 0 0 0

Total # of neighbors = 644
Ave neighs/atom = 6.44
Ave special neighs/atom = 5.88
Neighbor list builds = 117
Dangerous builds = 0

run 100000
Generated 0 of 3 mixed pair_coeff terms from geometric mixing rule
Per MPI rank memory allocation (min/avg/max) = 9.279 | 9.279 | 9.279 Mbytes
   Step         PotEng           Lx             Ly             Lz           Press           Pxx            Pyy            Pzz          c_eatoms   
      6784   8.1946245      158.5          158.5          158.5          0.94403708     1.0127842      0.94265983     0.87666722     8.1946245    
      6800   33.714459      158.5          158.5          158.5         -0.24850767     0.59062662    -2.0207982      0.68464853     33.714459    
      6820   59.019637      158.5          158.5          158.5          0.0087216217  -0.55058917     1.551004      -0.97425001     59.019637    
      6840   52.383146      158.5          158.5          158.5         -1.5411124     -2.2602598     -1.6278017     -0.73527562     52.383146    
      6860   48.750838      158.5          158.5          158.5         -1.3086591     -1.0744245     -4.020227       1.1686741      48.750838    
      6880   47.560304      158.5          158.5          158.5          0.78567472     1.8949668      0.50854209    -0.046484748    47.560304    
      6900   58.142292      158.5          158.5          158.5         -0.029009162    0.5034727      0.58512153    -1.1756217      58.142292    
      6920   55.627788      158.5          158.5          158.5         -0.30533018    -1.079582      -0.098216211    0.26180768     55.627788    
      6940   56.111439      158.5          158.5          158.5          0.98507728     0.5814831      0.67414075     1.699608       56.111439    
      6960   63.509854      158.5          158.5          158.5         -1.1503263     -0.06035898    -2.9555678     -0.43505209     63.509854    
      6980   66.158137      158.5          158.5          158.5         -1.1701999     -1.2621176     -1.313846      -0.93463623     66.158137    
      7000   66.194398      158.5          158.5          158.5          3.466959       2.6002163      4.9731393      2.8275213      66.194398    
      7020   73.118356      158.5          158.5          158.5          0.074660649    0.48533495    -0.63381393     0.37246093     73.118356    
      7040   76.015838      158.5          158.5          158.5         -1.3406513     -0.7937971     -1.5120733     -1.7160835      76.015838    
      7060   81.483718      158.5          158.5          158.5          1.2706081      1.7814691      3.6189324     -1.5885771      81.483718    
      7080   91.129116      158.5          158.5          158.5         -0.87706089    -3.2409916      0.93737126    -0.32756239     91.129116    
      7100   77.216168      158.5          158.5          158.5         -2.6280208     -3.4715627     -2.0146817     -2.3978181      77.216168    
      7120   90.785421      158.5          158.5          158.5         -0.12516813     1.9809778      0.67719118    -3.0336734      90.785421    
      7140   94.09625       158.5          158.5          158.5          1.3262857      0.72783495     2.4005341      0.85048799     94.09625     
      7160   108.86118      158.5          158.5          158.5         -2.6580955     -2.5726439     -3.8538107     -1.5478319      108.86118    
      7180   95.019766      158.5          158.5          158.5          1.2221085      3.2470465     -0.64158408     1.060863       95.019766    
      7200   97.350314      158.5          158.5          158.5         -0.6005161     -0.28344814    -1.8419034      0.32380322     97.350314    
      7220   116.1553       158.5          158.5          158.5         -2.0772826     -3.966156      -2.1799887     -0.085703228    116.1553     
      7240   118.5678       158.5          158.5          158.5          1.6663954     -0.2569091      2.3962277      2.8598675      118.5678     
      7260   106.07393      158.5          158.5          158.5         -0.65133776     1.6671225     -1.9559642     -1.6651715      106.07393    
      7280   122.67058      158.5          158.5          158.5         -0.7772181      2.0059523     -4.724379       0.38677245     122.67058    
      7300   134.27951      158.5          158.5          158.5          3.3678189      5.7333179      1.7301674      2.6399713      134.27951    
      7320   133.70375      158.5          158.5          158.5          1.9999682      2.1805663      5.0575658     -1.2382276      133.70375    
      7340   128.23267      158.5          158.5          158.5          1.2769811      2.5387202      0.66523127     0.62699187     128.23267    
      7360   136.70355      158.5          158.5          158.5          1.5086922      4.2654766     -1.3093495      1.5699496      136.70355    
      7380   116.18144      158.5          158.5          158.5         -0.7884205     -0.64132567     3.4112127     -5.1351485      116.18144    
      7400   146.60978      158.5          158.5          158.5         -1.3974007     -3.3286429      2.036153      -2.8997121      146.60978    
      7420   123.11748      158.5          158.5          158.5         -0.12994232    -1.5400015     -2.5703172      3.7204918      123.11748    
      7440   137.11509      158.5          158.5          158.5         -1.6565703     -2.8751586     -4.3399101      2.2453577      137.11509    
      7460   125.80177      158.5          158.5          158.5         -1.1730616     -0.4002814     -2.7423606     -0.37654285     125.80177    
      7480   124.69488      158.5          158.5          158.5         -0.64778828    -2.2462753      1.8859424     -1.5830319      124.69488    
      7500   132.64539      158.5          158.5          158.5         -1.4599941     -5.4733292      2.5017614     -1.4084144      132.64539    
      7520   142.51305      158.5          158.5          158.5         -3.6689147     -4.9353465     -6.0603702     -0.011027524    142.51305    
      7540   116.45784      158.5          158.5          158.5          1.0188779      1.203455       3.0506523     -1.1974737      116.45784    
      7560   137.74809      158.5          158.5          158.5         -1.1796711     -0.70175313     2.8790693     -5.7163296      137.74809    
      7580   124.6923       158.5          158.5          158.5         -2.0943988     -4.4567329     -3.6504821      1.8240187      124.6923     
      7600   113.0552       158.5          158.5          158.5          2.1253968      2.9777414     -0.2659356      3.6643847      113.0552     
      7620   131.25326      158.5          158.5          158.5         -2.7597303     -0.91246196    -2.3606145     -5.0061143      131.25326    
      7640   119.66217      158.5          158.5          158.5          0.88413107    -0.84967637     0.080544597    3.421525       119.66217    
      7660   122.42048      158.5          158.5          158.5         -1.9498319     -0.30717467    -4.2994084     -1.2429126      122.42048    
      7680   126.99693      158.5          158.5          158.5         -4.2197764     -3.0887863     -5.1219058     -4.4486371      126.99693    
      7700   127.70149      158.5          158.5          158.5          0.60964808    -1.0673901     -0.54100394     3.4373383      127.70149    
      7720   126.14621      158.5          158.5          158.5         -5.7839234     -3.3725699     -9.0365815     -4.9426188      126.14621    
      7740   127.26372      158.5          158.5          158.5          0.29720427     5.2235768     -1.8465571     -2.4854069      127.26372    
      7760   124.75816      158.5          158.5          158.5         -1.7721387      0.3778543     -3.5480744     -2.1461959      124.75816    
      7780   121.00413      158.5          158.5          158.5         -1.9744239     -1.1958416     -1.8384039     -2.8890263      121.00413    
      7800   138.65632      158.5          158.5          158.5          3.7824943      6.6616332      0.44892664     4.2369231      138.65632    
      7820   126.66467      158.5          158.5          158.5          0.059784602    1.4227841     -4.8972873      3.653857       126.66467    
      7840   138.70943      158.5          158.5          158.5          0.89585217     0.3254214      1.9193461      0.44278903     138.70943    
      7860   121.3662       158.5          158.5          158.5          3.17393        2.1784274      3.7198882      3.6234743      121.3662     
      7880   130.33863      158.5          158.5          158.5          1.1816758      0.74595852    -1.8897934      4.6888624      130.33863    
      7900   144.97573      158.5          158.5          158.5         -1.5984015     -2.7382639     -0.95176694    -1.1051736      144.97573    
      7920   133.79157      158.5          158.5          158.5          2.292567       0.38273626     3.7526226      2.742342       133.79157    
      7940   127.74911      158.5          158.5          158.5         -1.3441038     -0.61454145    -2.3008477     -1.1169223      127.74911    
      7960   139.67385      158.5          158.5          158.5         -1.5559363     -2.3107025     -0.10436131    -2.252745       139.67385    
      7980   124.19267      158.5          158.5          158.5          1.97918        0.73432721     2.9337842      2.2694284      124.19267    
      8000   129.50322      158.5          158.5          158.5         -1.729036      -2.7578161     -2.7722603      0.34296837     129.50322    
      8020   128.72241      158.5          158.5          158.5         -1.3277193     -4.9264274      0.074172183    0.86909737     128.72241    
      8040   113.32724      158.5          158.5          158.5          0.6163386     -1.9544205      2.3143775      1.4890589      113.32724    
      8060   127.22789      158.5          158.5          158.5          0.67452323     1.6818531      1.415241      -1.0735244      127.22789    
      8080   121.26735      158.5          158.5          158.5         -3.0852334     -0.83882946    -5.3752112     -3.0416596      121.26735    
      8100   124.98317      158.5          158.5          158.5         -0.5406575      0.41051639    -2.1983583      0.1658694      124.98317    
      8120   127.36938      158.5          158.5          158.5         -2.5261304     -6.5297563      0.11062415    -1.159259       127.36938    
      8140   118.10071      158.5          158.5          158.5         -2.3930361     -1.672088      -1.2969892     -4.2100309      118.10071    
      8160   120.00925      158.5          158.5          158.5          3.7153852      8.978383       2.5938865     -0.42611385     120.00925    
      8180   124.49049      158.5          158.5          158.5         -2.0347179     -2.6145677     -0.8017925     -2.6877935      124.49049    
      8200   124.49574      158.5          158.5          158.5         -1.1211223     -1.7782615      0.82355979    -2.4086653      124.49574    
      8220   128.93148      158.5          158.5          158.5          1.6140295      3.3118712      2.5925979     -1.0623807      128.93148    
      8240   121.20641      158.5          158.5          158.5         -0.77398951     2.0279153     -0.66349625    -3.6863876      121.20641    
      8260   124.29845      158.5          158.5          158.5          1.5102092     -1.4861761      3.6983194      2.3184843      124.29845    
      8280   137.68854      158.5          158.5          158.5          2.1813132     -2.7490512      2.8301874      6.4628035      137.68854    
      8300   132.69128      158.5          158.5          158.5          1.9125183      4.6715103     -0.62612401     1.6921685      132.69128    
      8320   133.89697      158.5          158.5          158.5         -0.69602364     3.8598856     -2.2574622     -3.6904943      133.89697    
      8340   138.0024       158.5          158.5          158.5          3.013455      -5.1250066      6.6276757      7.537696       138.0024     
      8360   143.7759       158.5          158.5          158.5          0.60323117    -5.0869138      3.7848276      3.1117797      143.7759     
      8380   146.8351       158.5          158.5          158.5         -2.6268131      5.9485397     -5.7731287     -8.0558504      146.8351     
      8400   141.26627      158.5          158.5          158.5          3.7564064      5.1385744      2.6306037      3.500041       141.26627    
      8420   132.78499      158.5          158.5          158.5         -3.0312442     -10.184618     -3.1030643      4.1939496      132.78499    
      8440   140.95884      158.5          158.5          158.5         -0.77747256    -1.1550244     -3.3783344      2.2009412      140.95884    
      8460   138.78995      158.5          158.5          158.5          0.83253196     4.9576504     -1.3594958     -1.1005587      138.78995    
      8480   136.9762       158.5          158.5          158.5         -3.1621731     -5.3007913     -3.1684846     -1.0172434      136.9762     
      8500   128.64696      158.5          158.5          158.5          0.66360047    -5.0733453      1.9185842      5.1455625      128.64696    
      8520   144.8036       158.5          158.5          158.5          0.76154009     0.72179953     1.8829684     -0.3201477      144.8036     
      8540   129.59989      158.5          158.5          158.5         -1.103884       2.7792457     -0.50744475    -5.5834528      129.59989    
      8560   140.80415      158.5          158.5          158.5          1.1389448     -1.7114323      3.8062939      1.3219727      140.80415    
      8580   129.79388      158.5          158.5          158.5          0.43071785    -2.5075715      3.6300641      0.16966097     129.79388    
      8600   126.87189      158.5          158.5          158.5         -2.1381412     -0.26022895    -0.8271957     -5.3269988      126.87189    
      8620   140.06007      158.5          158.5          158.5         -1.2124248      4.2163464     -5.2064204     -2.6472005      140.06007    
      8640   118.33142      158.5          158.5          158.5          0.14286215     1.4829349     -0.43061521    -0.62373321     118.33142    
      8660   144.34838      158.5          158.5          158.5         -3.6006369     -8.5245971      1.6577053     -3.9350188      144.34838    
      8680   126.66235      158.5          158.5          158.5         -0.33077548    -2.4880127     -1.00724        2.5029263      126.66235    
      8700   126.93291      158.5          158.5          158.5          1.604934       3.021802       0.71214801     1.080852       126.93291    
      8720   133.43378      158.5          158.5          158.5         -2.115569      -2.0186075      0.13626922    -4.4643687      133.43378    
      8740   134.59412      158.5          158.5          158.5          5.3986237      4.8594389      4.9251285      6.4113039      134.59412    
      8760   137.87492      158.5          158.5          158.5          1.9758354      1.3940347      0.63144284     3.9020286      137.87492    
      8780   146.19809      158.5          158.5          158.5         -2.530559       0.23261182    -3.6944481     -4.1298408      146.19809    
      8800   161.95014      158.5          158.5          158.5          4.125272       5.232977       5.7400973      1.4027418      161.95014    
      8820   133.47346      158.5          158.5          158.5         -4.4130957     -6.9842044     -4.1817596     -2.0733232      133.47346    
      8840   142.82074      158.5          158.5          158.5          0.78704077     2.4382822     -2.8211251      2.7439651      142.82074    
      8860   142.66682      158.5          158.5          158.5          3.1004978      6.5529451      1.4935508      1.2549974      142.66682    
      8880   147.1923       158.5          158.5          158.5         -6.4535137     -7.1507754     -1.2885073     -10.921258      147.1923     
      8900   146.55466      158.5          158.5          158.5          4.1520191     -0.029872089    3.6340996      8.8518299      146.55466    
      8920   145.48627      158.5          158.5          158.5         -2.5219487      0.036962473   -7.1104488     -0.49235975     145.48627    
      8940   143.46558      158.5          158.5          158.5         -2.6044774      0.80513071     0.097491268   -8.7160542      143.46558    
      8960   135.61389      158.5          158.5          158.5          4.0968308      2.986456       7.9702141      1.3338222      135.61389    
      8980   131.01559      158.5          158.5          158.5         -3.2646747     -5.2709117     -4.3689042     -0.15420806     131.01559    
      9000   145.94881      158.5          158.5          158.5          0.42900704     2.316995      -1.1643918      0.13441792     145.94881    
      9020   143.67229      158.5          158.5          158.5          3.4684193      4.4845311      7.9088332     -1.9881063      143.67229    
      9040   137.09168      158.5          158.5          158.5         -0.031175126   -0.22702456     1.946298      -1.8127988      137.09168    
      9060   135.91842      158.5          158.5          158.5          1.0349886      1.1444073     -3.0140693      4.9746278      135.91842    
      9080   138.59722      158.5          158.5          158.5         -1.4782356     -2.3855508     -3.3073996      1.2582437      138.59722    
      9100   126.13879      158.5          158.5          158.5         -1.7501569     -1.3521526      1.9132441     -5.8115621      126.13879    
      9120   127.91836      158.5          158.5          158.5         -1.0307192      0.63701633     1.6793437     -5.4085177      127.91836    
      9140   133.30937      158.5          158.5          158.5          0.52833217    -1.0280635      2.8179238     -0.2048638      133.30937    
      9160   120.29836      158.5          158.5          158.5          3.6589354      4.4825766      4.0978284      2.3964012      120.29836    
      9180   127.64793      158.5          158.5          158.5         -0.84355658     1.6576525     -0.66659174    -3.5217305      127.64793    
      9200   134.44752      158.5          158.5          158.5          2.2419819      1.2434092      1.424085       4.0584516      134.44752    
      9220   125.89088      158.5          158.5          158.5          2.1264361     -1.6766695     -1.1224424      9.1784202      125.89088    
      9240   135.20892      158.5          158.5          158.5         -3.9564544     -4.0170224     -8.1470478      0.29470696     135.20892    
      9260   123.40347      158.5          158.5          158.5          2.4016552      3.6077495      3.418324       0.17889217     123.40347    
      9280   123.30268      158.5          158.5          158.5         -2.0479986     -1.2520843      2.2038506     -7.0957622      123.30268    
      9300   138.51175      158.5          158.5          158.5         -2.6453538     -2.5188616     -4.5781567     -0.83904306     138.51175    
      9320   128.49729      158.5          158.5          158.5          2.7962753      4.8764714     -3.1280488      6.6404033      128.49729    
      9340   118.58615      158.5          158.5          158.5          0.29635957     2.9791148      0.5928743     -2.6829104      118.58615    
      9360   131.27446      158.5          158.5          158.5         -1.3450505     -1.2485461     -1.492184      -1.2944213      131.27446    
      9380   148.2858       158.5          158.5          158.5         -0.4235932     -2.631165      -1.1350848      2.4954701      148.2858     
      9400   142.16567      158.5          158.5          158.5          0.21343704    -1.4798052      1.6832973      0.43681906     142.16567    
      9420   128.68769      158.5          158.5          158.5          0.42692886     1.3559983      0.84393068    -0.91914245     128.68769    
      9440   143.34411      158.5          158.5          158.5          3.6013649      3.1169244      3.7118965      3.9752736      143.34411    
      9460   145.35861      158.5          158.5          158.5          0.31578439    -2.1612896      2.8247314      0.2839113      145.35861    
      9480   146.06465      158.5          158.5          158.5         -2.094379      -2.0631661     -2.5930427     -1.6269281      146.06465    
      9500   138.82699      158.5          158.5          158.5          0.8153321      1.7137607      2.2913883     -1.5591527      138.82699    
      9520   131.88859      158.5          158.5          158.5         -2.3187568     -5.3761249      2.5753884     -4.1555338      131.88859    
      9540   143.69267      158.5          158.5          158.5          0.54380217    -1.9243095     -1.6892053      5.2449213      143.69267    
      9560   135.57614      158.5          158.5          158.5          2.3582661     -0.30000587    -0.68236195     8.0571661      135.57614    
      9580   135.8771       158.5          158.5          158.5         -1.5105462     -4.6148283      2.1803739     -2.0971843      135.8771     
      9600   129.83188      158.5          158.5          158.5          0.67342237     0.26913648     2.5756227     -0.82449211     129.83188    
      9620   135.64321      158.5          158.5          158.5          0.2538392     -2.2831546     -0.61431654     3.6589887      135.64321    
      9640   144.77834      158.5          158.5          158.5         -0.2241392     -2.6109637      0.07054094     1.8680052      144.77834    
      9660   131.787        158.5          158.5          158.5         -0.277499       1.4081524     -0.96926077    -1.2713886      131.787      
      9680   140.6392       158.5          158.5          158.5         -1.5408395      0.20265763    -3.7133538     -1.1118223      140.6392     
      9700   141.18486      158.5          158.5          158.5          0.71181476    -2.2074485      1.939507       2.4033857      141.18486    
      9720   133.04785      158.5          158.5          158.5          0.39081404    -0.83249453     0.48557052     1.5193661      133.04785    
      9740   119.75677      158.5          158.5          158.5          1.9448322      2.7255346     -0.81599363     3.9249557      119.75677    
      9760   133.52967      158.5          158.5          158.5         -1.9911081      1.2247783     -4.8302743     -2.3678284      133.52967    
      9780   145.70776      158.5          158.5          158.5         -2.9843378     -3.5824062     -2.877871      -2.4927362      145.70776    
      9800   130.63247      158.5          158.5          158.5         -0.5547152     -1.741547      -2.8242221      2.9016235      130.63247    
      9820   125.01114      158.5          158.5          158.5         -3.6459895     -0.48762664    -6.1776474     -4.2726945      125.01114    
      9840   129.68664      158.5          158.5          158.5          0.36151907     0.60467945     0.0049350159   0.47494273     129.68664    
      9860   140.1123       158.5          158.5          158.5         -0.91019501    -3.9711133      0.0077912877   1.232737       140.1123     
      9880   136.40781      158.5          158.5          158.5         -2.9381437     -5.1206142     -1.7129201     -1.9808968      136.40781    
      9900   129.89192      158.5          158.5          158.5          1.7958918      2.6054721     -1.518241       4.3004442      129.89192    
      9920   136.81899      158.5          158.5          158.5          0.078328217   -2.4658257     -1.313538       4.0143484      136.81899    
      9940   126.30092      158.5          158.5          158.5         -0.57922335    -4.330583       1.1819847      1.4109282      126.30092    
      9960   138.62263      158.5          158.5          158.5         -0.25230234    -3.4860457      0.52821552     2.2009232      138.62263    
      9980   132.06444      158.5          158.5          158.5         -1.2841863     -3.478875      -1.8171767      1.4434929      132.06444    
     10000   137.26107      158.5          158.5          158.5         -1.2582605     -1.8681787     -0.066644756   -1.8399581      137.26107    
     10020   134.31682      158.5          158.5          158.5          2.8942751     -2.9587667      7.5018376      4.1397543      134.31682    
     10040   126.79172      158.5          158.5          158.5          0.13979594    -7.239511       3.6174268      4.041472       126.79172    
     10060   138.6131       158.5          158.5          158.5         -0.19322083    -0.056779776   -1.5254107      1.002528       138.6131     
     10080   127.34696      158.5          158.5          158.5          2.5677507      2.8470954      2.7055724      2.1505843      127.34696    
     10100   139.85881      158.5          158.5          158.5         -0.33369863    -2.044568       0.867056       0.17641614     139.85881    
     10120   131.56639      158.5          158.5          158.5          1.2786521      0.58787358     1.3650947      1.8829879      131.56639    
     10140   134.26864      158.5          158.5          158.5          2.0528139      4.1048027      1.5578468      0.49579227     134.26864    
     10160   136.35253      158.5          158.5          158.5          0.90610047     4.2573242     -0.13406698    -1.4049558      136.35253    
     10180   132.67025      158.5          158.5          158.5         -0.22934003     0.9534277      1.6107822     -3.25223        132.67025    
     10200   128.92353      158.5          158.5          158.5          0.35379836    -0.26477737     1.0853273      0.24084519     128.92353    
     10220   141.55009      158.5          158.5          158.5          4.007563       6.3938074      2.7690187      2.8598629      141.55009    
     10240   136.94071      158.5          158.5          158.5          0.33229718     6.9299108     -1.6394681     -4.2935511      136.94071    
     10260   131.43966      158.5          158.5          158.5          1.9009016      4.0768915     -1.2756998      2.9015132      131.43966    
     10280   125.97278      158.5          158.5          158.5          2.964995       0.68710043     2.7686503      5.4392342      125.97278    
     10300   139.31512      158.5          158.5          158.5         -1.7954024      3.9708312     -3.2472419     -6.1097966      139.31512    
     10320   123.10064      158.5          158.5          158.5          3.5416898      10.916671     -0.88878135     0.59718011     123.10064    
     10340   117.1142       158.5          158.5          158.5         -0.013635595   -6.6402053      3.9961721      2.6031264      117.1142     
     10360   144.69504      158.5          158.5          158.5         -2.470195      -8.7234922      2.4386698     -1.1257625      144.69504    
     10380   135.44584      158.5          158.5          158.5          0.10225771     6.4637684     -2.1885185     -3.9684768      135.44584    
     10400   128.2066       158.5          158.5          158.5         -1.3324697     -2.5237834     -1.0360672     -0.43755844     128.2066     
     10420   131.18707      158.5          158.5          158.5         -0.12497971    -7.3247755      4.3606776      2.5891587      131.18707    
     10440   145.78868      158.5          158.5          158.5          3.6083251      1.5894154      7.3252346      1.9103253      145.78868    
     10460   141.06144      158.5          158.5          158.5         -1.9849402     -0.32293766    -4.6729487     -0.95893414     141.06144    
     10480   132.69623      158.5          158.5          158.5          1.4404071      1.7091913     -4.0716136      6.6836437      132.69623    
     10500   126.21692      158.5          158.5          158.5          2.331119       0.67569235     5.4923471      0.82531752     126.21692    
     10520   135.2838       158.5          158.5          158.5         -3.1909645     -5.2523938      3.2685161     -7.5890157      135.2838     
     10540   137.27587      158.5          158.5          158.5          1.1636439      3.0335304      1.2101478     -0.75274645     137.27587    
     10560   140.63818      158.5          158.5          158.5         -3.6625387      2.1976234     -8.2217549     -4.9634845      140.63818    
     10580   133.39787      158.5          158.5          158.5         -1.0315556      0.64522058     1.5008873     -5.2407746      133.39787    
     10600   138.83112      158.5          158.5          158.5          1.2266429     -0.61659165     5.1539796     -0.85745926     138.83112    
     10620   144.19363      158.5          158.5          158.5          0.77343245     3.0026609     -1.8605626      1.178199       144.19363    
     10640   143.94072      158.5          158.5          158.5          1.7320499      7.3669949     -4.0502533      1.8794082      143.94072    
     10660   157.39248      158.5          158.5          158.5          1.459201       0.43725345     3.2226086      0.71774097     157.39248    
     10680   144.05577      158.5          158.5          158.5          2.0546745     -0.26458059     5.0687616      1.3598424      144.05577    
     10700   152.29904      158.5          158.5          158.5         -1.5822071      4.4847632     -6.3761192     -2.8552652      152.29904    
     10720   143.17251      158.5          158.5          158.5          2.9352289      8.9224588      0.35690013    -0.47367214     143.17251    
     10740   144.48265      158.5          158.5          158.5         -0.17904407    -3.7581698      5.8985736     -2.677536       144.48265    
     10760   152.37784      158.5          158.5          158.5         -1.0159385     -6.0234119      1.8708408      1.1047557      152.37784    
     10780   143.47282      158.5          158.5          158.5          1.9980814      0.85929033    -0.32719902     5.4621528      143.47282    
     10800   140.00535      158.5          158.5          158.5          0.26870554     4.1833886     -2.8823685     -0.49490345     140.00535    
     10820   142.70123      158.5          158.5          158.5          1.9123312      3.2569046      3.40788       -0.927791       142.70123    
     10840   135.30213      158.5          158.5          158.5          2.115786      -2.6565668      7.5450384      1.4588864      135.30213    
     10860   137.47168      158.5          158.5          158.5          0.52110447     2.3136829     -0.70768368    -0.042685792    137.47168    
     10880   133.21833      158.5          158.5          158.5          0.68488173     5.6539787     -2.5633062     -1.0360273      133.21833    
     10900   131.33786      158.5          158.5          158.5          1.5901509      1.1136315      2.4742262      1.1825949      131.33786    
     10920   130.37286      158.5          158.5          158.5         -0.24541292    -2.2019519      0.58922566     0.87648745     130.37286    
     10940   125.71748      158.5          158.5          158.5          0.61179153     4.38477       -1.6639601     -0.88543529     125.71748    
     10960   137.47685      158.5          158.5          158.5         -0.95223841     3.9764269     -3.7791988     -3.0539434      137.47685    
     10980   118.85304      158.5          158.5          158.5         -1.4517899     -3.3774288      0.00464608    -0.98258702     118.85304    
     11000   129.22882      158.5          158.5          158.5         -1.6701054     -1.8734874      0.50050552    -3.6373343      129.22882    
     11020   132.3728       158.5          158.5          158.5         -0.61582631     0.65813983    -1.9700002     -0.53561858     132.3728     
     11040   131.17763      158.5          158.5          158.5         -3.1023376     -2.2322278     -3.1281874     -3.9465975      131.17763    
     11060   137.44915      158.5          158.5          158.5          0.9409157      2.4084707      0.9524338     -0.53815739     137.44915    
     11080   121.71785      158.5          158.5          158.5          1.7930089      2.0466114     -1.5898385      4.9222537      121.71785    
     11100   139.44697      158.5          158.5          158.5         -1.0210262     -1.550204       0.77154295    -2.2844176      139.44697    
     11120   142.39831      158.5          158.5          158.5          3.3916458      5.6717207      5.2137103     -0.71049371     142.39831    
     11140   124.59048      158.5          158.5          158.5         -1.8246843     -0.026476847   -4.8079328     -0.63964327     124.59048    
     11160   129.15527      158.5          158.5          158.5          1.0303824      0.31817728    -0.69081614     3.4637862      129.15527    
     11180   127.0568       158.5          158.5          158.5          1.0463954     -0.81524943     3.1774525      0.77698312     127.0568     
     11200   133.10645      158.5          158.5          158.5         -1.6764262     -1.7079382     -2.0019325     -1.3194079      133.10645    
     11220   137.79219      158.5          158.5          158.5          1.682775       2.0262833     -0.041636665    3.0636783      137.79219    
     11240   130.70366      158.5          158.5          158.5          0.06416741    -2.506191       3.3083518     -0.60965854     130.70366    
     11260   141.63322      158.5          158.5          158.5         -0.7932669     -6.5272393      2.013515       2.1339236      141.63322    
     11280   133.89698      158.5          158.5          158.5          2.0152332      0.66338741     2.1324557      3.2498565      133.89698    
     11300   151.31259      158.5          158.5          158.5          2.6522497      3.2048273      3.1343317      1.6175901      151.31259    
     11320   134.63734      158.5          158.5          158.5         -1.1560986     -3.4132142      0.34713704    -0.40221871     134.63734    
     11340   143.96589      158.5          158.5          158.5          1.3686973     -4.4654331      3.6962335      4.8752916      143.96589    
     11360   138.29545      158.5          158.5          158.5         -0.97264016    -3.8227202      2.3101799     -1.4053801      138.29545    
     11380   142.40325      158.5          158.5          158.5          0.13058984     3.3761075      0.48407627    -3.4684142      142.40325    
     11400   143.21523      158.5          158.5          158.5          3.4490501      6.2246391      1.5718016      2.5507097      143.21523    
     11420   139.78631      158.5          158.5          158.5         -2.3010103     -1.613831      -2.9593027     -2.3298971      139.78631    
     11440   121.91446      158.5          158.5          158.5          0.04640025     0.72711615     0.98521335    -1.5731287      121.91446    
     11460   138.58007      158.5          158.5          158.5         -1.0005815      0.54653663    -2.5298444     -1.0184369      138.58007    
     11480   133.36481      158.5          158.5          158.5         -3.2690888     -0.76936285    -4.5491759     -4.4887277      133.36481    
     11500   136.04059      158.5          158.5          158.5          0.96273327     2.4074769      1.4209718     -0.9402489      136.04059    
     11520   140.60654      158.5          158.5          158.5          1.977179       7.0617856     -1.2035062      0.073257497    140.60654    
     11540   141.82358      158.5          158.5          158.5         -0.10259584     4.1609556     -3.9201724     -0.54857076     141.82358    
     11560   130.62207      158.5          158.5          158.5         -1.2751681     -0.26794285    -3.0454892     -0.51207208     130.62207    
     11580   132.59011      158.5          158.5          158.5         -0.018577816    1.5785126     -0.44942841    -1.1848177      132.59011    
     11600   133.73622      158.5          158.5          158.5         -1.8257112     -1.0847543     -2.0579203     -2.3344591      133.73622    
     11620   134.77986      158.5          158.5          158.5         -2.785914      -0.47994037    -5.4455886     -2.4322132      134.77986    
     11640   131.59512      158.5          158.5          158.5          3.0199081      3.7817613      0.36287569     4.9150874      131.59512    
     11660   127.07576      158.5          158.5          158.5         -1.6167956     -2.7403508     -2.9409809      0.83094492     127.07576    
     11680   131.41045      158.5          158.5          158.5          1.5901983      3.0629012     -1.2771938      2.9848874      131.41045    
     11700   135.41531      158.5          158.5          158.5          4.6629819      5.1159161      4.3838735      4.4891561      135.41531    
     11720   136.85371      158.5          158.5          158.5         -5.2723893     -9.0264421     -1.4216817     -5.3690442      136.85371    
     11740   141.95164      158.5          158.5          158.5          2.2384852     -0.52160414     5.1127339      2.1243258      141.95164    
     11760   142.64975      158.5          158.5          158.5          2.6002367     -0.52346121     3.8960076      4.4281638      142.64975    
     11780   165.50412      158.5          158.5          158.5         -4.3306772     -6.8704093     -4.3794688     -1.7421535      165.50412    
     11800   146.45302      158.5          158.5          158.5          4.5925184      2.2345861      2.3990578      9.1439112      146.45302    
     11820   148.2442       158.5          158.5          158.5         -1.6821717     -7.8554831      1.4614361      1.347532       148.2442     
     11840   147.78288      158.5          158.5          158.5         -1.5630187     -2.5050739     -2.5842829      0.40030087     147.78288    
     11860   140.86933      158.5          158.5          158.5          5.6877652      10.435456     -0.30983014     6.9376697      140.86933    
     11880   149.19952      158.5          158.5          158.5         -2.1250544     -3.7333784      0.64313127    -3.2849162      149.19952    
     11900   131.06545      158.5          158.5          158.5          0.5940015     -0.79544683     4.1681658     -1.5907145      131.06545    
     11920   144.60537      158.5          158.5          158.5         -0.56577862     2.9430404     -0.053385902   -4.5869904      144.60537    
     11940   145.92244      158.5          158.5          158.5         -1.9344567      0.38344005    -2.3759019     -3.8109081      145.92244    
     11960   142.06335      158.5          158.5          158.5         -2.393966      -0.32594911    -3.7070993     -3.1488495      142.06335    
     11980   149.14146      158.5          158.5          158.5          1.3728779      4.4029618      4.016137      -4.3004652      149.14146    
     12000   141.42067      158.5          158.5          158.5          3.3888823      5.7537269      1.6721185      2.7408014      141.42067    
     12020   144.78039      158.5          158.5          158.5         -1.7518737      2.2865282     -5.6393569     -1.9027925      144.78039    
     12040   131.82341      158.5          158.5          158.5          4.11386        4.7684791      7.8431438     -0.27004288     131.82341    
     12060   140.67168      158.5          158.5          158.5         -0.63992215    -1.1431518      3.2265521     -4.0031667      140.67168    
     12080   134.92166      158.5          158.5          158.5         -5.3313094     -6.114444      -5.2684523     -4.6110319      134.92166    
     12100   135.47475      158.5          158.5          158.5          3.8565549      4.0328806      2.6662627      4.8705215      135.47475    
     12120   139.80257      158.5          158.5          158.5         -3.2500366     -2.2566457     -3.2967476     -4.1967166      139.80257    
     12140   142.35631      158.5          158.5          158.5         -0.60657147    -0.68620681    -1.6655592      0.53205161     142.35631    
     12160   145.82542      158.5          158.5          158.5          4.6543332      2.770837       1.4440861      9.7480766      145.82542    
     12180   134.50283      158.5          158.5          158.5         -2.8177284     -4.2592794     -4.8222797      0.62837382     134.50283    
     12200   148.46181      158.5          158.5          158.5          3.6013897      2.4201055      4.5341114      3.8499523      148.46181    
     12220   148.85841      158.5          158.5          158.5          1.3774616     -3.0307928      1.6046311      5.5585466      148.85841    
     12240   146.80868      158.5          158.5          158.5         -1.3419941     -4.4658307     -3.4857512      3.9255996      146.80868    
     12260   147.23615      158.5          158.5          158.5          2.3509815      1.8618176      3.2488753      1.9422517      147.23615    
     12280   157.50454      158.5          158.5          158.5         -3.2818721     -2.3104754     -2.6709295     -4.8642115      157.50454    
     12300   161.31499      158.5          158.5          158.5          1.4542858     -1.0484795      3.0413299      2.3700071      161.31499    
     12320   161.45973      158.5          158.5          158.5          1.3943701     -2.4297468      2.031259       4.5815982      161.45973    
     12340   159.86485      158.5          158.5          158.5          1.1528854      2.8163967     -1.854535       2.4967946      159.86485    
     12360   151.83044      158.5          158.5          158.5          1.0722897      3.4594291      0.0834422     -0.32600225     151.83044    
     12380   148.09676      158.5          158.5          158.5         -0.51315139    -2.1575157      1.1611089     -0.5430473      148.09676    
     12400   134.47873      158.5          158.5          158.5          0.64763758    -3.2538155     -0.12125502     5.3179832      134.47873    
     12420   149.88144      158.5          158.5          158.5         -3.3908394     -0.70780246    -4.9733395     -4.4913762      149.88144    
     12440   154.41602      158.5          158.5          158.5          0.22896219     2.0197556      0.9440029     -2.2768719      154.41602    
     12460   143.44917      158.5          158.5          158.5         -0.3979542     -2.0778832     -0.51668836     1.4007089      143.44917    
     12480   144.39283      158.5          158.5          158.5         -1.2165933      1.2256232     -1.0987352     -3.7766679      144.39283    
     12500   140.21039      158.5          158.5          158.5          2.7326196      5.246847       1.4066109      1.544401       140.21039    
     12520   135.81832      158.5          158.5          158.5         -0.44215856    -0.1849147     -1.6724308      0.53086986     135.81832    
     12540   146.25176      158.5          158.5          158.5          0.58414347    -1.6178907      3.2422902      0.12803097     146.25176    
     12560   144.27431      158.5          158.5          158.5         -1.1179304     -1.5071824     -1.9068231      0.060214392    144.27431    
     12580   132.57937      158.5          158.5          158.5         -0.71557409     2.2000957     -3.4971763     -0.84964164     132.57937    
     12600   140.90278      158.5          158.5          158.5          1.4802499      1.3481448      2.4279815      0.66462336     140.90278    
     12620   139.99921      158.5          158.5          158.5          1.7900027     -1.2115833      3.3975349      3.1840564      139.99921    
     12640   140.74779      158.5          158.5          158.5          0.48704728     0.15165682     0.49556619     0.81391884     140.74779    
     12660   136.39276      158.5          158.5          158.5         -1.4571448     -1.539655      -0.0083299705  -2.8234494      136.39276    
     12680   138.34954      158.5          158.5          158.5          0.23598065    -1.6266558      1.4121244      0.92247336     138.34954    
     12700   134.60667      158.5          158.5          158.5         -4.2277041     -4.542871      -3.8603714     -4.27987        134.60667    
     12720   134.30088      158.5          158.5          158.5          0.52800922     2.9054601      0.12627915    -1.4477116      134.30088    
     12740   132.72096      158.5          158.5          158.5          4.043561       5.3055236      1.2264046      5.5987547      132.72096    
     12760   136.13138      158.5          158.5          158.5         -0.52457556    -1.4466963     -2.6670676      2.5400373      136.13138    
     12780   150.27209      158.5          158.5          158.5          1.6730169      2.3076732      2.5398588      0.17151855     150.27209    
     12800   127.31386      158.5          158.5          158.5         -0.28963475    -0.43285219    -0.60173616     0.16568409     127.31386    
     12820   143.06902      158.5          158.5          158.5         -0.081197386   -0.27676243    -2.8209723      2.8541426      143.06902    
     12840   145.26475      158.5          158.5          158.5         -1.3815926     -0.8161474     -0.74193565    -2.5866947      145.26475    
     12860   142.52102      158.5          158.5          158.5         -0.67014758     2.0686903     -2.2698383     -1.8092947      142.52102    
     12880   157.56579      158.5          158.5          158.5          2.1956498     -1.8141466      1.5037923      6.8973039      157.56579    
     12900   158.06164      158.5          158.5          158.5         -0.94726294    -0.84473082    -1.5721001     -0.42495788     158.06164    
     12920   157.5485       158.5          158.5          158.5          4.2846876      5.3935952      6.4286281      1.0318394      157.5485     
     12940   149.72139      158.5          158.5          158.5         -2.3599037     -5.4826844     -0.79419705    -0.80282956     149.72139    
     12960   150.56245      158.5          158.5          158.5          1.4315467      0.89980885     1.8185447      1.5762866      150.56245    
     12980   149.93568      158.5          158.5          158.5          2.1275813      0.18369745     3.8405313      2.3585152      149.93568    
     13000   154.95967      158.5          158.5          158.5         -2.2065243     -4.7531506     -0.3433311     -1.5230911      154.95967    
     13020   156.46802      158.5          158.5          158.5          2.5239576      4.0467527      2.817138       0.70798216     156.46802    
     13040   146.44783      158.5          158.5          158.5         -3.2238484     -3.0951156     -3.3986802     -3.1777494      146.44783    
     13060   144.04806      158.5          158.5          158.5         -0.50520687    -3.003567       1.6856256     -0.19767919     144.04806    
     13080   147.40313      158.5          158.5          158.5          2.0642309      3.4395528      0.77814164     1.9749984      147.40313    
     13100   142.79132      158.5          158.5          158.5         -1.8694248     -2.5571783     -1.3191604     -1.7319356      142.79132    
     13120   144.50882      158.5          158.5          158.5          1.016909       0.052595895    2.8257144      0.17241668     144.50882    
     13140   148.29254      158.5          158.5          158.5         -1.9943057      0.57134393    -3.4783544     -3.0759067      148.29254    
     13160   143.95665      158.5          158.5          158.5         -0.56032951    -0.07911264    -2.4418928      0.84001687     143.95665    
     13180   128.55958      158.5          158.5          158.5          1.5546071      0.6463848      3.4549857      0.5624507      128.55958    
     13200   141.73556      158.5          158.5          158.5         -2.7618261     -0.017778205   -3.4620789     -4.8056212      141.73556    
     13220   150.24155      158.5          158.5          158.5          2.3708613      5.0220272     -3.0884807      5.1790373      150.24155    
     13240   145.91126      158.5          158.5          158.5          0.22932744    -0.12611427    -1.0675185      1.8816151      145.91126    
     13260   144.57224      158.5          158.5          158.5          0.54999815     0.1910411      0.5291116      0.92984176     144.57224    
     13280   142.87386      158.5          158.5          158.5          1.6256546      3.4755174     -2.946295       4.3477414      142.87386    
     13300   144.31895      158.5          158.5          158.5         -1.2717122      2.5323838     -5.8700209     -0.47749966     144.31895    
     13320   136.37558      158.5          158.5          158.5         -0.37245522     0.4529224      0.44281188    -2.0130999      136.37558    
     13340   137.71957      158.5          158.5          158.5         -1.1110567      1.7245192     -2.8489245     -2.2087647      137.71957    
     13360   149.1948       158.5          158.5          158.5         -1.1701618      0.38432873    -5.0479245      1.1531104      149.1948     
     13380   157.85798      158.5          158.5          158.5          2.0877842     -3.2659946      4.1718004      5.3575469      157.85798    
     13400   147.12371      158.5          158.5          158.5          3.2486746      3.2067017      2.0322727      4.5070494      147.12371    
     13420   148.11606      158.5          158.5          158.5          1.761945       5.5831713     -1.8409028      1.5435665      148.11606    
     13440   141.45247      158.5          158.5          158.5          1.573508       0.30775492     2.3633999      2.0493691      141.45247    
     13460   144.8909       158.5          158.5          158.5          0.028567827   -1.8077493      2.54747       -0.65401725     144.8909     
     13480   148.44063      158.5          158.5          158.5         -2.120371      -0.77930147    -2.07864       -3.5031716      148.44063    
     13500   156.4231       158.5          158.5          158.5          1.6922843      3.6399598      0.70668211     0.73021081     156.4231     
     13520   153.3012       158.5          158.5          158.5          1.3677821     -2.2503493      2.3982196      3.9554758      153.3012     
     13540   147.37772      158.5          158.5          158.5          1.7558988      0.093230991    1.7605284      3.4139369      147.37772    
     13560   144.57245      158.5          158.5          158.5         -2.2751968      2.7515451     -2.9079788     -6.6691565      144.57245    
     13580   156.18235      158.5          158.5          158.5         -2.9943614     -0.60220434    -2.2997305     -6.0811494      156.18235    
     13600   140.95695      158.5          158.5          158.5         -0.78311504    -1.6178212      1.6642238     -2.3957477      140.95695    
     13620   141.29238      158.5          158.5          158.5         -2.3111349     -1.4591828     -0.43623951    -5.0379824      141.29238    
     13640   149.29888      158.5          158.5          158.5          1.0156562      0.12657764     1.1109837      1.8094073      149.29888    
     13660   140.47733      158.5          158.5          158.5          0.26515493     0.44157904    -1.1147389      1.4686247      140.47733    
     13680   130.40626      158.5          158.5          158.5         -1.7535884     -1.4115521     -0.10647533    -3.7427377      130.40626    
     13700   138.00297      158.5          158.5          158.5          2.2222718      3.9620304      3.238002      -0.53321711     138.00297    
     13720   141.5362       158.5          158.5          158.5         -2.4235745     -0.9681829     -4.5522766     -1.7502639      141.5362     
     13740   138.15085      158.5          158.5          158.5          2.3075755      2.4052416      0.84256362     3.6749213      138.15085    
     13760   142.99422      158.5          158.5          158.5          0.21539817     2.5354127     -1.1404476     -0.74877067     142.99422    
     13780   148.62031      158.5          158.5          158.5         -1.7570188     -1.8696755     -3.3678855     -0.033495475    148.62031    
     13800   143.55048      158.5          158.5          158.5          3.8666014      3.8798208      3.0080228      4.7119606      143.55048    
     13820   146.20011      158.5          158.5          158.5         -1.0062467      2.2299803     -4.0091942     -1.2395264      146.20011    
     13840   144.73497      158.5          158.5          158.5          2.5235059      4.6076852      2.4742784      0.48855412     144.73497    
     13860   140.60845      158.5          158.5          158.5          2.3123803      4.0711354      3.2284986     -0.36249318     140.60845    
     13880   147.28482      158.5          158.5          158.5         -0.53941576     0.53939621    -0.61545871    -1.5421848      147.28482    
     13900   149.81288      158.5          158.5          158.5          3.5638379      2.1241097      2.2504444      6.3169596      149.81288    
     13920   172.31606      158.5          158.5          158.5         -2.5415002     -3.5709851     -3.7428382     -0.31067737     172.31606    
     13940   148.85678      158.5          158.5          158.5          1.063089       2.6323632     -1.6624905      2.2193942      148.85678    
     13960   149.86865      158.5          158.5          158.5         -0.38239269     3.3526992     -3.4783119     -1.0215654      149.86865    
     13980   144.06649      158.5          158.5          158.5         -1.920911      -1.162546      -1.0690938     -3.5310933      144.06649    
     14000   157.12747      158.5          158.5          158.5          2.0744367      4.6737172      2.5079055     -0.95831258     157.12747    
     14020   144.16878      158.5          158.5          158.5         -2.4739849      0.24258972    -2.3914541     -5.2730904      144.16878    
     14040   154.16724      158.5          158.5          158.5          0.40906592     0.32507261    -1.4909492      2.3930744      154.16724    
     14060   153.35964      158.5          158.5          158.5         -2.2109569     -2.4698961     -4.2246158      0.06164131     153.35964    
     14080   155.61321      158.5          158.5          158.5         -0.51767086    -1.757745       1.5207739     -1.3160415      155.61321    
     14100   144.5783       158.5          158.5          158.5          1.3455321      0.98355386     6.0816277     -3.0285854      144.5783     
     14120   136.41637      158.5          158.5          158.5         -1.2664979     -2.6173214      1.5064269     -2.6885992      136.41637    
     14140   157.63037      158.5          158.5          158.5          3.0984152      5.0037821      1.7157245      2.5757389      157.63037    
     14160   152.3427       158.5          158.5          158.5         -0.15115462     4.0360633     -0.39274707    -4.09678        152.3427     
     14180   158.7416       158.5          158.5          158.5          2.8951227      4.0073523      4.7540524     -0.076036703    158.7416     
     14200   134.93644      158.5          158.5          158.5         -0.93323831    -0.25740691    -0.28320245    -2.2591056      134.93644    
     14220   145.22251      158.5          158.5          158.5          1.3357963     -0.46473911     5.0017833     -0.52965519     145.22251    
     14240   137.06469      158.5          158.5          158.5          1.7243961      0.90059696     4.0441123      0.22847908     137.06469    
     14260   142.9989       158.5          158.5          158.5         -3.4687185     -0.44607247    -3.2711549     -6.6889283      142.9989     
     14280   145.83828      158.5          158.5          158.5          1.6307932      2.3943048      1.0427053      1.4553693      145.83828    
     14300   143.83626      158.5          158.5          158.5         -0.12474816     1.4240543     -4.0997194      2.3014206      143.83626    
     14320   134.95608      158.5          158.5          158.5         -1.295987      -0.65097929     0.21078907    -3.4477708      134.95608    
     14340   132.0454       158.5          158.5          158.5          0.52210047    -0.71788465     3.942557      -1.658371       132.0454     
     14360   130.11986      158.5          158.5          158.5          1.1944405      1.2326908     -2.6392172      4.989848       130.11986    
     14380   123.43108      158.5          158.5          158.5         -0.80959924    -4.330926      -2.2459073      4.1480356      123.43108    
     14400   135.54249      158.5          158.5          158.5          0.89249739    -3.086831       3.2480613      2.5162619      135.54249    
     14420   135.98775      158.5          158.5          158.5          0.74242541     3.9581382     -1.1529746     -0.57788733     135.98775    
     14440   136.66819      158.5          158.5          158.5         -1.2519353      0.9203291     -3.7964801     -0.87965488     136.66819    
     14460   132.58741      158.5          158.5          158.5          2.6154991     -0.27303694     2.7033473      5.4161868      132.58741    
     14480   129.58746      158.5          158.5          158.5         -2.2695251     -1.3715634     -5.5386375      0.10162565     129.58746    
     14500   135.38804      158.5          158.5          158.5         -0.4704456      1.169256      -1.1166464     -1.4639464      135.38804    
     14520   127.78032      158.5          158.5          158.5          2.1334068     -0.84835185     3.1920612      4.056511       127.78032    
     14540   135.22839      158.5          158.5          158.5         -1.3509564     -4.0332553     -3.5422833      3.5226694      135.22839    
     14560   138.23936      158.5          158.5          158.5          4.0321335      4.4936458      3.1996461      4.4031086      138.23936    
     14580   145.92264      158.5          158.5          158.5         -0.23899404     1.6437686      1.2935671     -3.6543178      145.92264    
     14600   138.74021      158.5          158.5          158.5         -0.3304937     -1.2658556     -1.9127446      2.1871192      138.74021    
     14620   145.24828      158.5          158.5          158.5          0.00063316869  1.4647535     -3.1827872      1.7199332      145.24828    
     14640   151.56144      158.5          158.5          158.5         -1.9958273      2.204749      -2.3418284     -5.8504025      151.56144    
     14660   149.83988      158.5          158.5          158.5         -1.3158448     -1.7485973     -0.87704985    -1.3218872      149.83988    
     14680   143.55897      158.5          158.5          158.5         -0.34796609    -1.9009759     -1.7494383      2.6065159      143.55897    
     14700   147.59499      158.5          158.5          158.5          1.949617       5.4163314     -0.79869566     1.2312152      147.59499    
     14720   156.84496      158.5          158.5          158.5         -0.94744708     1.2462488     -0.82085626    -3.2677338      156.84496    
     14740   154.76598      158.5          158.5          158.5          0.65853072    -0.718921       1.0620405      1.6324727      154.76598    
     14760   146.58847      158.5          158.5          158.5          1.1028611     -0.022373243   -0.046193759    3.3771502      146.58847    
     14780   146.99368      158.5          158.5          158.5          0.91610118     2.9861315     -0.34819904     0.11037109     146.99368    
     14800   166.52017      158.5          158.5          158.5         -2.0271611     -1.204516      -1.3163661     -3.560601       166.52017    
     14820   141.83394      158.5          158.5          158.5         -1.008706      -0.56080474    -0.76637273    -1.6989407      141.83394    
     14840   140.80412      158.5          158.5          158.5         -0.88325837     1.7020934     -0.59571579    -3.7561527      140.80412    
     14860   160.79255      158.5          158.5          158.5         -5.2324643     -2.9623531     -5.1842078     -7.5508319      160.79255    
     14880   150.63341      158.5          158.5          158.5         -0.34106053     0.79884182    -0.7004348     -1.1215886      150.63341    
     14900   126.80831      158.5          158.5          158.5         -2.2067199      2.6908967     -2.1109471     -7.2001094      126.80831    
     14920   137.65208      158.5          158.5          158.5          1.266142       2.1160659      0.56941373     1.1129463      137.65208    
     14940   155.01723      158.5          158.5          158.5          2.2883197      0.031307871   -0.30700366     7.1406549      155.01723    
     14960   134.14492      158.5          158.5          158.5         -2.6717793     -1.3162        -3.1818558     -3.5172821      134.14492    
     14980   131.91353      158.5          158.5          158.5          1.0338774      3.094304       1.4531112     -1.4457831      131.91353    
     15000   140.49026      158.5          158.5          158.5         -2.2895593     -4.6528757     -4.7598073      2.5440051      140.49026    
     15020   128.86771      158.5          158.5          158.5         -1.2156807     -4.8790779     -1.5447354      2.7767713      128.86771    
     15040   120.17453      158.5          158.5          158.5          2.0598877      6.2549534      1.1485656     -1.223856       120.17453    
     15060   131.15087      158.5          158.5          158.5          0.12616572     2.9525409     -1.6107254     -0.96331831     131.15087    
     15080   127.45014      158.5          158.5          158.5          0.69391693    -3.4486815     -0.41559089     5.9460232      127.45014    
     15100   143.15587      158.5          158.5          158.5         -1.186883      -2.0987339     -2.3178212      0.85590589     143.15587    
     15120   121.99989      158.5          158.5          158.5         -1.3665736      1.1368035     -1.4135579     -3.8229666      121.99989    
     15140   134.54456      158.5          158.5          158.5          1.3028328      1.0434887     -0.19910871     3.0641185      134.54456    
     15160   125.47906      158.5          158.5          158.5         -1.6868482     -2.5137543     -3.6768613      1.130071       125.47906    
     15180   138.49349      158.5          158.5          158.5         -0.12807239     0.25751703     1.6552744     -2.2970086      138.49349    
     15200   131.93623      158.5          158.5          158.5         -1.2736777     -2.9360015     -0.30923936    -0.57579208     131.93623    
     15220   135.47496      158.5          158.5          158.5         -1.5020638     -1.5944424     -2.8763177     -0.03543122     135.47496    
     15240   140.93699      158.5          158.5          158.5          2.3880727      4.8254459      4.4828863     -2.1441141      140.93699    
     15260   138.95383      158.5          158.5          158.5         -2.8589663     -5.2931533      1.9923465     -5.2760921      138.95383    
     15280   134.39659      158.5          158.5          158.5          2.0638033      1.7093446     -0.095705517    4.5777708      134.39659    
     15300   147.08949      158.5          158.5          158.5         -1.3589871      2.9669697     -5.400319      -1.6436122      147.08949    
     15320   133.44319      158.5          158.5          158.5         -1.5612987      1.7278243     -2.2819818     -4.1297387      133.44319    
     15340   138.82964      158.5          158.5          158.5         -0.94307453    -5.2728515      2.5014559     -0.057827912    138.82964    
     15360   148.37699      158.5          158.5          158.5         -4.4077671     -4.8473575     -0.48128015    -7.8946636      148.37699    
     15380   143.72095      158.5          158.5          158.5          2.6757395      8.9219188     -1.3820743      0.48737396     143.72095    
     15400   130.58458      158.5          158.5          158.5         -3.0089011     -1.8920818     -4.6026762     -2.5319453      130.58458    
     15420   132.99024      158.5          158.5          158.5         -1.4037455     -2.5689968     -0.14414736    -1.4980925      132.99024    
     15440   143.64538      158.5          158.5          158.5          1.5542811      1.8694104      0.435384       2.3580489      143.64538    
     15460   138.03586      158.5          158.5          158.5         -3.8495635     -1.5276439     -5.0706333     -4.9504134      138.03586    
     15480   144.36891      158.5          158.5          158.5          5.0473547      5.0443774      4.5301535      5.5675333      144.36891    
     15500   145.31897      158.5          158.5          158.5          1.3825717     -2.3606876      4.3779598      2.1304429      145.31897    
     15520   134.62408      158.5          158.5          158.5         -2.2753365     -2.7593872      0.031772161   -4.0983944      134.62408    
     15540   129.20357      158.5          158.5          158.5          3.5116904      5.4550437      2.214344       2.8656836      129.20357    
     15560   141.81193      158.5          158.5          158.5         -1.6381154     -0.594769      -3.3384334     -0.98114373     141.81193    
     15580   139.05664      158.5          158.5          158.5         -0.12458245    -0.74579834     0.88124869    -0.5091977      139.05664    
     15600   135.39494      158.5          158.5          158.5          2.3446183      4.400948       1.0716511      1.5612558      135.39494    
     15620   127.03884      158.5          158.5          158.5         -0.071044225    0.85095671    -2.3076244      1.243535       127.03884    
     15640   130.50274      158.5          158.5          158.5          1.5679381     -1.0554956      3.4889213      2.2703886      130.50274    
     15660   134.26848      158.5          158.5          158.5          0.77066935    -2.9232221      2.095881       3.1393492      134.26848    
     15680   130.37781      158.5          158.5          158.5          1.5766175      0.15526552     1.1255127      3.4490743      130.37781    
     15700   137.87894      158.5          158.5          158.5          0.31495838     2.1795083     -0.61318089    -0.62145228     137.87894    
     15720   127.19095      158.5          158.5          158.5          1.5858957      0.96818464     0.27551489     3.5139876      127.19095    
     15740   146.50396      158.5          158.5          158.5         -0.72779689    -1.6074335     -0.088709611   -0.48724756     146.50396    
     15760   127.25011      158.5          158.5          158.5         -2.6886108     -1.2635132      0.14479149    -6.9471106      127.25011    
     15780   141.06359      158.5          158.5          158.5          0.34289484     1.7938638      1.619579      -2.3847583      141.06359    
     15800   127.75901      158.5          158.5          158.5         -1.5664085     -1.5428317     -3.0600186     -0.096375122    127.75901    
     15820   126.6211       158.5          158.5          158.5         -0.29303958    -0.23568218     0.064829818   -0.70826639     126.6211     
     15840   133.93862      158.5          158.5          158.5         -0.08202709     0.52743142     1.1381529     -1.9116656      133.93862    
     15860   145.0099       158.5          158.5          158.5          0.010653411   -0.4044204      0.56882205    -0.13244142     145.0099     
     15880   130.72667      158.5          158.5          158.5         -0.56906728    -1.9359255     -0.83244945     1.0611731      130.72667    
     15900   130.2084       158.5          158.5          158.5          2.4306311      3.6754206      2.796119       0.82035364     130.2084     
     15920   131.48037      158.5          158.5          158.5         -1.3546356      0.15746697     0.59742327    -4.8187972      131.48037    
     15940   140.98064      158.5          158.5          158.5         -1.3067175     -4.5659578      1.6758067     -1.0300013      140.98064    
     15960   128.40803      158.5          158.5          158.5          0.64827974    -1.9185968      0.70348515     3.1599508      128.40803    
     15980   120.37435      158.5          158.5          158.5         -1.6078441      0.75602241    -2.8524807     -2.727074       120.37435    
     16000   119.17155      158.5          158.5          158.5          0.93971204     1.9989673      1.268684      -0.44851517     119.17155    
     16020   120.53669      158.5          158.5          158.5          1.9242668      1.9068079      3.6907655      0.17522706     120.53669    
     16040   122.05303      158.5          158.5          158.5          0.06953358     0.83585605    -0.070138453   -0.55711686     122.05303    
     16060   118.20516      158.5          158.5          158.5         -2.9699853     -2.9708908     -4.8335633     -1.1055019      118.20516    
     16080   109.85854      158.5          158.5          158.5          1.9040604      2.3218336      0.96270262     2.4276449      109.85854    
     16100   112.21993      158.5          158.5          158.5         -1.7854564     -1.2679056     -1.5257214     -2.5627422      112.21993    
     16120   111.47895      158.5          158.5          158.5         -2.358458      -3.8833378     -2.690253      -0.50178305     111.47895    
     16140   102.85117      158.5          158.5          158.5          1.6631435      2.1950029      0.41817755     2.3762499      102.85117    
     16160   114.5858       158.5          158.5          158.5         -1.6875111      2.814413      -4.6786909     -3.1982556      114.5858     
     16180   106.09628      158.5          158.5          158.5          2.3056627      2.2961081      4.069257       0.55162282     106.09628    
     16200   103.07464      158.5          158.5          158.5          0.82470321    -2.0954177      1.7786227      2.7909046      103.07464    
     16220   115.62014      158.5          158.5          158.5         -0.8930048     -0.44700447    -5.4100454      3.1780354      115.62014    
     16240   109.30943      158.5          158.5          158.5          3.7866827      6.1435417      2.0835968      3.1329096      109.30943    
     16260   117.51603      158.5          158.5          158.5         -0.82783248    -1.4965689      0.22776069    -1.2146892      117.51603    
     16280   114.04569      158.5          158.5          158.5         -1.1202367     -3.6166641     -0.10434758     0.36030162     114.04569    
     16300   114.88471      158.5          158.5          158.5          1.08834        1.259818       0.56622179     1.4389803      114.88471    
     16320   116.88469      158.5          158.5          158.5         -0.97630758     1.2584375     -1.4580892     -2.7292711      116.88469    
     16340   128.20006      158.5          158.5          158.5         -1.4335701     -4.417105       0.37335738    -0.2569626      128.20006    
     16360   116.12745      158.5          158.5          158.5         -0.31034279    -2.7992748      1.3811974      0.48704905     116.12745    
     16380   136.44207      158.5          158.5          158.5         -0.72595931     1.365943      -3.4023976     -0.14142332     136.44207    
     16400   130.21894      158.5          158.5          158.5          0.73971152     0.3389521      1.6722873      0.20789514     130.21894    
     16420   121.45302      158.5          158.5          158.5          2.2240703      3.2493564      5.1258423     -1.7029877      121.45302    
     16440   137.60426      158.5          158.5          158.5         -0.039480433    1.8864195     -2.146809       0.14194816     137.60426    
     16460   118.889        158.5          158.5          158.5          2.3691977      1.4934931     -0.18857308     5.8026731      118.889      
     16480   137.61353      158.5          158.5          158.5          1.9818969      1.4796807      2.6282916      1.8377183      137.61353    
     16500   124.8679       158.5          158.5          158.5         -1.7015616     -1.4775038      1.6774716     -5.3046526      124.8679     
     16520   134.19466      158.5          158.5          158.5          2.0597127      1.1782122      2.5070382      2.4938878      134.19466    
     16540   118.14035      158.5          158.5          158.5          1.690249       0.68928591     0.61549577     3.7659652      118.14035    
     16560   133.62957      158.5          158.5          158.5         -3.1722259     -3.1147249     -3.0161083     -3.3858443      133.62957    
     16580   110.0303       158.5          158.5          158.5          1.0479561      4.1012153      0.64795037    -1.6052974      110.0303     
     16600   126.33094      158.5          158.5          158.5         -1.3432055     -0.59793452    -2.5361532     -0.89552866     126.33094    
     16620   120.01322      158.5          158.5          158.5         -1.2698465     -3.8218628     -1.1325598      1.1448831      120.01322    
     16640   108.9771       158.5          158.5          158.5          2.1658082      0.68646993     1.026248       4.7847066      108.9771     
     16660   100.89456      158.5          158.5          158.5         -3.0372501      2.5140906     -3.3317558     -8.2940851      100.89456    
     16680   116.61057      158.5          158.5          158.5         -0.13822958     1.6793604      0.58529734    -2.6793465      116.61057    
     16700   96.97654       158.5          158.5          158.5         -0.086444814   -4.6285549      1.4234136      2.9458069      96.97654     
     16720   110.2558       158.5          158.5          158.5         -1.0167526     -0.47862789    -1.8083861     -0.7632437      110.2558     
     16740   98.179566      158.5          158.5          158.5          0.38426371     3.1432458      0.080244428   -2.0706991      98.179566    
     16760   95.458299      158.5          158.5          158.5         -2.2342468     -1.826782      -1.6428699     -3.2330884      95.458299    
     16780   97.562207      158.5          158.5          158.5          0.30526398    -0.31815831     0.26798429     0.96596595     97.562207    
     16800   98.391945      158.5          158.5          158.5         -0.32710427     0.61964943    -3.6199457      2.0189835      98.391945    
     16820   79.249738      158.5          158.5          158.5          1.4615529      5.3024297     -0.96770392     0.049932877    79.249738    
     16840   92.5924        158.5          158.5          158.5          0.76737869     2.2838362      1.5782644     -1.5599645      92.5924      
     16860   99.69877       158.5          158.5          158.5          0.94445858    -2.8475711      0.19421932     5.4867275      99.69877     
     16880   95.791074      158.5          158.5          158.5          0.87339237    -2.0275836      1.7100931      2.9376676      95.791074    
     16900   111.33329      158.5          158.5          158.5          0.85211624     2.4568332      2.7716996     -2.6721841      111.33329    
     16920   101.61022      158.5          158.5          158.5         -0.28540593    -1.6014469      2.5598948     -1.8146657      101.61022    
     16940   102.69072      158.5          158.5          158.5         -1.7959257     -2.740406      -3.495401       0.8480299      102.69072    
     16960   119.49097      158.5          158.5          158.5          1.067939       0.9727833     -1.7152107      3.9462442      119.49097    
     16980   108.84645      158.5          158.5          158.5         -0.7413127      3.8476381     -2.386552      -3.6850242      108.84645    
     17000   100.69535      158.5          158.5          158.5          0.26886979     1.8807388     -0.29790918    -0.77622024     100.69535    
     17020   109.03442      158.5          158.5          158.5          2.7529506     -2.3850712      2.8525923      7.7913307      109.03442    
     17040   107.7661       158.5          158.5          158.5          0.74101089    -1.4411753      0.57604789     3.0881601      107.7661     
     17060   111.91497      158.5          158.5          158.5          0.97226322     1.8987043      2.0309703     -1.0128849      111.91497    
     17080   121.90451      158.5          158.5          158.5          0.23267235     1.2494909      1.4508422     -2.0023161      121.90451    
     17100   103.50239      158.5          158.5          158.5          2.3981996      1.771144       0.61417706     4.8092776      103.50239    
     17120   115.8796       158.5          158.5          158.5          1.057012      -0.39386793    -0.48696717     4.051871       115.8796     
     17140   115.19224      158.5          158.5          158.5         -2.9217236     -0.11825482    -4.544304      -4.102612       115.19224    
     17160   113.31366      158.5          158.5          158.5          1.0190434      5.9312114      0.073150937   -2.9472321      113.31366    
     17180   117.82367      158.5          158.5          158.5          0.55981365    -1.1988075      1.2893873      1.5888612      117.82367    
     17200   117.04978      158.5          158.5          158.5         -0.093146639   -7.1507124      2.3092313      4.5620412      117.04978    
     17220   109.98562      158.5          158.5          158.5          2.7031797      4.4447981      4.8048299     -1.1400889      109.98562    
     17240   123.93615      158.5          158.5          158.5         -1.2810191      0.4701898      3.3048007     -7.6180477      123.93615    
     17260   115.18153      158.5          158.5          158.5         -2.59767       -7.0437058      1.0757987     -1.8251028      115.18153    
     17280   130.16702      158.5          158.5          158.5         -0.18135218    -1.5060361     -2.246757       3.2087365      130.16702    
     17300   109.77365      158.5          158.5          158.5         -2.0506555      0.30047882    -3.3235588     -3.1288867      109.77365    
     17320   113.77426      158.5          158.5          158.5          3.1541664      5.204687       5.2019069     -0.94409473     113.77426    
     17340   117.7336       158.5          158.5          158.5          1.4210479      0.65115641     3.8891914     -0.27720411     117.7336     
     17360   110.1824       158.5          158.5          158.5         -1.3049501     -3.4118574     -1.4682538      0.96526084     110.1824     
     17380   116.26192      158.5          158.5          158.5          4.295002       5.4265004      1.8112748      5.6472309      116.26192    
     17400   113.37805      158.5          158.5          158.5         -1.6247016     -0.039833951   -2.6313926     -2.2028784      113.37805    
     17420   107.79735      158.5          158.5          158.5         -2.1298386     -3.1728033     -0.17422578    -3.0424867      107.79735    
     17440   114.3251       158.5          158.5          158.5          2.8463223     -0.52929676     2.400925       6.6673388      114.3251     
     17460   107.88369      158.5          158.5          158.5         -1.2742363     -2.1383295     -3.7811648      2.0967854      107.88369    
     17480   119.40007      158.5          158.5          158.5         -0.57823837    -0.32051526    -1.8441362      0.42993631     119.40007    
     17500   95.053528      158.5          158.5          158.5          0.49603639    -2.5816784      3.8575383      0.21224921     95.053528    
     17520   105.36524      158.5          158.5          158.5         -1.093462      -4.7356218      2.0128947     -0.55765894     105.36524    
     17540   106.6474       158.5          158.5          158.5          2.2573724      4.4342755      1.274364       1.0634777      106.6474     
     17560   103.53921      158.5          158.5          158.5         -1.1570716      1.7139837     -3.6178737     -1.5673247      103.53921    
     17580   99.177597      158.5          158.5          158.5         -0.13930104    -3.6267368      1.8590272      1.3498065      99.177597    
     17600   105.59026      158.5          158.5          158.5         -0.2257641     -0.41174387    -0.79737952     0.53183109     105.59026    
     17620   111.28266      158.5          158.5          158.5         -0.54052335     4.1924889     -4.0586916     -1.7553673      111.28266    
     17640   104.01812      158.5          158.5          158.5         -0.43092487    -3.2793568      1.3226036      0.66397856     104.01812    
     17660   97.301413      158.5          158.5          158.5         -1.9411231     -3.5236313     -0.43493524    -1.8648028      97.301413    
     17680   96.775753      158.5          158.5          158.5         -0.44107724    -0.18364516    -0.20872909    -0.93085748     96.775753    
     17700   94.448334      158.5          158.5          158.5          0.39698266     0.44025292     0.044292114    0.70640296     94.448334    
     17720   94.389122      158.5          158.5          158.5          0.23427278     2.1254184      1.039335      -2.461935       94.389122    
     17740   89.910447      158.5          158.5          158.5          0.020338005    1.4213267     -0.66894776    -0.6913649      89.910447    
     17760   99.764874      158.5          158.5          158.5         -0.64582513     0.47059471    -0.85968144    -1.5483886      99.764874    
     17780   77.666283      158.5          158.5          158.5         -0.79112757     2.5260537     -5.3402593      0.44082293     77.666283    
     17800   80.746594      158.5          158.5          158.5          3.0398888      4.420814      -0.92238816     5.6212405      80.746594    
     17820   90.732288      158.5          158.5          158.5          3.5757147      1.1980126      8.7260637      0.80306765     90.732288    
     17840   86.918985      158.5          158.5          158.5         -1.5183427     -4.1231515      4.7654807     -5.1973572      86.918985    
     17860   92.305973      158.5          158.5          158.5          4.3049163      6.3797231      2.3508095      4.1842163      92.305973    
     17880   83.076211      158.5          158.5          158.5          0.044352585   -0.22156821    -1.7293785      2.0840045      83.076211    
     17900   71.565353      158.5          158.5          158.5         -3.1723879     -4.2541244     -2.4619566     -2.8010827      71.565353    
     17920   76.374812      158.5          158.5          158.5          2.9284153      3.2374663      4.2309187      1.3168609      76.374812    
     17940   85.530119      158.5          158.5          158.5         -2.9301922      0.64745684    -7.0243082     -2.4137251      85.530119    
     17960   69.993975      158.5          158.5          158.5          0.81616192     4.4219123     -3.0906262      1.1171997      69.993975    
     17980   80.069925      158.5          158.5          158.5          1.0931494     -0.1888037      3.962808      -0.49455599     80.069925    
     18000   70.197713      158.5          158.5          158.5         -3.9390272     -5.449293      -1.345166      -5.0226226      70.197713    
     18020   75.347768      158.5          158.5          158.5          2.1589665      3.2225236      1.0785483      2.1758276      75.347768    
     18040   78.099671      158.5          158.5          158.5         -2.5114054     -3.9995284     -4.1107051      0.57601736     78.099671    
     18060   76.357983      158.5          158.5          158.5          0.038073241    0.27205503    -0.42925864     0.27142333     76.357983    
     18080   80.096054      158.5          158.5          158.5          3.7582466      4.6644009      2.6183233      3.9920155      80.096054    
     18100   82.51507       158.5          158.5          158.5         -0.072737036   -1.2664453      0.057315368    0.99091878     82.51507     
     18120   75.56627       158.5          158.5          158.5          0.4212074      0.7587831     -0.13551353     0.64035261     75.56627     
     18140   85.413896      158.5          158.5          158.5          0.34349038     1.807867      -0.92415131     0.1467554      85.413896    
     18160   81.552153      158.5          158.5          158.5         -1.4750146     -1.8192452      0.23358376    -2.8393824      81.552153    
     18180   80.790777      158.5          158.5          158.5          0.23694684    -2.4157244      1.3514225      1.7751425      80.790777    
     18200   84.0235        158.5          158.5          158.5          1.1324381      0.59876286    -0.31403083     3.1125824      84.0235      
     18220   86.897573      158.5          158.5          158.5          0.77899333     0.32955061     2.1724609     -0.16503149     86.897573    
     18240   88.494804      158.5          158.5          158.5         -0.10208569    -1.7917052      2.4436772     -0.95822907     88.494804    
     18260   100.70778      158.5          158.5          158.5         -0.46368646     0.7585765     -1.8917019     -0.25793398     100.70778    
     18280   90.063765      158.5          158.5          158.5          0.84651585     3.0974024     -0.53003203    -0.02782283     90.063765    
     18300   98.482223      158.5          158.5          158.5          0.6885911     -1.7193771      2.4399413      1.3452091      98.482223    
     18320   100.57274      158.5          158.5          158.5          0.048410285    1.0849802      0.61960791    -1.5593572      100.57274    
     18340   94.701168      158.5          158.5          158.5          2.4310467      2.4255773      1.0410111      3.8265517      94.701168    
     18360   89.824662      158.5          158.5          158.5          0.9734196     -1.6922615      4.7966577     -0.1841374      89.824662    
     18380   92.230611      158.5          158.5          158.5         -0.52715081     0.16742068     0.15685112    -1.9057242      92.230611    
     18400   90.458717      158.5          158.5          158.5         -0.14598377     4.4281708     -1.2196559     -3.6464662      90.458717    
     18420   94.539764      158.5          158.5          158.5         -3.2289869     -1.1158032     -4.4122822     -4.1588752      94.539764    
     18440   81.174393      158.5          158.5          158.5          1.9250697      2.0898488      0.60625315     3.0791072      81.174393    
     18460   89.707437      158.5          158.5          158.5         -1.1263113     -1.0035746     -1.838782      -0.53657733     89.707437    
     18480   80.771696      158.5          158.5          158.5         -1.5785181     -1.7341596     -2.0117903     -0.98960447     80.771696    
     18500   65.550795      158.5          158.5          158.5          4.2754949      8.0605964      2.8534012      1.9124871      65.550795    
     18520   79.29506       158.5          158.5          158.5          0.63245085     2.4150574      2.4374152     -2.95512        79.29506     
     18540   64.208886      158.5          158.5          158.5          2.6759722     -1.5788179      3.2820722      6.3246624      64.208886    
     18560   72.725617      158.5          158.5          158.5          0.4755815      0.30869206    -1.0613129      2.1793653      72.725617    
     18580   48.778273      158.5          158.5          158.5         -3.9359158     -2.0110272     -5.2886484     -4.5080719      48.778273    
     18600   55.801469      158.5          158.5          158.5         -1.2091684     -1.0591738      0.9605929     -3.5289244      55.801469    
     18620   51.792715      158.5          158.5          158.5         -2.6002556     -2.264282      -4.4125433     -1.1239415      51.792715    
     18640   51.395563      158.5          158.5          158.5         -0.83897136     0.66154332    -3.3320125      0.1535551      51.395563    
     18660   38.331322      158.5          158.5          158.5         -0.11426749     0.75015822    -0.34706006    -0.74590064     38.331322    
     18680   36.833734      158.5          158.5          158.5         -0.7809828     -1.9985184      0.15574571    -0.50017573     36.833734    
     18700   45.026651      158.5          158.5          158.5         -0.036158745   -3.476455       2.7799071      0.58807162     45.026651    
     18720   38.612278      158.5          158.5          158.5          1.3518519      0.16359437     2.8371136      1.0548478      38.612278    
     18740   45.769362      158.5          158.5          158.5         -1.8046544     -1.5634104     -0.19613633    -3.6544163      45.769362    
     18760   26.159192      158.5          158.5          158.5          0.76832641     0.56940286     0.16275809     1.5728183      26.159192    
     18780   47.445765      158.5          158.5          158.5          0.94841269    -0.84203277     1.240144       2.4471269      47.445765    
     18800   18.16052       158.5          158.5          158.5          1.3875815      2.4973967     -0.44275955     2.1081075      18.16052     
     18820   39.739412      158.5          158.5          158.5          3.9229074      3.2143595      3.3091446      5.2452182      39.739412    
     18840   45.236268      158.5          158.5          158.5         -1.7644103     -4.5030692     -1.541939       0.75177723     45.236268    
     18860   39.855834      158.5          158.5          158.5         -0.1044582     -1.3774288     -1.1522892      2.2163434      39.855834    
     18880   36.891842      158.5          158.5          158.5          1.8108346      0.096161961    0.29199646     5.0443453      36.891842    
     18900   35.819251      158.5          158.5          158.5         -1.4705512     -1.6539109     -4.2505432      1.4928005      35.819251    
     18920   27.171756      158.5          158.5          158.5          0.4914372      4.0636369     -2.6164961      0.027170804    27.171756    
     18940   43.839622      158.5          158.5          158.5          0.30289742     1.7787404      0.94029438    -1.8103425      43.839622    
     18960   30.888915      158.5          158.5          158.5          0.31969273    -0.88154892     0.82605903     1.0145681      30.888915    
     18980   33.493656      158.5          158.5          158.5         -4.514754      -5.8988222     -3.8356892     -3.8097506      33.493656    
     19000   14.954101      158.5          158.5          158.5         -0.3765141     -1.3183353     -1.5619987      1.7507917      14.954101    
     19020   27.692473      158.5          158.5          158.5         -3.1069236     -1.756533      -4.0737647     -3.490473       27.692473    
     19040   11.884925      158.5          158.5          158.5         -2.7165372     -2.615335      -3.375747      -2.1585297      11.884925    
     19060   17.787727      158.5          158.5          158.5          5.974552       4.5683661      5.7157655      7.6395243      17.787727    
     19080   28.407716      158.5          158.5          158.5         -0.60153291     0.28558021    -1.3623996     -0.72777939     28.407716    
     19100   9.832464       158.5          158.5          158.5         -2.5359833     -0.11044886    -5.728632      -1.768869       9.832464     
     19120   14.053714      158.5          158.5          158.5          0.27891029    -1.1197698     -0.17624138     2.1327421      14.053714    
     19140  -16.639299      158.5          158.5          158.5         -3.7579887     -5.5363998     -2.8751107     -2.8624556     -16.639299    
     19160   3.3298247      158.5          158.5          158.5          3.7991779      4.1868387      0.54406696     6.6666282      3.3298247    
     19180  -5.2961853      158.5          158.5          158.5         -1.8324015     -2.9738844     -1.0103916     -1.5129285     -5.2961853    
     19200   4.9089708      158.5          158.5          158.5          4.7404888      5.6606125      5.7736314      2.7872224      4.9089708    
     19220  -19.36855       158.5          158.5          158.5          2.5048277      2.3216444      1.7984285      3.39441       -19.36855     
     19240  -7.4886812      158.5          158.5          158.5          0.55815605    -1.3987943      1.2019198      1.8713427     -7.4886812    
     19260  -25.199171      158.5          158.5          158.5          3.01808        4.0751721     -0.050109991    5.0291779     -25.199171    
     19280  -8.1479609      158.5          158.5          158.5         -1.8964448     -1.9957807     -0.18802931    -3.5055244     -8.1479609    
     19300  -15.972568      158.5          158.5          158.5          4.1541802      0.046994752    7.8662929      4.5492529     -15.972568    
     19320  -20.630575      158.5          158.5          158.5          0.55933526     0.85338787    -1.2387164      2.0633343     -20.630575    
     19340  -20.960016      158.5          158.5          158.5         -1.7694171      2.1633524     -5.3840724     -2.0875314     -20.960016    
     19360  -31.540356      158.5          158.5          158.5          2.3191384      0.063858349    6.4883816      0.4051751     -31.540356    
     19380  -14.075367      158.5          158.5          158.5         -1.8571178     -4.4029897      1.1705245     -2.3388881     -14.075367    
     19400  -12.793787      158.5          158.5          158.5         -0.15128044     2.9789235     -3.9817693      0.54900452    -12.793787    
     19420  -28.773669      158.5          158.5          158.5          2.0000935      2.9542971      3.6108098     -0.56482634    -28.773669    
     19440  -25.780118      158.5          158.5          158.5         -1.5304902     -4.9636032      5.9235385     -5.551406      -25.780118    
     19460  -21.007905      158.5          158.5          158.5          0.2877662      0.31567185    -0.6652393      1.212866      -21.007905    
     19480  -33.494983      158.5          158.5          158.5         -1.3994532     -0.15850087    -2.2055776     -1.8342812     -33.494983    
     19500  -16.248765      158.5          158.5          158.5         -1.5087485      0.19251229    -2.4763474     -2.2424104     -16.248765    
     19520  -30.001307      158.5          158.5          158.5         -2.0968379     -3.0206849     -1.7288843     -1.5409445     -30.001307    
     19540  -24.544881      158.5          158.5          158.5          1.3771447     -1.3967378      3.2088538      2.3193182     -24.544881    
     19560  -23.04986       158.5          158.5          158.5         -1.2210465      0.60248901    -0.21023658    -4.055392      -23.04986     
     19580  -32.891246      158.5          158.5          158.5         -3.4798877     -2.4528744     -6.8005798     -1.1862089     -32.891246    
     19600   1.9711187      158.5          158.5          158.5          0.19401987    -0.49958983    -2.9339452      4.0155947      1.9711187    
     19620  -19.651976      158.5          158.5          158.5         -2.0609692     -2.9441056      0.46304411    -3.7018461     -19.651976    
     19640  -6.889423       158.5          158.5          158.5          5.4092324      5.3717851      6.6011766      4.2547353     -6.889423     
     19660  -7.6564972      158.5          158.5          158.5         -3.6606822     -2.2110479     -5.118373      -3.6526257     -7.6564972    
     19680  -24.357809      158.5          158.5          158.5          5.425403       3.9699353      5.4440612      6.8622124     -24.357809    
     19700  -11.943489      158.5          158.5          158.5          0.71486697    -1.2914112      3.6844877     -0.24847554    -11.943489    
     19720  -13.290834      158.5          158.5          158.5         -3.1009674     -5.9289979     -1.334842      -2.0390623     -13.290834    
     19740  -7.6269023      158.5          158.5          158.5          6.4296796      5.41976        4.7409473      9.1283314     -7.6269023    
     19760  -10.428049      158.5          158.5          158.5         -7.3821973     -5.1672777     -10.44388      -6.535434      -10.428049    
     19780  -28.392496      158.5          158.5          158.5          3.9660202      6.6467852      2.8031859      2.4480894     -28.392496    
     19800  -21.374027      158.5          158.5          158.5          1.2187017      2.5084796      0.48260352     0.66502207    -21.374027    
     19820  -30.8619        158.5          158.5          158.5          0.67740951     0.76469132    -3.1330447      4.400582      -30.8619      
     19840  -26.129392      158.5          158.5          158.5          4.4293902      5.5216277      1.717847       6.048696      -26.129392    
     19860  -20.839076      158.5          158.5          158.5         -5.3577069     -2.3460743     -5.0456437     -8.6814026     -20.839076    
     19880  -43.715905      158.5          158.5          158.5          3.8932806      7.9974497      2.1388676      1.5435246     -43.715905    
     19900  -51.69659       158.5          158.5          158.5          1.2108002      2.8130325     -1.3217032      2.1410714     -51.69659     
     19920  -26.94713       158.5          158.5          158.5         -0.48644753    -3.6486502      2.2625043     -0.073196646   -26.94713     
     19940  -29.42487       158.5          158.5          158.5          3.0409071     -0.60415962     4.6375799      5.089301      -29.42487     
     19960  -34.041081      158.5          158.5          158.5         -3.6923345     -4.436965      -7.5009663      0.86092773    -34.041081    
     19980  -34.21192       158.5          158.5          158.5          0.41118456    -2.982724       2.2815715      1.9347062     -34.21192     
     20000  -60.999866      158.5          158.5          158.5         -3.6615707     -2.7931389     -1.7171556     -6.4744175     -60.999866    
     20020  -54.614176      158.5          158.5          158.5          0.57497841     0.090669387    0.077623428    1.5566424     -54.614176    
     20040  -55.935906      158.5          158.5          158.5          0.83665845    -1.6681364      4.010657       0.16745468    -55.935906    
     20060  -65.268948      158.5          158.5          158.5         -0.99322794    -2.266287       2.4602366     -3.1736335     -65.268948    
     20080  -53.149568      158.5          158.5          158.5          2.8878058      1.8364522      2.3292625      4.4977026     -53.149568    
     20100  -62.454833      158.5          158.5          158.5          0.95909494     5.8424844     -2.9456042     -0.019595403   -62.454833    
     20120  -63.109511      158.5          158.5          158.5         -2.0748621     -0.66736305     0.9738458     -6.5310689     -63.109511    
     20140  -57.633695      158.5          158.5          158.5         -0.93727554    -1.3954922     -0.71255065    -0.70378383    -57.633695    
     20160  -61.773655      158.5          158.5          158.5         -3.8573578     -4.6839334     -4.7789565     -2.1091834     -61.773655    
     20180  -63.571452      158.5          158.5          158.5          0.67700923     0.85185741     3.4325262     -2.2533559     -63.571452    
     20200  -70.811869      158.5          158.5          158.5         -0.0031411445   2.4173623     -0.51862073    -1.908165      -70.811869    
     20220  -70.611378      158.5          158.5          158.5         -1.4602989      0.20999672    -4.1510116     -0.43988189    -70.611378    
     20240  -57.390281      158.5          158.5          158.5          2.6338517      2.6531336      2.052856       3.1955654     -57.390281    
     20260  -68.446143      158.5          158.5          158.5         -0.47038548     0.73829554     1.1366558     -3.2861078     -68.446143    
     20280  -74.600524      158.5          158.5          158.5          3.5133459      6.1792812     -0.24116721     4.6019236     -74.600524    
     20300  -50.780726      158.5          158.5          158.5          1.7668348      6.0566534     -3.1910321      2.434883      -50.780726    
     20320  -65.550599      158.5          158.5          158.5         -1.1404418     -0.29308608    -0.62138043    -2.5068589     -65.550599    
     20340  -55.976533      158.5          158.5          158.5          3.9647004      2.8146872      5.0794417      3.9999722     -55.976533    
     20360  -63.402899      158.5          158.5          158.5         -7.1033445     -11.12151      -7.9880238     -2.2005002     -63.402899    
     20380  -68.623661      158.5          158.5          158.5          3.9447467      5.9813745     -0.054310476    5.907176      -68.623661    
     20400  -53.990427      158.5          158.5          158.5         -0.96673432     1.9307183     -5.7062976      0.87537633    -53.990427    
     20420  -45.491508      158.5          158.5          158.5         -1.8697658     -7.3758101     -1.7171087      3.4836216     -45.491508    
     20440  -47.288077      158.5          158.5          158.5          4.0570714      1.4782356      5.0372956      5.655683      -47.288077    
     20460  -40.481514      158.5          158.5          158.5         -6.697141      -1.9757422     -9.5878689     -8.5278118     -40.481514    
     20480  -37.705238      158.5          158.5          158.5          3.2573005      1.9817719      2.8024706      4.9876591     -37.705238    
     20500  -47.216557      158.5          158.5          158.5         -0.88597537    -3.1919247      0.0067345929   0.52726404    -47.216557    
     20520  -37.722564      158.5          158.5          158.5         -1.6706289     -2.8250688      0.2586946     -2.4455126     -37.722564    
     20540  -41.330519      158.5          158.5          158.5          0.27394427     1.0434015     -0.75483398     0.53326526    -41.330519    
     20560  -38.76688       158.5          158.5          158.5         -3.4486218     -0.7652609     -8.0500853     -1.5305193     -38.76688     
     20580  -40.388828      158.5          158.5          158.5          1.5685124      1.4106045      3.745269      -0.45033631    -40.388828    
     20600  -42.833934      158.5          158.5          158.5          2.2042975     -2.6625648      4.4030542      4.8724031     -42.833934    
     20620  -35.967247      158.5          158.5          158.5          0.49879       -0.28068966     0.68123725     1.0958224     -35.967247    
     20640  -44.1794        158.5          158.5          158.5          0.20363173     5.5907133     -2.7551661     -2.224652      -44.1794      
     20660  -37.11017       158.5          158.5          158.5          1.9343643      1.5060439      2.0516646      2.2453843     -37.11017     
     20680  -65.485505      158.5          158.5          158.5          1.1706062     -1.8072347      2.6284317      2.6906215     -65.485505    
     20700  -45.11564       158.5          158.5          158.5          1.2335984      4.4106123      1.8732001     -2.5830173     -45.11564     
     20720  -57.904025      158.5          158.5          158.5          1.7501243      5.6436223     -0.49444521     0.10119589    -57.904025    
     20740  -58.767258      158.5          158.5          158.5          0.5956748      2.5087814     -0.13626362    -0.58549342    -58.767258    
     20760  -53.178025      158.5          158.5          158.5          1.1076623     -1.2663289      2.8226022      1.7667135     -53.178025    
     20780  -59.249157      158.5          158.5          158.5          2.6698204     -0.32000159     4.1247909      4.204672      -59.249157    
     20800  -46.06143       158.5          158.5          158.5         -2.6553664     -1.6756384     -3.1620097     -3.128451      -46.06143     
     20820  -57.729417      158.5          158.5          158.5         -0.68405271    -1.548169      -1.4269791      0.92299002    -57.729417    
     20840  -47.853118      158.5          158.5          158.5         -3.4001135     -6.9829433     -3.0551621     -0.16223508    -47.853118    
     20860  -60.184935      158.5          158.5          158.5         -1.5302354     -3.6472691      0.12745512    -1.0708922     -60.184935    
     20880  -62.297354      158.5          158.5          158.5         -0.21441583     1.5559955     -0.098881282   -2.1003617     -62.297354    
     20900  -64.331855      158.5          158.5          158.5         -0.67585262     1.9587509     -3.3012613     -0.68504742    -64.331855    
     20920  -66.277086      158.5          158.5          158.5          0.63524844    -3.5200431      1.183135       4.2426534     -66.277086    
     20940  -61.18771       158.5          158.5          158.5         -2.3357481     -3.1456885     -1.579162      -2.2823939     -61.18771     
     20960  -62.116459      158.5          158.5          158.5          1.2693526      6.1955737      3.744955      -6.1324709     -62.116459    
     20980  -44.178392      158.5          158.5          158.5          1.1942867     -0.57642486     5.2558939     -1.0966089     -44.178392    
     21000  -40.557661      158.5          158.5          158.5         -0.65812635    -2.249199      -1.7537797      2.0285997     -40.557661    
     21020  -40.061492      158.5          158.5          158.5          2.2990887      2.186895       1.6421665      3.0682047     -40.061492    
     21040  -29.784051      158.5          158.5          158.5         -5.4971301     -6.4150199     -2.8230476     -7.253323      -29.784051    
     21060  -30.65818       158.5          158.5          158.5         -0.89472999     2.4661815     -0.56947339    -4.5808981     -30.65818     
     21080  -24.007626      158.5          158.5          158.5         -1.7399791     -3.5207768     -1.5478103     -0.15135019    -24.007626    
     21100  -18.543117      158.5          158.5          158.5         -3.9770411     -11.06982       1.6149586     -2.4762619     -18.543117    
     21120  -21.729979      158.5          158.5          158.5          4.7024023      7.7772209      4.0082197      2.3217662     -21.729979    
     21140  -48.032051      158.5          158.5          158.5         -1.9156015      3.3773593     -6.261959      -2.8622047     -48.032051    
     21160  -30.979293      158.5          158.5          158.5         -0.072680277   -4.4870898     -1.2509461      5.5199951     -30.979293    
     21180  -37.690869      158.5          158.5          158.5          1.4690612     -1.6333378      6.1776097     -0.1370884     -37.690869    
     21200  -39.059678      158.5          158.5          158.5          0.3297701      2.3220493      1.721033      -3.053772      -39.059678    
     21220  -31.274462      158.5          158.5          158.5          0.81381405     1.6891568      1.0251918     -0.27290647    -31.274462    
     21240  -30.538999      158.5          158.5          158.5          0.027652849   -1.7757708     -0.67117482     2.5299042     -30.538999    
     21260  -36.542655      158.5          158.5          158.5          1.4431811      1.3015887      1.8931654      1.134789      -36.542655    
     21280  -34.966799      158.5          158.5          158.5          1.7192567      0.58369305     1.1481884      3.4258887     -34.966799    
     21300  -48.850849      158.5          158.5          158.5          0.90406895     1.0574044      0.43906684     1.2157356     -48.850849    
     21320  -46.898405      158.5          158.5          158.5          2.1584415      1.5095115      1.2048409      3.7609723     -46.898405    
     21340  -44.117446      158.5          158.5          158.5          0.18605082     0.43400852     0.65908761    -0.53494369    -44.117446    
     21360  -40.194614      158.5          158.5          158.5          0.13336389     0.83872131     2.8944676     -3.3330973     -40.194614    
     21380  -46.21274       158.5          158.5          158.5          2.762659       3.2953878      2.4199941      2.572595      -46.21274     
     21400  -50.219124      158.5          158.5          158.5         -0.57570227     0.23611272     0.50765425    -2.4708738     -50.219124    
     21420  -43.395322      158.5          158.5          158.5          1.3632531      0.89756074     3.6593486     -0.46714994    -43.395322    
     21440  -53.804166      158.5          158.5          158.5         -0.19467333    -1.1458511      0.47946962     0.082361486   -53.804166    
     21460  -53.431006      158.5          158.5          158.5         -1.9016297     -2.2917858     -6.8312886      3.4181852     -53.431006    
     21480  -49.732079      158.5          158.5          158.5          2.1800205      3.9983239     -1.158656       3.7003934     -49.732079    
     21500  -45.52131       158.5          158.5          158.5         -0.90112147    -4.3565181      2.6087741     -0.95562043    -45.52131     
     21520  -47.720315      158.5          158.5          158.5         -1.0541626     -0.52012739    -1.8136644     -0.82869608    -47.720315    
     21540  -51.68551       158.5          158.5          158.5         -2.0164162      1.0787693     -4.6066296     -2.5213882     -51.68551     
     21560  -41.194391      158.5          158.5          158.5         -1.0156222     -2.0774621      1.0651424     -2.0345469     -41.194391    
     21580  -42.780551      158.5          158.5          158.5          1.0648875     -1.3327003      5.2834301     -0.75606714    -42.780551    
     21600  -30.687766      158.5          158.5          158.5         -1.1114034     -0.12385512    -3.1722267     -0.038128275   -30.687766    
     21620  -21.504358      158.5          158.5          158.5          1.6519735      2.818213      -1.7069576      3.8446651     -21.504358    
     21640  -37.619103      158.5          158.5          158.5         -0.66007463    -3.0265776      2.0285159     -0.98216215    -37.619103    
     21660  -29.453006      158.5          158.5          158.5         -3.95604       -3.8874156     -0.54754015    -7.4331641     -29.453006    
     21680  -31.456515      158.5          158.5          158.5          2.9662231      3.2457898      0.95781496     4.6950645     -31.456515    
     21700  -24.269022      158.5          158.5          158.5         -5.40854       -6.9205593     -4.2037552     -5.1013055     -24.269022    
     21720  -15.11933       158.5          158.5          158.5         -1.3232915     -0.037437874   -1.5397283     -2.3927084     -15.11933     
     21740  -35.28405       158.5          158.5          158.5         -0.86001514    -3.0434497      0.98352268    -0.52011841    -35.28405     
     21760  -14.930752      158.5          158.5          158.5         -4.6819556     -4.878143      -1.2711283     -7.8965956     -14.930752    
     21780  -37.607532      158.5          158.5          158.5          3.7750627      2.593238       2.9166725      5.8152776     -37.607532    
     21800  -34.508002      158.5          158.5          158.5         -1.8499703     -3.0302002     -0.98164732    -1.5380634     -34.508002    
     21820  -40.599552      158.5          158.5          158.5         -0.70476732    -1.3991872      2.2129196     -2.9280344     -40.599552    
     21840  -54.728533      158.5          158.5          158.5          0.79423431    -0.66878776    -0.93582887     3.9873196     -54.728533    
     21860  -49.569771      158.5          158.5          158.5         -1.1744932     -2.7440417     -2.3676662      1.5882284     -49.569771    
     21880  -46.746579      158.5          158.5          158.5          4.6419072      1.3970221      7.6546233      4.874076      -46.746579    
     21900  -54.431348      158.5          158.5          158.5         -3.6406612     -0.32734614    -7.8309387     -2.7636987     -54.431348    
     21920  -63.770878      158.5          158.5          158.5          2.0996775      0.6854675      1.6843038      3.9292614     -63.770878    
     21940  -52.167474      158.5          158.5          158.5         -1.1547085     -2.4099837      1.8643096     -2.9184516     -52.167474    
     21960  -60.00057       158.5          158.5          158.5         -2.1927109     -0.40029771    -1.171494      -5.006341      -60.00057     
     21980  -54.82188       158.5          158.5          158.5          4.428313       5.5216673      2.0150537      5.748218      -54.82188     
     22000  -68.396778      158.5          158.5          158.5          2.4099989     -0.0071402941   0.19494797     7.0421892     -68.396778    
     22020  -65.251589      158.5          158.5          158.5          0.44802541     0.87672322     3.5277163     -3.0603633     -65.251589    
     22040  -67.208993      158.5          158.5          158.5         -0.15848934     4.6620224     -0.35628433    -4.7812061     -67.208993    
     22060  -58.643941      158.5          158.5          158.5         -1.1370658     -2.8802965     -1.6387779      1.1078769     -58.643941    
     22080  -67.559827      158.5          158.5          158.5         -0.051584079    0.78049914    -0.27111761    -0.66413377    -67.559827    
     22100  -68.688918      158.5          158.5          158.5          0.018934196   -2.0270904      2.025014       0.058879025   -68.688918    
     22120  -80.575404      158.5          158.5          158.5          1.1993963      1.4255917      2.7153027     -0.54270552    -80.575404    
     22140  -70.800533      158.5          158.5          158.5          1.2544163      4.6770765      1.1318559     -2.0456836     -70.800533    
     22160  -83.544066      158.5          158.5          158.5          3.532781       2.9595206      3.9477576      3.6910647     -83.544066    
     22180  -74.589441      158.5          158.5          158.5          3.6576395      5.2406674      4.4686402      1.263611      -74.589441    
     22200  -72.596771      158.5          158.5          158.5         -2.0663358     -0.8409057     -2.6705152     -2.6875865     -72.596771    
     22220  -77.960056      158.5          158.5          158.5         -2.227492       0.29216106    -5.5358843     -1.4387526     -77.960056    
     22240  -75.879244      158.5          158.5          158.5         -3.1230338     -5.3801492     -3.4494617     -0.53949053    -75.879244    
     22260  -76.050625      158.5          158.5          158.5          0.54631302    -1.2066379     -2.5574217      5.4029987     -76.050625    
     22280  -90.393395      158.5          158.5          158.5          0.67810803     2.5293556     -3.398259       2.9032275     -90.393395    
     22300  -90.3286        158.5          158.5          158.5         -2.2401813     -2.5661915     -1.4900805     -2.664272      -90.3286      
     22320  -94.354916      158.5          158.5          158.5          0.99078547     2.3432856     -1.5231672      2.152238      -94.354916    
     22340  -105.90095      158.5          158.5          158.5         -0.75185562     0.32527929    -1.8269192     -0.75392694    -105.90095    
     22360  -88.338846      158.5          158.5          158.5         -1.2447244     -1.6278459      2.7135409     -4.8198682     -88.338846    
     22380  -85.795993      158.5          158.5          158.5          1.9379122      2.5657969      2.160061       1.0878787     -85.795993    
     22400  -92.057679      158.5          158.5          158.5         -5.2225696     -2.1308528     -8.2818555     -5.2550007     -92.057679    
     22420  -86.553742      158.5          158.5          158.5          4.9511122      6.6010795      0.63752995     7.614727      -86.553742    
     22440  -95.203142      158.5          158.5          158.5          0.91360972    -1.4278281      5.0288744     -0.86021715    -95.203142    
     22460  -88.077599      158.5          158.5          158.5          1.1445654     -0.29527376     3.2767416      0.45222822    -88.077599    
     22480  -84.152885      158.5          158.5          158.5          2.0922395      3.7790647     -5.011259       7.508913      -84.152885    
     22500  -58.072999      158.5          158.5          158.5         -4.944086      -1.876799      -5.3641406     -7.5913185     -58.072999    
     22520  -80.832253      158.5          158.5          158.5          4.3315768      3.1722507      9.7416815      0.080798324   -80.832253    
     22540  -77.698348      158.5          158.5          158.5         -1.4609846     -5.2395952      1.5192308     -0.66258949    -77.698348    
     22560  -59.212841      158.5          158.5          158.5         -0.30219587     4.2215015     -2.1102381     -3.017851      -59.212841    
     22580  -68.268093      158.5          158.5          158.5          3.8772794      8.5377643      2.3514326      0.74264136    -68.268093    
     22600  -69.677809      158.5          158.5          158.5         -3.7472284     -7.222651       0.8763245     -4.8953586     -69.677809    
     22620  -62.537336      158.5          158.5          158.5          1.3161933     -2.6661468      5.3099156      1.3048112     -62.537336    
     22640  -71.226795      158.5          158.5          158.5         -3.8260573     -3.2197931     -3.7740105     -4.4843685     -71.226795    
     22660  -53.920321      158.5          158.5          158.5          1.1137447      3.2082467     -1.5044415      1.637429      -53.920321    
     22680  -64.195611      158.5          158.5          158.5          1.1307165      1.266916      -0.51280773     2.6380413     -64.195611    
     22700  -44.614918      158.5          158.5          158.5          2.5320155     -3.0332766      8.5893171      2.0400061     -44.614918    
     22720  -63.502208      158.5          158.5          158.5          5.1143469      5.7218576      5.7457272      3.875456      -63.502208    
     22740  -53.725558      158.5          158.5          158.5         -5.9462843     -3.2182159     -8.0625212     -6.5581156     -53.725558    
     22760  -66.932466      158.5          158.5          158.5          2.93897        4.1837415      2.0417495      2.591419      -66.932466    
     22780  -35.695253      158.5          158.5          158.5         -0.099488541   -2.6880958      2.1009459      0.28868428    -35.695253    
     22800  -48.026598      158.5          158.5          158.5          0.34805969    -5.0610824      2.6002273      3.5050341     -48.026598    
     22820  -52.212287      158.5          158.5          158.5          2.9315775      3.906967      -0.47059824     5.3583637     -52.212287    
     22840  -42.133961      158.5          158.5          158.5         -4.5191873     -5.058688      -7.0940206     -1.4048533     -42.133961    
     22860  -52.230376      158.5          158.5          158.5          0.16634148    -1.4529089      1.5215678      0.43036553    -52.230376    
     22880  -47.678293      158.5          158.5          158.5         -1.0243556     -0.62043334    -1.2674254     -1.185208      -47.678293    
     22900  -41.096935      158.5          158.5          158.5          0.31389467     2.7549728     -1.1330881     -0.68020066    -41.096935    
     22920  -57.915987      158.5          158.5          158.5          2.958435       6.1002583      1.4399458      1.3351009     -57.915987    
     22940  -42.32245       158.5          158.5          158.5         -0.64012833    -1.683978      -2.3816465      2.1452395     -42.32245     
     22960  -69.707244      158.5          158.5          158.5          0.80666241     0.17643431     0.77653211     1.4670208     -69.707244    
     22980  -61.214605      158.5          158.5          158.5         -0.45146894     0.95826482     2.0749985     -4.3876702     -61.214605    
     23000  -55.176938      158.5          158.5          158.5         -0.71064255     0.033245543   -0.084626808   -2.0805464     -55.176938    
     23020  -54.5484        158.5          158.5          158.5          1.1027954      0.71366711     2.4504488      0.14427045    -54.5484      
     23040  -76.420535      158.5          158.5          158.5         -1.7085446     -2.2969404      0.38790418    -3.2165977     -76.420535    
     23060  -66.669479      158.5          158.5          158.5         -1.2313341     -0.5960888     -1.5210533     -1.5768602     -66.669479    
     23080  -63.39787       158.5          158.5          158.5         -0.22472003    -4.0177205     -1.1012104      4.4447708     -63.39787     
     23100  -68.120049      158.5          158.5          158.5         -3.838944      -5.1451654     -2.5570647     -3.814602      -68.120049    
     23120  -66.750615      158.5          158.5          158.5          3.3016042      7.9681808      4.6881872     -2.7515555     -66.750615    
     23140  -65.725768      158.5          158.5          158.5          3.8118715      3.8801204      1.9579926      5.5975014     -65.725768    
     23160  -67.5588        158.5          158.5          158.5         -1.9388383     -3.8375468     -1.1470291     -0.83193897    -67.5588      
     23180  -80.463004      158.5          158.5          158.5          0.14897698     1.6751221     -0.17830585    -1.0498853     -80.463004    
     23200  -65.847281      158.5          158.5          158.5         -2.3593207     -3.5868328     -4.7189293      1.2277999     -65.847281    
     23220  -67.952167      158.5          158.5          158.5          1.5237777     -3.8188919      6.5004859      1.889739      -67.952167    
     23240  -64.441519      158.5          158.5          158.5          2.212833      -0.19695405     4.0895039      2.7459491     -64.441519    
     23260  -55.830143      158.5          158.5          158.5         -3.6557        -0.44576174    -5.3830744     -5.138264      -55.830143    
     23280  -57.071558      158.5          158.5          158.5          1.6558837      2.6469983     -1.3998847      3.7205376     -57.071558    
     23300  -70.14036       158.5          158.5          158.5         -5.5323625     -6.8179911     -4.6379335     -5.1411627     -70.14036     
     23320  -49.482947      158.5          158.5          158.5          4.5623547      3.7544017      5.9536075      3.9790549     -49.482947    
     23340  -64.206266      158.5          158.5          158.5         -0.23096232    -1.8951574      1.9187692     -0.71649876    -64.206266    
     23360  -38.719036      158.5          158.5          158.5          0.23341721     6.2844761     -3.8252434     -1.758981      -38.719036    
     23380  -50.555988      158.5          158.5          158.5          6.7245827      10.663535      5.3951849      4.1150288     -50.555988    
     23400  -64.531539      158.5          158.5          158.5         -2.1877792     -6.0541181      0.21723529    -0.72645483    -64.531539    
     23420  -49.71831       158.5          158.5          158.5         -2.2967883     -7.2443165     -1.0100712      1.364023      -49.71831     
     23440  -68.570856      158.5          158.5          158.5         -5.1540297     -10.219203     -3.9162987     -1.3265878     -68.570856    
     23460  -46.461291      158.5          158.5          158.5          0.62657953     0.54285704     0.21627091     1.1206106     -46.461291    
     23480  -52.241299      158.5          158.5          158.5          2.6556578      0.90663925     3.5704901      3.489844      -52.241299    
     23500  -66.687258      158.5          158.5          158.5         -1.9490023     -4.4517672     -0.56135073    -0.83388892    -66.687258    
     23520  -66.25636       158.5          158.5          158.5         -1.7752047     -3.52042        1.6092483     -3.4144425     -66.25636     
     23540  -71.383973      158.5          158.5          158.5         -0.31524285    -2.3329131     -2.0651532      3.4523378     -71.383973    
     23560  -77.099577      158.5          158.5          158.5          1.7553342      2.9633385     -1.7153197      4.0179837     -77.099577    
     23580  -68.518197      158.5          158.5          158.5         -1.4740175      0.51354689    -0.79593487    -4.1396644     -68.518197    
     23600  -76.145958      158.5          158.5          158.5          1.8632997      1.5302824      1.6175973      2.4420194     -76.145958    
     23620  -78.506474      158.5          158.5          158.5         -1.5224683     -2.0067365     -0.4815091     -2.0791592     -78.506474    
     23640  -88.454295      158.5          158.5          158.5         -2.8062043     -1.4815534     -3.1148405     -3.8222189     -88.454295    
     23660  -82.311433      158.5          158.5          158.5         -0.5385951     -5.0208048     -1.0448235      4.449843      -82.311433    
     23680  -76.190975      158.5          158.5          158.5         -1.918758      -4.386692       3.2267375     -4.5963196     -76.190975    
     23700  -78.93974       158.5          158.5          158.5          1.190367       3.1438147      0.92619763    -0.49891124    -78.93974     
     23720  -70.730745      158.5          158.5          158.5          0.92813604     0.83643095    -2.8070955      4.7550727     -70.730745    
     23740  -78.533946      158.5          158.5          158.5         -2.2990983     -3.3268267      1.3022479     -4.8727162     -78.533946    
     23760  -67.45689       158.5          158.5          158.5          0.23958316    -3.8262209      4.1566575      0.38831289    -67.45689     
     23780  -69.967727      158.5          158.5          158.5          2.5831484      1.6308737      3.3444635      2.7741079     -69.967727    
     23800  -79.25894       158.5          158.5          158.5          2.9572723      3.6641104      2.5305809      2.6771257     -79.25894     
     23820  -63.426043      158.5          158.5          158.5          1.6784669      2.5066677     -2.006314       4.5350468     -63.426043    
     23840  -78.983803      158.5          158.5          158.5         -4.9861935     -4.4451098     -3.5929345     -6.9205362     -78.983803    
     23860  -54.20738       158.5          158.5          158.5          0.77540869     0.41115869     1.6675189      0.24754842    -54.20738     
     23880  -69.43516       158.5          158.5          158.5          1.920174       1.0691471     -1.0067808      5.6981556     -69.43516     
     23900  -58.186099      158.5          158.5          158.5         -0.036294026   -2.3331911      2.8326592     -0.60835017    -58.186099    
     23920  -46.493698      158.5          158.5          158.5          4.542402       4.1864623      5.2641513      4.1765924     -46.493698    
     23940  -48.011692      158.5          158.5          158.5         -4.1547893     -2.2504904     -11.40088       1.1870028     -48.011692    
     23960  -53.253855      158.5          158.5          158.5          2.3783908      4.0747793      1.544576       1.5158172     -53.253855    
     23980  -64.377894      158.5          158.5          158.5         -0.41315899    -1.469667       5.4495716     -5.2193815     -64.377894    
     24000  -44.553963      158.5          158.5          158.5         -1.2167216     -1.1583342     -3.3623831      0.87055259    -44.553963    
     24020  -70.043404      158.5          158.5          158.5          6.2203445      5.9409937      4.1824939      8.537546      -70.043404    
     24040  -53.665342      158.5          158.5          158.5         -2.8867613     -0.87556615    -0.8384152     -6.9463026     -53.665342    
     24060  -56.875018      158.5          158.5          158.5          1.3272597      0.37322113     5.074812      -1.4662541     -56.875018    
     24080  -57.145313      158.5          158.5          158.5          1.2867316     -0.68575302     2.2843864      2.2615614     -57.145313    
     24100  -75.515573      158.5          158.5          158.5         -0.54507577     2.0373096     -3.6372208     -0.035316104   -75.515573    
     24120  -54.706999      158.5          158.5          158.5          0.64075348    -0.2392053      0.63060583     1.5308599     -54.706999    
     24140  -72.602159      158.5          158.5          158.5          0.23312901    -0.68151134     4.7656354     -3.3847371     -72.602159    
     24160  -66.563986      158.5          158.5          158.5          0.52965473     2.5322865     -2.2175325      1.2742102     -66.563986    
     24180  -63.455126      158.5          158.5          158.5         -4.0950704     -7.8965632     -2.9755869     -1.413061      -63.455126    
     24200  -81.357546      158.5          158.5          158.5          2.3620122      1.6306849      6.0102139     -0.55486226    -81.357546    
     24220  -72.850502      158.5          158.5          158.5          0.31815737     5.6984928     -1.9990334     -2.7449873     -72.850502    
     24240  -76.8513        158.5          158.5          158.5         -1.099919       0.99730616    -6.3090941      2.012031      -76.8513      
     24260  -85.186797      158.5          158.5          158.5          0.10363043    -3.3326278      3.1972878      0.44623128    -85.186797    
     24280  -76.465421      158.5          158.5          158.5         -4.415153      -0.70229191    -4.5440349     -7.9991323     -76.465421    
     24300  -76.747917      158.5          158.5          158.5         -0.71684888     2.457814      -2.8876341     -1.7207265     -76.747917    
     24320  -91.116451      158.5          158.5          158.5          3.8873846      2.7295573      1.8681805      7.0644159     -91.116451    
     24340  -83.08952       158.5          158.5          158.5          0.095655636   -0.30567387    -2.3315047      2.9241454     -83.08952     
     24360  -84.197253      158.5          158.5          158.5         -0.38744794     1.6231851      0.42462294    -3.2101518     -84.197253    
     24380  -71.601663      158.5          158.5          158.5         -0.6324042     -4.0000314      1.8404129      0.26240581    -71.601663    
     24400  -62.818212      158.5          158.5          158.5         -1.601108      -0.29265874    -4.2987514     -0.21191379    -62.818212    
     24420  -87.236305      158.5          158.5          158.5          0.71737354     4.3346472      1.0105626     -3.1930892     -87.236305    
     24440  -66.713434      158.5          158.5          158.5         -2.4115689     -4.1956012      1.0036135     -4.0427191     -66.713434    
     24460  -72.603437      158.5          158.5          158.5          0.45216995    -1.3476777     -0.19687445     2.901062      -72.603437    
     24480  -60.670099      158.5          158.5          158.5          0.098125696    0.096111575    2.5256389     -2.3273734     -60.670099    
     24500  -37.89928       158.5          158.5          158.5          2.6061503      2.048571       4.9579251      0.81195472    -37.89928     
     24520  -51.012982      158.5          158.5          158.5         -0.6180636     -1.1947432      0.12347999    -0.78292753    -51.012982    
     24540  -49.278982      158.5          158.5          158.5         -1.3542346      0.50451463    -3.2526616     -1.3145569     -49.278982    
     24560  -31.960081      158.5          158.5          158.5          4.5633885      5.6672665      2.0139141      6.008985      -31.960081    
     24580  -45.607048      158.5          158.5          158.5         -6.4945005     -8.7338896     -6.7327554     -4.0168565     -45.607048    
     24600  -49.866072      158.5          158.5          158.5          2.3697382      0.33821345     4.6211327      2.1498684     -49.866072    
     24620  -58.371365      158.5          158.5          158.5         -2.3048573      0.85583489    -0.85949025    -6.9109165     -58.371365    
     24640  -42.298059      158.5          158.5          158.5         -1.3144246      2.3604257     -2.6193307     -3.6843687     -42.298059    
     24660  -51.599543      158.5          158.5          158.5         -0.76834009     2.013386      -6.7062865      2.3878802     -51.599543    
     24680  -43.35368       158.5          158.5          158.5         -4.7458408     -6.4251835     -1.7646304     -6.0477086     -43.35368     
     24700  -44.65553       158.5          158.5          158.5          1.8236044     -1.0612804      6.8645014     -0.33240776    -44.65553     
     24720  -52.162272      158.5          158.5          158.5         -3.4007884     -3.5737047     -7.3498312      0.72117071    -52.162272    
     24740  -59.298144      158.5          158.5          158.5          3.0566664      7.7746256     -1.5330564      2.9284301     -59.298144    
     24760  -89.146633      158.5          158.5          158.5          0.0089881922  -1.7964694      1.6561662      0.16726777    -89.146633    
     24780  -50.108557      158.5          158.5          158.5          1.1682927      1.0959388      2.4882421     -0.079302803   -50.108557    
     24800  -81.615524      158.5          158.5          158.5          3.7436434      5.9877755      2.086202       3.1569526     -81.615524    
     24820  -74.20813       158.5          158.5          158.5         -0.71738468     0.19938839    -3.8949648      1.5434224     -74.20813     
     24840  -60.538071      158.5          158.5          158.5          2.4431923      2.263171       3.2712785      1.7951276     -60.538071    
     24860  -75.523039      158.5          158.5          158.5         -1.3172354      0.15356387     0.8747448     -4.980015      -75.523039    
     24880  -68.264179      158.5          158.5          158.5          1.7216062      1.6454114      0.37392226     3.1454851     -68.264179    
     24900  -80.442776      158.5          158.5          158.5         -0.26747753     0.1278671     -1.5071372      0.57683755    -80.442776    
     24920  -63.71265       158.5          158.5          158.5         -2.7020649     -0.37238262    -6.2402938     -1.4935182     -63.71265     
     24940  -54.857402      158.5          158.5          158.5          1.8027393      1.5507917      3.6918396      0.16558676    -54.857402    
     24960  -63.893896      158.5          158.5          158.5         -5.3515043     -4.4737011     -2.7516677     -8.8291441     -63.893896    
     24980  -77.543585      158.5          158.5          158.5          4.0138772      0.34953709     4.2696626      7.4224319     -77.543585    
     25000  -71.413661      158.5          158.5          158.5         -0.44163688    -3.9063124     -0.080832465    2.6622342     -71.413661    
     25020  -54.83167       158.5          158.5          158.5         -1.6825132      0.67194065    -0.9658213     -4.7536591     -54.83167     
     25040  -63.348177      158.5          158.5          158.5          2.8996514      1.6998141      5.5127112      1.4864289     -63.348177    
     25060  -57.28142       158.5          158.5          158.5         -2.0611936     -4.8835943     -1.0064788     -0.29350786    -57.28142     
     25080  -50.892127      158.5          158.5          158.5          3.3577106      1.8905547      6.8256058      1.3569712     -50.892127    
     25100  -65.758674      158.5          158.5          158.5         -0.059301718   -0.37209058     0.054810065    0.13937536    -65.758674    
     25120  -33.751279      158.5          158.5          158.5         -1.2053674     -3.771537      -3.9131874      4.0686223     -33.751279    
     25140  -44.752586      158.5          158.5          158.5          4.4470924      4.5608894      6.3759168      2.404471      -44.752586    
     25160  -40.568401      158.5          158.5          158.5         -2.0250708     -2.5146062      0.66229761    -4.2229038     -40.568401    
     25180  -69.626112      158.5          158.5          158.5          2.8585161      1.3898614      4.2954887      2.8901982     -69.626112    
     25200  -52.813771      158.5          158.5          158.5          0.33902104    -0.53471156    -1.5051396      3.0569143     -52.813771    
     25220  -44.162335      158.5          158.5          158.5         -0.17943358    -1.5696878     -2.1417829      3.1731699     -44.162335    
     25240  -28.844701      158.5          158.5          158.5          1.9703034      4.164388       6.2036734     -4.457151      -28.844701    
     25260  -50.165828      158.5          158.5          158.5         -4.2061689     -0.36920546    -5.3719371     -6.8773642     -50.165828    
     25280  -42.001795      158.5          158.5          158.5          1.6964295      2.7333064     -4.5905205      6.9465025     -42.001795    
     25300  -68.246077      158.5          158.5          158.5         -2.0017637     -4.5486143     -2.7731461      1.3164693     -68.246077    
     25320  -50.616662      158.5          158.5          158.5          1.0381273     -1.4965744      2.0002635      2.6106928     -50.616662    
     25340  -73.3272        158.5          158.5          158.5         -0.96342907    -1.5840713     -4.1650404      2.8588245     -73.3272      
     25360  -58.214589      158.5          158.5          158.5          0.41511668     1.7384106     -5.3614826      4.868422      -58.214589    
     25380  -66.309966      158.5          158.5          158.5          0.34385683     1.0245314      1.1872841     -1.180245      -66.309966    
     25400  -50.206167      158.5          158.5          158.5         -2.5380483     -3.5376401     -0.69649171    -3.3800133     -50.206167    
     25420  -67.113853      158.5          158.5          158.5          0.75242857     1.2808685     -1.2918376      2.2682548     -67.113853    
     25440  -61.298397      158.5          158.5          158.5         -3.3489131     -0.75254832    -7.2784249     -2.0157661     -61.298397    
     25460  -63.91806       158.5          158.5          158.5          0.70946722    -0.33057831     2.9772469     -0.5182669     -63.91806     
     25480  -72.434428      158.5          158.5          158.5          1.7713847     -2.8563763      6.0701047      2.1004258     -72.434428    
     25500  -70.686769      158.5          158.5          158.5         -1.6530313     -1.8350657     -1.1507246     -1.9733035     -70.686769    
     25520  -82.339239      158.5          158.5          158.5          0.39188131     6.7164529     -2.4026176     -3.1381914     -82.339239    
     25540  -61.72123       158.5          158.5          158.5         -1.0968916     -1.2384609      1.3816877     -3.4339015     -61.72123     
     25560  -69.014802      158.5          158.5          158.5         -2.6786239     -4.1730362      1.4047211     -5.2675567     -69.014802    
     25580  -59.209706      158.5          158.5          158.5         -1.4110946      3.1484337      0.86447842    -8.2461961     -59.209706    
     25600  -71.769878      158.5          158.5          158.5          2.8679835      4.9674721      2.0151365      1.621342      -71.769878    
     25620  -85.761353      158.5          158.5          158.5         -0.39771607    -3.3454412      0.56483158     1.5874614     -85.761353    
     25640  -77.29907       158.5          158.5          158.5          4.6994038      2.3322832      10.171203      1.5947254     -77.29907     
     25660  -61.544804      158.5          158.5          158.5          0.19906454    -0.61099689     1.8223703     -0.61417977    -61.544804    
     25680  -83.713752      158.5          158.5          158.5         -1.2575342     -0.36783329    -1.7228489     -1.6819205     -83.713752    
     25700  -58.89451       158.5          158.5          158.5          1.5772678      3.2715957      1.3746425      0.085565218   -58.89451     
     25720  -92.032211      158.5          158.5          158.5         -1.4820316     -1.8965914     -2.457553      -0.091950339   -92.032211    
     25740  -79.648119      158.5          158.5          158.5          0.18831254    -0.6095311      1.4921072     -0.31763845    -79.648119    
     25760  -84.428919      158.5          158.5          158.5         -0.2325563     -2.4132449      1.0495898      0.66598626    -84.428919    
     25780  -69.594309      158.5          158.5          158.5         -0.76043376    -5.3937254     -0.079127026    3.1915512     -69.594309    
     25800  -70.934498      158.5          158.5          158.5          1.3130241     -0.42753308     3.7932516      0.5733537     -70.934498    
     25820  -79.608527      158.5          158.5          158.5         -2.6542961     -1.2724247      0.087565543   -6.778029      -79.608527    
     25840  -78.257492      158.5          158.5          158.5          1.1863071     -1.1395252      2.2582261      2.4402205     -78.257492    
     25860  -78.984477      158.5          158.5          158.5         -2.0568489     -1.1770692     -5.3376204      0.34414274    -78.984477    
     25880  -70.583689      158.5          158.5          158.5          2.9397089      5.3010898      0.97961913     2.5384178     -70.583689    
     25900  -57.008579      158.5          158.5          158.5          1.6452024      3.2345535      3.8000059     -2.0989521     -57.008579    
     25920  -58.41443       158.5          158.5          158.5         -1.4578768     -1.1816046     -1.3953984     -1.7966275     -58.41443     
     25940  -55.690756      158.5          158.5          158.5          0.31977427    -0.11167774    -0.74061876     1.8116193     -55.690756    
     25960  -54.708439      158.5          158.5          158.5          0.95477028     1.2054105      1.0409159      0.6179844     -54.708439    
     25980  -50.743037      158.5          158.5          158.5          2.4779822      1.2047859      2.0352183      4.1939425     -50.743037    
     26000  -56.591772      158.5          158.5          158.5          3.5846209      3.9495503      4.4393571      2.3649555     -56.591772    
     26020  -48.974894      158.5          158.5          158.5         -1.6893772      0.42521007    -2.6329441     -2.8603975     -48.974894    
     26040  -60.129187      158.5          158.5          158.5          2.3827185      0.93145622     3.260755       2.9559442     -60.129187    
     26060  -56.435758      158.5          158.5          158.5          1.2526829      1.5008063      1.2342959      1.0229463     -56.435758    
     26080  -46.553179      158.5          158.5          158.5          1.1434736      1.6700988      1.0758027      0.68451938    -46.553179    
     26100  -53.508857      158.5          158.5          158.5          1.7312006      5.133233      -1.8125751      1.872944      -53.508857    
     26120  -75.327152      158.5          158.5          158.5         -1.6579081     -3.5594371     -3.8844468      2.4701597     -75.327152    
     26140  -62.051133      158.5          158.5          158.5          6.4410861      4.0799124      10.491564      4.751782      -62.051133    
     26160  -74.799417      158.5          158.5          158.5         -0.048297495    0.97430135     0.93157332    -2.0507672     -74.799417    
     26180  -68.981836      158.5          158.5          158.5         -0.63180615     1.1012635     -3.1230082      0.12632623    -68.981836    
     26200  -60.720501      158.5          158.5          158.5         -0.65784283    -5.4358018      3.1052272      0.35704615    -60.720501    
     26220  -84.408602      158.5          158.5          158.5         -3.6521256     -2.4474632     -0.77070207    -7.7382117     -84.408602    
     26240  -86.497726      158.5          158.5          158.5          3.4868         5.5337266      3.6895765      1.2370969     -86.497726    
     26260  -86.996897      158.5          158.5          158.5         -1.210908      -2.6308169      0.51432158    -1.5162288     -86.996897    
     26280  -78.213995      158.5          158.5          158.5          3.0838718      1.0908023      3.8945999      4.2662134     -78.213995    
     26300  -75.261266      158.5          158.5          158.5         -1.3920468     -1.8025563     -0.81181243    -1.5617716     -75.261266    
     26320  -68.568362      158.5          158.5          158.5         -1.6453978     -3.8327892     -2.3147464      1.2113422     -68.568362    
     26340  -82.094106      158.5          158.5          158.5          2.9820421      2.6862469      4.1119977      2.1478816     -82.094106    
     26360  -73.682065      158.5          158.5          158.5         -2.6258536     -0.82168209    -0.06550966    -6.9903689     -73.682065    
     26380  -78.212666      158.5          158.5          158.5          1.5951205     -0.44174051     2.1673381      3.0597639     -78.212666    
     26400  -70.265111      158.5          158.5          158.5         -1.226341      -0.36428281    -3.6947676      0.38002737    -70.265111    
     26420  -60.041936      158.5          158.5          158.5         -4.1102786      0.57694412    -1.6810601     -11.22672      -60.041936    
     26440  -69.590462      158.5          158.5          158.5         -0.88599789    -1.1249127      0.27317302    -1.8062539     -69.590462    
     26460  -79.972429      158.5          158.5          158.5         -1.7920007     -3.1531328     -4.2156154      1.992746      -79.972429    
     26480  -40.445491      158.5          158.5          158.5         -2.0952689     -0.5371051      0.13536766    -5.8840694     -40.445491    
     26500  -68.001965      158.5          158.5          158.5         -3.5792505     -3.6898773     -2.7007322     -4.347142      -68.001965    
     26520  -77.526747      158.5          158.5          158.5          1.4682376      1.5072376      0.30968008     2.5877952     -77.526747    
     26540  -66.569255      158.5          158.5          158.5         -1.2347177     -3.7016073      2.3678026     -2.3703482     -66.569255    
     26560  -66.597818      158.5          158.5          158.5          2.3524626      1.4088781      1.6396706      4.0088391     -66.597818    
     26580  -74.052471      158.5          158.5          158.5          1.787991       2.1515124     -0.73265556     3.9451162     -74.052471    
     26600  -65.673231      158.5          158.5          158.5         -0.9136525      1.7799966     -3.7302668     -0.79068728    -65.673231    
     26620  -69.274801      158.5          158.5          158.5          2.1677829      3.7086665     -0.14822663     2.9429087     -69.274801    
     26640  -70.205553      158.5          158.5          158.5         -1.0569282      0.86444868    -4.1456725      0.11043927    -70.205553    
     26660  -82.162747      158.5          158.5          158.5         -0.32376224     0.33542445    -1.4360552      0.12934408    -82.162747    
     26680  -71.92207       158.5          158.5          158.5          3.1845424      3.1033143      0.87884791     5.5714648     -71.92207     
     26700  -79.352769      158.5          158.5          158.5         -0.49440992    -1.957136       0.55257813    -0.07867194    -79.352769    
     26720  -66.881127      158.5          158.5          158.5          0.16396795    -1.218147       0.13424813     1.5758028     -66.881127    
     26740  -84.682188      158.5          158.5          158.5          1.3308076      3.3390896     -2.9673721      3.6207052     -84.682188    
     26760  -70.534236      158.5          158.5          158.5         -3.6002268     -4.4611501     -5.6090864     -0.73044407    -70.534236    
     26780  -64.514523      158.5          158.5          158.5          0.028488758   -1.6919735      4.3011399     -2.5237001     -64.514523    
     26800  -86.176285      158.5          158.5          158.5         -3.468397      -3.5857423     -2.613625      -4.2058237     -86.176285    
     26820  -73.345326      158.5          158.5          158.5          0.56062247     1.9141471      0.23288735    -0.46516706    -73.345326    
     26840  -84.571226      158.5          158.5          158.5         -2.8718087     -3.0838584     -3.8404484     -1.6911193     -84.571226    
     26860  -87.90807       158.5          158.5          158.5          1.6271816     -0.51029687     2.0619774      3.3298641     -87.90807     
     26880  -78.061135      158.5          158.5          158.5          3.5551966      4.6344083      7.4302338     -1.3990522     -78.061135    
     26900  -89.404438      158.5          158.5          158.5         -3.9832522     -3.2528941     -2.7416622     -5.9552002     -89.404438    
     26920  -76.470559      158.5          158.5          158.5          0.92183318     0.18806071    -4.0936546      6.6710934     -76.470559    
     26940  -85.346659      158.5          158.5          158.5         -0.11540928     0.71340066    -2.2931859      1.2335574     -85.346659    
     26960  -66.081163      158.5          158.5          158.5         -0.052143487    3.3583419     -1.6504623     -1.8643101     -66.081163    
     26980  -65.143784      158.5          158.5          158.5          1.317152       3.4763409     -4.4540487      4.9291639     -65.143784    
     27000  -80.009194      158.5          158.5          158.5         -5.8120799     -5.0098032     -8.7219107     -3.7045258     -80.009194    
     27020  -86.62881       158.5          158.5          158.5          1.4722447      0.11530422     3.7902429      0.51118703    -86.62881     
     27040  -81.708998      158.5          158.5          158.5          1.2694991     -1.2647916      3.1249518      1.9483372     -81.708998    
     27060  -86.528071      158.5          158.5          158.5         -1.1512149     -2.6897598     -0.87921977     0.11533472    -86.528071    
     27080  -83.433294      158.5          158.5          158.5          2.9129105      4.7299315      1.0992186      2.9095813     -83.433294    
     27100  -73.960226      158.5          158.5          158.5          1.1981038      1.5775899     -1.1754595      3.1921811     -73.960226    
     27120  -91.384097      158.5          158.5          158.5          7.4281615      6.7771954      10.205122      5.3021673     -91.384097    
     27140  -70.936821      158.5          158.5          158.5          0.21417671     0.07959854     1.7924803     -1.2295487     -70.936821    
     27160  -71.792792      158.5          158.5          158.5          1.1267382     -0.84209339     3.1221857      1.1001223     -71.792792    
     27180  -77.895914      158.5          158.5          158.5         -0.96659328    -3.1926832      0.42976645    -0.13686314    -77.895914    
     27200  -60.3583        158.5          158.5          158.5         -4.8592405     -4.3112666     -5.6432398     -4.6232153     -60.3583      
     27220  -67.599556      158.5          158.5          158.5          2.3570903      3.9755694      2.6012241      0.49447727    -67.599556    
     27240  -70.762676      158.5          158.5          158.5         -4.606284      -4.4887023     -4.3372218     -4.9929278     -70.762676    
     27260  -70.538456      158.5          158.5          158.5          0.55616574    -1.6884184      0.023894247    3.3330213     -70.538456    
     27280  -75.606364      158.5          158.5          158.5         -1.3373094     -2.0586014     -3.4069981      1.4536713     -75.606364    
     27300  -76.797387      158.5          158.5          158.5         -0.43370644     0.0661511      0.026200465   -1.3934709     -76.797387    
     27320  -72.821785      158.5          158.5          158.5          1.6287114     -0.38614205     4.1118503      1.160426      -72.821785    
     27340  -84.385868      158.5          158.5          158.5         -0.23760975    -2.668123       1.0282374      0.92705629    -84.385868    
     27360  -87.332713      158.5          158.5          158.5          2.087238       3.5309882      0.57424889     2.156477      -87.332713    
     27380  -77.126657      158.5          158.5          158.5         -2.3523165      0.45076241    -4.1159037     -3.3918081     -77.126657    
     27400  -80.596718      158.5          158.5          158.5         -2.11299       -5.0927237      1.5018407     -2.748087      -80.596718    
     27420  -82.343936      158.5          158.5          158.5          1.1591333     -1.7194979      0.14401072     5.052887      -82.343936    
     27440  -72.910558      158.5          158.5          158.5         -3.0097579     -2.109051      -5.8520978     -1.0681249     -72.910558    
     27460  -82.426559      158.5          158.5          158.5          1.430892       3.1333025      5.3944447     -4.2350711     -82.426559    
     27480  -84.784996      158.5          158.5          158.5         -2.0606213     -1.4314813      1.1562994     -5.9066819     -84.784996    
     27500  -87.407102      158.5          158.5          158.5          0.73856883     0.26086646     0.01988726     1.9349528     -87.407102    
     27520  -80.427961      158.5          158.5          158.5         -2.4980004     -4.3139706     -3.4564905      0.2764598     -80.427961    
     27540  -61.139629      158.5          158.5          158.5          1.216109       6.3413227     -1.2214423     -1.4715534     -61.139629    
     27560  -70.265057      158.5          158.5          158.5          0.97343202     5.5844327     -0.21069194    -2.4534447     -70.265057    
     27580  -84.554967      158.5          158.5          158.5         -2.9142354     -5.3316342     -3.0591033     -0.3519687     -84.554967    
     27600  -77.924982      158.5          158.5          158.5          3.1382863      0.16035192     4.9566052      4.2979018     -77.924982    
     27620  -60.321236      158.5          158.5          158.5         -2.3628635      3.2737077     -0.38771617    -9.9745818     -60.321236    
     27640  -67.948875      158.5          158.5          158.5          0.34072845     4.0479         0.23378887    -3.2595035     -67.948875    
     27660  -68.262474      158.5          158.5          158.5          0.30708218    -2.9394988     -3.9988373      7.8595827     -68.262474    
     27680  -93.890816      158.5          158.5          158.5         -0.85047393    -4.4772375      1.3208998      0.60491597    -93.890816    
     27700  -72.381718      158.5          158.5          158.5         -1.4897858      2.8416423      0.46413099    -7.7751307     -72.381718    
     27720  -76.373222      158.5          158.5          158.5          1.0240406      3.9829307     -1.8832045      0.97239554    -76.373222    
     27740  -69.793017      158.5          158.5          158.5          1.5316639      0.31279788     3.0072362      1.2749577     -69.793017    
     27760  -75.386211      158.5          158.5          158.5          2.2144615     -0.99303216     6.4178996      1.2185171     -75.386211    
     27780  -56.755743      158.5          158.5          158.5         -1.5094181      1.9906853     -4.0726055     -2.4463342     -56.755743    
     27800  -91.623149      158.5          158.5          158.5         -0.32560448     2.405244      -4.6703688      1.2883113     -91.623149    
     27820  -73.639963      158.5          158.5          158.5         -0.39965122    -0.70364467     0.12642753    -0.62173654    -73.639963    
     27840  -66.272556      158.5          158.5          158.5         -0.62659242     2.6554557     -0.7841517     -3.7510813     -66.272556    
     27860  -71.622103      158.5          158.5          158.5         -1.2311711     -1.3935097     -0.32902695    -1.9709766     -71.622103    
     27880  -74.624641      158.5          158.5          158.5         -3.7296824     -2.3596976     -5.8400013     -2.9893483     -74.624641    
     27900  -64.911355      158.5          158.5          158.5          2.0747428     -0.3210137      2.9323359      3.6129062     -64.911355    
     27920  -84.75874       158.5          158.5          158.5         -0.86143483    -4.3115098      2.3128479     -0.58564263    -84.75874     
     27940  -85.604276      158.5          158.5          158.5         -1.5864697      0.50404825    -0.84622561    -4.4172319     -85.604276    
     27960  -81.816927      158.5          158.5          158.5          0.37454337     4.3713749     -5.5399768      2.292232      -81.816927    
     27980  -94.045434      158.5          158.5          158.5         -1.7048595     -2.5440476     -3.9442212      1.3736903     -94.045434    
     28000  -101.36146      158.5          158.5          158.5          3.5399708     -0.71049027     4.7931813      6.5372213     -101.36146    
     28020  -87.976711      158.5          158.5          158.5          3.9692129      3.3312406      1.5016085      7.0747894     -87.976711    
     28040  -81.82263       158.5          158.5          158.5         -3.9059154     -3.4679224     -7.9817341     -0.2680896     -81.82263     
     28060  -101.94568      158.5          158.5          158.5          1.6419479      1.6681008      2.2634536      0.99428926    -101.94568    
     28080  -91.428572      158.5          158.5          158.5         -2.0170594      0.24535263    -2.1433521     -4.1531787     -91.428572    
     28100  -102.38636      158.5          158.5          158.5         -1.0551524     -1.5205352     -2.3063918      0.66146973    -102.38636    
     28120  -105.66105      158.5          158.5          158.5          3.1922934      3.455038       4.0331878      2.0886546     -105.66105    
     28140  -96.276361      158.5          158.5          158.5         -1.6263741      0.53703239    -2.6688419     -2.7473128     -96.276361    
     28160  -98.315318      158.5          158.5          158.5         -0.24093724    -0.51829985    -2.8333082      2.6287963     -98.315318    
     28180  -111.81941      158.5          158.5          158.5          1.2679071      2.9036116     -3.6096786      4.5097882     -111.81941    
     28200  -90.750604      158.5          158.5          158.5         -1.9890465      0.47492326    -2.6457877     -3.796275      -90.750604    
     28220  -109.10018      158.5          158.5          158.5         -1.5159952     -0.88386609     1.1543592     -4.8184788     -109.10018    
     28240  -87.95537       158.5          158.5          158.5         -2.9124056     -5.0148689     -2.4607501     -1.2615977     -87.95537     
     28260  -89.548777      158.5          158.5          158.5          0.38749696    -1.3598369      0.52668009     1.9956477     -89.548777    
     28280  -85.764994      158.5          158.5          158.5          2.4283657      1.3427421      4.3442377      1.5981172     -85.764994    
     28300  -84.611251      158.5          158.5          158.5         -2.1128301     -2.0308077     -0.42012713    -3.8875556     -84.611251    
     28320  -80.799618      158.5          158.5          158.5         -0.57056839    -1.7370083      0.87986891    -0.8545658     -80.799618    
     28340  -66.185932      158.5          158.5          158.5          0.022964391   -3.6748796      3.1140903      0.62968252    -66.185932    
     28360  -83.477071      158.5          158.5          158.5          0.3266262     -1.0148287      2.7935916     -0.79888429    -83.477071    
     28380  -70.549868      158.5          158.5          158.5          3.2346867      4.8379947      2.084116       2.7819493     -70.549868    
     28400  -82.245495      158.5          158.5          158.5         -3.0811335     -4.2807227     -1.0399545     -3.9227232     -82.245495    
     28420  -77.529324      158.5          158.5          158.5         -0.94245152     1.632105      -2.2675895     -2.19187       -77.529324    
     28440  -72.533107      158.5          158.5          158.5         -0.51029991     2.4906208     -0.90041721    -3.1211033     -72.533107    
     28460  -62.621502      158.5          158.5          158.5         -0.3568839     -2.8640777      3.9801363     -2.1867103     -62.621502    
     28480  -68.317905      158.5          158.5          158.5         -0.044563381    1.3422946     -1.7064077      0.23042298    -68.317905    
     28500  -76.664729      158.5          158.5          158.5          0.2349463      3.5144329     -0.63241843    -2.1771755     -76.664729    
     28520  -76.264406      158.5          158.5          158.5         -3.7392468     -5.0696201     -2.0409105     -4.1072098     -76.264406    
     28540  -76.998586      158.5          158.5          158.5         -1.5227992     -3.0172288     -2.4683279      0.91715913    -76.998586    
     28560  -72.569347      158.5          158.5          158.5          0.4806925      0.44483787     0.92295308     0.074286564   -72.569347    
     28580  -87.306442      158.5          158.5          158.5          3.9620206      3.4531403      6.029468       2.4034534     -87.306442    
     28600  -90.510528      158.5          158.5          158.5         -0.19701181     0.6048073     -2.5975346      1.4016919     -90.510528    
     28620  -98.949366      158.5          158.5          158.5         -2.22321       -0.97813704    -4.0581097     -1.6333833     -98.949366    
     28640  -96.929642      158.5          158.5          158.5          2.5947505      0.99618737     0.49899629     6.2890677     -96.929642    
     28660  -107.09214      158.5          158.5          158.5          0.12809756    -1.2694088     -1.3476077      3.0013092     -107.09214    
     28680  -95.450349      158.5          158.5          158.5          0.5365128      0.20840848    -1.3604524      2.7615823     -95.450349    
     28700  -91.724889      158.5          158.5          158.5         -3.5750536     -0.61228031    -4.9729242     -5.1399563     -91.724889    
     28720  -91.962314      158.5          158.5          158.5         -1.1046281      2.9502643     -5.2955378     -0.96861069    -91.962314    
     28740  -95.3748        158.5          158.5          158.5          3.9197924      5.0533254     -0.59512231     7.3011741     -95.3748      
     28760  -92.894164      158.5          158.5          158.5         -2.9469866     -6.675918      -1.1977334     -0.96730842    -92.894164    
     28780  -92.294615      158.5          158.5          158.5          1.5704966      0.70715138     1.4586418      2.5456967     -92.294615    
     28800  -105.90475      158.5          158.5          158.5          0.1847828      2.0980536     -1.5189028     -0.024802428   -105.90475    
     28820  -94.029486      158.5          158.5          158.5          0.5667764     -2.0652122      1.4069712      2.3585702     -94.029486    
     28840  -101.87981      158.5          158.5          158.5         -2.0886624     -4.9390919     -0.96157631    -0.36531899    -101.87981    
     28860  -85.535233      158.5          158.5          158.5          0.47828518     1.6117192      1.7525252     -1.9293889     -85.535233    
     28880  -95.977733      158.5          158.5          158.5          3.3587933      4.0720349      3.5633849      2.4409601     -95.977733    
     28900  -88.893995      158.5          158.5          158.5         -0.94990109    -0.18900859    -2.9726092      0.3119145     -88.893995    
     28920  -88.486529      158.5          158.5          158.5          1.6109007      1.1232387      4.031556      -0.32209271    -88.486529    
     28940  -90.918917      158.5          158.5          158.5          0.22524179    -1.8624751      5.1094457     -2.5712453     -90.918917    
     28960  -78.388938      158.5          158.5          158.5         -3.2959427     -7.3888983     -2.6576321      0.15870228    -78.388938    
     28980  -89.377331      158.5          158.5          158.5          2.807655       0.58995322     4.2982238      3.5347879     -89.377331    
     29000  -77.036667      158.5          158.5          158.5         -0.086181016    0.76712846     3.7086526     -4.7343241     -77.036667    
     29020  -73.125595      158.5          158.5          158.5         -1.704068      -2.5739089      0.70562007    -3.243915      -73.125595    
     29040  -68.419325      158.5          158.5          158.5          0.65869115    -1.1733003      0.18620893     2.9631649     -68.419325    
     29060  -67.467436      158.5          158.5          158.5          2.7242869      2.4332636      5.1772788      0.56231836    -67.467436    
     29080  -74.181146      158.5          158.5          158.5         -1.8583413     -0.038994209   -1.0369852     -4.4990445     -74.181146    
     29100  -73.669255      158.5          158.5          158.5          2.4220115      0.79567027     3.7725224      2.6978419     -73.669255    
     29120  -70.046831      158.5          158.5          158.5          0.79875637    -2.5313776      2.7919322      2.1357144     -70.046831    
     29140  -53.745048      158.5          158.5          158.5          0.47609464    -1.7596335     -1.1917411      4.3796585     -53.745048    
     29160  -63.019329      158.5          158.5          158.5          1.6924541      1.6053439      0.6336475      2.8383708     -63.019329    
     29180  -73.564445      158.5          158.5          158.5         -4.8784791      0.22771292    -7.8757691     -6.9873812     -73.564445    
     29200  -78.459489      158.5          158.5          158.5          5.3277716      4.5654451      4.7075927      6.7102769     -78.459489    
     29220  -79.802557      158.5          158.5          158.5          0.44485645     3.6612971     -0.55981457    -1.7669131     -79.802557    
     29240  -71.64769       158.5          158.5          158.5         -0.12307781     0.81592739    -3.0964928      1.911332      -71.64769     
     29260  -73.135726      158.5          158.5          158.5         -3.5837263     -8.3692427     -1.7237492     -0.65818709    -73.135726    
     29280  -80.35523       158.5          158.5          158.5         -5.4772748     -5.092203      -7.5234404     -3.816181      -80.35523     
     29300  -87.304068      158.5          158.5          158.5          3.6549771      4.4086596      0.19046133     6.3658103     -87.304068    
     29320  -95.599521      158.5          158.5          158.5         -1.0557179     -4.5003908     -0.47099955     1.8042365     -95.599521    
     29340  -95.281288      158.5          158.5          158.5          2.3351431     -0.22572975     2.8930321      4.3381271     -95.281288    
     29360  -86.046591      158.5          158.5          158.5         -2.0379984     -3.1933449     -1.0458457     -1.8748047     -86.046591    
     29380  -104.99955      158.5          158.5          158.5         -1.8706095     -1.8737562     -4.2004504      0.46237806    -104.99955    
     29400  -106.28168      158.5          158.5          158.5         -0.97290606    -2.5227783     -0.30271999    -0.093219905   -106.28168    
     29420  -96.418293      158.5          158.5          158.5         -2.2772771     -1.386117       0.034859051   -5.4805733     -96.418293    
     29440  -93.831126      158.5          158.5          158.5          2.2343055     -0.067622141    3.225984       3.5445545     -93.831126    
     29460  -100.2782       158.5          158.5          158.5          0.4837216      0.46561255    -0.24805986     1.2336121     -100.2782     
     29480  -94.753248      158.5          158.5          158.5         -0.60764575     2.6564983     -0.16775897    -4.3116765     -94.753248    
     29500  -102.64323      158.5          158.5          158.5         -1.6259011     -4.1565523     -0.57885089    -0.14230001    -102.64323    
     29520  -102.75456      158.5          158.5          158.5         -2.7670395     -5.1596451     -1.4641129     -1.6773605     -102.75456    
     29540  -92.78208       158.5          158.5          158.5          4.8578831      5.4802596      6.7829286      2.3104611     -92.78208     
     29560  -97.800264      158.5          158.5          158.5          0.19790362     2.3324748      0.59999006    -2.338754      -97.800264    
     29580  -94.01578       158.5          158.5          158.5         -0.3519789     -2.4635436     -2.4279364      3.8355434     -94.01578     
     29600  -88.471882      158.5          158.5          158.5          1.2457097      5.275018      -0.0063798007  -1.531509      -88.471882    
     29620  -75.436717      158.5          158.5          158.5          0.17582218     3.0496612     -0.33460631    -2.1875883     -75.436717    
     29640  -96.731821      158.5          158.5          158.5          2.0250437      1.2872984      1.6848205      3.1030121     -96.731821    
     29660  -62.16453       158.5          158.5          158.5          1.1284874      4.5104548     -1.5134624      0.38846966    -62.16453     
     29680  -94.708273      158.5          158.5          158.5          1.3760235      4.1909779     -0.64888445     0.58597709    -94.708273    
     29700  -75.638544      158.5          158.5          158.5         -2.3773874     -2.0249616     -1.7635279     -3.3436728     -75.638544    
     29720  -96.250542      158.5          158.5          158.5          0.2966574     -1.1080728     -1.8992614      3.8973063     -96.250542    
     29740  -66.07014       158.5          158.5          158.5          0.36373773    -2.4696688     -0.37541478     3.9362967     -66.07014     
     29760  -87.224496      158.5          158.5          158.5          1.5943647      3.1510734      1.6583673     -0.026346576   -87.224496    
     29780  -74.604025      158.5          158.5          158.5          3.4990943      3.2435662      1.8144217      5.439295      -74.604025    
     29800  -104.25077      158.5          158.5          158.5         -4.1256378     -6.6225069     -6.4677321      0.71332561    -104.25077    
     29820  -76.201049      158.5          158.5          158.5         -1.6786797     -1.2125451     -1.5606682     -2.2628258     -76.201049    
     29840  -84.960158      158.5          158.5          158.5         -2.2392378      0.78101896    -1.5566965     -5.9420357     -84.960158    
     29860  -84.040373      158.5          158.5          158.5          1.5995969      2.0177662      1.6932843      1.0877401     -84.040373    
     29880  -95.833871      158.5          158.5          158.5          3.5683988      3.6414131      2.4038576      4.6599256     -95.833871    
     29900  -88.007294      158.5          158.5          158.5         -6.2030545     -7.3410005     -0.53836745    -10.729796     -88.007294    
     29920  -90.397021      158.5          158.5          158.5          0.16908538    -1.5069705      4.52582       -2.5115934     -90.397021    
     29940  -85.002835      158.5          158.5          158.5         -3.9883882     -4.7029417     -4.9683201     -2.2939029     -85.002835    
     29960  -93.920513      158.5          158.5          158.5          0.74129312     1.138647       1.1129967     -0.027764292   -93.920513    
     29980  -91.80405       158.5          158.5          158.5          1.4175824      5.1537018      0.54378601    -1.4447405     -91.80405     
     30000  -93.615461      158.5          158.5          158.5          1.7090479      4.3329408      2.9784625     -2.1842596     -93.615461    
     30020  -103.06108      158.5          158.5          158.5          1.2334076     -0.81825451     3.0540028      1.4644745     -103.06108    
     30040  -91.378735      158.5          158.5          158.5         -4.2742249     -6.6410531     -3.7937192     -2.3879023     -91.378735    
     30060  -93.716903      158.5          158.5          158.5          2.2705987      3.2166785      1.4026735      2.1924441     -93.716903    
     30080  -92.787831      158.5          158.5          158.5         -1.9385913      0.28146991    -0.92870562    -5.1685381     -92.787831    
     30100  -88.778221      158.5          158.5          158.5          0.53883827     0.49058778     1.8296286     -0.70370153    -88.778221    
     30120  -79.610034      158.5          158.5          158.5          4.6949572      6.5754617      4.4156422      3.0937677     -79.610034    
     30140  -77.657355      158.5          158.5          158.5          1.0895754      4.1085938      1.3092981     -2.1491659     -77.657355    
     30160  -79.146804      158.5          158.5          158.5          0.67543572    -0.47973017    -0.098836588    2.6048739     -79.146804    
     30180  -67.47001       158.5          158.5          158.5         -2.2142707     -6.7716768     -3.8913826      4.0202473     -67.47001     
     30200  -86.281319      158.5          158.5          158.5         -0.68697145     0.13705813    -2.5029624      0.30498987    -86.281319    
     30220  -70.017103      158.5          158.5          158.5          0.85259164     3.0645539     -2.0751811      1.5684021     -70.017103    
     30240  -73.414952      158.5          158.5          158.5         -0.42280951    -5.4699774     -0.63995519     4.841504      -73.414952    
     30260  -69.054164      158.5          158.5          158.5         -1.5268338     -2.2684079     -3.86003        1.5479364     -69.054164    
     30280  -84.682616      158.5          158.5          158.5         -0.32385921     0.89770427    -1.931251       0.061969095   -84.682616    
     30300  -79.90295       158.5          158.5          158.5         -1.7877801     -1.6047105     -0.62233446    -3.1362954     -79.90295     
     30320  -92.650721      158.5          158.5          158.5          1.3254465      2.8433712     -2.7884165      3.9213847     -92.650721    
     30340  -90.89939       158.5          158.5          158.5          1.3825867      2.7443706      1.1204494      0.28294003    -90.89939     
     30360  -100.10388      158.5          158.5          158.5          0.59083594     5.2072568      1.6229272     -5.0576762     -100.10388    
     30380  -94.759316      158.5          158.5          158.5          0.16224766     2.7795038      1.5572858     -3.8500466     -94.759316    
     30400  -100.31483      158.5          158.5          158.5         -1.6340226     -5.4004573     -0.0012830418   0.49967239    -100.31483    
     30420  -89.612921      158.5          158.5          158.5         -0.74488179    -1.0606027     -0.0081064245  -1.1659363     -89.612921    
     30440  -101.89952      158.5          158.5          158.5          0.29437063     1.2549186      0.33518064    -0.70698735    -101.89952    
     30460  -93.065414      158.5          158.5          158.5          0.4280591      1.7366318      2.9083383     -3.3607928     -93.065414    
     30480  -91.775705      158.5          158.5          158.5          0.66608082    -3.0925853      2.3780681      2.7127596     -91.775705    
     30500  -93.852865      158.5          158.5          158.5         -1.2171162     -3.2346886      0.14898784    -0.56564782    -93.852865    
     30520  -109.83015      158.5          158.5          158.5          0.41606399     2.2369527     -0.78048553    -0.20827519    -109.83015    
     30540  -93.905139      158.5          158.5          158.5          1.7980408      1.3616856     -0.02816704     4.0606039     -93.905139    
     30560  -92.474132      158.5          158.5          158.5          2.8499088      0.3825868      4.3316244      3.8355152     -92.474132    
     30580  -73.725634      158.5          158.5          158.5          4.2364289      4.7214808      6.3586177      1.6291883     -73.725634    
     30600  -109.97773      158.5          158.5          158.5          0.61696175     3.5356707     -1.126234      -0.55855149    -109.97773    
     30620  -80.475186      158.5          158.5          158.5         -3.0473246     -4.4819885     -5.9084546      1.2484691     -80.475186    
     30640  -105.03458      158.5          158.5          158.5          1.4382542     -2.3606238      2.7682608      3.9071257     -105.03458    
     30660  -94.76551       158.5          158.5          158.5          0.52149311     3.171924       0.70356903    -2.3110137     -94.76551     
     30680  -79.807007      158.5          158.5          158.5         -0.29994111     2.3681557      1.3972766     -4.6652556     -79.807007    
     30700  -92.497169      158.5          158.5          158.5         -0.13786357    -0.1925075      0.010769845   -0.23185304    -92.497169    
     30720  -69.29779       158.5          158.5          158.5         -1.5411421     -3.0562984     -1.1181572     -0.44897081    -69.29779     
     30740  -77.159654      158.5          158.5          158.5          1.7036299      1.2586463      4.6553154     -0.80307203    -77.159654    
     30760  -70.730331      158.5          158.5          158.5          1.8880328     -1.4335529      5.7054039      1.3922474     -70.730331    
     30780  -68.336436      158.5          158.5          158.5         -2.8699877     -4.4098785     -3.0741718     -1.1259129     -68.336436    
     30800  -73.536897      158.5          158.5          158.5         -1.9098945     -2.3324114     -0.46183274    -2.9354394     -73.536897    
     30820  -55.616516      158.5          158.5          158.5          1.3045601      6.6950058     -4.170905       1.3895795     -55.616516    
     30840  -36.419354      158.5          158.5          158.5         -2.6345178      1.2331778     -6.3366248     -2.8001065     -36.419354    
     30860  -71.478277      158.5          158.5          158.5          1.7429044      0.16163732     0.85795599     4.2091198     -71.478277    
     30880  -61.095244      158.5          158.5          158.5         -5.4172248     -4.4486973     -7.3118841     -4.4910928     -61.095244    
     30900  -48.829961      158.5          158.5          158.5          4.7519351      12.358522     -2.645458       4.542741      -48.829961    
     30920  -66.676074      158.5          158.5          158.5         -2.345597      -1.1150671     -0.26172718    -5.6599969     -66.676074    
     30940  -50.243598      158.5          158.5          158.5         -2.5156452     -4.5340314      2.1588147     -5.171719      -50.243598    
     30960  -63.836567      158.5          158.5          158.5          2.0169455     -2.2025019      1.8824503      6.3708881     -63.836567    
     30980  -64.83767       158.5          158.5          158.5          0.55961616     0.16548593     0.48754801     1.0258145     -64.83767     
     31000  -50.404122      158.5          158.5          158.5         -0.35252835     2.6818922      1.5866661     -5.3261434     -50.404122    
     31020  -69.485554      158.5          158.5          158.5          1.6106858      1.1737758      1.7984448      1.8598367     -69.485554    
     31040  -67.352291      158.5          158.5          158.5         -0.77373702     0.65692324    -3.7667795      0.78864521    -67.352291    
     31060  -73.32019       158.5          158.5          158.5         -1.2265615      3.3827431      0.017828168   -7.0802557     -73.32019     
     31080  -72.653661      158.5          158.5          158.5          1.2855803      0.24474916     1.2761334      2.3358585     -72.653661    
     31100  -88.237326      158.5          158.5          158.5          2.1442294     -1.9473681      3.5291385      4.8509178     -88.237326    
     31120  -68.467754      158.5          158.5          158.5          0.74737726     2.4493861      1.4408088     -1.6480632     -68.467754    
     31140  -78.291256      158.5          158.5          158.5          1.2184085      5.268849      -0.9007061     -0.71291743    -78.291256    
     31160  -62.265649      158.5          158.5          158.5          0.78765623    -2.1633435     -2.4788751      7.0051873     -62.265649    
     31180  -91.755761      158.5          158.5          158.5         -2.1058743     -4.4299786     -3.2491398      1.3614955     -91.755761    
     31200  -68.213939      158.5          158.5          158.5          1.9841234      3.1356171      2.6022495      0.21450345    -68.213939    
     31220  -91.859302      158.5          158.5          158.5         -1.3829596     -1.4316099     -0.93403465    -1.7832344     -91.859302    
     31240  -81.801878      158.5          158.5          158.5          2.6229213     -0.40889416     2.6618021      5.615856      -81.801878    
     31260  -83.440288      158.5          158.5          158.5         -0.24432684     0.48778246     0.37524943    -1.5960124     -83.440288    
     31280  -84.576493      158.5          158.5          158.5         -3.4317135     -2.8332228     -2.3873684     -5.0745495     -84.576493    
     31300  -96.837701      158.5          158.5          158.5         -3.0160818     -2.0489405     -4.4294417     -2.5698632     -96.837701    
     31320  -89.844439      158.5          158.5          158.5          2.9434676      2.2451343      3.8020992      2.7831692     -89.844439    
     31340  -83.636345      158.5          158.5          158.5         -2.6204004     -4.2008278     -0.44121679    -3.2191566     -83.636345    
     31360  -88.008939      158.5          158.5          158.5         -0.31685027     3.2865446     -0.46103225    -3.7760631     -88.008939    
     31380  -92.204529      158.5          158.5          158.5          4.3463852      4.2727068      2.4753751      6.2910737     -92.204529    
     31400  -92.272346      158.5          158.5          158.5         -1.7306373     -2.300875      -1.4979256     -1.3931111     -92.272346    
     31420  -80.688025      158.5          158.5          158.5          2.108006       0.19752175     3.3081628      2.8183334     -80.688025    
     31440  -82.452511      158.5          158.5          158.5         -2.1363633     -5.9038365      0.1549932     -0.66024676    -82.452511    
     31460  -74.380419      158.5          158.5          158.5         -6.375587      -6.565548      -5.8835058     -6.6777073     -74.380419    
     31480  -78.578347      158.5          158.5          158.5          1.4175069     -0.24212298     1.7549256      2.739718      -78.578347    
     31500  -70.418722      158.5          158.5          158.5         -1.5297841     -5.8900583     -1.5461081      2.846814      -70.418722    
     31520  -80.066249      158.5          158.5          158.5         -0.53089601     0.42253311    -2.9382407      0.92301955    -80.066249    
     31540  -75.55231       158.5          158.5          158.5          4.0424891      7.2023667      4.1802977      0.74480301    -75.55231     
     31560  -78.986326      158.5          158.5          158.5         -1.7991847     -1.2396713     -0.0077354065  -4.1501474     -78.986326    
     31580  -66.066616      158.5          158.5          158.5          2.3039331      3.7670688     -0.89095719     4.0356878     -66.066616    
     31600  -87.025315      158.5          158.5          158.5          1.7303476      2.8888935      0.13367758     2.1684718     -87.025315    
     31620  -63.075322      158.5          158.5          158.5         -3.3076589     -3.1439532      0.40403769    -7.1830612     -63.075322    
     31640  -86.869277      158.5          158.5          158.5         -1.5446582     -3.8615665     -0.082909459   -0.68949861    -86.869277    
     31660  -47.03899       158.5          158.5          158.5         -1.5842018     -0.10790513    -1.6444762     -3.0002239     -47.03899     
     31680  -90.504708      158.5          158.5          158.5          5.397112       7.8242965      3.769008       4.5980314     -90.504708    
     31700  -62.04476       158.5          158.5          158.5         -2.681792      -6.1565091     -1.610327      -0.27853992    -62.04476     
     31720  -59.731583      158.5          158.5          158.5         -1.0674844     -2.0226578     -1.3111526      0.13135712    -59.731583    
     31740  -79.375033      158.5          158.5          158.5          3.528603       5.1092127      4.2391179      1.2374783     -79.375033    
     31760  -68.29743       158.5          158.5          158.5         -6.8729781     -8.4167471     -4.857814      -7.3443733     -68.29743     
     31780  -75.411464      158.5          158.5          158.5          1.5322686      2.457689       3.4326661     -1.2935492     -75.411464    
     31800  -83.109558      158.5          158.5          158.5         -1.5390931      0.4247532     -1.9835204     -3.058512      -83.109558    
     31820  -82.940777      158.5          158.5          158.5         -0.61033991    -1.2179903     -2.5116493      1.8986198     -82.940777    
     31840  -92.968615      158.5          158.5          158.5          3.6468218      4.9044645      1.365092       4.6709088     -92.968615    
     31860  -87.845345      158.5          158.5          158.5         -2.2205377     -1.5305348     -4.9157018     -0.21537647    -87.845345    
     31880  -92.061981      158.5          158.5          158.5          1.6611962      1.648422      -0.4476508      3.7828175     -92.061981    
     31900  -92.612013      158.5          158.5          158.5         -2.7297244     -0.65386823    -4.1459042     -3.3894007     -92.612013    
     31920  -83.834196      158.5          158.5          158.5          1.2264289      3.6791137      2.699392      -2.6992191     -83.834196    
     31940  -94.096096      158.5          158.5          158.5         -0.23102219    -3.9222893      4.2617736     -1.0325508     -94.096096    
     31960  -93.794599      158.5          158.5          158.5          2.4459058      1.2907055     -0.023387369    6.0703992     -93.794599    
     31980  -116.8254       158.5          158.5          158.5          0.74431536     2.8094271     -1.6362156      1.0597345     -116.8254     
     32000  -85.972065      158.5          158.5          158.5         -1.7444784      0.4476668      1.1529538     -6.8340558     -85.972065    
     32020  -97.26049       158.5          158.5          158.5          4.1500564      3.0524933      4.4983471      4.8993289     -97.26049     
     32040  -92.239002      158.5          158.5          158.5          0.44780157    -2.0132053     -2.8001897      6.1567998     -92.239002    
     32060  -103.74995      158.5          158.5          158.5          0.88504579     1.7690716     -0.10218639     0.98825219    -103.74995    
     32080  -95.087464      158.5          158.5          158.5          1.3343374      4.054583       4.4507987     -4.5023695     -95.087464    
     32100  -94.041856      158.5          158.5          158.5          0.53940009     2.7744873     -1.8159889      0.65970183    -94.041856    
     32120  -93.829718      158.5          158.5          158.5         -0.74921905    -3.4321209     -2.870657       4.0551208     -93.829718    
     32140  -94.338094      158.5          158.5          158.5         -1.3216324     -2.5727616      0.52696382    -1.9190995     -94.338094    
     32160  -79.473372      158.5          158.5          158.5          2.3297773      4.9849395      4.312902      -2.3085097     -79.473372    
     32180  -80.903459      158.5          158.5          158.5         -0.95465912    -2.2064064      4.9953613     -5.6529322     -80.903459    
     32200  -87.835404      158.5          158.5          158.5          3.0680512      4.1693592      3.5262482      1.5085462     -87.835404    
     32220  -61.933395      158.5          158.5          158.5         -0.4952927      2.1418844     -5.2957397      1.6679772     -61.933395    
     32240  -64.533498      158.5          158.5          158.5         -3.4719829     -2.0975131     -3.3356544     -4.9827812     -64.533498    
     32260  -70.847935      158.5          158.5          158.5          3.3777935      3.5405972      5.3064164      1.2863669     -70.847935    
     32280  -61.330728      158.5          158.5          158.5         -5.0008866     -6.8232127     -4.3808934     -3.7985537     -61.330728    
     32300  -51.154359      158.5          158.5          158.5          4.4010226      6.1675953      2.4795289      4.5559438     -51.154359    
     32320  -74.521475      158.5          158.5          158.5          1.6942663      0.38502604     1.3976332      3.3001396     -74.521475    
     32340  -62.550469      158.5          158.5          158.5         -6.4491959     -9.3606484     -2.9268867     -7.0600527     -62.550469    
     32360  -54.144581      158.5          158.5          158.5         -0.10269108     0.26781453     0.89919415    -1.4750819     -54.144581    
     32380  -55.288115      158.5          158.5          158.5         -6.0399964     -5.224599      -5.1154755     -7.7799149     -55.288115    
     32400  -72.786191      158.5          158.5          158.5          0.77489041    -0.20384632     1.2864856      1.242032      -72.786191    
     32420  -72.31166       158.5          158.5          158.5          1.5187202      0.14855468     1.8406551      2.5669509     -72.31166     
     32440  -81.649886      158.5          158.5          158.5         -5.7851298     -6.5739313     -3.9686919     -6.8127662     -81.649886    
     32460  -67.948155      158.5          158.5          158.5         -0.73312819    -1.4953505     -1.373751       0.66971694    -67.948155    
     32480  -90.474498      158.5          158.5          158.5         -1.7989987     -2.9229872     -2.2394706     -0.23453817    -90.474498    
     32500  -76.632403      158.5          158.5          158.5          3.6105113      2.5484062      3.7244112      4.5587166     -76.632403    
     32520  -84.817026      158.5          158.5          158.5          4.4103332      4.0177655      3.1271456      6.0860884     -84.817026    
     32540  -83.320313      158.5          158.5          158.5         -2.9490093     -1.3312922     -4.0807198     -3.4350158     -83.320313    
     32560  -81.712841      158.5          158.5          158.5          4.8637859      6.3044284      6.8597588      1.4271706     -81.712841    
     32580  -95.493436      158.5          158.5          158.5         -1.2066708     -0.75769295     1.9697531     -4.8320725     -95.493436    
     32600  -79.207327      158.5          158.5          158.5          1.3605218     -1.4383957      2.2586744      3.2612868     -79.207327    
     32620  -91.368983      158.5          158.5          158.5          0.30613002    -0.35204293    -0.86826761     2.1387006     -91.368983    
     32640  -87.038938      158.5          158.5          158.5          1.9107513      1.2815631      2.6361938      1.8144971     -87.038938    
     32660  -84.807814      158.5          158.5          158.5          5.7030767      6.1913805      8.0276052      2.8902444     -84.807814    
     32680  -80.51792       158.5          158.5          158.5         -4.3925897     -4.4849677     -5.8367912     -2.8560102     -80.51792     
     32700  -95.403502      158.5          158.5          158.5          3.1235065      3.5543846     -1.4949312      7.3110659     -95.403502    
     32720  -80.756779      158.5          158.5          158.5         -3.8058768     -4.8541781     -2.8679594     -3.6954928     -80.756779    
     32740  -88.756796      158.5          158.5          158.5         -0.55530686    -5.6609141      2.44512        1.5498736     -88.756796    
     32760  -77.679496      158.5          158.5          158.5          4.8410224      5.1161426      7.3714175      2.0355073     -77.679496    
     32780  -88.702301      158.5          158.5          158.5         -2.981118       1.7923379     -4.5098627     -6.2258292     -88.702301    
     32800  -74.54341       158.5          158.5          158.5          2.4611189      4.9777747     -3.9312367      6.3368189     -74.54341     
     32820  -90.684362      158.5          158.5          158.5         -0.48394716     0.84354906    -1.7327283     -0.56266227    -90.684362    
     32840  -79.251596      158.5          158.5          158.5         -0.37117413     0.63932654     2.6301201     -4.382969      -79.251596    
     32860  -81.633208      158.5          158.5          158.5         -0.070255579    2.0603295      1.7122735     -3.9833697     -81.633208    
     32880  -79.925298      158.5          158.5          158.5          0.96083192     1.0025999     -1.5322602      3.4121561     -79.925298    
     32900  -105.70016      158.5          158.5          158.5          0.43145149    -1.8039088     -1.2960726      4.3943359     -105.70016    
     32920  -73.438036      158.5          158.5          158.5          0.82238155     0.39861201     2.4213714     -0.35283879    -73.438036    
     32940  -65.587438      158.5          158.5          158.5          0.36774909    -0.84070962     2.7906818     -0.84672496    -65.587438    
     32960  -72.610401      158.5          158.5          158.5         -0.29653395    -2.9380564      1.0652708      0.98318365    -72.610401    
     32980  -95.258767      158.5          158.5          158.5         -1.6417505     -2.4126369     -0.62128961    -1.891325      -95.258767    
     33000  -74.637847      158.5          158.5          158.5         -6.2200776     -4.2105912     -6.9977477     -7.4518939     -74.637847    
     33020  -83.725226      158.5          158.5          158.5          0.71763726     6.5528451     -4.1038714     -0.29606185    -83.725226    
     33040  -76.583896      158.5          158.5          158.5         -0.22512565    -0.64482536     1.4592841     -1.4898357     -76.583896    
     33060  -88.762231      158.5          158.5          158.5         -1.2660784     -8.9130313      5.4151858     -0.30038976    -88.762231    
     33080  -98.909934      158.5          158.5          158.5          2.7795502      4.2883559      1.4507596      2.5995352     -98.909934    
     33100  -99.945491      158.5          158.5          158.5         -1.0927985      0.20814437    -1.410959      -2.0755809     -99.945491    
     33120  -98.667332      158.5          158.5          158.5          1.2261162     -3.0121114      2.7275758      3.9628841     -98.667332    
     33140  -90.017549      158.5          158.5          158.5          0.5253603     -2.1814408      0.13426304     3.6232587     -90.017549    
     33160  -111.61907      158.5          158.5          158.5          0.41586152     3.7658602      0.52474373    -3.0430194     -111.61907    
     33180  -101.62465      158.5          158.5          158.5          1.5152984      3.3663883      2.2104317     -1.0309247     -101.62465    
     33200  -95.732912      158.5          158.5          158.5         -2.0346378     -3.5358795     -5.168674       2.6006402     -95.732912    
     33220  -110.59253      158.5          158.5          158.5          2.1787237      2.5164936     -4.3897826      8.4094602     -110.59253    
     33240  -100.03889      158.5          158.5          158.5         -2.2027079      0.56686411    -6.3567367     -0.81825116    -100.03889    
     33260  -105.81972      158.5          158.5          158.5          2.2039189      4.9182898     -0.086261038    1.779728      -105.81972    
     33280  -102.90381      158.5          158.5          158.5          0.35013103    -3.223256       1.2087297      3.0649193     -102.90381    
     33300  -108.18983      158.5          158.5          158.5         -3.8281721     -5.9351056     -4.7250818     -0.82432899    -108.18983    
     33320  -97.336808      158.5          158.5          158.5          2.892992       6.5594477     -2.8241703      4.9436987     -97.336808    
     33340  -103.03394      158.5          158.5          158.5         -1.9741555     -0.2521593     -5.529597      -0.14071038    -103.03394    
     33360  -94.387237      158.5          158.5          158.5          2.8406762      0.86878785     4.8076966      2.8455443     -94.387237    
     33380  -102.20523      158.5          158.5          158.5          2.4993262      5.5714933      0.42025583     1.5062296     -102.20523    
     33400  -113.11391      158.5          158.5          158.5         -0.27994506     1.4576493     -0.62175332    -1.6757312     -113.11391    
     33420  -104.78755      158.5          158.5          158.5         -0.92158628     0.17701174     0.39912246    -3.340893      -104.78755    
     33440  -97.483062      158.5          158.5          158.5         -0.7598737      2.4994416     -2.6242091     -2.1548536     -97.483062    
     33460  -88.551539      158.5          158.5          158.5          0.57860246     2.0701647      0.63357339    -0.96793072    -88.551539    
     33480  -87.046666      158.5          158.5          158.5          3.0884745      1.5406013      7.2893299      0.43549222    -87.046666    
     33500  -90.900265      158.5          158.5          158.5         -0.91244725     0.31284808     0.44737509    -3.4975649     -90.900265    
     33520  -90.586506      158.5          158.5          158.5         -2.2736719     -4.2327848     -0.8148106     -1.7734202     -90.586506    
     33540  -76.628919      158.5          158.5          158.5          0.91497593    -0.55188208     2.0378425      1.2589674     -76.628919    
     33560  -94.103471      158.5          158.5          158.5         -0.9431599     -2.1375139     -1.0607712      0.36880538    -94.103471    
     33580  -82.034992      158.5          158.5          158.5          3.5602512      1.4455541      4.0162886      5.2189109     -82.034992    
     33600  -101.52645      158.5          158.5          158.5         -2.0673149     -4.7747321      0.23870722    -1.6659198     -101.52645    
     33620  -80.367349      158.5          158.5          158.5         -3.7288005     -2.5494448     -5.5968475     -3.0401091     -80.367349    
     33640  -96.537743      158.5          158.5          158.5         -0.56226822    -2.6215952     -0.39764425     1.3324348     -96.537743    
     33660  -91.123295      158.5          158.5          158.5         -3.5325626     -8.5703076     -0.37361031    -1.6537697     -91.123295    
     33680  -86.771991      158.5          158.5          158.5          1.993243       3.6894172      1.8706252      0.41968668    -86.771991    
     33700  -99.444813      158.5          158.5          158.5         -0.65488613     1.4100009      0.88307085    -4.2577302     -99.444813    
     33720  -95.979573      158.5          158.5          158.5         -2.1141056     -1.6025021     -2.8126667     -1.927148      -95.979573    
     33740  -105.78771      158.5          158.5          158.5         -2.2938223     -1.26239       -1.7866763     -3.8324005     -105.78771    
     33760  -102.59808      158.5          158.5          158.5         -1.1597612     -0.20613447    -1.8485034     -1.4246456     -102.59808    
     33780  -101.9941       158.5          158.5          158.5          4.4915797      1.051738       4.3504313      8.0725699     -101.9941     
     33800  -111.50958      158.5          158.5          158.5          1.2825359      1.044652       2.346638       0.45631775    -111.50958    
     33820  -95.579137      158.5          158.5          158.5         -2.1250593     -1.6782173     -3.6920233     -1.0049373     -95.579137    
     33840  -121.09593      158.5          158.5          158.5         -0.44451571     0.36647196    -2.019122       0.31910295    -121.09593    
     33860  -103.47799      158.5          158.5          158.5          3.3089237      3.9722735      3.2690453      2.6854522     -103.47799    
     33880  -101.4097       158.5          158.5          158.5          3.5585503      0.64269671     3.7735859      6.2593683     -101.4097     
     33900  -99.307805      158.5          158.5          158.5          0.69583805     2.218811      -2.17396        2.0426631     -99.307805    
     33920  -109.70656      158.5          158.5          158.5          3.3384026      2.3148415      6.7307585      0.96960767    -109.70656    
     33940  -96.27121       158.5          158.5          158.5         -1.8115439     -4.6380005      0.56062802    -1.3572592     -96.27121     
     33960  -86.093999      158.5          158.5          158.5         -3.0144811     -1.3121402     -6.3000148     -1.4312883     -86.093999    
     33980  -97.731699      158.5          158.5          158.5          1.2154731      0.66904952     3.2532713     -0.27590168    -97.731699    
     34000  -89.417402      158.5          158.5          158.5          2.3948954     -0.53848979     5.576853       2.1463229     -89.417402    
     34020  -90.170138      158.5          158.5          158.5         -1.4488182     -1.3382926     -4.7925552      1.7843931     -90.170138    
     34040  -102.83408      158.5          158.5          158.5          1.1136737      0.76292794     0.091555645    2.4865375     -102.83408    
     34060  -91.270298      158.5          158.5          158.5         -0.074783042   -3.2751462      0.383391       2.6674061     -91.270298    
     34080  -87.384788      158.5          158.5          158.5         -2.3201109     -1.5760969     -1.6287824     -3.7554533     -87.384788    
     34100  -88.907776      158.5          158.5          158.5          1.2932815      0.42243945     2.9887294      0.46867555    -88.907776    
     34120  -80.947351      158.5          158.5          158.5         -1.2018542     -4.2692768     -1.8222809      2.485995      -80.947351    
     34140  -75.664391      158.5          158.5          158.5         -0.65010613     0.13691443    -1.2579849     -0.82924789    -75.664391    
     34160  -90.24697       158.5          158.5          158.5         -0.97489351    -2.3397691     -1.7578669      1.1729555     -90.24697     
     34180  -73.885715      158.5          158.5          158.5         -3.1175467      0.30837172    -7.4636285     -2.1973832     -73.885715    
     34200  -83.900864      158.5          158.5          158.5         -0.17237111     3.3437373     -1.3573232     -2.5035274     -83.900864    
     34220  -75.50091       158.5          158.5          158.5         -0.17334998     0.2420037     -0.61701664    -0.145037      -75.50091     
     34240  -90.010348      158.5          158.5          158.5         -0.067999664    5.1006552     -4.5604985     -0.74415574    -90.010348    
     34260  -92.916954      158.5          158.5          158.5         -1.4137926      2.8000358     -0.76247385    -6.2789399     -92.916954    
     34280  -94.415237      158.5          158.5          158.5         -0.7749708     -2.4759647      2.5363862     -2.3853339     -94.415237    
     34300  -97.291983      158.5          158.5          158.5          0.95991149    -1.0060003      0.60410004     3.2816347     -97.291983    
     34320  -93.403653      158.5          158.5          158.5          0.027897249    1.0713177      4.4976371     -5.485263      -93.403653    
     34340  -110.34479      158.5          158.5          158.5         -0.06966692     0.18553091     1.9881191     -2.3826508     -110.34479    
     34360  -109.71285      158.5          158.5          158.5          2.843861       0.63230815     3.2423745      4.6569004     -109.71285    
     34380  -122.89473      158.5          158.5          158.5         -1.5144538     -1.8234593      1.3833658     -4.1032679     -122.89473    
     34400  -119.98881      158.5          158.5          158.5          3.6101487      6.6258764      2.8911692      1.3134004     -119.98881    
     34420  -115.68245      158.5          158.5          158.5          1.210874      -0.90443924     3.562175       0.97488634    -115.68245    
     34440  -113.27178      158.5          158.5          158.5         -1.5994476     -3.8560041      1.3929417     -2.3352805     -113.27178    
     34460  -103.91669      158.5          158.5          158.5          2.2449242      3.8552661      1.9118639      0.96764247    -103.91669    
     34480  -111.15582      158.5          158.5          158.5         -5.3730362     -5.5877336     -4.9464377     -5.5849374     -111.15582    
     34500  -124.73391      158.5          158.5          158.5          1.769407       1.074025       0.94719811     3.2869979     -124.73391    
     34520  -122.41958      158.5          158.5          158.5          1.8327065      0.18753609     4.580866       0.72971741    -122.41958    
     34540  -126.30947      158.5          158.5          158.5         -1.1368759      0.31952868    -1.083594      -2.6465624     -126.30947    
     34560  -115.08201      158.5          158.5          158.5         -1.8431445      1.2750317     -4.2280031     -2.5764622     -115.08201    
     34580  -105.46291      158.5          158.5          158.5         -5.1717889     -3.1384386     -7.7265574     -4.6503708     -105.46291    
     34600  -114.07787      158.5          158.5          158.5          4.3088022      3.5120302      5.6415031      3.7728733     -114.07787    
     34620  -110.2492       158.5          158.5          158.5         -1.9729418     -4.4447511     -0.99541325    -0.47866105    -110.2492     
     34640  -93.577241      158.5          158.5          158.5         -0.49109265    -0.21901336    -3.1387657      1.8845012     -93.577241    
     34660  -106.38869      158.5          158.5          158.5          2.8279889      3.4639248     -0.79335205     5.813394      -106.38869    
     34680  -92.763913      158.5          158.5          158.5         -6.5480932     -5.3913129     -9.6859857     -4.566981      -92.763913    
     34700  -97.297735      158.5          158.5          158.5          7.523726       7.11208        5.7628137      9.6962844     -97.297735    
     34720  -95.90636       158.5          158.5          158.5         -2.4518222     -4.0313695     -1.4254557     -1.8986414     -95.90636     
     34740  -103.35911      158.5          158.5          158.5          0.15133039     3.0791016     -0.99482451    -1.6302859     -103.35911    
     34760  -90.506662      158.5          158.5          158.5          3.8372958      4.7793485      1.2542288      5.4783102     -90.506662    
     34780  -107.50333      158.5          158.5          158.5          0.47665902    -4.0936957      0.88413081     4.639542      -107.50333    
     34800  -83.7512        158.5          158.5          158.5          4.3833156      2.8695812      5.7437402      4.5366254     -83.7512      
     34820  -108.53383      158.5          158.5          158.5         -1.8935556     -2.276247      -3.5999105      0.19549058    -108.53383    
     34840  -85.902278      158.5          158.5          158.5          2.7160777      1.5449986      2.9548084      3.648426      -85.902278    
     34860  -101.61752      158.5          158.5          158.5         -1.1552581     -2.1190143     -2.4086033      1.0618432     -101.61752    
     34880  -103.1762       158.5          158.5          158.5          0.70663931    -2.8410996      0.54731527     4.4137023     -103.1762     
     34900  -102.44728      158.5          158.5          158.5          3.687653      -0.52659969     7.6935633      3.8959953     -102.44728    
     34920  -101.20909      158.5          158.5          158.5         -0.2292856     -0.0022637522  -2.1497554      1.4641623     -101.20909    
     34940  -102.83028      158.5          158.5          158.5          3.6417252      3.9716631      0.92206791     6.0314448     -102.83028    
     34960  -91.650223      158.5          158.5          158.5         -4.2187521     -9.8922249      0.21949648    -2.9835278     -91.650223    
     34980  -101.52232      158.5          158.5          158.5         -2.4091369      0.48820717    -1.7714799     -5.9441378     -101.52232    
     35000  -112.9415       158.5          158.5          158.5          0.60581099     6.3759994      0.49642319    -5.0549896     -112.9415     
     35020  -101.45956      158.5          158.5          158.5         -0.621717      -1.5481522      0.55633209    -0.87333093    -101.45956    
     35040  -110.05536      158.5          158.5          158.5          0.21748708    -0.18632878    -0.78171999     1.62051       -110.05536    
     35060  -116.013        158.5          158.5          158.5         -1.7537391      0.15785195     0.068211039   -5.4872802     -116.013      
     35080  -113.10458      158.5          158.5          158.5         -3.3047807      2.8258393     -7.0628711     -5.6773104     -113.10458    
     35100  -109.98525      158.5          158.5          158.5         -1.0095412      0.066773169   -1.1016757     -1.9937212     -109.98525    
     35120  -112.88923      158.5          158.5          158.5          0.34511505    -4.3175969      2.9388418      2.4141002     -112.88923    
     35140  -108.2751       158.5          158.5          158.5         -3.8985736      0.59540851    -6.1759647     -6.1151645     -108.2751     
     35160  -111.29463      158.5          158.5          158.5         -0.067357332    7.8271108     -1.5365604     -6.4926224     -111.29463    
     35180  -102.77702      158.5          158.5          158.5         -2.8938718     -3.3168029     -1.0936408     -4.2711716     -102.77702    
     35200  -121.70771      158.5          158.5          158.5         -2.4757207     -4.0958713     -2.5331408     -0.79814987    -121.70771    
     35220  -111.25203      158.5          158.5          158.5          0.54657925     1.866449      -1.574981       1.3482697     -111.25203    
     35240  -110.27954      158.5          158.5          158.5         -2.7768502      0.18847186     0.52706495    -9.0460873     -110.27954    
     35260  -99.942462      158.5          158.5          158.5         -0.17374978     1.2243116      0.69085894    -2.4364198     -99.942462    
     35280  -112.57185      158.5          158.5          158.5         -0.5141035     -1.5608684     -0.97472274     0.99328068    -112.57185    
     35300  -85.947657      158.5          158.5          158.5         -0.38370115     1.2056421     -0.54017958    -1.816566      -85.947657    
     35320  -102.41698      158.5          158.5          158.5          1.1709334      3.4588756      2.0881825     -2.0342579     -102.41698    
     35340  -88.124793      158.5          158.5          158.5         -1.1834639     -4.2219162      0.59525148     0.076273125   -88.124793    
     35360  -93.518208      158.5          158.5          158.5          3.6700614      2.2615512      5.5097037      3.2389293     -93.518208    
     35380  -96.635948      158.5          158.5          158.5          2.4127618      5.0134182      0.52592255     1.6989448     -96.635948    
     35400  -99.692885      158.5          158.5          158.5         -0.038771611    2.3399159      0.17882414    -2.6350549     -99.692885    
     35420  -102.27809      158.5          158.5          158.5          2.1320054      3.1646857      0.54947119     2.6818593     -102.27809    
     35440  -102.37357      158.5          158.5          158.5         -1.7682387     -4.4465026     -2.3580904      1.4998769     -102.37357    
     35460  -104.79642      158.5          158.5          158.5          1.6047234      1.689892      -3.4053629      6.5296413     -104.79642    
     35480  -103.69873      158.5          158.5          158.5          2.3451206     -1.0516261      3.7799206      4.3070673     -103.69873    
     35500  -97.061916      158.5          158.5          158.5         -0.59150563    -3.0324278      3.0050392     -1.7471283     -97.061916    
     35520  -108.37438      158.5          158.5          158.5          2.1831941      1.5427202      3.7372682      1.2695938     -108.37438    
     35540  -112.76988      158.5          158.5          158.5         -0.69504517    -0.98896017    -1.5229115      0.42673619    -112.76988    
     35560  -113.93879      158.5          158.5          158.5         -2.2256143     -2.9990426     -1.5065544     -2.1712459     -113.93879    
     35580  -115.84722      158.5          158.5          158.5         -1.5597778     -1.4581014     -1.792907      -1.428325      -115.84722    
     35600  -105.25959      158.5          158.5          158.5          3.362141       5.1127911      1.4969674      3.4766645     -105.25959    
     35620  -112.91053      158.5          158.5          158.5          1.7201528      0.31384144     2.7010142      2.1456029     -112.91053    
     35640  -112.84842      158.5          158.5          158.5          0.043888275   -3.3080996      2.1031301      1.3366343     -112.84842    
     35660  -115.65052      158.5          158.5          158.5          0.69982967    -2.3565518      2.8647105      1.5913303     -115.65052    
     35680  -117.32009      158.5          158.5          158.5         -1.3339406     -1.6479582     -3.9305772      1.5767136     -117.32009    
     35700  -130.23129      158.5          158.5          158.5          0.46448859     0.9922475     -1.6004135      2.0016318     -130.23129    
     35720  -99.490715      158.5          158.5          158.5          1.3522655      1.7140996      1.3191375      1.0235595     -99.490715    
     35740  -108.4676       158.5          158.5          158.5         -1.4118614     -5.9459391      1.1406548      0.56970004    -108.4676     
     35760  -104.93235      158.5          158.5          158.5          0.81489814    -2.6372653      7.3908508     -2.3088911     -104.93235    
     35780  -125.11313      158.5          158.5          158.5          1.7269513      2.9839334      2.6109881     -0.41406748    -125.11313    
     35800  -117.68596      158.5          158.5          158.5          1.7888753      1.7219704     -2.6554578      6.3001133     -117.68596    
     35820  -120.63695      158.5          158.5          158.5         -1.8696836     -2.2106648     -3.1645182     -0.23386783    -120.63695    
     35840  -126.81206      158.5          158.5          158.5          1.5365072     -0.82052042     1.8487492      3.5812928     -126.81206    
     35860  -105.92105      158.5          158.5          158.5         -0.33120177     0.56243439    -5.3467732      3.7907335     -105.92105    
     35880  -113.66875      158.5          158.5          158.5         -0.33977032     3.0530332     -3.3719079     -0.70043622    -113.66875    
     35900  -115.44606      158.5          158.5          158.5          1.9177592     -0.17141165     5.3782557      0.54643358    -115.44606    
     35920  -118.18595      158.5          158.5          158.5         -4.6479894     -5.5083377     -4.5571387     -3.8784918     -118.18595    
     35940  -116.59064      158.5          158.5          158.5          2.056176       5.0329714     -1.0782651      2.2138219     -116.59064    
     35960  -115.18573      158.5          158.5          158.5          0.63063312     2.1886134     -1.3785221      1.0818081     -115.18573    
     35980  -106.14194      158.5          158.5          158.5         -4.680901      -1.8653102     -8.6025137     -3.5748793     -106.14194    
     36000  -105.41974      158.5          158.5          158.5          2.205407       6.9432831      0.52809613    -0.85515828    -105.41974    
     36020  -106.20735      158.5          158.5          158.5         -3.3009837      0.14935962    -4.2118        -5.8405108     -106.20735    
     36040  -106.62869      158.5          158.5          158.5          3.6234736      2.9222559      3.6705394      4.2776254     -106.62869    
     36060  -97.106262      158.5          158.5          158.5          0.28454243     0.3735771     -1.0985978      1.578648      -97.106262    
     36080  -108.63069      158.5          158.5          158.5         -4.6625891     -0.38635104    -10.742055     -2.8593612     -108.63069    
     36100  -98.998847      158.5          158.5          158.5         -0.31043444    -1.3264505     -4.2493025      4.6444497     -98.998847    
     36120  -97.261491      158.5          158.5          158.5         -2.4864837     -2.0483649     -2.7959453     -2.615141      -97.261491    
     36140  -115.08846      158.5          158.5          158.5          2.4804764      5.1238909     -0.0020312875   2.3195697     -115.08846    
     36160  -114.59378      158.5          158.5          158.5          0.63187801    -0.72998849     2.8955592     -0.26993671    -114.59378    
     36180  -95.23726       158.5          158.5          158.5         -3.4409782     -2.4939227     -2.2431116     -5.5859004     -95.23726     
     36200  -118.15266      158.5          158.5          158.5          4.3110618      7.7530062      3.2378863      1.9422929     -118.15266    
     36220  -114.89504      158.5          158.5          158.5         -0.36250882    -0.11647722     1.356641      -2.3276903     -114.89504    
     36240  -106.27537      158.5          158.5          158.5         -1.5971434     -5.7217163      3.6608034     -2.7305171     -106.27537    
     36260  -120.63859      158.5          158.5          158.5          2.8820233      1.1710587      3.9341083      3.5409029     -120.63859    
     36280  -103.69652      158.5          158.5          158.5         -3.2562141     -2.9450324     -2.5877806     -4.2358292     -103.69652    
     36300  -119.3001       158.5          158.5          158.5          2.6084845     -1.4876345      3.6571836      5.6559045     -119.3001     
     36320  -114.81712      158.5          158.5          158.5          2.814824       1.0301304      0.80460333     6.6097383     -114.81712    
     36340  -107.9571       158.5          158.5          158.5          0.66711428     0.42628078     3.7884672     -2.2134052     -107.9571     
     36360  -118.91718      158.5          158.5          158.5          3.0741633     -0.34418065     6.4315617      3.1351088     -118.91718    
     36380  -121.00102      158.5          158.5          158.5         -0.95685676    -0.8256382     -3.9765373      1.9316052     -121.00102    
     36400  -128.21422      158.5          158.5          158.5          0.38191587     0.82088812     2.5945444     -2.2696849     -128.21422    
     36420  -118.0554       158.5          158.5          158.5          2.7929992      4.0756783      6.5105987     -2.2072792     -118.0554     
     36440  -139.49724      158.5          158.5          158.5         -3.3212636     -6.6724923     -0.32709601    -2.9642024     -139.49724    
     36460  -115.9827       158.5          158.5          158.5          2.4400466     -0.068962451    4.7771594      2.6119429     -115.9827     
     36480  -112.45873      158.5          158.5          158.5         -2.9040108     -0.42739746    -5.1018251     -3.18281       -112.45873    
     36500  -110.03218      158.5          158.5          158.5          0.24226643    -0.69594781    -1.4688915      2.8916386     -110.03218    
     36520  -114.29191      158.5          158.5          158.5         -3.0792268     -1.9603993     -3.5023535     -3.7749275     -114.29191    
     36540  -116.21508      158.5          158.5          158.5         -1.617311       0.087072231   -1.2502388     -3.6887664     -116.21508    
     36560  -103.82204      158.5          158.5          158.5          2.1283447      3.2059485      0.50605912     2.6730266     -103.82204    
     36580  -111.56989      158.5          158.5          158.5         -0.94050917     3.2346662     -1.6535904     -4.4026033     -111.56989    
     36600  -104.01272      158.5          158.5          158.5          6.3004235      4.9004106      6.3000135      7.7008464     -104.01272    
     36620  -116.33979      158.5          158.5          158.5         -2.9152593      0.16285649    -10.956212      2.0475772     -116.33979    
     36640  -105.29975      158.5          158.5          158.5         -3.1083195     -0.22549546    -9.5751751      0.47571202    -105.29975    
     36660  -98.678494      158.5          158.5          158.5          3.7771961     -0.35282726     5.0439635      6.640452      -98.678494    
     36680  -111.95893      158.5          158.5          158.5         -3.0778631     -3.5782152     -5.6245737     -0.030800334   -111.95893    
     36700  -108.83628      158.5          158.5          158.5          1.2986898      3.8949002     -3.3844324      3.3856016     -108.83628    
     36720  -104.41278      158.5          158.5          158.5         -3.6734158     -5.2909723     -0.87549811    -4.853777      -104.41278    
     36740  -95.550867      158.5          158.5          158.5         -2.4415277     -4.5983333      4.2150857     -6.9413354     -95.550867    
     36760  -99.317234      158.5          158.5          158.5          1.6209002      0.45650634     2.5033498      1.9028444     -99.317234    
     36780  -109.28296      158.5          158.5          158.5         -4.1968848     -3.6193518     -4.4424726     -4.52883       -109.28296    
     36800  -111.85821      158.5          158.5          158.5          2.6224359      1.7993018      6.5371329     -0.46912686    -111.85821    
     36820  -108.68812      158.5          158.5          158.5          1.6810713     -0.43148619     2.6656723      2.8090277     -108.68812    
     36840  -111.12846      158.5          158.5          158.5          1.0756324      1.0408635     -1.6356051      3.8216387     -111.12846    
     36860  -118.57158      158.5          158.5          158.5          1.8675026      2.0591268      3.0843881      0.45899285    -118.57158    
     36880  -112.47472      158.5          158.5          158.5         -4.5282887     -5.776855      -2.844106      -4.9639052     -112.47472    
     36900  -116.10775      158.5          158.5          158.5          0.34690912     1.9557668      0.12070537    -1.0357448     -116.10775    
     36920  -115.97535      158.5          158.5          158.5          0.19395589     8.2871954     -3.4796123     -4.2257154     -115.97535    
     36940  -111.7301       158.5          158.5          158.5         -1.8686915     -2.3037991      1.5072563     -4.8095316     -111.7301     
     36960  -117.33197      158.5          158.5          158.5          3.2193114      0.38949431     7.3714307      1.8970091     -117.33197    
     36980  -118.98824      158.5          158.5          158.5         -2.0215464      3.3281018     -7.7867306     -1.6060103     -118.98824    
     37000  -116.10922      158.5          158.5          158.5         -0.90836087     1.9887193     -4.1183257     -0.59547618    -116.10922    
     37020  -132.95574      158.5          158.5          158.5         -0.3612618     -0.66202431     2.0317533     -2.4535144     -132.95574    
     37040  -125.41657      158.5          158.5          158.5         -0.97028276    -0.28783616    -3.7274498      1.1044376     -125.41657    
     37060  -121.39189      158.5          158.5          158.5          2.9479701      4.01623        0.65482326     4.1728571     -121.39189    
     37080  -124.54777      158.5          158.5          158.5         -0.16815149     3.1904346     -0.617564      -3.0773251     -124.54777    
     37100  -128.19801      158.5          158.5          158.5         -0.1968582      3.3156998     -4.2825429      0.37626852    -128.19801    
     37120  -116.63861      158.5          158.5          158.5          0.1954171     -0.63958294     1.0544644      0.17136984    -116.63861    
     37140  -108.40917      158.5          158.5          158.5         -2.8337286     -2.3392028     -2.3942343     -3.7677488     -108.40917    
     37160  -135.61397      158.5          158.5          158.5          2.9137457      4.5671367      0.87590276     3.2981978     -135.61397    
     37180  -134.75946      158.5          158.5          158.5         -1.749613      -0.54370659    -2.4240077     -2.2811247     -134.75946    
     37200  -123.58716      158.5          158.5          158.5          3.2533262     -3.2008936      5.7637665      7.1971055     -123.58716    
     37220  -133.81315      158.5          158.5          158.5          3.137056       0.52574901     3.4849572      5.4004619     -133.81315    
     37240  -122.87175      158.5          158.5          158.5         -6.7065039     -6.400467      -6.7228735     -6.9961713     -122.87175    
     37260  -112.56664      158.5          158.5          158.5          6.2311619      2.4907506      7.4465916      8.7561436     -112.56664    
     37280  -130.57859      158.5          158.5          158.5         -0.18355663    -0.69743377     1.8289301     -1.6821662     -130.57859    
     37300  -118.67677      158.5          158.5          158.5         -0.10658107     1.5820302      1.1365435     -3.0383169     -118.67677    
     37320  -121.26204      158.5          158.5          158.5          0.27576267     1.6506105      0.070451339   -0.89377385    -121.26204    
     37340  -123.49812      158.5          158.5          158.5         -5.4080051     -9.8721604     -2.6148753     -3.7369797     -123.49812    
     37360  -123.43192      158.5          158.5          158.5          1.6188114      2.3419043      2.4000688      0.11446106    -123.43192    
     37380  -108.8635       158.5          158.5          158.5         -2.7613724      0.87669657    -2.7396528     -6.4211608     -108.8635     
     37400  -115.30425      158.5          158.5          158.5          0.74945116     0.27451608    -0.090633709    2.0644711     -115.30425    
     37420  -128.13477      158.5          158.5          158.5          4.8196924      3.2069839      2.527974       8.7241193     -128.13477    
     37440  -119.16299      158.5          158.5          158.5         -4.6068154     -1.6710478     -6.3134515     -5.8359468     -119.16299    
     37460  -100.38829      158.5          158.5          158.5          1.6560258      5.2155842      2.4702861     -2.717793      -100.38829    
     37480  -124.95091      158.5          158.5          158.5         -2.0685987      0.90492225    -1.0508346     -6.0598837     -124.95091    
     37500  -111.54216      158.5          158.5          158.5         -0.1098426     -4.7265554      0.85820305     3.5388246     -111.54216    
     37520  -121.17606      158.5          158.5          158.5          2.2675048      1.6730484      1.0922191      4.037247      -121.17606    
     37540  -133.1717       158.5          158.5          158.5         -2.6872849     -1.3886948     -0.030049241   -6.6431107     -133.1717     
     37560  -121.78744      158.5          158.5          158.5          1.9651855     -1.3848845      5.0220929      2.258348      -121.78744    
     37580  -121.0504       158.5          158.5          158.5         -0.75633018    -2.4057823     -2.5156341      2.6524258     -121.0504     
     37600  -135.37752      158.5          158.5          158.5          2.438717      -0.57800669     4.3687167      3.525441      -135.37752    
     37620  -154.19385      158.5          158.5          158.5          2.6841323      1.3503447      4.3249636      2.3770887     -154.19385    
     37640  -135.31721      158.5          158.5          158.5         -2.3486983      0.92892518    -4.8332356     -3.1417845     -135.31721    
     37660  -145.35458      158.5          158.5          158.5          3.8208105      2.7555693      1.2977011      7.4091611     -145.35458    
     37680  -148.99674      158.5          158.5          158.5         -0.94090001    -3.1404068      2.294225      -1.9765182     -148.99674    
     37700  -130.53315      158.5          158.5          158.5          0.40138554     0.45454589     6.3384007     -5.58879       -130.53315    
     37720  -153.73025      158.5          158.5          158.5          2.2413292      2.3759371      4.801295      -0.45324433    -153.73025    
     37740  -145.1776       158.5          158.5          158.5         -1.5933174     -3.85047       -3.6060176      2.6765355     -145.1776     
     37760  -139.37783      158.5          158.5          158.5          1.3381759      0.59730112     2.8800183      0.53720824    -139.37783    
     37780  -138.26765      158.5          158.5          158.5         -1.7443793     -0.23894831     1.3181908     -6.3123803     -138.26765    
     37800  -150.14591      158.5          158.5          158.5          0.42845403     2.3655722     -0.27743163    -0.80277843    -150.14591    
     37820  -133.28161      158.5          158.5          158.5         -0.50080883     0.3087103     -5.1519512      3.3408144     -133.28161    
     37840  -142.99342      158.5          158.5          158.5          0.45820198     2.0392451     -0.5940249     -0.07061427    -142.99342    
     37860  -131.62587      158.5          158.5          158.5         -0.36038611     3.544012      -3.2823764     -1.3427939     -131.62587    
     37880  -116.72422      158.5          158.5          158.5         -3.0953486      0.23661531    -5.9451915     -3.5774696     -116.72422    
     37900  -145.47128      158.5          158.5          158.5          0.62361715    -0.17637963     0.35308952     1.6941416     -145.47128    
     37920  -121.1887       158.5          158.5          158.5         -0.037117597    1.0419884     -0.7528657     -0.40047553    -121.1887     
     37940  -137.56421      158.5          158.5          158.5          0.29054999     2.3388857      1.269223      -2.7364587     -137.56421    
     37960  -110.68486      158.5          158.5          158.5         -1.6528732      0.6730878     -2.9044285     -2.7272791     -110.68486    
     37980  -108.33436      158.5          158.5          158.5         -1.2150991     -0.56749399    -4.2765279      1.1987246     -108.33436    
     38000  -115.96005      158.5          158.5          158.5          3.5172951      6.0978254     -1.5761738      6.0302336     -115.96005    
     38020  -112.55812      158.5          158.5          158.5         -2.9577555     -2.6872729     -6.4633696      0.27737588    -112.55812    
     38040  -122.33921      158.5          158.5          158.5          1.7669619      0.17336088     2.6432318      2.484293      -122.33921    
     38060  -114.15486      158.5          158.5          158.5         -1.1291717     -1.69551       -0.009719462   -1.6822857     -114.15486    
     38080  -120.11224      158.5          158.5          158.5         -4.7055374     -3.3932923     -6.5157203     -4.2075995     -120.11224    
     38100  -94.244022      158.5          158.5          158.5          5.0826961      6.6565603      2.5898224      6.0017056     -94.244022    
     38120  -129.19092      158.5          158.5          158.5         -2.4144428     -3.7417325     -4.6236002      1.1220043     -129.19092    
     38140  -130.64071      158.5          158.5          158.5          4.3141816      4.3355411      3.5433391      5.0636648     -130.64071    
     38160  -136.16402      158.5          158.5          158.5          2.4847833      6.8982068      3.7220529     -3.1659099     -136.16402    
     38180  -131.9875       158.5          158.5          158.5          0.58909431    -0.021880405    0.96173177     0.82743157    -131.9875     
     38200  -114.34197      158.5          158.5          158.5         -2.3351742     -3.7555282     -2.4023188     -0.84767557    -114.34197    
     38220  -115.9782       158.5          158.5          158.5         -3.4812929     -3.1329959      1.3974487     -8.7083315     -115.9782     
     38240  -133.89526      158.5          158.5          158.5          3.736805       5.9201201      2.403575       2.8867199     -133.89526    
     38260  -134.95598      158.5          158.5          158.5         -0.79083102    -1.3905772      0.20396089    -1.1858767     -134.95598    
     38280  -148.66004      158.5          158.5          158.5          3.5048217      4.0027802      4.3692646      2.1424204     -148.66004    
     38300  -132.01916      158.5          158.5          158.5          1.4969135      4.0802363      0.084247046    0.32625732    -132.01916    
     38320  -133.22657      158.5          158.5          158.5         -0.64274262     0.3696692     -1.0186904     -1.2792067     -133.22657    
     38340  -120.52909      158.5          158.5          158.5          3.1774056      3.2773051      4.9151423      1.3397693     -120.52909    
     38360  -144.88287      158.5          158.5          158.5         -1.3346948     -3.7779528     -1.2665428      1.0404113     -144.88287    
     38380  -147.07826      158.5          158.5          158.5          2.6598903      2.2370927      1.2888996      4.4536786     -147.07826    
     38400  -139.42825      158.5          158.5          158.5         -2.0942874     -1.3322531     -5.030928       0.080318878   -139.42825    
     38420  -147.11828      158.5          158.5          158.5         -3.5347445     -5.9363424     -4.02241       -0.64548127    -147.11828    
     38440  -155.24119      158.5          158.5          158.5         -0.011215522   -1.8317165      4.9414984     -3.1434284     -155.24119    
     38460  -155.14596      158.5          158.5          158.5         -4.0580245     -3.8339324     -1.5594953     -6.7806458     -155.14596    
     38480  -149.49057      158.5          158.5          158.5          2.9635979      3.3408577      0.12167469     5.4282612     -149.49057    
     38500  -147.97976      158.5          158.5          158.5         -3.0237428     -4.7931499     -3.3709086     -0.90716985    -147.97976    
     38520  -158.54293      158.5          158.5          158.5          3.3682026      4.7313435      2.6655475      2.7077168     -158.54293    
     38540  -161.208        158.5          158.5          158.5          0.93763786     2.9439703     -1.6129341      1.4818774     -161.208      
     38560  -152.26332      158.5          158.5          158.5         -3.2104055     -4.4251252     -4.9684643     -0.23762706    -152.26332    
     38580  -149.79165      158.5          158.5          158.5         -0.37750667    -2.2839566      0.66464338     0.48679325    -149.79165    
     38600  -137.80279      158.5          158.5          158.5          1.6919564      0.22337079     5.0429819     -0.19048357    -137.80279    
     38620  -145.80756      158.5          158.5          158.5          2.5984894      5.7827213      3.4906838     -1.4779369     -145.80756    
     38640  -136.10725      158.5          158.5          158.5         -3.9258144     -6.9091306     -2.6850027     -2.18331       -136.10725    
     38660  -133.66368      158.5          158.5          158.5         -1.4181592      0.95984764    -4.2754606     -0.93886465    -133.66368    
     38680  -128.71448      158.5          158.5          158.5         -1.2652807      0.79133952    -2.3578954     -2.2292862     -128.71448    
     38700  -116.18192      158.5          158.5          158.5          0.11122097    -1.2903463      1.2208382      0.40317094    -116.18192    
     38720  -131.24912      158.5          158.5          158.5          2.0447197      1.0237604      0.74281285     4.3675858     -131.24912    
     38740  -141.64013      158.5          158.5          158.5         -3.0127736     -4.7959427      0.54749218    -4.7898703     -141.64013    
     38760  -140.78091      158.5          158.5          158.5          4.0114725      3.4344119      6.5050396      2.0949659     -140.78091    
     38780  -129.83626      158.5          158.5          158.5          3.6587682      2.3495033      2.893853       5.7329482     -129.83626    
     38800  -141.08676      158.5          158.5          158.5         -1.3985261     -2.7581476     -2.1525463      0.71511562    -141.08676    
     38820  -129.00918      158.5          158.5          158.5          1.3187565      2.0860419      0.59378771     1.27644       -129.00918    
     38840  -116.01455      158.5          158.5          158.5         -1.9107436      0.24666637     0.81002534    -6.7889225     -116.01455    
     38860  -131.68429      158.5          158.5          158.5         -2.9508168     -3.0270027     -1.8691736     -3.9562741     -131.68429    
     38880  -125.11157      158.5          158.5          158.5          5.9667494      2.6026603      6.3448212      8.9527666     -125.11157    
     38900  -136.30398      158.5          158.5          158.5         -2.8761296     -3.4178753     -1.1902661     -4.0202474     -136.30398    
     38920  -135.00029      158.5          158.5          158.5         -0.88202327     0.20355187    -0.63384479    -2.2157769     -135.00029    
     38940  -128.52498      158.5          158.5          158.5          1.8841816      5.3833597     -1.6177776      1.8869627     -128.52498    
     38960  -131.87059      158.5          158.5          158.5          1.2260986      1.9456421      0.46035053     1.2723032     -131.87059    
     38980  -139.84207      158.5          158.5          158.5         -1.038882       0.99847208    -0.026866262   -4.0882517     -139.84207    
     39000  -148.04586      158.5          158.5          158.5          1.9122128      4.2064867      1.6929612     -0.16280968    -148.04586    
     39020  -135.59397      158.5          158.5          158.5         -3.7747568     -3.5153544     -3.7824547     -4.0264613     -135.59397    
     39040  -149.71206      158.5          158.5          158.5         -1.0521542     -2.7815726     -0.51834047     0.14345034    -149.71206    
     39060  -138.59611      158.5          158.5          158.5          3.1881973      5.5484153     -0.037036009    4.0532125     -138.59611    
     39080  -159.51643      158.5          158.5          158.5         -1.7095162     -2.1521752     -1.0205367     -1.9558368     -159.51643    
     39100  -129.84227      158.5          158.5          158.5          3.6616554     -1.1219489      3.7462016      8.3607136     -129.84227    
     39120  -158.81691      158.5          158.5          158.5          0.3530353     -2.2557955     -0.97595024     4.2908516     -158.81691    
     39140  -145.23318      158.5          158.5          158.5          1.6646006      3.6090639     -2.0576562      3.4423942     -145.23318    
     39160  -155.90229      158.5          158.5          158.5         -1.2816667     -0.07465601    -5.0512094      1.2808653     -155.90229    
     39180  -153.73726      158.5          158.5          158.5         -2.0753728     -8.2451517      2.1873066     -0.16827325    -153.73726    
     39200  -152.29806      158.5          158.5          158.5          2.9932375      0.41514555     6.841071       1.723496      -152.29806    
     39220  -148.27041      158.5          158.5          158.5         -4.919965      -3.0337667     -4.3603068     -7.3658216     -148.27041    
     39240  -145.37431      158.5          158.5          158.5         -0.097556263    2.7417446      0.30386823    -3.3382816     -145.37431    
     39260  -128.69523      158.5          158.5          158.5          2.5899097      0.72201926     1.5937174      5.4539925     -128.69523    
     39280  -134.30163      158.5          158.5          158.5         -1.6728919     -8.1199163      2.1940618      0.90717888    -134.30163    
     39300  -131.99726      158.5          158.5          158.5          3.0872487      8.4630667      2.7837372     -1.985058      -131.99726    
     39320  -127.85183      158.5          158.5          158.5         -2.0775631      0.8514905     -0.01304572    -7.0711341     -127.85183    
     39340  -120.57051      158.5          158.5          158.5          0.11449495    -4.6837303      3.9572548      1.0699604     -120.57051    
     39360  -129.06411      158.5          158.5          158.5         -0.6502891     -0.069389148   -0.75884767    -1.1226305     -129.06411    
     39380  -126.59247      158.5          158.5          158.5         -2.1509312      0.552333      -1.1508535     -5.8542732     -126.59247    
     39400  -117.46452      158.5          158.5          158.5          1.7690643     -0.82818205     4.7923245      1.3430503     -117.46452    
     39420  -115.77947      158.5          158.5          158.5         -3.7038186     -5.1649266     -5.0862686     -0.86026056    -115.77947    
     39440  -126.42778      158.5          158.5          158.5          1.4214922     -1.8142875      4.2496618      1.8291022     -126.42778    
     39460  -119.81511      158.5          158.5          158.5         -2.7923018     -3.9174507     -1.3717613     -3.0876936     -119.81511    
     39480  -131.36407      158.5          158.5          158.5          0.47396912    -1.8873693      1.4015413      1.9077353     -131.36407    
     39500  -114.49942      158.5          158.5          158.5          3.1989432      1.258919       3.7026808      4.6352298     -114.49942    
     39520  -104.12736      158.5          158.5          158.5         -2.1316667      4.6955563     -6.5393592     -4.5511971     -104.12736    
     39540  -130.20992      158.5          158.5          158.5          6.6235801      12.047148      2.7514452      5.0721475     -130.20992    
     39560  -124.34131      158.5          158.5          158.5         -0.87052093    -3.0189095     -2.4874827      2.8948294     -124.34131    
     39580  -116.34122      158.5          158.5          158.5          0.75829824     0.37704909    -2.4458659      4.3437116     -116.34122    
     39600  -123.20254      158.5          158.5          158.5          0.72185617     3.8270173     -0.67198865    -0.98946014    -123.20254    
     39620  -116.36678      158.5          158.5          158.5         -2.0036586     -0.51846932    -1.7868235     -3.705683      -116.36678    
     39640  -132.3518       158.5          158.5          158.5          1.8192413      1.3733805     -0.0068190717   4.0911627     -132.3518     
     39660  -124.36292      158.5          158.5          158.5         -3.3376215     -3.9810762     -2.3117943     -3.7199941     -124.36292    
     39680  -120.34082      158.5          158.5          158.5         -2.1364543     -3.4204813     -2.1978798     -0.79100196    -120.34082    
     39700  -133.66914      158.5          158.5          158.5          4.7049273      8.9860482     -1.527538       6.6562719     -133.66914    
     39720  -131.54552      158.5          158.5          158.5         -2.7252425      1.5969736     -2.3094081     -7.463293      -131.54552    
     39740  -153.47029      158.5          158.5          158.5          4.7116467      2.9365882      6.9973693      4.2009825     -153.47029    
     39760  -138.76001      158.5          158.5          158.5         -1.3617706     -0.96980852    -2.8587262     -0.25677702    -138.76001    
     39780  -163.91526      158.5          158.5          158.5         -2.4078218     -1.3958351     -3.8032827     -2.0243476     -163.91526    
     39800  -144.76928      158.5          158.5          158.5          2.0752476      2.49424        0.43377499     3.2977276     -144.76928    
     39820  -146.87098      158.5          158.5          158.5         -4.6361242     -0.46363764    -8.8796804     -4.5650544     -146.87098    
     39840  -133.38507      158.5          158.5          158.5         -0.4848882      2.1457599     -4.0985279      0.49810332    -133.38507    
     39860  -138.79022      158.5          158.5          158.5         -0.52426239    -0.80013129     1.8146465     -2.5873024     -138.79022    
     39880  -149.87513      158.5          158.5          158.5          1.2885671     -0.4759301      3.96399        0.37764144    -149.87513    
     39900  -155.4206       158.5          158.5          158.5          4.4593468      3.4728603      4.7037114      5.2014686     -155.4206     
     39920  -146.9299       158.5          158.5          158.5          0.56625104     2.3171375      1.8731638     -2.4915482     -146.9299     
     39940  -141.28642      158.5          158.5          158.5         -3.3990019     -0.20229739    -4.0408639     -5.9538444     -141.28642    
     39960  -146.33956      158.5          158.5          158.5          2.4858383      2.3004483     -1.0251599      6.1822265     -146.33956    
     39980  -138.28834      158.5          158.5          158.5          3.0086451      2.429811       2.9322451      3.6638794     -138.28834    
     40000  -131.64142      158.5          158.5          158.5          0.63655923     1.5417934     -1.7350186      2.1029028     -131.64142    
     40020  -136.35368      158.5          158.5          158.5          1.0093953     -0.79654089     0.86157844     2.9631485     -136.35368    
     40040  -120.42132      158.5          158.5          158.5         -2.9997336     -6.6956645     -1.3053491     -0.99818708    -120.42132    
     40060  -135.44897      158.5          158.5          158.5          3.2249075      3.5134213      2.0688117      4.0924896     -135.44897    
     40080  -125.16937      158.5          158.5          158.5          1.0255689      1.9424221      4.4344031     -3.3001184     -125.16937    
     40100  -127.44364      158.5          158.5          158.5         -1.4682517     -3.8127676      1.2673379     -1.8593253     -127.44364    
     40120  -125.60485      158.5          158.5          158.5         -2.3348608     -3.9092045     -1.3100863     -1.7852917     -125.60485    
     40140  -128.77491      158.5          158.5          158.5         -5.2253354     -4.0730676     -5.0718574     -6.5310813     -128.77491    
     40160  -130.23927      158.5          158.5          158.5         -0.55628445    -1.7503365     -1.6179765      1.6994597     -130.23927    
     40180  -115.87265      158.5          158.5          158.5          1.0976656     -2.717041       1.4737165      4.5363212     -115.87265    
     40200  -111.58906      158.5          158.5          158.5         -4.3181107     -4.529453      -2.7636943     -5.6611847     -111.58906    
     40220  -117.23586      158.5          158.5          158.5          2.9078368      3.1517128      2.6164203      2.9553775     -117.23586    
     40240  -133.96485      158.5          158.5          158.5         -1.9208354     -1.8506718     -1.9233712     -1.9884631     -133.96485    
     40260  -141.39196      158.5          158.5          158.5          1.2663111      0.15690362     2.2317156      1.4103142     -141.39196    
     40280  -133.77528      158.5          158.5          158.5          1.1269258      0.53304253     2.1514118      0.69632303    -133.77528    
     40300  -131.54941      158.5          158.5          158.5         -0.92453863     3.5697973      0.2312144     -6.5746276     -131.54941    
     40320  -142.34315      158.5          158.5          158.5         -1.10168       -2.7600607      2.075051      -2.6200305     -142.34315    
     40340  -131.60846      158.5          158.5          158.5         -1.6087035     -4.2946756     -1.8498561      1.3184211     -131.60846    
     40360  -141.80576      158.5          158.5          158.5          4.1908296      5.5331033      5.368999       1.6703865     -141.80576    
     40380  -138.1046       158.5          158.5          158.5         -3.0303198     -2.5553735     -0.75897894    -5.7766069     -138.1046     
     40400  -129.92141      158.5          158.5          158.5          2.2691916      1.6494907      6.8173769     -1.6592928     -129.92141    
     40420  -146.88845      158.5          158.5          158.5          0.66510881     1.1092816      2.7022462     -1.8162013     -146.88845    
     40440  -136.32806      158.5          158.5          158.5          1.4444589      0.86241947     2.5286339      0.94232338    -136.32806    
     40460  -144.37047      158.5          158.5          158.5          4.0295732      6.3876784      7.2065459     -1.5055046     -144.37047    
     40480  -135.67048      158.5          158.5          158.5         -4.0153154     -7.356217       2.0714618     -6.7611911     -135.67048    
     40500  -136.76781      158.5          158.5          158.5         -1.3255784     -1.1613706     -0.22145842    -2.5939062     -136.76781    
     40520  -135.40269      158.5          158.5          158.5          0.65352645     3.2279594     -0.35019247    -0.91718762    -135.40269    
     40540  -151.7441       158.5          158.5          158.5         -3.1241441     -3.1088687     -0.17421778    -6.0893459     -151.7441     
     40560  -138.86924      158.5          158.5          158.5          3.6117363      2.7986731      4.7451339      3.291402      -138.86924    
     40580  -128.42407      158.5          158.5          158.5         -2.1697162     -2.0286437     -6.3358672      1.8553621     -128.42407    
     40600  -136.36927      158.5          158.5          158.5         -3.1993136      1.334717      -3.5179608     -7.4146971     -136.36927    
     40620  -133.58713      158.5          158.5          158.5          0.54182242    -0.77164364     3.5168634     -1.1197525     -133.58713    
     40640  -128.2859       158.5          158.5          158.5         -1.1441857     -5.3820222     -2.0664353      4.0159002     -128.2859     
     40660  -138.53707      158.5          158.5          158.5          1.1637267      2.1394137     -0.14353833     1.4953047     -138.53707    
     40680  -118.96332      158.5          158.5          158.5          2.1164919      6.3311108     -2.6831042      2.7014692     -118.96332    
     40700  -101.98277      158.5          158.5          158.5          0.61025897     0.76015884    -3.4246893      4.4953073     -101.98277    
     40720  -130.72472      158.5          158.5          158.5         -1.7143696     -5.9310303     -0.40814478     1.1960663     -130.72472    
     40740  -127.11546      158.5          158.5          158.5         -1.9743472     -2.1958965     -4.8322483      1.1051032     -127.11546    
     40760  -113.87672      158.5          158.5          158.5         -0.55467982     3.8901815     -3.9247871     -1.6294339     -113.87672    
     40780  -129.33352      158.5          158.5          158.5          0.48897972    -1.1617953      0.67389048     1.9548439     -129.33352    
     40800  -129.31406      158.5          158.5          158.5          0.021395488   -3.5878804     -1.3451559      4.9972228     -129.31406    
     40820  -124.72095      158.5          158.5          158.5         -0.053418542   -0.96900825     2.1745335     -1.3657809     -124.72095    
     40840  -149.13291      158.5          158.5          158.5          2.1766684      4.3140863      2.7286041     -0.51268513    -149.13291    
     40860  -131.31272      158.5          158.5          158.5          0.7728641     -2.1693077      3.2810207      1.2068792     -131.31272    
     40880  -137.12723      158.5          158.5          158.5          2.7252199     -1.674102       6.6918605      3.1579014     -137.12723    
     40900  -144.82783      158.5          158.5          158.5          0.53147724     0.88464039     1.8477836     -1.1379923     -144.82783    
     40920  -144.88398      158.5          158.5          158.5          0.49679104    -0.90950417    -1.2391622      3.6390395     -144.88398    
     40940  -142.06522      158.5          158.5          158.5          0.21660331     0.8426915     -3.1407766      2.947895      -142.06522    
     40960  -158.93192      158.5          158.5          158.5          2.1990623      2.5272534      4.3689532     -0.29901974    -158.93192    
     40980  -138.28155      158.5          158.5          158.5         -1.0652208      1.2980038     -0.58387663    -3.9097897     -138.28155    
     41000  -146.69144      158.5          158.5          158.5          1.7854484      3.0974679     -0.40671671     2.6655939     -146.69144    
     41020  -148.16853      158.5          158.5          158.5          0.8146732     -3.3283181      1.0517738      4.7205639     -148.16853    
     41040  -155.5231       158.5          158.5          158.5          1.5132441     -0.051113287    2.5206851      2.0701604     -155.5231     
     41060  -145.82312      158.5          158.5          158.5          0.99728592     3.0027816      2.4647817     -2.4757055     -145.82312    
     41080  -152.77486      158.5          158.5          158.5          1.5431375      2.5608681     -0.49700646     2.5655509     -152.77486    
     41100  -162.44755      158.5          158.5          158.5         -2.2063032     -1.3639095     -4.4488642     -0.80613581    -162.44755    
     41120  -143.09837      158.5          158.5          158.5         -6.5334673     -2.3161078     -8.1866784     -9.0976157     -143.09837    
     41140  -137.2217       158.5          158.5          158.5         -0.080292348    5.2344525     -5.7200144      0.24468491    -137.2217     
     41160  -149.12231      158.5          158.5          158.5         -0.4382568      0.47961894    -2.7732959      0.9789066     -149.12231    
     41180  -146.86161      158.5          158.5          158.5         -1.1012453     -4.1443477      0.1850565      0.65555518    -146.86161    
     41200  -133.71482      158.5          158.5          158.5          0.94140552     2.7957695      1.6145851     -1.586138      -133.71482    
     41220  -136.7402       158.5          158.5          158.5         -5.7922213     -3.3620543     -7.704648      -6.3099616     -136.7402     
     41240  -144.65116      158.5          158.5          158.5          3.25184        3.394941       0.67795395     5.6826251     -144.65116    
     41260  -141.21201      158.5          158.5          158.5         -1.4122559     -3.2641514     -2.8024409      1.8298248     -141.21201    
     41280  -135.94549      158.5          158.5          158.5         -2.5706739     -3.8653546     -1.2261532     -2.620514      -135.94549    
     41300  -123.33377      158.5          158.5          158.5         -0.97703225    -4.8440774      2.8945883     -0.98160764    -123.33377    
     41320  -120.96151      158.5          158.5          158.5         -2.1267746     -6.7275046     -0.28193312     0.62911399    -120.96151    
     41340  -116.38997      158.5          158.5          158.5         -1.6922094     -2.8423723     -1.0515882     -1.1826677     -116.38997    
     41360  -137.2242       158.5          158.5          158.5         -1.2034519      0.02705738     0.84190575    -4.4793189     -137.2242     
     41380  -134.92659      158.5          158.5          158.5          1.3258603      2.0393979      0.28371523     1.6544677     -134.92659    
     41400  -107.97782      158.5          158.5          158.5         -0.49866906    -2.1273189     -1.1910703      1.8223819     -107.97782    
     41420  -121.2529       158.5          158.5          158.5         -3.1004262     -5.6092666     -6.3005592      2.6085472     -121.2529     
     41440  -125.53767      158.5          158.5          158.5          0.62775796     1.2907852      1.2558152     -0.66332645    -125.53767    
     41460  -129.71532      158.5          158.5          158.5         -1.5980915      0.55607314    -3.5024085     -1.8479392     -129.71532    
     41480  -116.12286      158.5          158.5          158.5          2.4026142      0.97793076     2.71199        3.517922      -116.12286    
     41500  -112.92351      158.5          158.5          158.5         -1.9351253     -3.4353351     -0.44860209    -1.9214388     -112.92351    
     41520  -138.18624      158.5          158.5          158.5          1.7356163      0.22639078     3.8218766      1.1585815     -138.18624    
     41540  -140.56181      158.5          158.5          158.5         -0.71448174     1.1583806     -0.59211102    -2.7097148     -140.56181    
     41560  -137.43121      158.5          158.5          158.5         -0.66706358     2.7100793     -3.4262255     -1.2850446     -137.43121    
     41580  -134.87268      158.5          158.5          158.5          2.2952751      4.6006118      0.60204317     1.6831704     -134.87268    
     41600  -138.34559      158.5          158.5          158.5         -1.3200551      4.3432919     -5.5535307     -2.7499264     -138.34559    
     41620  -163.52631      158.5          158.5          158.5          4.310513       7.0687862      4.9931292      0.86962355    -163.52631    
     41640  -140.80711      158.5          158.5          158.5          1.6875334      1.7886195      2.7164324      0.55754817    -140.80711    
     41660  -156.47724      158.5          158.5          158.5         -2.7041058     -3.9815208     -5.0901616      0.95936517    -156.47724    
     41680  -150.95657      158.5          158.5          158.5          3.2897565      2.8874514      3.197268       3.7845502     -150.95657    
     41700  -153.3541       158.5          158.5          158.5          1.9546465      3.3839388      2.7508127     -0.27081207    -153.3541     
     41720  -146.49185      158.5          158.5          158.5          1.5409895      1.8036972      2.5280451      0.29122607    -146.49185    
     41740  -155.68173      158.5          158.5          158.5          1.0012334      0.605501       3.4908383     -1.0926391     -155.68173    
     41760  -151.99927      158.5          158.5          158.5         -0.9739006     -3.7153996      0.33484051     0.4588573     -151.99927    
     41780  -143.79097      158.5          158.5          158.5          0.19760343    -2.0578906      4.4004342     -1.7497333     -143.79097    
     41800  -137.35705      158.5          158.5          158.5         -0.73595338    -2.1232912     -1.1813409      1.0967719     -137.35705    
     41820  -151.82269      158.5          158.5          158.5         -1.5648385     -3.9468371      1.7282708     -2.4759494     -151.82269    
     41840  -140.12923      158.5          158.5          158.5          1.891345      -2.2635303      9.8547331     -1.9171678     -140.12923    
     41860  -129.68551      158.5          158.5          158.5         -4.119945      -7.0638664     -1.0570009     -4.2389679     -129.68551    
     41880  -135.43981      158.5          158.5          158.5          0.75464842     5.0156255     -2.8438752      0.092194913   -135.43981    
     41900  -137.024        158.5          158.5          158.5          2.3761797      5.2691709     -1.8358368      3.6952049     -137.024      
     41920  -124.02783      158.5          158.5          158.5         -3.500222      -8.1491729      0.4846951     -2.8361881     -124.02783    
     41940  -132.69809      158.5          158.5          158.5         -2.5425825     -5.936087       4.3455486     -6.037209      -132.69809    
     41960  -134.8972       158.5          158.5          158.5          2.4173241      6.5422212      0.90885481    -0.19910367    -134.8972     
     41980  -126.37243      158.5          158.5          158.5          1.8593428      4.937003       1.6546887     -1.0136633     -126.37243    
     42000  -133.02744      158.5          158.5          158.5         -3.455232      -6.0357535     -0.83713249    -3.4928102     -133.02744    
     42020  -114.90204      158.5          158.5          158.5          0.64549445    -2.269056       5.9684598     -1.7629204     -114.90204    
     42040  -129.11156      158.5          158.5          158.5         -4.1495446     -1.0744573     -2.8156537     -8.5585227     -129.11156    
     42060  -135.30838      158.5          158.5          158.5          1.0632913      5.5647245     -1.3251202     -1.0497305     -135.30838    
     42080  -116.9073       158.5          158.5          158.5          4.3237702      6.2775708      7.8976788     -1.2039391     -116.9073     
     42100  -130.04451      158.5          158.5          158.5         -0.80858312    -0.45471827     1.8898352     -3.8608663     -130.04451    
     42120  -126.89678      158.5          158.5          158.5          2.2004698      4.8995702      3.7479831     -2.0461438     -126.89678    
     42140  -143.24026      158.5          158.5          158.5         -0.74749915    -0.24149228     1.9433269     -3.9443321     -143.24026    
     42160  -126.08803      158.5          158.5          158.5          2.7639014      0.85597277     6.4655396      0.97019186    -126.08803    
     42180  -130.32459      158.5          158.5          158.5         -2.5666163     -1.3576566      1.5475325     -7.8897249     -130.32459    
     42200  -144.30341      158.5          158.5          158.5         -0.6530266     -1.5286609      2.0073974     -2.4378163     -144.30341    
     42220  -132.22382      158.5          158.5          158.5         -0.027286822   -4.6952333      5.5017609     -0.88838809    -132.22382    
     42240  -126.08468      158.5          158.5          158.5          0.69674382     2.5569529      2.7835559     -3.2502773     -126.08468    
     42260  -124.33684      158.5          158.5          158.5          2.0507084      3.3641266      2.6737984      0.11420038    -124.33684    
     42280  -147.0556       158.5          158.5          158.5         -3.0093861     -3.4817312     -2.5170895     -3.0293376     -147.0556     
     42300  -130.81857      158.5          158.5          158.5          0.086564312    0.92661959     3.0194806     -3.6864073     -130.81857    
     42320  -155.05092      158.5          158.5          158.5          0.30517461     1.0033158      2.2313941     -2.319186      -155.05092    
     42340  -127.66672      158.5          158.5          158.5          0.64182247     2.4473448      0.39731341    -0.9191908     -127.66672    
     42360  -143.56618      158.5          158.5          158.5         -0.33989984    -4.3388259      2.0252501      1.2938763     -143.56618    
     42380  -138.61882      158.5          158.5          158.5         -1.6797615     -4.9509134      1.46635       -1.5547213     -138.61882    
     42400  -142.46461      158.5          158.5          158.5          0.83525964     3.7273705      0.9773664     -2.198958      -142.46461    
     42420  -130.82047      158.5          158.5          158.5          0.67239198     1.8756588     -0.52795542     0.66947261    -130.82047    
     42440  -124.9008       158.5          158.5          158.5         -4.567725      -8.8433168     -1.1023587     -3.7574994     -124.9008     
     42460  -156.09046      158.5          158.5          158.5         -2.1963813     -3.8769811     -1.3077287     -1.4044341     -156.09046    
     42480  -143.37379      158.5          158.5          158.5         -2.8163972      0.25885049    -11.083657      2.3756146     -143.37379    
     42500  -134.86654      158.5          158.5          158.5         -1.1291627      1.4191121     -9.0485615      4.2419613     -134.86654    
     42520  -137.92517      158.5          158.5          158.5          2.2555982      0.28276255     2.5619358      3.9220963     -137.92517    
     42540  -136.72904      158.5          158.5          158.5          2.1059547     -1.554055       5.1074911      2.7644281     -136.72904    
     42560  -134.93746      158.5          158.5          158.5         -3.0230314     -3.0732134     -5.9671289     -0.028752044   -134.93746    
     42580  -144.61273      158.5          158.5          158.5         -0.60867975    -1.5079072     -2.3337395      2.0156075     -144.61273    
     42600  -139.18303      158.5          158.5          158.5          1.7181329     -1.7212238      0.55078144     6.3248409     -139.18303    
     42620  -126.40816      158.5          158.5          158.5          3.9035674      6.0297939     -1.4890145      7.1699228     -126.40816    
     42640  -140.94056      158.5          158.5          158.5         -4.2755892     -2.1650882     -9.3262442     -1.3354353     -140.94056    
     42660  -119.47509      158.5          158.5          158.5          1.2444043      0.25104135     2.8963141      0.58585754    -119.47509    
     42680  -131.83015      158.5          158.5          158.5          1.8295886      2.906462       1.5319062      1.0503975     -131.83015    
     42700  -123.80386      158.5          158.5          158.5         -0.0055539514   1.0976474     -2.2827442      1.1684349     -123.80386    
     42720  -123.78353      158.5          158.5          158.5         -1.1849819      0.50003187    -5.5772196      1.5222421     -123.78353    
     42740  -115.49515      158.5          158.5          158.5          1.958952       0.8811333      4.6186467      0.37707596    -115.49515    
     42760  -131.66157      158.5          158.5          158.5          2.1188583      0.35696134     5.0416521      0.95796145    -131.66157    
     42780  -126.47993      158.5          158.5          158.5          2.9689415      4.7506649      0.78017367     3.3759859     -126.47993    
     42800  -124.38367      158.5          158.5          158.5         -4.9169359     -2.4024247     -7.6192655     -4.7291174     -124.38367    
     42820  -140.44799      158.5          158.5          158.5          1.9573387      0.21186043     4.3417786      1.3183771     -140.44799    
     42840  -118.49607      158.5          158.5          158.5          1.008783      -2.4186354      3.6452182      1.7997661     -118.49607    
     42860  -129.52343      158.5          158.5          158.5         -1.1169268     -0.53444847     0.57218309    -3.3885151     -129.52343    
     42880  -138.00778      158.5          158.5          158.5          5.5820194      8.2345215      5.1348868      3.3766498     -138.00778    
     42900  -140.62159      158.5          158.5          158.5         -5.2466867     -7.6907732     -2.4439096     -5.6053774     -140.62159    
     42920  -139.44459      158.5          158.5          158.5         -2.6947265     -3.0048737     -0.66387258    -4.4154331     -139.44459    
     42940  -151.36968      158.5          158.5          158.5          4.6810283      4.030479       5.8773409      4.1352649     -151.36968    
     42960  -141.29371      158.5          158.5          158.5         -3.8678757     -7.2406546     -1.2050604     -3.157912      -141.29371    
     42980  -157.36195      158.5          158.5          158.5         -1.1160601     -0.29453839     0.84730621    -3.900948      -157.36195    
     43000  -145.76759      158.5          158.5          158.5         -4.1438575     -4.544256      -4.6071995     -3.280117      -145.76759    
     43020  -165.35113      158.5          158.5          158.5          3.455084       1.5944509      3.7610452      5.009756      -165.35113    
     43040  -154.51401      158.5          158.5          158.5          3.3416823      6.6106526     -0.85102324     4.2654176     -154.51401    
     43060  -146.53202      158.5          158.5          158.5         -1.7956221     -0.007152708   -2.3651332     -3.0145804     -146.53202    
     43080  -152.41665      158.5          158.5          158.5          1.1646082     -0.23188888     2.141049       1.5846645     -152.41665    
     43100  -142.77157      158.5          158.5          158.5         -3.0941233     -4.012501      -4.0381647     -1.2317042     -142.77157    
     43120  -157.7168       158.5          158.5          158.5         -0.089605649    4.7336952     -2.5493795     -2.4531327     -157.7168     
     43140  -141.62001      158.5          158.5          158.5          2.376191       5.7080835     -0.66090981     2.0813994     -141.62001    
     43160  -158.04296      158.5          158.5          158.5         -0.85659117    -2.6947603     -1.7523025      1.8772892     -158.04296    
     43180  -129.21792      158.5          158.5          158.5          0.4942605      1.1364633     -2.245982       2.5923002     -129.21792    
     43200  -131.05824      158.5          158.5          158.5         -2.9800022      0.25177075    -2.2017328     -6.9900446     -131.05824    
     43220  -117.02123      158.5          158.5          158.5          2.0155503      3.0008997      5.6925884     -2.6468371     -117.02123    
     43240  -147.0969       158.5          158.5          158.5         -0.39656822    -3.4261374      1.4091607      0.82727204    -147.0969     
     43260  -124.32838      158.5          158.5          158.5          0.23565412    -1.9814216      0.5085691      2.1798148     -124.32838    
     43280  -130.43724      158.5          158.5          158.5          2.0315711      3.6633219      4.0464578     -1.6150662     -130.43724    
     43300  -116.1076       158.5          158.5          158.5         -6.6205272     -6.0361622     -5.8061307     -8.0192887     -116.1076     
     43320  -122.19184      158.5          158.5          158.5         -0.37146203    -4.3693258      3.1489546      0.10598512    -122.19184    
     43340  -128.57636      158.5          158.5          158.5          2.1926506      0.36238985     3.1426543      3.0729077     -128.57636    
     43360  -130.63619      158.5          158.5          158.5         -4.3200299     -3.4854939     -6.0964017     -3.3781941     -130.63619    
     43380  -136.36407      158.5          158.5          158.5          2.6644087      1.1211572      1.4929204      5.3791485     -136.36407    
     43400  -138.2548       158.5          158.5          158.5         -1.235465      -1.5768532     -0.085985262   -2.0435565     -138.2548     
     43420  -124.42569      158.5          158.5          158.5          0.2462206      0.48059115     2.6665084     -2.4084377     -124.42569    
     43440  -118.06297      158.5          158.5          158.5          1.1688975      0.012900072    0.17146984     3.3223225     -118.06297    
     43460  -136.31244      158.5          158.5          158.5          2.3557252      5.5480237     -1.082843       2.6019951     -136.31244    
     43480  -134.7977       158.5          158.5          158.5          1.2915333      0.31659584     1.4888431      2.0691609     -134.7977     
     43500  -147.12406      158.5          158.5          158.5         -2.3833442     -4.6399719      0.91473888    -3.4247995     -147.12406    
     43520  -135.62822      158.5          158.5          158.5         -1.8181795     -0.19558095    -1.685813      -3.5731446     -135.62822    
     43540  -147.06385      158.5          158.5          158.5          0.22314872    -2.0655848      1.9172912      0.81773981    -147.06385    
     43560  -150.55221      158.5          158.5          158.5          0.27258458    -4.0926031      6.1802982     -1.2699413     -150.55221    
     43580  -145.33338      158.5          158.5          158.5          1.6547415      1.9796321      1.1999025      1.7846898     -145.33338    
     43600  -140.61478      158.5          158.5          158.5          1.195734       3.0702954      0.99126806    -0.47436141    -140.61478    
     43620  -142.10679      158.5          158.5          158.5         -2.1927474     -2.0698477     -1.8381605     -2.6702339     -142.10679    
     43640  -130.17575      158.5          158.5          158.5          2.6658206      5.288469       2.1106623      0.59833064    -130.17575    
     43660  -127.76652      158.5          158.5          158.5          0.35742547     6.3956289      0.40909303    -5.7324455     -127.76652    
     43680  -141.59309      158.5          158.5          158.5         -1.0334894      2.2142286     -1.7030498     -3.611647      -141.59309    
     43700  -129.52977      158.5          158.5          158.5         -0.42010561    -1.9044302      0.63711202     0.0070014133  -129.52977    
     43720  -143.63549      158.5          158.5          158.5          1.1551372     -2.8359158      4.2301746      2.0711528     -143.63549    
     43740  -118.1216       158.5          158.5          158.5          1.4299591      1.2159947      2.7130525      0.36083008    -118.1216     
     43760  -131.51846      158.5          158.5          158.5         -0.86359538    -2.0661404      0.75903395    -1.2836797     -131.51846    
     43780  -136.46952      158.5          158.5          158.5         -0.35389202    -5.5623522      0.31524554     4.1854306     -136.46952    
     43800  -114.15546      158.5          158.5          158.5          1.8990058      5.4861961      1.5809381     -1.3701166     -114.15546    
     43820  -124.59339      158.5          158.5          158.5          1.7115962      3.627785       4.5270054     -3.0200019     -124.59339    
     43840  -123.4638       158.5          158.5          158.5         -0.87592421    -2.6161763     -0.64823813     0.63664181    -123.4638     
     43860  -127.17329      158.5          158.5          158.5         -5.9266268     -7.7440821     -9.8131979     -0.22260047    -127.17329    
     43880  -116.09712      158.5          158.5          158.5          5.3436983      8.4967736      2.8040988      4.7302223     -116.09712    
     43900  -131.08938      158.5          158.5          158.5         -2.3148807     -1.1465501      0.62097258    -6.4190646     -131.08938    
     43920  -132.85236      158.5          158.5          158.5          1.4618201     -1.56975        2.1904165      3.7647939     -132.85236    
     43940  -130.47962      158.5          158.5          158.5          1.8267155      4.5417927     -0.30192719     1.2402811     -130.47962    
     43960  -130.22095      158.5          158.5          158.5          0.66970434     2.8383918     -0.22664658    -0.60263219    -130.22095    
     43980  -147.48858      158.5          158.5          158.5          0.7676271     -1.277518       3.6413785     -0.060979149   -147.48858    
     44000  -127.86474      158.5          158.5          158.5         -3.4601798     -1.3278573     -5.6530906     -3.3995915     -127.86474    
     44020  -129.00485      158.5          158.5          158.5          3.7826996      7.7045803     -4.6522156      8.2957342     -129.00485    
     44040  -131.08051      158.5          158.5          158.5         -7.3259297     -5.8073668     -10.993173     -5.1772488     -131.08051    
     44060  -148.17018      158.5          158.5          158.5         -1.3461715     -2.5331658      1.5144525     -3.0198011     -148.17018    
     44080  -138.44884      158.5          158.5          158.5          4.7966746      3.7537159      5.1447539      5.491554      -138.44884    
     44100  -141.07935      158.5          158.5          158.5         -3.0849183     -3.6198218     -3.5450648     -2.0898684     -141.07935    
     44120  -144.88592      158.5          158.5          158.5          0.07164459    -2.1825899      1.0337664      1.3637572     -144.88592    
     44140  -135.50265      158.5          158.5          158.5         -1.6482539     -2.299995      -1.1630364     -1.4817305     -135.50265    
     44160  -147.80064      158.5          158.5          158.5         -1.2419596     -1.7031193     -2.1828271      0.16006761    -147.80064    
     44180  -138.8946       158.5          158.5          158.5          1.6256307      3.7627635     -0.81854822     1.9326769     -138.8946     
     44200  -142.8563       158.5          158.5          158.5         -2.1363         3.0126123     -3.7940111     -5.627501      -142.8563     
     44220  -140.34026      158.5          158.5          158.5         -0.53809794    -2.3562949      0.53149787     0.2105032     -140.34026    
     44240  -147.87014      158.5          158.5          158.5         -4.1510332     -4.0698611     -5.7808301     -2.6024085     -147.87014    
     44260  -142.78685      158.5          158.5          158.5          4.7455097      5.2921788      1.6942467      7.2501036     -142.78685    
     44280  -134.70216      158.5          158.5          158.5         -0.77362576    -2.7368692      0.70945436    -0.29346248    -134.70216    
     44300  -132.26123      158.5          158.5          158.5          2.3533761     -0.39969666     8.8336844     -1.3738594     -132.26123    
     44320  -137.28884      158.5          158.5          158.5          2.6719205      0.81055251     4.919559       2.28565       -137.28884    
     44340  -121.79277      158.5          158.5          158.5         -4.9942215     -2.6391334     -8.4621908     -3.8813403     -121.79277    
     44360  -112.47302      158.5          158.5          158.5          5.5985767      1.9579009      6.5642124      8.2736168     -112.47302    
     44380  -112.41494      158.5          158.5          158.5         -2.0065622     -1.6672907     -1.3904949     -2.9619008     -112.41494    
     44400  -124.16292      158.5          158.5          158.5          4.2512415      9.5342449      1.0365869      2.1828928     -124.16292    
     44420  -117.47869      158.5          158.5          158.5         -0.022285225   -0.09950244    -1.0747814      1.1074281     -117.47869    
     44440  -135.40947      158.5          158.5          158.5         -2.0934161     -0.79401774    -1.8394808     -3.6467499     -135.40947    
     44460  -111.69951      158.5          158.5          158.5         -0.42550885    -2.1661422     -0.34414384     1.2337595     -111.69951    
     44480  -94.488049      158.5          158.5          158.5         -2.6058475      0.041214486   -3.8480159     -4.0107412     -94.488049    
     44500  -118.39435      158.5          158.5          158.5          3.034483       7.6612433     -0.071478767    1.5136843     -118.39435    
     44520  -123.79429      158.5          158.5          158.5         -3.9660129     -8.1986919     -1.9857549     -1.713592      -123.79429    
     44540  -127.46457      158.5          158.5          158.5         -0.0019584231  -2.9657196      2.5856027      0.37424155    -127.46457    
     44560  -117.62036      158.5          158.5          158.5          3.6569732      7.3547438      0.63717965     2.9789961     -117.62036    
     44580  -122.73701      158.5          158.5          158.5         -3.6298477     -5.7167139     -4.2136066     -0.95922261    -122.73701    
     44600  -133.41208      158.5          158.5          158.5          1.8995498     -0.67751316     2.5445986      3.8315639     -133.41208    
     44620  -133.17834      158.5          158.5          158.5         -2.8209128     -0.0074683824  -6.0486547     -2.4066153     -133.17834    
     44640  -137.89225      158.5          158.5          158.5         -2.5039145     -1.2792044     -2.2677099     -3.9648291     -137.89225    
     44660  -145.02961      158.5          158.5          158.5          4.9641234      4.5531215      4.5565986      5.7826502     -145.02961    
     44680  -150.23857      158.5          158.5          158.5         -1.0687324      3.3727051     -3.7637363     -2.8151659     -150.23857    
     44700  -155.40169      158.5          158.5          158.5         -0.98996094    -1.1366556     -0.49367347    -1.3395537     -155.40169    
     44720  -144.86133      158.5          158.5          158.5          0.41678913    -0.58120232     4.3263286     -2.4947589     -144.86133    
     44740  -153.60164      158.5          158.5          158.5          0.65043649     4.3163153     -4.6193569      2.2543511     -153.60164    
     44760  -152.12559      158.5          158.5          158.5         -2.2676864     -1.0450276     -7.5414568      1.7834251     -152.12559    
     44780  -149.22574      158.5          158.5          158.5         -1.3715309     -0.89169258    -1.6090188     -1.6138813     -149.22574    
     44800  -147.32342      158.5          158.5          158.5         -0.5239643     -0.72563748     1.4713518     -2.3176072     -147.32342    
     44820  -154.40448      158.5          158.5          158.5         -1.6794426     -0.8578777     -3.0441665     -1.1362836     -154.40448    
     44840  -158.0771       158.5          158.5          158.5         -3.6740412     -2.5881709     -4.4071124     -4.0268404     -158.0771     
     44860  -167.47034      158.5          158.5          158.5         -1.0084497     -1.258705       4.2696794     -6.0363235     -167.47034    
     44880  -149.67851      158.5          158.5          158.5          5.0981802      7.2351098      9.6202753     -1.5608446     -149.67851    
     44900  -155.77728      158.5          158.5          158.5         -0.97840498     1.9778513     -4.6062717     -0.30679453    -155.77728    
     44920  -152.69544      158.5          158.5          158.5          3.3666001      1.5178336      4.8087779      3.773189      -152.69544    
     44940  -153.56149      158.5          158.5          158.5         -0.35096974     1.641864       2.8466241     -5.5413973     -153.56149    
     44960  -155.45176      158.5          158.5          158.5         -1.1837408      3.0304959     -0.18289309    -6.3988252     -155.45176    
     44980  -129.29618      158.5          158.5          158.5          6.9900286     -1.0394906      12.036907      9.9726694     -129.29618    
     45000  -152.17829      158.5          158.5          158.5         -3.4818005     -10.265988     -0.66091238     0.48149887    -152.17829    
     45020  -141.71085      158.5          158.5          158.5          4.9835784      7.9438545      4.4917732      2.5151076     -141.71085    
     45040  -136.08379      158.5          158.5          158.5          0.75211941     3.8630385      1.4752656     -3.0819458     -136.08379    
     45060  -143.90076      158.5          158.5          158.5         -1.964732      -9.3124597      0.51336364     2.9049        -143.90076    
     45080  -143.10745      158.5          158.5          158.5          4.359509      -0.43038825     6.6414635      6.8674516     -143.10745    
     45100  -147.37331      158.5          158.5          158.5         -3.9084334      2.0905779     -2.9402197     -10.875658     -147.37331    
     45120  -139.84992      158.5          158.5          158.5          3.4048172      2.3773941     -0.22713813     8.0641957     -139.84992    
     45140  -134.87816      158.5          158.5          158.5         -0.16415468    -6.9086817     -0.80650611     7.2227237     -134.87816    
     45160  -141.8109       158.5          158.5          158.5         -0.52797955    -0.69326683     1.9994371     -2.8901089     -141.8109     
     45180  -133.42534      158.5          158.5          158.5          2.0660454      3.8821356      2.0814174      0.23458326    -133.42534    
     45200  -149.70625      158.5          158.5          158.5         -1.1762783      0.065284681   -2.4245067     -1.169613      -149.70625    
     45220  -152.22317      158.5          158.5          158.5         -2.9854586     -5.8485634     -3.4983725      0.39056013    -152.22317    
     45240  -125.25137      158.5          158.5          158.5          1.8696928     -1.4405842      5.3760462      1.6736163     -125.25137    
     45260  -144.78182      158.5          158.5          158.5          0.059558059    0.46331582    -0.74964461     0.46500296    -144.78182    
     45280  -140.56846      158.5          158.5          158.5         -1.6547339     -0.38747342    -3.7559867     -0.82074171    -140.56846    
     45300  -163.49423      158.5          158.5          158.5         -0.30375994    -3.1524195      0.69194805     1.5491916     -163.49423    
     45320  -142.00398      158.5          158.5          158.5         -8.2787649     -11.897967     -6.7745983     -6.1637293     -142.00398    
     45340  -166.60729      158.5          158.5          158.5         -0.25944958     3.222301      -1.3989295     -2.6017203     -166.60729    
     45360  -145.64078      158.5          158.5          158.5         -1.2267418     -1.4544675     -2.9033875      0.67762965    -145.64078    
     45380  -164.91433      158.5          158.5          158.5          0.67021608    -0.731439      -1.7832862      4.5253734     -164.91433    
     45400  -161.49734      158.5          158.5          158.5          2.4753152      7.9507434     -2.1996217      1.6748238     -161.49734    
     45420  -159.2839       158.5          158.5          158.5         -0.43974012    -3.2685088      0.60655356     1.3427349     -159.2839     
     45440  -158.0286       158.5          158.5          158.5          3.6192955      2.8245328      3.219407       4.8139467     -158.0286     
     45460  -158.90216      158.5          158.5          158.5          0.64715875     2.9257967     -0.16160096    -0.82271947    -158.90216    
     45480  -157.72994      158.5          158.5          158.5         -0.40049192    -1.7205953      1.8691949     -1.3500753     -157.72994    
     45500  -142.76075      158.5          158.5          158.5         -1.20456       -1.8437192      1.0029041     -2.7728648     -142.76075    
     45520  -138.50319      158.5          158.5          158.5         -2.991023      -1.9763474     -2.7738329     -4.2228888     -138.50319    
     45540  -142.47734      158.5          158.5          158.5          2.1091785      5.8070439     -1.5651123      2.085604      -142.47734    
     45560  -151.95032      158.5          158.5          158.5          3.6464718      5.718107       2.6970089      2.5242995     -151.95032    
     45580  -127.97933      158.5          158.5          158.5          1.6345638     -1.0910706      7.0607007     -1.0659387     -127.97933    
     45600  -129.09845      158.5          158.5          158.5          0.78924262     0.57859433     0.35647024     1.4326633     -129.09845    
     45620  -135.78235      158.5          158.5          158.5          0.68319463     4.2056285     -3.4755741      1.3195294     -135.78235    
     45640  -128.38636      158.5          158.5          158.5         -3.3195632     -2.7496997     -4.0262178     -3.1827722     -128.38636    
     45660  -123.73603      158.5          158.5          158.5         -0.97740958    -0.56263308    -0.053606714   -2.315989      -123.73603    
     45680  -137.39144      158.5          158.5          158.5          0.6402727     -0.5480782      0.85379767     1.6150986     -137.39144    
     45700  -120.64296      158.5          158.5          158.5         -1.2948414      0.41287936    -3.3334997     -0.96390376    -120.64296    
     45720  -132.03233      158.5          158.5          158.5         -0.74120234     2.6472857     -4.0858219     -0.78507085    -132.03233    
     45740  -117.62399      158.5          158.5          158.5         -2.7908308     -2.2551493     -3.9267897     -2.1905534     -117.62399    
     45760  -125.18922      158.5          158.5          158.5          0.55107033     0.95706773    -1.154708       1.8508513     -125.18922    
     45780  -120.14293      158.5          158.5          158.5         -1.0369004     -1.4247497     -1.7762255      0.090273844   -120.14293    
     45800  -138.18507      158.5          158.5          158.5         -3.3052797     -5.2850375     -1.3243633     -3.3064383     -138.18507    
     45820  -128.06791      158.5          158.5          158.5          5.0895178      7.0667548      2.6634561      5.5383425     -128.06791    
     45840  -129.42147      158.5          158.5          158.5         -2.7717487      1.0810098     -5.4367835     -3.9594725     -129.42147    
     45860  -133.81236      158.5          158.5          158.5          0.13756932     0.0014729253   2.2578811     -1.8466461     -133.81236    
     45880  -123.07391      158.5          158.5          158.5          4.1238952      6.1535543      2.7899907      3.4281405     -123.07391    
     45900  -128.50776      158.5          158.5          158.5         -0.76475687     2.2500431     -3.9700646     -0.57424904    -128.50776    
     45920  -141.53595      158.5          158.5          158.5          1.4167415      1.4035917      0.48258528     2.3640475     -141.53595    
     45940  -128.8646       158.5          158.5          158.5         -1.1614443     -2.824598      -2.1952823      1.5355472     -128.8646     
     45960  -129.4652       158.5          158.5          158.5          0.78121482     0.86967455     0.81875044     0.65521946    -129.4652     
     45980  -139.61003      158.5          158.5          158.5          3.4531246      2.7232298      3.2235232      4.4126207     -139.61003    
     46000  -145.10438      158.5          158.5          158.5          2.5354426      3.0776959      1.8328146      2.6958172     -145.10438    
     46020  -141.05594      158.5          158.5          158.5          0.98643686     0.071166544    3.2975547     -0.40941062    -141.05594    
     46040  -140.12773      158.5          158.5          158.5          0.1317931      2.7688031      3.0003617     -5.3737855     -140.12773    
     46060  -137.99664      158.5          158.5          158.5          2.4986545      3.5667886      4.7136788     -0.78450389    -137.99664    
     46080  -146.2585       158.5          158.5          158.5         -2.3544033     -4.5706012     -0.74933913    -1.7432696     -146.2585     
     46100  -141.98555      158.5          158.5          158.5          4.266849       3.8431647      5.0893061      3.8680763     -141.98555    
     46120  -141.74157      158.5          158.5          158.5         -3.9195809     -3.6006763     -2.0843863     -6.07368       -141.74157    
     46140  -134.1274       158.5          158.5          158.5         -1.0550341      1.8268369     -0.34236586    -4.6495733     -134.1274     
     46160  -142.37969      158.5          158.5          158.5          1.5040702     -0.23698719     4.5094347      0.23976295    -142.37969    
     46180  -137.18367      158.5          158.5          158.5         -1.7982006     -5.3630325      1.2617763     -1.2933457     -137.18367    
     46200  -140.59359      158.5          158.5          158.5          6.7693139      7.1210508      6.7028552      6.4840356     -140.59359    
     46220  -129.72113      158.5          158.5          158.5         -2.8927696     -0.84503108    -2.1845602     -5.6487175     -129.72113    
     46240  -144.56791      158.5          158.5          158.5          0.25560608    -0.87884265     3.4640104     -1.8183496     -144.56791    
     46260  -150.54066      158.5          158.5          158.5          0.26110746     1.0907777      0.36666944    -0.67412471    -150.54066    
     46280  -145.36428      158.5          158.5          158.5         -0.053478834   -2.7401717      2.5926463     -0.012911051   -145.36428    
     46300  -139.44838      158.5          158.5          158.5          3.2215068      2.5311757      2.3288693      4.8044753     -139.44838    
     46320  -119.09603      158.5          158.5          158.5         -6.8682299     -4.0623317     -12.389467     -4.1528913     -119.09603    
     46340  -131.24028      158.5          158.5          158.5         -1.2746199     -2.4830273     -0.52020735    -0.82062496    -131.24028    
     46360  -134.32173      158.5          158.5          158.5          0.40108317    -2.7373311      3.8085512      0.13202948    -134.32173    
     46380  -126.50799      158.5          158.5          158.5         -4.7255434     -4.3888513     -7.0471334     -2.7406455     -126.50799    
     46400  -143.81894      158.5          158.5          158.5         -0.39306485    -0.70390099    -3.1454107      2.6701172     -143.81894    
     46420  -145.30378      158.5          158.5          158.5         -0.54400496    -1.3517178     -2.0498762      1.7695792     -145.30378    
     46440  -148.79156      158.5          158.5          158.5         -3.361753      -0.6015647     -4.523257      -4.9604373     -148.79156    
     46460  -134.50964      158.5          158.5          158.5          4.9288922      2.2413989      5.5707693      6.9745085     -134.50964    
     46480  -163.45194      158.5          158.5          158.5          0.33975759    -1.5004987     -4.4199985      6.9397701     -163.45194    
     46500  -151.03082      158.5          158.5          158.5         -2.7154453     -1.0388055     -7.0798792     -0.027651146   -151.03082    
     46520  -148.93916      158.5          158.5          158.5          1.8495311      1.9753188      2.488377       1.0848975     -148.93916    
     46540  -158.90532      158.5          158.5          158.5         -4.1265507     -4.8626996     -1.7750556     -5.7418968     -158.90532    
     46560  -155.3293       158.5          158.5          158.5          1.0442916     -3.5998772      3.5364828      3.1962693     -155.3293     
     46580  -158.36979      158.5          158.5          158.5          0.13926069    -3.747411       0.21763086     3.9475622     -158.36979    
     46600  -144.69953      158.5          158.5          158.5         -1.9593409      0.65053907     0.067397947   -6.5959597     -144.69953    
     46620  -169.29968      158.5          158.5          158.5          0.71195598     0.66166967     2.0020536     -0.52785533    -169.29968    
     46640  -174.54931      158.5          158.5          158.5         -3.147784      -4.4931623     -3.0720621     -1.8781276     -174.54931    
     46660  -156.14614      158.5          158.5          158.5         -1.3555047     -2.0607289     -0.39058207    -1.6152031     -156.14614    
     46680  -148.82936      158.5          158.5          158.5          1.5802726      4.5382412      0.30414805    -0.10157155    -148.82936    
     46700  -149.54084      158.5          158.5          158.5         -0.5973805      2.7587185     -2.523768      -2.0270919     -149.54084    
     46720  -158.79212      158.5          158.5          158.5         -0.64400839    -2.1345279      1.4581624     -1.2556596     -158.79212    
     46740  -148.60526      158.5          158.5          158.5          3.8727088      2.5746319      3.899902       5.1435925     -148.60526    
     46760  -146.67328      158.5          158.5          158.5         -4.4853145     -0.87274874    -5.3093217     -7.273873      -146.67328    
     46780  -167.16579      158.5          158.5          158.5          2.7408432      4.4950641      1.4016141      2.3258515     -167.16579    
     46800  -143.22579      158.5          158.5          158.5         -1.2722054     -5.198998       0.60132408     0.7810578     -143.22579    
     46820  -127.99598      158.5          158.5          158.5          1.3720559      1.1630642      4.6214337     -1.6683303     -127.99598    
     46840  -133.44964      158.5          158.5          158.5          4.3284077      5.5786116      1.7855221      5.6210894     -133.44964    
     46860  -153.2102       158.5          158.5          158.5         -1.5707928     -2.936648      -3.1273737      1.3516432     -153.2102     
     46880  -133.01824      158.5          158.5          158.5          3.5985149      2.2229302      8.6316195     -0.059004874   -133.01824    
     46900  -140.797        158.5          158.5          158.5         -2.3721478     -1.5314402     -0.98813174    -4.5968714     -140.797      
     46920  -124.45221      158.5          158.5          158.5         -1.7703493      1.8342404     -5.5996966     -1.5455918     -124.45221    
     46940  -121.91836      158.5          158.5          158.5          1.8494178      0.4495664      4.6448167      0.45387037    -121.91836    
     46960  -127.1186       158.5          158.5          158.5          2.4734642      3.0312042      1.8777144      2.5114742     -127.1186     
     46980  -127.70154      158.5          158.5          158.5          1.3250914      0.62120997     2.7131141      0.64095024    -127.70154    
     47000  -131.88691      158.5          158.5          158.5          1.0483642     -0.22311854     5.9071732     -2.5389621     -131.88691    
     47020  -116.91795      158.5          158.5          158.5         -2.2519185     -0.25236313    -2.0774399     -4.4259524     -116.91795    
     47040  -113.03433      158.5          158.5          158.5         -2.3244716     -5.3273676     -2.1539537      0.50790642    -113.03433    
     47060  -138.49518      158.5          158.5          158.5          3.1283044      2.1518596      3.9599209      3.2731327     -138.49518    
     47080  -147.22837      158.5          158.5          158.5         -2.380454      -5.6647288     -1.0307614     -0.44587188    -147.22837    
     47100  -127.19036      158.5          158.5          158.5          1.3376913     -2.4074431      1.6128632      4.8076538     -127.19036    
     47120  -146.5904       158.5          158.5          158.5          3.8464897      1.8482131      2.3652848      7.3259712     -146.5904     
     47140  -145.61911      158.5          158.5          158.5          0.52074561     0.76076594    -0.050298193    0.85176909    -145.61911    
     47160  -142.35409      158.5          158.5          158.5          0.82082348     0.51811145     1.5774165      0.36694251    -142.35409    
     47180  -136.01275      158.5          158.5          158.5         -1.8054226     -2.3090707     -0.29654106    -2.810656      -136.01275    
     47200  -151.90919      158.5          158.5          158.5         -4.0526133     -3.1990637     -3.3516914     -5.6070847     -151.90919    
     47220  -154.17392      158.5          158.5          158.5         -2.0890894     -2.8038711      0.3643529     -3.82775       -154.17392    
     47240  -150.47182      158.5          158.5          158.5          1.403904       1.9397783      1.3862527      0.88568101    -150.47182    
     47260  -162.00005      158.5          158.5          158.5          2.2153638     -0.015546039    4.7520747      1.9095627     -162.00005    
     47280  -153.61221      158.5          158.5          158.5         -3.527718      -2.2522958     -1.2175588     -7.1132992     -153.61221    
     47300  -152.01467      158.5          158.5          158.5          2.2471379      2.8465997      1.5164098      2.3784044     -152.01467    
     47320  -148.76574      158.5          158.5          158.5         -1.4194127     -1.9485599     -4.4949818      2.1853037     -148.76574    
     47340  -143.40342      158.5          158.5          158.5          0.94702782     1.577046       0.24014989     1.0238876     -143.40342    
     47360  -169.73461      158.5          158.5          158.5          3.9986349      4.2685727      6.3309383      1.3963937     -169.73461    
     47380  -142.39513      158.5          158.5          158.5         -7.7590755     -8.4640231     -7.9834592     -6.8297441     -142.39513    
     47400  -153.65784      158.5          158.5          158.5          2.4627994     -0.068688214    2.8843022      4.5727844     -153.65784    
     47420  -147.43509      158.5          158.5          158.5         -3.879208      -5.0491358     -4.1810856     -2.4074025     -147.43509    
     47440  -142.83695      158.5          158.5          158.5          0.36567161     0.54038558    -0.90957508     1.4662043     -142.83695    
     47460  -146.08583      158.5          158.5          158.5          5.3228908      3.9519465      7.2130983      4.8036277     -146.08583    
     47480  -137.85056      158.5          158.5          158.5         -6.5110935     -8.4195507     -1.8207599     -9.2929699     -137.85056    
     47500  -137.05679      158.5          158.5          158.5          3.1633138      6.1415627     -3.1115584      6.4599372     -137.05679    
     47520  -137.98383      158.5          158.5          158.5          1.977553       3.7407905     -2.4269331      4.6188017     -137.98383    
     47540  -147.20333      158.5          158.5          158.5          2.6761397      3.6932399      2.5505402      1.7846389     -147.20333    
     47560  -133.28128      158.5          158.5          158.5          4.401581       3.6625875      4.1824142      5.3597413     -133.28128    
     47580  -139.41195      158.5          158.5          158.5         -4.8582898     -4.1786069     -4.6814782     -5.7147843     -139.41195    
     47600  -151.21454      158.5          158.5          158.5          3.1783932      5.4512347      0.71355827     3.3703866     -151.21454    
     47620  -152.41286      158.5          158.5          158.5         -0.41427273    -1.3967907      1.7596156     -1.6056431     -152.41286    
     47640  -150.11914      158.5          158.5          158.5          1.7796293     -0.4497771      5.1065301      0.68213494    -150.11914    
     47660  -146.30754      158.5          158.5          158.5          0.81947931     3.0797611     -4.2662093      3.6448861     -146.30754    
     47680  -136.15515      158.5          158.5          158.5         -1.8499318      2.4243321     -5.8208841     -2.1532436     -136.15515    
     47700  -143.96559      158.5          158.5          158.5          1.8329278     -0.98949077     7.2508997     -0.7626256     -143.96559    
     47720  -134.44415      158.5          158.5          158.5          1.1693003      1.5547059      2.5121171     -0.55892201    -134.44415    
     47740  -141.51688      158.5          158.5          158.5          0.067124666    3.9088854     -1.3441484     -2.3633629     -141.51688    
     47760  -143.64539      158.5          158.5          158.5         -2.2936432     -3.2793591     -2.2851648     -1.3164058     -143.64539    
     47780  -129.83385      158.5          158.5          158.5          0.18015737    -1.9015185     -0.051268814    2.4932595     -129.83385    
     47800  -118.60707      158.5          158.5          158.5         -3.6688825     -6.1843032      0.87845463    -5.7007989     -118.60707    
     47820  -139.64104      158.5          158.5          158.5          0.093887887    1.6177498      1.3282794     -2.6643656     -139.64104    
     47840  -155.66906      158.5          158.5          158.5          6.3873749      6.4910747      6.1335599      6.5374901     -155.66906    
     47860  -139.17027      158.5          158.5          158.5         -3.1365233     -6.5152353     -2.2763289     -0.61800589    -139.17027    
     47880  -151.83737      158.5          158.5          158.5         -1.921939      -2.6919789     -3.9081818      0.83434367    -151.83737    
     47900  -122.35948      158.5          158.5          158.5          1.4436056      1.6259559      1.5224584      1.1824026     -122.35948    
     47920  -138.46313      158.5          158.5          158.5         -1.7013295      0.56377327    -0.62184653    -5.0459154     -138.46313    
     47940  -157.15105      158.5          158.5          158.5         -0.73290249    -3.9144092     -4.0457065      5.7614082     -157.15105    
     47960  -141.7593       158.5          158.5          158.5          0.81456195     0.58808973    -0.79709496     2.6526911     -141.7593     
     47980  -137.63743      158.5          158.5          158.5          0.10227253     5.2995112     -3.2633793     -1.7293144     -137.63743    
     48000  -135.5886       158.5          158.5          158.5         -4.314357      -5.2718128     -3.1651858     -4.5060723     -135.5886     
     48020  -148.49159      158.5          158.5          158.5          5.7866685      5.7923108      6.3314845      5.2362102     -148.49159    
     48040  -137.10293      158.5          158.5          158.5         -0.37595874     2.8765924     -1.3613594     -2.6431092     -137.10293    
     48060  -135.37127      158.5          158.5          158.5          2.0679206      6.3947063     -2.6528302      2.4618857     -135.37127    
     48080  -154.87374      158.5          158.5          158.5         -0.028254828    2.0797077     -2.6909411      0.52646887    -154.87374    
     48100  -135.18395      158.5          158.5          158.5         -0.15912808    -2.5381432     -0.59537128     2.6561302     -135.18395    
     48120  -154.08853      158.5          158.5          158.5         -0.454581       0.89983804     0.66220588    -2.9257869     -154.08853    
     48140  -147.35614      158.5          158.5          158.5         -2.4680306      1.1094148     -2.3851304     -6.1283761     -147.35614    
     48160  -157.58094      158.5          158.5          158.5          3.270471       0.1960933      1.9124203      7.7028993     -157.58094    
     48180  -154.79352      158.5          158.5          158.5          0.027875027   -4.3575338      0.44091032     4.0002486     -154.79352    
     48200  -143.2323       158.5          158.5          158.5         -1.3960531     -1.3867901      0.011589007   -2.8129581     -143.2323     
     48220  -161.48017      158.5          158.5          158.5          1.4370444      3.2116556      0.77084778     0.32862973    -161.48017    
     48240  -148.57376      158.5          158.5          158.5         -2.3437637     -6.1011105     -3.9459178      3.0157371     -148.57376    
     48260  -151.71016      158.5          158.5          158.5         -0.46808402    -3.3265683     -1.5460996      3.4684159     -151.71016    
     48280  -151.00201      158.5          158.5          158.5          0.41967047    -0.48224889     3.7833954     -2.0421351     -151.00201    
     48300  -149.5231       158.5          158.5          158.5          1.683424       0.86387682     2.7051312      1.4812639     -149.5231     
     48320  -144.27697      158.5          158.5          158.5          3.3222321      2.2840865     -0.048761623    7.7313715     -144.27697    
     48340  -148.13107      158.5          158.5          158.5         -1.0177048     -2.9083012      0.35595878    -0.50077209    -148.13107    
     48360  -127.81556      158.5          158.5          158.5         -1.1849953      3.0616057     -1.7108817     -4.9057098     -127.81556    
     48380  -134.01691      158.5          158.5          158.5         -1.8782154      2.9213271     -1.6634622     -6.892511      -134.01691    
     48400  -119.15662      158.5          158.5          158.5         -0.048347694   -4.2332254      0.66747972     3.4207026     -119.15662    
     48420  -127.49309      158.5          158.5          158.5         -1.2088464      1.5323816     -2.4869332     -2.6719877     -127.49309    
     48440  -123.71395      158.5          158.5          158.5         -2.3543514      2.1443242     -3.0529383     -6.1544402     -123.71395    
     48460  -128.12917      158.5          158.5          158.5          1.2294141      3.7486878      2.7070812     -2.7675269     -128.12917    
     48480  -140.53705      158.5          158.5          158.5         -2.6247506     -1.1565845     -1.3963874     -5.3212797     -140.53705    
     48500  -144.68135      158.5          158.5          158.5          2.2156203     -1.6975315      5.6227119      2.7216804     -144.68135    
     48520  -132.02142      158.5          158.5          158.5          2.4998681      3.347722       2.6989208      1.4529616     -132.02142    
     48540  -135.99699      158.5          158.5          158.5         -2.461021      -2.7321244     -3.0505043     -1.6004344     -135.99699    
     48560  -124.83797      158.5          158.5          158.5          2.4743458     -2.4429894      3.2840035      6.5820232     -124.83797    
     48580  -133.44507      158.5          158.5          158.5         -0.25520276    -1.2155046     -0.76813016     1.2180265     -133.44507    
     48600  -136.88441      158.5          158.5          158.5         -3.1255634      1.2789297     -4.5054156     -6.1502044     -136.88441    
     48620  -120.56265      158.5          158.5          158.5          0.27687163     0.92669351     0.94128968    -1.0373683     -120.56265    
     48640  -142.77707      158.5          158.5          158.5         -2.8085941     -1.1230486     -5.6982619     -1.6044718     -142.77707    
     48660  -134.3493       158.5          158.5          158.5         -0.30327344    -2.4532299     -4.4939124      6.037322      -134.3493     
     48680  -149.04026      158.5          158.5          158.5         -1.1418658     -4.6768477      1.8686414     -0.61739101    -149.04026    
     48700  -129.68027      158.5          158.5          158.5          0.72318375     1.4478778      4.6857161     -3.9640426     -129.68027    
     48720  -142.16171      158.5          158.5          158.5         -4.1839975     -3.7393313     -6.4130298     -2.3996313     -142.16171    
     48740  -134.75654      158.5          158.5          158.5          0.65756622     2.3140425     -0.1732888     -0.16805506    -134.75654    
     48760  -148.12104      158.5          158.5          158.5         -0.082822896    1.3684434      1.9011843     -3.5180963     -148.12104    
     48780  -147.05213      158.5          158.5          158.5         -0.060845388    0.72553258     3.7019518     -4.6100206     -147.05213    
     48800  -138.09667      158.5          158.5          158.5          2.2756609      0.65229887     1.1217174      5.0529663     -138.09667    
     48820  -147.09118      158.5          158.5          158.5          2.104312       1.745651       0.51090464     4.0563804     -147.09118    
     48840  -157.69209      158.5          158.5          158.5          1.1160136      3.9294373      0.46274208    -1.0441386     -157.69209    
     48860  -139.56051      158.5          158.5          158.5         -0.64155099    -4.335341       2.4356599     -0.024971829   -139.56051    
     48880  -164.4355       158.5          158.5          158.5         -1.0244991     -3.8062033     -1.315708       2.0484139     -164.4355     
     48900  -139.23403      158.5          158.5          158.5          4.5780596      8.0161188      4.5986554      1.1194046     -139.23403    
     48920  -148.8503       158.5          158.5          158.5         -1.3887464      0.09465194     1.5047285     -5.7656198     -148.8503     
     48940  -148.66615      158.5          158.5          158.5          4.3793422      4.104849       5.0761687      3.9570088     -148.66615    
     48960  -162.432        158.5          158.5          158.5          0.3565639      0.34813741    -0.34493614     1.0664904     -162.432      
     48980  -157.3221       158.5          158.5          158.5         -1.3469844      0.54985047    -1.4088622     -3.1819414     -157.3221     
     49000  -152.75415      158.5          158.5          158.5         -1.1940843     -1.4345898     -1.9496065     -0.1980565     -152.75415    
     49020  -149.5494       158.5          158.5          158.5         -2.3280189     -4.5274007      0.31880102    -2.7754569     -149.5494     
     49040  -149.37779      158.5          158.5          158.5          1.78179        0.65824959     0.98710867     3.7000118     -149.37779    
     49060  -133.65409      158.5          158.5          158.5         -5.8744536     -7.4892649     -6.6554196     -3.4786764     -133.65409    
     49080  -151.15892      158.5          158.5          158.5          1.7661948      4.9716         2.5463425     -2.2193581     -151.15892    
     49100  -149.14372      158.5          158.5          158.5         -1.9451536     -1.319544      -4.8228367      0.30691978    -149.14372    
     49120  -152.41994      158.5          158.5          158.5         -3.5702839     -6.4440089     -0.8820617     -3.3847811     -152.41994    
     49140  -142.77519      158.5          158.5          158.5          5.9189031      9.2216399      6.6467579      1.8883114     -142.77519    
     49160  -137.64716      158.5          158.5          158.5         -6.1795219     -2.7670384     -9.8928836     -5.8786437     -137.64716    
     49180  -141.00947      158.5          158.5          158.5         -0.14608415    -3.1840496     -0.11355782     2.859355      -141.00947    
     49200  -144.81628      158.5          158.5          158.5         -0.85256375    -4.3779459      5.5916094     -3.7713548     -144.81628    
     49220  -143.05387      158.5          158.5          158.5         -4.9675259     -4.7202775     -5.2579114     -4.9243887     -143.05387    
     49240  -135.80146      158.5          158.5          158.5          2.7197456      3.0381945     -1.3843049      6.5053472     -135.80146    
     49260  -145.55441      158.5          158.5          158.5         -2.5273542     -3.3918859     -1.1562314     -3.0339452     -145.55441    
     49280  -151.22512      158.5          158.5          158.5         -1.9388144      0.51229129    -2.1629312     -4.1658034     -151.22512    
     49300  -131.65253      158.5          158.5          158.5         -2.4957923      2.9009155     -3.8316767     -6.5566159     -131.65253    
     49320  -148.49294      158.5          158.5          158.5         -0.3599991      2.7795997     -3.2048141     -0.65478287    -148.49294    
     49340  -136.87157      158.5          158.5          158.5          3.4833062      4.7380251      6.0083296     -0.29643598    -136.87157    
     49360  -141.41289      158.5          158.5          158.5          1.4079177      0.45744901     4.0567121     -0.29040786    -141.41289    
     49380  -146.05904      158.5          158.5          158.5          1.1067111      3.3313225     -0.63521446     0.6240253     -146.05904    
     49400  -165.78606      158.5          158.5          158.5          2.4783696      2.3721734      1.3582267      3.7047088     -165.78606    
     49420  -160.59776      158.5          158.5          158.5         -3.2974943     -0.9617253     -4.8130542     -4.1177033     -160.59776    
     49440  -161.03911      158.5          158.5          158.5          1.8914222      1.6012339      3.5663515      0.50668123    -161.03911    
     49460  -170.20354      158.5          158.5          158.5          0.49754808    -0.31988074     1.6841222      0.12840278    -170.20354    
     49480  -159.0663       158.5          158.5          158.5          0.31713659     4.4854884     -3.623262       0.089183379   -159.0663     
     49500  -166.17003      158.5          158.5          158.5          5.4633527      5.7521529      6.2380516      4.3998537     -166.17003    
     49520  -176.52733      158.5          158.5          158.5         -1.098785      -2.5961795      2.4678254     -3.1680009     -176.52733    
     49540  -154.658        158.5          158.5          158.5          5.0411746      2.3430531      5.4023309      7.3781398     -154.658      
     49560  -160.31268      158.5          158.5          158.5         -0.64917626    -4.7078912      1.7287108      1.0316516     -160.31268    
     49580  -176.88934      158.5          158.5          158.5          2.3340389      2.7997778     -0.021240125    4.2235791     -176.88934    
     49600  -176.31635      158.5          158.5          158.5          2.9401351      4.8233938      2.9818254      1.0151861     -176.31635    
     49620  -148.31354      158.5          158.5          158.5         -5.0461279     -5.7529139     -2.7402833     -6.6451865     -148.31354    
     49640  -168.67436      158.5          158.5          158.5          1.4884767     -1.4478827     -1.0727498      6.9860625     -168.67436    
     49660  -151.35822      158.5          158.5          158.5         -3.1760314     -7.7479594     -8.8656211      7.0854863     -151.35822    
     49680  -153.60212      158.5          158.5          158.5         -1.2198217     -4.2678141      0.79691447    -0.18856539    -153.60212    
     49700  -148.14284      158.5          158.5          158.5          0.72105756     2.2124961      2.8991439     -2.9484673     -148.14284    
     49720  -164.09888      158.5          158.5          158.5         -4.3217778     -5.4662145     -4.5028863     -2.9962326     -164.09888    
     49740  -156.67177      158.5          158.5          158.5          1.4061758     -1.3684702      1.6228072      3.9641906     -156.67177    
     49760  -150.78363      158.5          158.5          158.5         -1.102726       3.2451315     -5.6170072     -0.93630238    -150.78363    
     49780  -147.73624      158.5          158.5          158.5         -2.0529124     -3.7204846     -4.6808322      2.2425797     -147.73624    
     49800  -162.27906      158.5          158.5          158.5          0.6961205     -2.7245005      1.3583931      3.4544689     -162.27906    
     49820  -138.96051      158.5          158.5          158.5         -0.59339007     2.7402561     -3.7792573     -0.74116896    -138.96051    
     49840  -147.13772      158.5          158.5          158.5          2.2462241      8.0501044      0.55468007    -1.8661121     -147.13772    
     49860  -138.04077      158.5          158.5          158.5         -1.3626137     -0.21227154    -1.4726733     -2.4028963     -138.04077    
     49880  -138.65714      158.5          158.5          158.5         -0.012382169    1.7179069     -0.25209396    -1.5029595     -138.65714    
     49900  -134.54377      158.5          158.5          158.5          0.2855265      6.1743081     -0.83369338    -4.4840352     -134.54377    
     49920  -138.81547      158.5          158.5          158.5         -1.1191951     -0.55378465     0.22436515    -3.0281659     -138.81547    
     49940  -148.41009      158.5          158.5          158.5         -1.4197528     -3.0431062      0.66303988    -1.8791922     -148.41009    
     49960  -127.65829      158.5          158.5          158.5          2.4020292      0.94891134     4.3072803      1.9498961     -127.65829    
     49980  -140.26035      158.5          158.5          158.5          1.2589931      3.9234248      0.70034144    -0.84678699    -140.26035    
     50000  -114.28057      158.5          158.5          158.5          2.8179721      7.2646981      4.3286346     -3.1394164     -114.28057    
     50020  -133.25456      158.5          158.5          158.5          5.230557       3.6066257      7.1630342      4.9220112     -133.25456    
     50040  -133.74164      158.5          158.5          158.5         -3.8977961     -8.9063932     -2.0406818     -0.74631338    -133.74164    
     50060  -125.45176      158.5          158.5          158.5          0.017406115    1.6883228     -1.1348271     -0.50127738    -125.45176    
     50080  -113.89538      158.5          158.5          158.5          3.7739414      4.5320531      3.9287603      2.8610107     -113.89538    
     50100  -137.75832      158.5          158.5          158.5          1.0447352      0.74688374     1.3003594      1.0869626     -137.75832    
     50120  -108.93899      158.5          158.5          158.5          2.9040494     -1.1862637     -0.042726339    9.9411384     -108.93899    
     50140  -143.60121      158.5          158.5          158.5         -4.8020156     -5.232338      -7.921712      -1.2519968     -143.60121    
     50160  -146.0792       158.5          158.5          158.5         -3.6240711      2.3901657     -3.9007303     -9.3616486     -146.0792     
     50180  -148.62638      158.5          158.5          158.5          2.3222064      1.9975559      5.892615      -0.92355188    -148.62638    
     50200  -124.22038      158.5          158.5          158.5         -3.8151458     -10.201907     -4.1517261      2.9081961     -124.22038    
     50220  -162.06586      158.5          158.5          158.5          3.1181238      7.6767668     -1.2078722      2.8854768     -162.06586    
     50240  -134.64342      158.5          158.5          158.5         -1.3243902      1.9469133     -1.5673995     -4.3526844     -134.64342    
     50260  -167.99412      158.5          158.5          158.5         -1.5747302     -4.3608826     -2.8635035      2.5001955     -167.99412    
     50280  -145.37437      158.5          158.5          158.5          2.3715376      3.875396       0.67869489     2.5605219     -145.37437    
     50300  -153.15989      158.5          158.5          158.5         -5.6938123     -3.2123498     -8.1260331     -5.7430539     -153.15989    
     50320  -150.84836      158.5          158.5          158.5         -0.14323913    -1.6587038      1.4670061     -0.23801968    -150.84836    
     50340  -151.76917      158.5          158.5          158.5         -0.49183986     1.3882763     -1.3752799     -1.488516      -151.76917    
     50360  -164.81831      158.5          158.5          158.5         -1.3978387      3.9505192     -6.475855      -1.6681802     -164.81831    
     50380  -163.14172      158.5          158.5          158.5          3.1846318      2.3309158      3.6287052      3.5942743     -163.14172    
     50400  -158.63133      158.5          158.5          158.5          2.0287817     -0.59253398     4.7176243      1.9612549     -158.63133    
     50420  -163.73819      158.5          158.5          158.5          4.4163319      3.9403646      1.5899665      7.7186646     -163.73819    
     50440  -166.56339      158.5          158.5          158.5         -3.2052524     -2.1364713     -9.1433741      1.6640881     -166.56339    
     50460  -154.60438      158.5          158.5          158.5         -1.8133156     -0.76574376    -2.3464467     -2.3277563     -154.60438    
     50480  -167.87651      158.5          158.5          158.5         -0.39560989    -0.6048939      3.9983274     -4.5802632     -167.87651    
     50500  -158.55281      158.5          158.5          158.5         -2.1602632     -1.9839139     -1.2585256     -3.23835       -158.55281    
     50520  -161.98626      158.5          158.5          158.5          6.0555751      9.0323199      3.3931987      5.7412067     -161.98626    
     50540  -145.36523      158.5          158.5          158.5         -4.4603281     -4.6777147     -1.8019363     -6.9013332     -145.36523    
     50560  -166.94393      158.5          158.5          158.5         -0.23348742    -5.6901807      4.6011024      0.38861597    -166.94393    
     50580  -130.74908      158.5          158.5          158.5         -0.53474486     0.6935094     -2.9134359      0.61569191    -130.74908    
     50600  -171.43148      158.5          158.5          158.5         -4.0651356      0.61994703    -6.7593107     -6.0560431     -171.43148    
     50620  -138.90086      158.5          158.5          158.5          6.0445328      4.1572241      10.958728      3.017646      -138.90086    
     50640  -148.75362      158.5          158.5          158.5         -3.5186875     -6.6901356     -1.3707107     -2.4952163     -148.75362    
     50660  -130.28542      158.5          158.5          158.5          5.4841819      8.5269601     -0.70133699     8.6269225     -130.28542    
     50680  -165.93412      158.5          158.5          158.5         -1.034386       2.0696787     -4.16279       -1.0100468     -165.93412    
     50700  -143.41108      158.5          158.5          158.5         -1.6467271     -2.8412555     -0.68997974    -1.408946      -143.41108    
     50720  -135.44737      158.5          158.5          158.5          3.0710888      3.2428388      4.8609669      1.1094608     -135.44737    
     50740  -139.91884      158.5          158.5          158.5         -4.2027383     -1.7479892     -8.3732134     -2.4870123     -139.91884    
     50760  -154.03159      158.5          158.5          158.5          4.2659065      6.466991       3.2596545      3.071074      -154.03159    
     50780  -144.52254      158.5          158.5          158.5          4.6094679      1.5858472      5.3330344      6.9095222     -144.52254    
     50800  -163.04588      158.5          158.5          158.5         -1.4586688     -1.3536006     -2.4406349     -0.58177093    -163.04588    
     50820  -158.6303       158.5          158.5          158.5          1.5538002      4.4239925     -1.7357612      1.9731693     -158.6303     
     50840  -158.28079      158.5          158.5          158.5         -2.2379961      0.088109626   -2.591946      -4.210152      -158.28079    
     50860  -158.51565      158.5          158.5          158.5          4.3715213      4.6775333      6.2196439      2.2173868     -158.51565    
     50880  -149.92615      158.5          158.5          158.5         -2.6361229     -3.430382      -2.8411104     -1.6368761     -149.92615    
     50900  -158.65059      158.5          158.5          158.5         -1.0838512      0.29322294    -5.6908214      2.1460447     -158.65059    
     50920  -163.51598      158.5          158.5          158.5          4.8246444      4.0968307      5.0422289      5.3348736     -163.51598    
     50940  -143.71144      158.5          158.5          158.5         -3.8923649     -7.6136618      0.064714548   -4.1281476     -143.71144    
     50960  -180.11127      158.5          158.5          158.5          0.98715889    -0.97520135     2.2110134      1.7256647     -180.11127    
     50980  -160.74679      158.5          158.5          158.5         -2.816806      -1.7909794     -6.4652289     -0.19420971    -160.74679    
     51000  -167.41007      158.5          158.5          158.5         -3.0411074     -1.6277994     -1.9295354     -5.5659874     -167.41007    
     51020  -157.67091      158.5          158.5          158.5          1.4726908     -0.2269329      1.9878956      2.6571098     -157.67091    
     51040  -157.56526      158.5          158.5          158.5         -3.8118136     -4.3301516     -2.5555233     -4.549766      -157.56526    
     51060  -161.05331      158.5          158.5          158.5          1.7570863      3.8401936      0.81995892     0.61110628    -161.05331    
     51080  -172.0547       158.5          158.5          158.5         -0.91501767    -1.5645364     -2.0522911      0.87177443    -172.0547     
     51100  -160.45213      158.5          158.5          158.5          0.35721866    -1.7864617      2.0277528      0.83036491    -160.45213    
     51120  -149.7215       158.5          158.5          158.5         -0.042901653   -1.0270139      0.96715912    -0.068850165   -149.7215     
     51140  -167.0834       158.5          158.5          158.5         -3.3026084     -2.8633051     -3.4919506     -3.5525696     -167.0834     
     51160  -139.8504       158.5          158.5          158.5          3.9673073      1.1461418      7.2321121      3.5236679     -139.8504     
     51180  -156.13364      158.5          158.5          158.5         -3.5878317     -5.547161       0.15616166    -5.3724959     -156.13364    
     51200  -147.77377      158.5          158.5          158.5         -2.2273798     -2.1939639      0.21695605    -4.7051316     -147.77377    
     51220  -142.29476      158.5          158.5          158.5         -0.29618035     2.8458712     -2.0980615     -1.6363507     -142.29476    
     51240  -151.42692      158.5          158.5          158.5         -1.4891495     -2.4087317     -2.3743146      0.31559759    -151.42692    
     51260  -130.84473      158.5          158.5          158.5          4.3703447      5.2804331      7.1953448      0.63525625    -130.84473    
     51280  -143.39913      158.5          158.5          158.5         -3.8014046     -1.6174114     -3.0682444     -6.7185579     -143.39913    
     51300  -127.45253      158.5          158.5          158.5         -0.29051299    -0.5275039      0.22614875    -0.57018382    -127.45253    
     51320  -135.15426      158.5          158.5          158.5          0.26447716     1.3467934     -1.1119042      0.5585423     -135.15426    
     51340  -125.54172      158.5          158.5          158.5         -1.4750287     -0.83168583    -1.1887962     -2.404604      -125.54172    
     51360  -137.06815      158.5          158.5          158.5          4.2330535      5.0490207      1.7069799      5.9431599     -137.06815    
     51380  -124.23574      158.5          158.5          158.5          1.9477304      0.085479111    1.1490367      4.6086755     -124.23574    
     51400  -141.88324      158.5          158.5          158.5         -0.34648959    -4.7195941      2.6292823      1.050843      -141.88324    
     51420  -131.19889      158.5          158.5          158.5          5.1678184      0.89090007     6.994796       7.6177592     -131.19889    
     51440  -131.27307      158.5          158.5          158.5         -1.2021974     -1.8954786     -3.3197599      1.6086461     -131.27307    
     51460  -147.59818      158.5          158.5          158.5         -0.72920218     1.1340474     -2.4152077     -0.90644618    -147.59818    
     51480  -143.08285      158.5          158.5          158.5          1.5928912      3.7789295      3.1895729     -2.1898288     -143.08285    
     51500  -134.51332      158.5          158.5          158.5         -3.0198432     -7.4277302      3.3527364     -4.984536      -134.51332    
     51520  -149.40493      158.5          158.5          158.5          1.9493352      0.20037865     1.45083        4.1967968     -149.40493    
     51540  -137.18324      158.5          158.5          158.5         -3.9843408     -0.77556495    -8.8734442     -2.3040134     -137.18324    
     51560  -142.55399      158.5          158.5          158.5          4.092485       0.91521865     7.6332505      3.7289857     -142.55399    
     51580  -147.5665       158.5          158.5          158.5          1.4845749     -4.6766177      6.3618261      2.7685163     -147.5665     
     51600  -134.75669      158.5          158.5          158.5         -3.794169      -8.3809497     -2.7675959     -0.23396155    -134.75669    
     51620  -142.85602      158.5          158.5          158.5          0.75774441    -0.12965071    -1.5471912      3.9500752     -142.85602    
     51640  -152.98069      158.5          158.5          158.5         -2.7658803     -4.2242873     -3.0204079     -1.0529458     -152.98069    
     51660  -133.5823       158.5          158.5          158.5         -1.2267457     -5.9021665      5.0599062     -2.8379767     -133.5823     
     51680  -165.15965      158.5          158.5          158.5         -2.0318937     -1.4974151     -2.927222      -1.6710439     -165.15965    
     51700  -144.49379      158.5          158.5          158.5         -1.452976      -0.025908724   -4.9389086      0.60588934    -144.49379    
     51720  -163.56298      158.5          158.5          158.5          1.8381438      0.26878005     3.6722056      1.5734456     -163.56298    
     51740  -160.56009      158.5          158.5          158.5          0.90723991    -1.8244634      6.4851878     -1.9390047     -160.56009    
     51760  -145.93168      158.5          158.5          158.5         -5.2320289     -1.0420513     -5.6708215     -8.9832138     -145.93168    
     51780  -154.6766       158.5          158.5          158.5          3.1158596      2.9589143      2.370358       4.0183066     -154.6766     
     51800  -143.51778      158.5          158.5          158.5         -5.1277781     -9.3027478      2.0475645     -8.1281511     -143.51778    
     51820  -156.58074      158.5          158.5          158.5          1.7369756      2.8974123      5.4852217     -3.1717073     -156.58074    
     51840  -152.99108      158.5          158.5          158.5          3.4746878      5.9228687     -0.24249042     4.743685      -152.99108    
     51860  -146.39352      158.5          158.5          158.5         -2.0334687     -4.71563       -2.3653225      0.98054642    -146.39352    
     51880  -159.48782      158.5          158.5          158.5          1.2780491     -2.4106935      2.1716701      4.0731708     -159.48782    
     51900  -153.54839      158.5          158.5          158.5         -1.1604636      0.58185611    -3.0951826     -0.96806437    -153.54839    
     51920  -146.91947      158.5          158.5          158.5          1.1093542      5.8817965     -1.8387888     -0.71494511    -146.91947    
     51940  -141.69598      158.5          158.5          158.5          3.172815      -0.69390041     6.9230259      3.2893194     -141.69598    
     51960  -152.39098      158.5          158.5          158.5          0.2975051     -0.29658942     0.23014387     0.95896085    -152.39098    
     51980  -131.9749       158.5          158.5          158.5          4.6369545      7.3826936      2.7420645      3.7861054     -131.9749     
     52000  -142.66751      158.5          158.5          158.5         -5.8187117     -7.5988622     -4.8183458     -5.0389271     -142.66751    
     52020  -152.16174      158.5          158.5          158.5          2.6254476      3.2870119      1.2178562      3.3714746     -152.16174    
     52040  -132.24485      158.5          158.5          158.5          2.9714018      4.7773718      1.8815343      2.2552993     -132.24485    
     52060  -121.93526      158.5          158.5          158.5         -2.2997609     -3.4283426     -1.3812892     -2.0896509     -121.93526    
     52080  -147.47348      158.5          158.5          158.5         -0.18772325    -2.2843354      2.4097678     -0.68860213    -147.47348    
     52100  -138.3317       158.5          158.5          158.5          0.54486381     3.8483247     -1.0269132     -1.18682       -138.3317     
     52120  -124.36697      158.5          158.5          158.5         -1.4874515      1.8545573     -4.8588339     -1.4580779     -124.36697    
     52140  -144.82822      158.5          158.5          158.5          0.36062975    -0.19451613     1.1776468      0.098758547   -144.82822    
     52160  -166.81604      158.5          158.5          158.5          2.3003176      0.52272688     3.5086641      2.8695619     -166.81604    
     52180  -143.08411      158.5          158.5          158.5         -2.2849124      1.2024609     -2.1217581     -5.9354399     -143.08411    
     52200  -158.56165      158.5          158.5          158.5          2.7796813      6.6688665      1.3155395      0.35463777    -158.56165    
     52220  -135.27649      158.5          158.5          158.5          0.45412706    -0.41338942     3.2153096     -1.439539      -135.27649    
     52240  -163.90207      158.5          158.5          158.5          0.24663457    -1.2097897      2.785488      -0.83579456    -163.90207    
     52260  -165.54367      158.5          158.5          158.5          0.53025809     0.86883999    -0.64220989     1.3641442     -165.54367    
     52280  -161.4896       158.5          158.5          158.5         -1.1465509     -1.2754751     -1.1170539     -1.0471238     -161.4896     
     52300  -172.5577       158.5          158.5          158.5          1.5126736     -0.64077297    -0.51117877     5.6899727     -172.5577     
     52320  -165.73848      158.5          158.5          158.5         -1.5833851     -2.7348505     -0.10850825    -1.9067966     -165.73848    
     52340  -176.9397       158.5          158.5          158.5          1.4527445      3.2362391      2.4656619     -1.3436676     -176.9397     
     52360  -143.85407      158.5          158.5          158.5         -0.20167099     1.5178361      0.052980358   -2.1758294     -143.85407    
     52380  -166.34342      158.5          158.5          158.5         -4.3888266     -4.8103525     -4.6698902     -3.6862372     -166.34342    
     52400  -160.24395      158.5          158.5          158.5          2.1843565      1.2842257      3.1237246      2.1451192     -160.24395    
     52420  -157.82441      158.5          158.5          158.5         -0.3772568      0.1150071     -1.2548039      0.0080264516  -157.82441    
     52440  -158.91297      158.5          158.5          158.5         -1.0379251     -2.9554843     -2.2060826      2.0477916     -158.91297    
     52460  -150.19953      158.5          158.5          158.5         -0.66021908    -0.5786621     -6.6174253      5.2154302     -150.19953    
     52480  -152.00501      158.5          158.5          158.5         -1.3601309     -1.5634719     -1.3621977     -1.154723      -152.00501    
     52500  -147.83876      158.5          158.5          158.5          0.67832783     1.8272417      3.4759216     -3.2681798     -147.83876    
     52520  -144.06551      158.5          158.5          158.5         -0.25896679    -0.27372326    -3.4210869      2.9179098     -144.06551    
     52540  -143.84961      158.5          158.5          158.5         -0.26861198     0.72683163    -3.8631748      2.3305072     -143.84961    
     52560  -145.06014      158.5          158.5          158.5         -0.014980538    2.4223527      1.1442542     -3.6115485     -145.06014    
     52580  -156.91646      158.5          158.5          158.5          2.0308865      2.9459782      3.3000014     -0.15332008    -156.91646    
     52600  -130.879        158.5          158.5          158.5          2.9178591      4.6525518      2.1698797      1.9311458     -130.879      
     52620  -148.90075      158.5          158.5          158.5          1.228216       1.2726972     -0.45965638     2.8716071     -148.90075    
     52640  -133.63102      158.5          158.5          158.5         -0.37988934     0.22835144    -1.2554591     -0.11256037    -133.63102    
     52660  -127.40498      158.5          158.5          158.5         -1.9397455      0.49908079    -3.8830366     -2.4352805     -127.40498    
     52680  -144.7664       158.5          158.5          158.5          1.6654322      3.3491092      3.1469454     -1.4997581     -144.7664     
     52700  -140.59308      158.5          158.5          158.5          2.1261512      5.4776779      5.5323244     -4.6315488     -140.59308    
     52720  -142.87879      158.5          158.5          158.5          2.2345916      8.0968075      1.2026999     -2.5957326     -142.87879    
     52740  -132.36228      158.5          158.5          158.5          2.3054508      4.7100171     -0.68527086     2.8916061     -132.36228    
     52760  -146.49866      158.5          158.5          158.5         -0.6321911     -2.0006114      1.6162025     -1.5121643     -146.49866    
     52780  -154.79271      158.5          158.5          158.5          5.4460222      5.4768514      9.330838       1.5303773     -154.79271    
     52800  -144.61924      158.5          158.5          158.5         -2.6723334      0.94941835    -9.891335       0.92491656    -144.61924    
     52820  -152.58825      158.5          158.5          158.5          0.97962094     3.9720486     -4.1377844      3.1045986     -152.58825    
     52840  -150.32035      158.5          158.5          158.5          1.5329628      2.1373128      3.5938641     -1.1322886     -150.32035    
     52860  -148.18277      158.5          158.5          158.5         -3.5108684     -2.4199095     -5.9290836     -2.1836122     -148.18277    
     52880  -148.01658      158.5          158.5          158.5          2.7773333      4.7489041     -1.4114517      4.9945474     -148.01658    
     52900  -150.06924      158.5          158.5          158.5         -2.7397296     -4.563212      -3.1106909     -0.54528585    -150.06924    
     52920  -154.15711      158.5          158.5          158.5          2.2278773      0.19675909     3.3682097      3.118663      -154.15711    
     52940  -157.76928      158.5          158.5          158.5          0.1687026      4.1078661     -2.493005      -1.1087533     -157.76928    
     52960  -138.87524      158.5          158.5          158.5         -3.6311807      0.73102075    -8.2238963     -3.4006666     -138.87524    
     52980  -167.16308      158.5          158.5          158.5         -1.588551      -3.4932379     -1.2317729     -0.040642255   -167.16308    
     53000  -144.41729      158.5          158.5          158.5         -1.8905514     -7.1396754      1.1839611      0.28406015    -144.41729    
     53020  -151.34159      158.5          158.5          158.5         -0.53330796    -3.2765605      0.21165497     1.4649816     -151.34159    
     53040  -165.039        158.5          158.5          158.5          2.0328058      3.8041001     -1.4568906      3.7512078     -165.039      
     53060  -147.73946      158.5          158.5          158.5         -2.5317168     -3.0787907     -1.1960482     -3.3203115     -147.73946    
     53080  -144.67598      158.5          158.5          158.5          0.75747591    -2.2921399      6.4478957     -1.883328      -144.67598    
     53100  -137.85954      158.5          158.5          158.5         -1.5724936     -1.2474416     -2.035631      -1.4344083     -137.85954    
     53120  -159.36501      158.5          158.5          158.5         -2.8351565     -5.575622      -2.2233083     -0.70653922    -159.36501    
     53140  -123.44291      158.5          158.5          158.5          3.1696702      0.027394358    3.9609101      5.520706      -123.44291    
     53160  -146.18802      158.5          158.5          158.5         -3.3926187     -0.99842311    -8.1846528     -0.99478012    -146.18802    
     53180  -142.07588      158.5          158.5          158.5         -1.9635539     -0.2575636     -3.644876      -1.988222      -142.07588    
     53200  -121.7003       158.5          158.5          158.5          4.2028896     -0.83347882     12.070878      1.3712699     -121.7003     
     53220  -151.40839      158.5          158.5          158.5         -0.42347329    -6.0243974      0.25993562     4.494042      -151.40839    
     53240  -135.31046      158.5          158.5          158.5          1.2174683      1.8797405     -4.3351852      6.1078495     -135.31046    
     53260  -140.89689      158.5          158.5          158.5          3.1080101      6.3405737      3.3047836     -0.32132709    -140.89689    
     53280  -117.52214      158.5          158.5          158.5         -5.9944858     -6.4717771     -2.807573      -8.7041072     -117.52214    
     53300  -130.07744      158.5          158.5          158.5         -1.6289799     -0.39286368    -3.8697759     -0.62430004    -130.07744    
     53320  -122.97379      158.5          158.5          158.5          0.38219065     1.838716      -1.5471366      0.8549925     -122.97379    
     53340  -144.01279      158.5          158.5          158.5         -2.2583472     -1.1810818      1.8860904     -7.4800501     -144.01279    
     53360  -135.1929       158.5          158.5          158.5          1.5164148      0.8260701      3.8208283     -0.097653884   -135.1929     
     53380  -129.5172       158.5          158.5          158.5         -2.348113      -1.429767      -3.5594614     -2.0551106     -129.5172     
     53400  -128.13053      158.5          158.5          158.5          1.4746943      0.65536537     1.2080223      2.5606951     -128.13053    
     53420  -148.12688      158.5          158.5          158.5         -1.2556552     -2.155986      -5.2100758      3.5990962     -148.12688    
     53440  -129.49108      158.5          158.5          158.5          1.4433437      3.223645       0.73396619     0.3724199     -129.49108    
     53460  -156.41102      158.5          158.5          158.5          2.5045726      4.3336117      5.5801607     -2.4000546     -156.41102    
     53480  -135.79468      158.5          158.5          158.5         -1.6484352     -3.0879773     -2.1699766      0.31264835    -135.79468    
     53500  -150.67336      158.5          158.5          158.5          2.581124       0.31719819     3.1549406      4.2712331     -150.67336    
     53520  -134.42736      158.5          158.5          158.5         -0.68121875     3.463438      -3.2001627     -2.3069315     -134.42736    
     53540  -160.52189      158.5          158.5          158.5          0.4617071      1.4490434      4.9220345     -4.9859566     -160.52189    
     53560  -141.35491      158.5          158.5          158.5          6.1599922      0.76489936     9.2596648      8.4554124     -141.35491    
     53580  -159.38794      158.5          158.5          158.5         -1.3777918     -0.9624989     -0.86765665    -2.3032197     -159.38794    
     53600  -161.80041      158.5          158.5          158.5          2.165069       5.081802       4.1291101     -2.7157052     -161.80041    
     53620  -160.22427      158.5          158.5          158.5          3.2114155     -0.22777311     4.3047556      5.557264      -160.22427    
     53640  -144.17923      158.5          158.5          158.5         -4.2022875     -6.3159996     -5.2189082     -1.0719547     -144.17923    
     53660  -163.15431      158.5          158.5          158.5          2.9354846      7.3746099      0.92594231     0.50590162    -163.15431    
     53680  -156.77056      158.5          158.5          158.5         -2.9231037      1.9424513     -2.6235743     -8.0881882     -156.77056    
     53700  -143.81473      158.5          158.5          158.5          1.7420144      1.8204545      4.1358111     -0.73022223    -143.81473    
     53720  -149.17023      158.5          158.5          158.5         -0.17853603     0.031828515    1.5969302     -2.1643669     -149.17023    
     53740  -155.42004      158.5          158.5          158.5         -4.096951      -1.7551977     -2.3241544     -8.2115008     -155.42004    
     53760  -147.62824      158.5          158.5          158.5          3.5714011      2.7244961      4.501812       3.4878952     -147.62824    
     53780  -123.98374      158.5          158.5          158.5         -3.9617037     -3.2280797     -7.918649      -0.73838256    -123.98374    
     53800  -139.03225      158.5          158.5          158.5          3.1144699     -0.42622202     1.2046809      8.5649507     -139.03225    
     53820  -147.59167      158.5          158.5          158.5          1.4850341     -0.6789701      5.4694417     -0.3353693     -147.59167    
     53840  -139.08914      158.5          158.5          158.5         -7.1645909     -8.1121325     -10.129665     -3.2519754     -139.08914    
     53860  -141.58861      158.5          158.5          158.5          0.48005466    -0.21299393    -1.9011525      3.5543105     -141.58861    
     53880  -128.77696      158.5          158.5          158.5         -1.4359648     -1.4961982     -0.83963541    -1.9720607     -128.77696    
     53900  -142.2757       158.5          158.5          158.5          2.0025663      3.51171        2.2705715      0.22541729    -142.2757     
     53920  -137.91708      158.5          158.5          158.5         -0.756212      -1.3578364      1.7142972     -2.6250968     -137.91708    
     53940  -142.78478      158.5          158.5          158.5         -0.68605329    -4.1151615     -1.8541392      3.9111409     -142.78478    
     53960  -130.889        158.5          158.5          158.5          2.8388654      0.6028662      2.9866923      4.9270377     -130.889      
     53980  -146.91229      158.5          158.5          158.5         -1.2861999     -2.4139412      0.11602085    -1.5606793     -146.91229    
     54000  -140.95342      158.5          158.5          158.5         -2.6535313      0.84079751    -4.6533105     -4.1480809     -140.95342    
     54020  -143.24988      158.5          158.5          158.5         -5.1727698     -1.8834858     -7.8902573     -5.7445662     -143.24988    
     54040  -153.42362      158.5          158.5          158.5          1.2567768     -1.377243       1.2377595      3.9098141     -153.42362    
     54060  -156.41791      158.5          158.5          158.5          0.57595209    -2.5084158      3.1932753      1.0429967     -156.41791    
     54080  -153.83621      158.5          158.5          158.5          0.56467466     0.42930661     0.50494941     0.75976796    -153.83621    
     54100  -147.79721      158.5          158.5          158.5         -1.0006387     -4.3143141     -0.17577434     1.4881724     -147.79721    
     54120  -172.84684      158.5          158.5          158.5          3.1789077     -1.0866397      5.0715534      5.5518093     -172.84684    
     54140  -156.89127      158.5          158.5          158.5          0.11202013     1.0305693      4.0198959     -4.7144048     -156.89127    
     54160  -160.90232      158.5          158.5          158.5         -1.054677      -1.2898914     -0.25071542    -1.623424      -160.90232    
     54180  -169.44806      158.5          158.5          158.5          3.2416744      7.889911      -3.7208644      5.5559765     -169.44806    
     54200  -174.6817       158.5          158.5          158.5         -2.8341319     -3.2743708     -3.4932142     -1.7348107     -174.6817     
     54220  -154.74933      158.5          158.5          158.5          2.9879538      1.249343       7.6449385      0.069579879   -154.74933    
     54240  -174.11235      158.5          158.5          158.5          1.901296       6.0797759      0.44507661    -0.82096469    -174.11235    
     54260  -176.86649      158.5          158.5          158.5         -2.3827813      0.91981549    -9.2245966      1.1564373     -176.86649    
     54280  -183.76894      158.5          158.5          158.5          0.52002008     2.7996179     -3.8157977      2.57624       -183.76894    
     54300  -168.07879      158.5          158.5          158.5         -0.27574689    -0.94083005     1.3973579     -1.2837685     -168.07879    
     54320  -175.86111      158.5          158.5          158.5          1.2265982      0.72807615     4.2310378     -1.2793192     -175.86111    
     54340  -179.48311      158.5          158.5          158.5          0.71855629     1.0569045     -3.1490759      4.2478403     -179.48311    
     54360  -184.17021      158.5          158.5          158.5         -4.7397172     -2.7405848     -8.0190213     -3.4595456     -184.17021    
     54380  -176.45213      158.5          158.5          158.5          2.3253674      4.5379715      4.4167815     -1.9786507     -176.45213    
     54400  -178.18995      158.5          158.5          158.5         -0.16570573    -1.690927       2.6196036     -1.4257938     -178.18995    
     54420  -186.75057      158.5          158.5          158.5         -1.4634244     -4.3215408     -0.57437202     0.50563971    -186.75057    
     54440  -173.91383      158.5          158.5          158.5          3.4813857      4.4839945      2.0137746      3.9463881     -173.91383    
     54460  -161.08881      158.5          158.5          158.5          0.48008653     0.71231023    -1.8494331      2.5773824     -161.08881    
     54480  -168.68724      158.5          158.5          158.5         -1.766305      -7.6028102      1.7428287      0.56106659    -168.68724    
     54500  -164.52112      158.5          158.5          158.5          1.2101539     -1.4105487      3.0330185      2.0079918     -164.52112    
     54520  -165.67865      158.5          158.5          158.5         -0.8153139     -0.17740177    -2.3494054      0.080865473   -165.67865    
     54540  -148.49439      158.5          158.5          158.5         -1.398678      -3.4142638     -2.3781252      1.596355      -148.49439    
     54560  -165.05583      158.5          158.5          158.5          2.6561679      0.81132251     3.8341572      3.3230239     -165.05583    
     54580  -140.938        158.5          158.5          158.5          0.12639527     1.7627535     -0.52016142    -0.86340629    -140.938      
     54600  -161.44547      158.5          158.5          158.5          1.9798328      2.7193276      0.64918784     2.570983      -161.44547    
     54620  -143.45014      158.5          158.5          158.5          0.71321315     1.6012042     -1.2335679      1.7720031     -143.45014    
     54640  -150.17488      158.5          158.5          158.5          1.2397869      1.2210301      2.0621238      0.4362068     -150.17488    
     54660  -143.26566      158.5          158.5          158.5          1.2663998      0.88337345     0.92240399     1.9934219     -143.26566    
     54680  -139.1289       158.5          158.5          158.5          1.6485764      1.8102527      2.7667966      0.36867983    -139.1289     
     54700  -134.61049      158.5          158.5          158.5         -0.85654722     1.0098958     -1.8445196     -1.7350179     -134.61049    
     54720  -135.28657      158.5          158.5          158.5          1.4221773      1.9109102     -2.3316459      4.6872674     -135.28657    
     54740  -137.0364       158.5          158.5          158.5         -2.5583984     -0.045813322   -3.1394482     -4.4899336     -137.0364     
     54760  -149.34976      158.5          158.5          158.5         -0.02750056     0.18156705     2.6162554     -2.8803241     -149.34976    
     54780  -137.98189      158.5          158.5          158.5         -1.1208232     -0.9533103     -0.56893699    -1.8402223     -137.98189    
     54800  -130.64831      158.5          158.5          158.5         -1.6754266     -1.8744521     -1.61666       -1.5351677     -130.64831    
     54820  -144.96693      158.5          158.5          158.5         -1.1750834     -0.12237762    -3.5959257      0.19305311    -144.96693    
     54840  -137.67853      158.5          158.5          158.5          2.9957386      6.4616764      2.6300048     -0.10446539    -137.67853    
     54860  -138.08355      158.5          158.5          158.5          1.5642336      2.5213113      5.3901451     -3.2187554     -138.08355    
     54880  -155.69036      158.5          158.5          158.5         -2.7889125     -6.9371332     -2.903969       1.4743648     -155.69036    
     54900  -124.03137      158.5          158.5          158.5         -2.3141355     -5.4441434      0.29506084    -1.7933241     -124.03137    
     54920  -144.91714      158.5          158.5          158.5         -0.084722989   -2.2173606      6.8447327     -4.8815411     -144.91714    
     54940  -149.0138       158.5          158.5          158.5          3.2127191     -1.1408572      5.8061437      4.9728707     -149.0138     
     54960  -162.52588      158.5          158.5          158.5          0.010046168   -2.642863       2.1449891      0.52801241    -162.52588    
     54980  -151.63816      158.5          158.5          158.5         -1.0971341      2.2254381      3.5366915     -9.0535318     -151.63816    
     55000  -159.64894      158.5          158.5          158.5          2.4426293      6.5098587      1.8916465     -1.0736171     -159.64894    
     55020  -164.92666      158.5          158.5          158.5         -2.2763653     -4.2566909     -2.3321733     -0.24023166    -164.92666    
     55040  -152.47533      158.5          158.5          158.5          3.0177897      3.5425928      7.2287193     -1.7179431     -152.47533    
     55060  -159.55046      158.5          158.5          158.5         -0.42292073     1.4234674     -0.92269183    -1.7695378     -159.55046    
     55080  -139.54412      158.5          158.5          158.5         -4.1365239     -2.1504183     -8.8199892     -1.4391642     -139.54412    
     55100  -153.51226      158.5          158.5          158.5         -0.11865298    -1.8423586      2.7996301     -1.3132305     -153.51226    
     55120  -151.10306      158.5          158.5          158.5          1.3870064      0.098851126    3.7107679      0.35140024    -151.10306    
     55140  -156.95293      158.5          158.5          158.5         -3.1592313      1.5501143     -4.2675307     -6.7602775     -156.95293    
     55160  -148.18076      158.5          158.5          158.5          1.6817774      0.79158082     0.70549329     3.5482582     -148.18076    
     55180  -150.68964      158.5          158.5          158.5         -2.6947977     -5.5851197     -1.0185945     -1.4806789     -150.68964    
     55200  -140.38438      158.5          158.5          158.5          0.91807317     5.3588564     -3.0919415      0.48730462    -140.38438    
     55220  -142.36927      158.5          158.5          158.5         -3.4969273     -2.8067965     -5.3510946     -2.3328908     -142.36927    
     55240  -142.55297      158.5          158.5          158.5         -4.8449088     -6.3380644     -5.9784077     -2.2182542     -142.55297    
     55260  -140.67282      158.5          158.5          158.5          3.0381598     -1.1273225      4.3906217      5.8511802     -140.67282    
     55280  -130.08135      158.5          158.5          158.5         -1.4774493     -3.6455543      1.609096      -2.3958897     -130.08135    
     55300  -136.71867      158.5          158.5          158.5          3.9583586      8.0922649      2.8238548      0.95895597    -136.71867    
     55320  -138.17154      158.5          158.5          158.5          0.79023182    -4.4811342      0.65863583     6.1931938     -138.17154    
     55340  -114.43668      158.5          158.5          158.5         -2.0985014     -9.1268668      1.5816536      1.2497089     -114.43668    
     55360  -136.56492      158.5          158.5          158.5          1.0792403      2.3039832      4.4323512     -3.4986134     -136.56492    
     55380  -143.06165      158.5          158.5          158.5         -1.5752289      1.6577301     -4.5905911     -1.7928258     -143.06165    
     55400  -147.48877      158.5          158.5          158.5          4.2446177      1.1795567      2.3934756      9.1608207     -147.48877    
     55420  -126.7436       158.5          158.5          158.5         -1.4627059     -5.4948385      1.4379727     -0.33125188    -126.7436     
     55440  -131.35724      158.5          158.5          158.5          1.0499996      4.2922017      4.082344      -5.224547      -131.35724    
     55460  -147.13162      158.5          158.5          158.5          2.3239145      4.2762603      2.8211943     -0.12571105    -147.13162    
     55480  -140.92441      158.5          158.5          158.5          0.61313939    -0.75031259     0.74571747     1.8440133     -140.92441    
     55500  -131.30539      158.5          158.5          158.5          3.4521912      4.4343859      6.4593429     -0.53715522    -131.30539    
     55520  -133.48617      158.5          158.5          158.5         -4.0548829     -2.1094129      2.2281243     -12.28336      -133.48617    
     55540  -143.25008      158.5          158.5          158.5         -0.0655577      2.3031351     -1.2349412     -1.264867      -143.25008    
     55560  -140.45934      158.5          158.5          158.5          1.8660781     -0.16073251     0.019509575    5.7394571     -140.45934    
     55580  -141.96405      158.5          158.5          158.5         -4.2180251     -2.3468729     -0.69824618    -9.6089563     -141.96405    
     55600  -145.98092      158.5          158.5          158.5          2.9379419      9.2057161      4.6395024     -5.0313929     -145.98092    
     55620  -165.05911      158.5          158.5          158.5         -2.3595351      0.79775016    -7.2381052     -0.6382503     -165.05911    
     55640  -169.71447      158.5          158.5          158.5         -2.5421142     -2.7377362     -8.6212701      3.7326636     -169.71447    
     55660  -160.91678      158.5          158.5          158.5          1.0470747      1.7654436      1.5842952     -0.20851455    -160.91678    
     55680  -166.09937      158.5          158.5          158.5         -1.4507596     -0.67553123     1.9525862     -5.6293336     -166.09937    
     55700  -177.44056      158.5          158.5          158.5          1.618429      -0.12447587    -1.1443669      6.1241297     -177.44056    
     55720  -162.66953      158.5          158.5          158.5         -0.36533749    -1.7581288     -2.4193708      3.0814872     -162.66953    
     55740  -162.14311      158.5          158.5          158.5         -4.0597942      0.38903523    -5.6942456     -6.8741722     -162.14311    
     55760  -150.1105       158.5          158.5          158.5          1.4390842      2.7080369      1.4823113      0.1269045     -150.1105     
     55780  -162.24447      158.5          158.5          158.5         -3.4520177     -6.9438963     -0.91655964    -2.4955972     -162.24447    
     55800  -146.2748       158.5          158.5          158.5         -0.20255015    -1.8324306     -1.2897653      2.5145455     -146.2748     
     55820  -162.02462      158.5          158.5          158.5         -1.3170111     -1.5423172     -1.8584829     -0.55023326    -162.02462    
     55840  -144.70876      158.5          158.5          158.5          3.0345301      5.2746032      3.7561164      0.072870514   -144.70876    
     55860  -147.50036      158.5          158.5          158.5         -1.5957771     -1.9519047     -1.0842908     -1.7511358     -147.50036    
     55880  -145.0939       158.5          158.5          158.5          1.4746042      0.43353705    -1.7666906      5.7569661     -145.0939     
     55900  -151.59333      158.5          158.5          158.5          0.56242465     1.4333974     -3.5601502      3.8140267     -151.59333    
     55920  -146.10659      158.5          158.5          158.5         -0.22189947     2.1097261     -2.659916      -0.11550846    -146.10659    
     55940  -134.33393      158.5          158.5          158.5          3.5701944      0.74046286     3.9649489      6.0051715     -134.33393    
     55960  -142.49525      158.5          158.5          158.5         -1.832344      -1.9112103     -3.5861334      0.00031161814 -142.49525    
     55980  -136.8459       158.5          158.5          158.5          2.1839159      2.8417588     -0.68996014     4.3999492     -136.8459     
     56000  -133.31171      158.5          158.5          158.5          0.24217688    -1.1580359     -1.9500586      3.8346251     -133.31171    
     56020  -133.89539      158.5          158.5          158.5         -2.2655307     -3.4665076     -3.3079748     -0.022109771   -133.89539    
     56040  -117.07083      158.5          158.5          158.5          3.0361725      0.12264815     0.47046396     8.5154053     -117.07083    
     56060  -136.93073      158.5          158.5          158.5          0.41559       -4.9345307     -0.34419842     6.5254992     -136.93073    
     56080  -131.07522      158.5          158.5          158.5          0.63929541    -2.4870744      2.725486       1.6794746     -131.07522    
     56100  -127.705        158.5          158.5          158.5          1.4176745     -2.5817811      2.5162483      4.3185564     -127.705      
     56120  -126.05559      158.5          158.5          158.5         -3.7969924     -3.3727438     -6.7841061     -1.2341274     -126.05559    
     56140  -122.85657      158.5          158.5          158.5          4.0994496      4.1862861      1.8543944      6.2576684     -122.85657    
     56160  -145.64025      158.5          158.5          158.5          0.9355032     -2.3979091      0.83404469     4.370374      -145.64025    
     56180  -127.4078       158.5          158.5          158.5          0.26267162    -0.83378359     2.921594      -1.2997956     -127.4078     
     56200  -128.5645       158.5          158.5          158.5          5.1024584      8.1058479      3.9299687      3.2715585     -128.5645     
     56220  -149.29612      158.5          158.5          158.5         -2.1633128     -1.6740595     -5.3226387      0.50675971    -149.29612    
     56240  -128.95688      158.5          158.5          158.5          1.950859      -2.5484269      5.4964639      2.9045399     -128.95688    
     56260  -141.37713      158.5          158.5          158.5          2.6632374      3.6843014      6.3781055     -2.0726948     -141.37713    
     56280  -141.21963      158.5          158.5          158.5         -2.9368203      0.12497018    -3.6782278     -5.2572033     -141.21963    
     56300  -135.37907      158.5          158.5          158.5         -0.059033067   -3.6774433      0.95799849     2.5423456     -135.37907    
     56320  -148.92734      158.5          158.5          158.5         -1.3377662     -2.0606629     -1.8389389     -0.11369682    -148.92734    
     56340  -143.43514      158.5          158.5          158.5          0.51259987     2.1183215      3.1426155     -3.7231374     -143.43514    
     56360  -149.56476      158.5          158.5          158.5          3.575134       1.0012532      5.0478866      4.6762622     -149.56476    
     56380  -156.32983      158.5          158.5          158.5         -2.5933976     -5.4657937     -2.6336199      0.31922097    -156.32983    
     56400  -164.45972      158.5          158.5          158.5          1.7119706      4.3623524      0.84371927    -0.070159862   -164.45972    
     56420  -158.24945      158.5          158.5          158.5         -0.56044268    -0.6565879     -1.6820581      0.65731793    -158.24945    
     56440  -152.17298      158.5          158.5          158.5         -3.8448673     -5.0356075     -5.6679761     -0.83101835    -152.17298    
     56460  -162.2955       158.5          158.5          158.5          0.5863649     -0.15384089     1.9915111     -0.078575475   -162.2955     
     56480  -160.40688      158.5          158.5          158.5         -0.810833       1.3875151     -5.3993557      1.5793416     -160.40688    
     56500  -163.83671      158.5          158.5          158.5         -1.9891452      0.23029302    -4.4972989     -1.7004298     -163.83671    
     56520  -154.64852      158.5          158.5          158.5          0.37706989    -0.29128967     1.829564      -0.40706469    -154.64852    
     56540  -153.90322      158.5          158.5          158.5          0.54790906     0.022908409   -0.032797573    1.6536164     -153.90322    
     56560  -159.95716      158.5          158.5          158.5         -0.66626815     3.7445813     -5.833827       0.090441233   -159.95716    
     56580  -169.31135      158.5          158.5          158.5          3.2216327      2.9019881      3.6490627      3.1138472     -169.31135    
     56600  -151.05739      158.5          158.5          158.5         -0.94034434    -1.2592827     -0.066006522   -1.4957438     -151.05739    
     56620  -136.51627      158.5          158.5          158.5         -1.8333152     -0.29794071    -0.88169637    -4.3203085     -136.51627    
     56640  -148.15521      158.5          158.5          158.5          0.82077274     2.2424325      0.60909651    -0.38921074    -148.15521    
     56660  -129.02673      158.5          158.5          158.5         -2.7759016     -3.4070457     -3.9228308     -0.99782834    -129.02673    
     56680  -139.56613      158.5          158.5          158.5          3.850402      -0.58830339     4.6661558      7.4733535     -139.56613    
     56700  -129.16643      158.5          158.5          158.5          0.5677025      1.8529865      3.0415919     -3.191471      -129.16643    
     56720  -144.34245      158.5          158.5          158.5         -5.2972274     -1.2604461     -6.4724329     -8.1588033     -144.34245    
     56740  -127.94578      158.5          158.5          158.5          2.8365087      1.3952333      0.81623659     6.2980562     -127.94578    
     56760  -126.3338       158.5          158.5          158.5         -1.2719905     -6.4052347      3.4674985     -0.87823533    -126.3338     
     56780  -113.58694      158.5          158.5          158.5          5.0912172      3.1865598      8.1486811      3.9384109     -113.58694    
     56800  -131.95745      158.5          158.5          158.5         -2.9134185     -1.521794      -6.2375003     -0.98096113    -131.95745    
     56820  -120.24864      158.5          158.5          158.5         -0.32201505    -1.74972       -1.2164561      2.0001309     -120.24864    
     56840  -135.784        158.5          158.5          158.5          3.5590158      5.1747089      2.9894187      2.5129198     -135.784      
     56860  -126.21144      158.5          158.5          158.5         -4.4870163     -5.4227618     -0.48700671    -7.5512803     -126.21144    
     56880  -153.94887      158.5          158.5          158.5          3.3050797      2.7603464      4.7394463      2.4154463     -153.94887    
     56900  -141.97817      158.5          158.5          158.5         -3.5438563     -4.0333128     -4.2757495     -2.3225067     -141.97817    
     56920  -128.25457      158.5          158.5          158.5         -1.1304387     -1.2599593     -0.98953985    -1.1418168     -128.25457    
     56940  -145.44928      158.5          158.5          158.5         -0.44603387    -0.70977474     3.1888313     -3.8171582     -145.44928    
     56960  -136.69151      158.5          158.5          158.5         -0.92218841     0.75743518     0.13636093    -3.6603613     -136.69151    
     56980  -146.32185      158.5          158.5          158.5          1.9548654      3.0014462     -1.3503434      4.2134933     -146.32185    
     57000  -126.45697      158.5          158.5          158.5         -2.0544329     -0.2145474     -4.9063473     -1.042404      -126.45697    
     57020  -151.11861      158.5          158.5          158.5         -2.0183777     -2.5486856     -2.1906971     -1.3157503     -151.11861    
     57040  -163.80509      158.5          158.5          158.5         -2.3790808     -0.49460379    -6.5915425     -0.051095948   -163.80509    
     57060  -157.68001      158.5          158.5          158.5         -0.59146006     4.6757021     -5.3499177     -1.1001647     -157.68001    
     57080  -155.62502      158.5          158.5          158.5          2.6150904      2.7757129      3.4415516      1.6280068     -155.62502    
     57100  -162.87097      158.5          158.5          158.5         -1.2085531     -0.11194275    -1.6857569     -1.8279595     -162.87097    
     57120  -159.9913       158.5          158.5          158.5          1.9459914      4.6151605      1.590782      -0.36796823    -159.9913     
     57140  -171.06865      158.5          158.5          158.5          1.2662182      1.1837077      0.51545226     2.0994947     -171.06865    
     57160  -153.76242      158.5          158.5          158.5         -0.70399354    -1.5692562     -1.6796482      1.1369238     -153.76242    
     57180  -174.30887      158.5          158.5          158.5          0.033659839   -0.4723497     -0.25861273     0.83194195    -174.30887    
     57200  -168.0182       158.5          158.5          158.5          3.280476       3.6198464      5.2397619      0.98181959    -168.0182     
     57220  -171.82699      158.5          158.5          158.5          0.21050064    -0.76058954    -0.15435288     1.5464443     -171.82699    
     57240  -146.44699      158.5          158.5          158.5         -1.8638089     -2.4108094     -4.5718323      1.3912148     -146.44699    
     57260  -152.66973      158.5          158.5          158.5         -2.8844494     -4.2499473      0.0057471075  -4.409148      -152.66973    
     57280  -143.59274      158.5          158.5          158.5          2.8291556      0.99022094     8.8063635     -1.3091175     -143.59274    
     57300  -156.44852      158.5          158.5          158.5          0.32901736    -0.078167083    2.171187      -1.1059679     -156.44852    
     57320  -147.74577      158.5          158.5          158.5          1.1347466     -1.6339924     -3.2440529      8.2822851     -147.74577    
     57340  -156.30518      158.5          158.5          158.5          4.556433       2.7679828      3.4467763      7.4545398     -156.30518    
     57360  -155.1963       158.5          158.5          158.5         -1.0438622     -5.0021718      4.4470711     -2.5764858     -155.1963     
     57380  -148.6258       158.5          158.5          158.5          0.77727724    -1.2195661      5.2313979     -1.6800001     -148.6258     
     57400  -163.89637      158.5          158.5          158.5          1.6870065      3.9140933     -1.7821635      2.9290898     -163.89637    
     57420  -149.89705      158.5          158.5          158.5         -1.179154      -3.5614299     -1.2497831      1.2737509     -149.89705    
     57440  -165.57916      158.5          158.5          158.5          4.9022456      4.1913184      5.4905083      5.0249102     -165.57916    
     57460  -153.69385      158.5          158.5          158.5         -4.8418678     -3.9481368     -4.1741078     -6.4033587     -153.69385    
     57480  -165.82939      158.5          158.5          158.5          0.98754567     2.2764953      0.7939772     -0.10783552    -165.82939    
     57500  -152.50761      158.5          158.5          158.5         -2.2706823     -1.4401872     -6.1633564      0.79149675    -152.50761    
     57520  -152.51571      158.5          158.5          158.5         -3.6501496     -3.6160305     -4.6547814     -2.6796368     -152.51571    
     57540  -161.49447      158.5          158.5          158.5          6.3530673      4.5307027      11.924355      2.6041445     -161.49447    
     57560  -143.92009      158.5          158.5          158.5         -1.8389018      0.047402116   -3.3352041     -2.2289033     -143.92009    
     57580  -153.4611       158.5          158.5          158.5          2.8386671      3.854552      -1.3170318      5.978481      -153.4611     
     57600  -153.97692      158.5          158.5          158.5          2.5554331      2.7666119      0.92995563     3.9697317     -153.97692    
     57620  -158.91241      158.5          158.5          158.5         -6.5799817     -4.056464      -7.2011805     -8.4823005     -158.91241    
     57640  -140.02365      158.5          158.5          158.5          3.8778419      5.2024183      3.4432971      2.9878104     -140.02365    
     57660  -160.44598      158.5          158.5          158.5         -4.4728894     -5.9008522     -2.3959595     -5.1218566     -160.44598    
     57680  -150.72229      158.5          158.5          158.5         -3.8252591     -4.0803449     -3.9486521     -3.4467802     -150.72229    
     57700  -169.71104      158.5          158.5          158.5          2.0185193      7.3114402     -0.12572148    -1.1301607     -169.71104    
     57720  -147.39121      158.5          158.5          158.5         -5.1104569     -3.0970198     -6.3211301     -5.9132209     -147.39121    
     57740  -150.09639      158.5          158.5          158.5          4.1543666      3.3569954      6.2300562      2.8760481     -150.09639    
     57760  -146.38881      158.5          158.5          158.5         -3.4971758     -2.9348746     -2.5073804     -5.0492726     -146.38881    
     57780  -139.90654      158.5          158.5          158.5         -2.6754137     -0.17262532    -1.4613004     -6.3923154     -139.90654    
     57800  -153.83462      158.5          158.5          158.5          1.6707698      3.6933247      3.5200117     -2.201027      -153.83462    
     57820  -135.68996      158.5          158.5          158.5         -3.1881121     -6.5183598     -2.27601       -0.76996649    -135.68996    
     57840  -145.97648      158.5          158.5          158.5          2.6353722      0.58405627     2.1007444      5.2213159     -145.97648    
     57860  -142.5612       158.5          158.5          158.5         -2.2905357      1.8361293     -2.5736419     -6.1340946     -142.5612     
     57880  -146.65066      158.5          158.5          158.5          2.8113102      0.95278904     3.5851089      3.8960327     -146.65066    
     57900  -125.7643       158.5          158.5          158.5         -3.3013879     -4.4382423     -5.4825377      0.016616287   -125.7643     
     57920  -145.52114      158.5          158.5          158.5          1.2594136      0.68678568     1.5817744      1.5096808     -145.52114    
     57940  -97.794148      158.5          158.5          158.5          4.9739769      2.9269744      7.7670763      4.2278798     -97.794148    
     57960  -127.01885      158.5          158.5          158.5         -2.8647467     -5.6612223      2.2696821     -5.2026999     -127.01885    
     57980  -141.00861      158.5          158.5          158.5          6.3246876      3.0808767      7.8717291      8.0214569     -141.00861    
     58000  -132.63407      158.5          158.5          158.5          0.19827518    -1.9518023     -1.9677425      4.5143704     -132.63407    
     58020  -140.46702      158.5          158.5          158.5          0.32999062    -1.1515418      2.3751146     -0.23360096    -140.46702    
     58040  -141.6347       158.5          158.5          158.5          7.6796663      5.2401663      10.332492      7.4663401     -141.6347     
     58060  -156.4005       158.5          158.5          158.5         -4.5691772     -6.7089824     -4.3806862     -2.617863      -156.4005     
     58080  -139.44649      158.5          158.5          158.5          2.9226331      5.6105691      0.01443979     3.1428905     -139.44649    
     58100  -137.84662      158.5          158.5          158.5         -0.088876117    0.14293805     0.11268684    -0.52225324    -137.84662    
     58120  -139.20925      158.5          158.5          158.5         -5.6506907     -5.5016487     -8.46356       -2.9868633     -139.20925    
     58140  -155.3875       158.5          158.5          158.5          5.223865       7.1028751      2.5353746      6.0333454     -155.3875     
     58160  -125.34928      158.5          158.5          158.5         -1.8336031     -0.45415232    -0.72021713    -4.3264399     -125.34928    
     58180  -155.40364      158.5          158.5          158.5          0.10507856     1.0783842     -1.5393483      0.77619975    -155.40364    
     58200  -150.32062      158.5          158.5          158.5          1.1038894      3.2595055     -0.81505802     0.86722065    -150.32062    
     58220  -138.62701      158.5          158.5          158.5         -4.1891656     -2.7715355     -1.2703612     -8.5256        -138.62701    
     58240  -147.09834      158.5          158.5          158.5          1.2414174      2.7101377      2.9610708     -1.9469564     -147.09834    
     58260  -143.57858      158.5          158.5          158.5         -3.7451257     -3.4710187     -4.776423      -2.9879355     -143.57858    
     58280  -158.11217      158.5          158.5          158.5          1.2607135     -0.071610009    3.2483799      0.60537077    -158.11217    
     58300  -147.90102      158.5          158.5          158.5          1.4518181      0.97469936     0.95158695     2.429168      -147.90102    
     58320  -149.79978      158.5          158.5          158.5         -5.5944309     -3.5048215     -9.2564986     -4.0219725     -149.79978    
     58340  -138.57607      158.5          158.5          158.5          6.8150045      7.1528965      6.0221132      7.2700037     -138.57607    
     58360  -150.34538      158.5          158.5          158.5         -2.9401938     -0.36488632    -3.0946404     -5.3610547     -150.34538    
     58380  -135.54643      158.5          158.5          158.5          0.1071679      4.3171875     -1.9388362     -2.0568477     -135.54643    
     58400  -125.07018      158.5          158.5          158.5          3.9411         3.9831175      2.4767409      5.3634417     -125.07018    
     58420  -121.63735      158.5          158.5          158.5         -2.7469097     -3.9086787     -3.7336325     -0.59841793    -121.63735    
     58440  -148.23846      158.5          158.5          158.5          0.21338433    -1.5100904      0.918532       1.2317114     -148.23846    
     58460  -116.62257      158.5          158.5          158.5         -2.0080466      0.40414901    -1.320134      -5.1081547     -116.62257    
     58480  -128.27737      158.5          158.5          158.5         -3.9434805     -6.3736961     -3.044367      -2.4123785     -128.27737    
     58500  -125.28687      158.5          158.5          158.5          0.97415334    -0.8721696     -0.7623348      4.5569644     -125.28687    
     58520  -119.57047      158.5          158.5          158.5          2.4625428      2.8618662      1.9989238      2.5268384     -119.57047    
     58540  -121.68961      158.5          158.5          158.5         -1.7424422     -0.2473958     -2.8646441     -2.1152867     -121.68961    
     58560  -127.65629      158.5          158.5          158.5          1.7811106     -2.2518654      0.44262717     7.1525702     -127.65629    
     58580  -126.11277      158.5          158.5          158.5         -0.23969943    -4.1583499      4.7781396     -1.338888      -126.11277    
     58600  -126.64823      158.5          158.5          158.5          1.5949606     -1.3829954      5.9691899      0.1986872     -126.64823    
     58620  -127.30214      158.5          158.5          158.5          1.2192649      2.3584249     -0.53266956     1.8320392     -127.30214    
     58640  -136.51669      158.5          158.5          158.5         -0.22110525     1.0238813      0.14819392    -1.8353909     -136.51669    
     58660  -138.70412      158.5          158.5          158.5          0.96761225    -4.0322072      3.8173509      3.117693      -138.70412    
     58680  -128.55917      158.5          158.5          158.5         -5.1361096     -6.5328331     -1.685443      -7.1900525     -128.55917    
     58700  -142.97398      158.5          158.5          158.5          2.9920265      3.2234255      4.3830212      1.3696328     -142.97398    
     58720  -142.24368      158.5          158.5          158.5          2.1424548      1.1458182      2.0005324      3.2810137     -142.24368    
     58740  -136.33028      158.5          158.5          158.5         -1.5234245     -3.9313126      0.61028409    -1.2492449     -136.33028    
     58760  -143.16847      158.5          158.5          158.5          4.0534781      4.2048398      7.0085666      0.94702777    -143.16847    
     58780  -140.04459      158.5          158.5          158.5         -2.2622456      1.6807676     -5.9236353     -2.5438693     -140.04459    
     58800  -140.81678      158.5          158.5          158.5          2.962605       3.9033533      3.4504342      1.5340275     -140.81678    
     58820  -159.52578      158.5          158.5          158.5          3.2875842      2.0787924      5.8657808      1.9181795     -159.52578    
     58840  -146.29338      158.5          158.5          158.5          0.13729286     0.16748373    -3.0912473      3.3356421     -146.29338    
     58860  -151.36483      158.5          158.5          158.5         -1.2584553      2.0266185     -3.2365767     -2.5654077     -151.36483    
     58880  -167.94137      158.5          158.5          158.5          2.181611       4.7734938      0.50125265     1.2700864     -167.94137    
     58900  -153.6215       158.5          158.5          158.5         -2.8511748     -2.5949224     -6.1924338      0.23383174    -153.6215     
     58920  -148.34712      158.5          158.5          158.5          0.82038285     2.408583      -0.52879065     0.58135624    -148.34712    
     58940  -155.13455      158.5          158.5          158.5         -1.3009928      1.1034969     -3.0219602     -1.9845151     -155.13455    
     58960  -166.60605      158.5          158.5          158.5         -2.5684642      1.0331125     -7.847206      -0.89129919    -166.60605    
     58980  -168.37305      158.5          158.5          158.5          4.6774482      2.602855       4.9606984      6.4687912     -168.37305    
     59000  -163.03372      158.5          158.5          158.5         -5.6295613     -10.179028     -0.37561728    -6.3340388     -163.03372    
     59020  -162.89412      158.5          158.5          158.5          3.2702071      6.7602878      2.9388165      0.1115169     -162.89412    
     59040  -159.98137      158.5          158.5          158.5         -2.6373444      1.7730019     -5.9831368     -3.7018984     -159.98137    
     59060  -155.89279      158.5          158.5          158.5         -3.7620957     -2.7406891     -1.6664405     -6.8791575     -155.89279    
     59080  -162.66863      158.5          158.5          158.5          4.0097949     -0.1323539      5.9596096      6.202129      -162.66863    
     59100  -151.42315      158.5          158.5          158.5         -1.6183883     -5.4021993     -2.9637943      3.5108287     -151.42315    
     59120  -152.27043      158.5          158.5          158.5          3.2575755      6.829704       1.096236       1.8467866     -152.27043    
     59140  -155.31504      158.5          158.5          158.5         -1.6661356     -0.11430455    -0.20755254    -4.6765497     -155.31504    
     59160  -134.74797      158.5          158.5          158.5         -3.0950958     -3.8124375     -2.3420456     -3.1308043     -134.74797    
     59180  -137.46918      158.5          158.5          158.5          4.4992482      3.8582966      7.9094757      1.7299722     -137.46918    
     59200  -152.35073      158.5          158.5          158.5          1.1359898      1.6574988      2.4610389     -0.71056822    -152.35073    
     59220  -145.74986      158.5          158.5          158.5          0.71965737     0.15005548    -0.69479177     2.7037084     -145.74986    
     59240  -144.52788      158.5          158.5          158.5          0.65150959    -1.9254058      1.9950999      1.8848347     -144.52788    
     59260  -119.90115      158.5          158.5          158.5          2.9656411     -0.30320287     3.94371        5.2564162     -119.90115    
     59280  -141.37582      158.5          158.5          158.5         -3.1892597     -5.7112226     -1.4221476     -2.4344087     -141.37582    
     59300  -131.04647      158.5          158.5          158.5          2.6692809      2.7211598      3.4553125      1.8313705     -131.04647    
     59320  -131.94185      158.5          158.5          158.5         -1.3821582     -4.1288378     -0.99733458     0.97969776    -131.94185    
     59340  -140.40833      158.5          158.5          158.5          1.2417732     -2.3836287      5.1504566      0.95849176    -140.40833    
     59360  -131.4153       158.5          158.5          158.5          2.9558945      6.5518465      3.0764341     -0.76059722    -131.4153     
     59380  -142.94712      158.5          158.5          158.5         -1.9831222      0.6794011     -3.0780785     -3.5506892     -142.94712    
     59400  -142.28872      158.5          158.5          158.5          5.2913401      5.9860514      6.0620445      3.8259244     -142.28872    
     59420  -142.06534      158.5          158.5          158.5         -1.7197616      0.24563957    -4.0783067     -1.3266177     -142.06534    
     59440  -138.78447      158.5          158.5          158.5         -0.18422408     0.67044119     0.41596532    -1.6390788     -138.78447    
     59460  -158.76709      158.5          158.5          158.5          1.2793115     -1.319128       2.2759261      2.8811363     -158.76709    
     59480  -137.76627      158.5          158.5          158.5         -2.1957322     -0.66601559    -5.859787      -0.061393913   -137.76627    
     59500  -145.70828      158.5          158.5          158.5          0.076965753    0.15400181    -3.0171379      3.0940334     -145.70828    
     59520  -143.17643      158.5          158.5          158.5         -1.858443      -2.3424593      0.74682524    -3.9796949     -143.17643    
     59540  -151.53754      158.5          158.5          158.5         -0.44853236     2.4821271     -0.66791369    -3.1598105     -151.53754    
     59560  -149.09289      158.5          158.5          158.5         -2.6594475     -2.722852      -8.3452859      3.0897953     -149.09289    
     59580  -155.60601      158.5          158.5          158.5         -1.2610315     -1.7394441      0.15452692    -2.1981772     -155.60601    
     59600  -160.92563      158.5          158.5          158.5          1.0153176      1.5237272      3.5161746     -1.9939489     -160.92563    
     59620  -167.687        158.5          158.5          158.5          3.1202198      3.3327851     -0.84274564     6.87062       -167.687      
     59640  -149.28297      158.5          158.5          158.5         -2.3449561     -3.2610154     -2.7083833     -1.0654698     -149.28297    
     59660  -160.94616      158.5          158.5          158.5         -1.2173271      0.32102384    -1.3646498     -2.6083553     -160.94616    
     59680  -144.73338      158.5          158.5          158.5         -2.1463881     -1.0701434     -2.9429959     -2.4260251     -144.73338    
     59700  -162.32188      158.5          158.5          158.5          2.1765579      1.6447844      4.5587793      0.32611006    -162.32188    
     59720  -155.26047      158.5          158.5          158.5          2.9932507      4.5489394      1.8645966      2.566216      -155.26047    
     59740  -149.04931      158.5          158.5          158.5         -2.5502313      2.6795463     -5.7073035     -4.6229368     -149.04931    
     59760  -149.95412      158.5          158.5          158.5          0.80783955     2.444994      -0.66627819     0.64480284    -149.95412    
     59780  -148.46436      158.5          158.5          158.5          2.3502232     -1.0889077      1.9017396      6.2378377     -148.46436    
     59800  -147.12787      158.5          158.5          158.5         -0.48277523    -0.99801797    -0.86052126     0.41021355    -147.12787    
     59820  -143.90911      158.5          158.5          158.5          0.28926929     1.8784144      1.2130199     -2.2236264     -143.90911    
     59840  -152.59208      158.5          158.5          158.5         -1.3766271     -2.86198       -0.83480057    -0.4331007     -152.59208    
     59860  -152.20224      158.5          158.5          158.5         -0.39116303    -3.9716266      0.12116431     2.6769732     -152.20224    
     59880  -135.69148      158.5          158.5          158.5          0.93572473     3.0787597      2.5241903     -2.7957758     -135.69148    
     59900  -161.86618      158.5          158.5          158.5         -1.4940148     -1.9242404     -3.6360375      1.0782334     -161.86618    
     59920  -131.80306      158.5          158.5          158.5          0.3102383     -1.4297616     -0.73327537     3.0937518     -131.80306    
     59940  -139.4748       158.5          158.5          158.5         -0.14703079     0.0011520573   1.2249827     -1.6672272     -139.4748     
     59960  -140.85096      158.5          158.5          158.5         -3.9533707     -5.7904488     -2.3679611     -3.7017023     -140.85096    
     59980  -144.39009      158.5          158.5          158.5          0.99058253     1.4798287     -0.19253889     1.6844578     -144.39009    
     60000  -133.40951      158.5          158.5          158.5         -0.96711115    -3.3348501     -0.44998043     0.88349703    -133.40951    
     60020  -146.46271      158.5          158.5          158.5         -1.3354569     -1.6037093      0.34729593    -2.7499572     -146.46271    
     60040  -141.54597      158.5          158.5          158.5          3.0786239      4.7980653      2.7330645      1.7047418     -141.54597    
     60060  -142.32001      158.5          158.5          158.5         -1.6396518     -0.66162255    -2.5288819     -1.728451      -142.32001    
     60080  -136.51194      158.5          158.5          158.5          3.3206572      1.3207306      7.6298118      1.0114291     -136.51194    
     60100  -128.5078       158.5          158.5          158.5         -0.065136705   -1.6891065      1.4695755      0.024120886   -128.5078     
     60120  -152.81422      158.5          158.5          158.5         -2.1163584     -2.2949308     -2.3016081     -1.7525361     -152.81422    
     60140  -138.3871       158.5          158.5          158.5          4.0993241      3.9636188      3.8055569      4.5287966     -138.3871     
     60160  -142.27932      158.5          158.5          158.5         -5.3464863     -2.7964093     -7.6139716     -5.629078      -142.27932    
     60180  -137.95273      158.5          158.5          158.5          2.3816988      3.3865726      1.3844724      2.3740515     -137.95273    
     60200  -135.59837      158.5          158.5          158.5         -3.1845823     -0.47705231    -6.2628484     -2.8138461     -135.59837    
     60220  -142.48399      158.5          158.5          158.5         -0.96876105    -3.0433559      1.3113882     -1.1743154     -142.48399    
     60240  -132.28716      158.5          158.5          158.5          7.649795       4.5107235      11.047458      7.391203      -132.28716    
     60260  -130.61947      158.5          158.5          158.5         -9.2732881     -7.0505744     -11.693593     -9.0756966     -130.61947    
     60280  -145.45672      158.5          158.5          158.5          4.8551683      6.2367168      1.5301092      6.7986787     -145.45672    
     60300  -150.5596       158.5          158.5          158.5          1.6032511      1.1055287      4.3743033     -0.67007889    -150.5596     
     60320  -145.85726      158.5          158.5          158.5         -1.5346064     -3.393767       0.62311691    -1.8331691     -145.85726    
     60340  -157.83096      158.5          158.5          158.5          3.3089815      3.6642647      3.2688417      2.993838      -157.83096    
     60360  -149.05442      158.5          158.5          158.5         -6.7540956     -6.9168155     -5.9922072     -7.353264      -149.05442    
     60380  -151.03587      158.5          158.5          158.5          4.4712105      4.0244004      3.6258587      5.7633724     -151.03587    
     60400  -162.18911      158.5          158.5          158.5         -3.7729215     -5.9995126     -3.480594      -1.838658      -162.18911    
     60420  -144.74949      158.5          158.5          158.5         -2.0025088     -4.4170748     -2.1763646      0.58591306    -144.74949    
     60440  -155.50343      158.5          158.5          158.5          0.60813544     1.5384931     -0.58090919     0.86682242    -155.50343    
     60460  -160.50722      158.5          158.5          158.5         -4.5317632     -5.5133275     -5.0776916     -3.0042706     -160.50722    
     60480  -154.9688       158.5          158.5          158.5          6.5241416      5.4659371      7.230833       6.8756546     -154.9688     
     60500  -154.93586      158.5          158.5          158.5         -3.0825639      2.1840378     -5.970823      -5.4609065     -154.93586    
     60520  -152.1161       158.5          158.5          158.5          0.93412313     1.5995165     -0.87432488     2.0771778     -152.1161     
     60540  -150.06066      158.5          158.5          158.5          3.5827598      0.79393012     3.3225858      6.6317635     -150.06066    
     60560  -138.53643      158.5          158.5          158.5         -0.21045925     1.854037       0.53773079    -3.0231455     -138.53643    
     60580  -145.786        158.5          158.5          158.5          2.8806824      5.8965336      1.5746548      1.1708588     -145.786      
     60600  -132.11992      158.5          158.5          158.5         -6.1450969     -5.6209969     -8.3504723     -4.4638214     -132.11992    
     60620  -120.16109      158.5          158.5          158.5          0.99017557    -0.72030513     1.1948445      2.4959874     -120.16109    
     60640  -120.99982      158.5          158.5          158.5         -0.61306938    -0.51761502     2.7786717     -4.1002648     -120.99982    
     60660  -126.66109      158.5          158.5          158.5          0.6394912      2.434081       1.8511915     -2.3667989     -126.66109    
     60680  -127.13341      158.5          158.5          158.5          3.1917589      1.9235845      2.4865135      5.1651787     -127.13341    
     60700  -134.26256      158.5          158.5          158.5         -2.2875296     -3.6771457     -1.1362239     -2.0492192     -134.26256    
     60720  -116.78973      158.5          158.5          158.5          0.55862523     1.2856884      1.3253598     -0.93517258    -116.78973    
     60740  -137.11634      158.5          158.5          158.5         -0.72486629     0.026976847    0.72714101    -2.9287167     -137.11634    
     60760  -139.88028      158.5          158.5          158.5          2.4698157      3.7682052      0.79679222     2.8444497     -139.88028    
     60780  -126.80211      158.5          158.5          158.5         -0.97942458     0.82945897    -0.30646169    -3.461271      -126.80211    
     60800  -141.06723      158.5          158.5          158.5          1.8196298     -1.3336903      4.6703191      2.1222604     -141.06723    
     60820  -143.14921      158.5          158.5          158.5          1.2967811     -0.33503224     4.7998597     -0.57448429    -143.14921    
     60840  -127.24444      158.5          158.5          158.5         -4.5117858     -4.8253591     -4.7312846     -3.9787139     -127.24444    
     60860  -157.92416      158.5          158.5          158.5          2.2971989      0.63197792     3.4222435      2.8373753     -157.92416    
     60880  -153.26538      158.5          158.5          158.5         -1.9857285     -4.2281557      0.99792403    -2.7269539     -153.26538    
     60900  -142.52772      158.5          158.5          158.5          0.9788697      0.75359556    -0.3527376      2.5357512     -142.52772    
     60920  -167.97471      158.5          158.5          158.5         -1.4256419      0.37703073    -4.3579834     -0.29597292    -167.97471    
     60940  -151.26377      158.5          158.5          158.5          0.26781897     2.9424138     -1.7156364     -0.42332042    -151.26377    
     60960  -145.01117      158.5          158.5          158.5         -1.7094149     -1.9034731     -2.5914481     -0.63332347    -145.01117    
     60980  -148.91164      158.5          158.5          158.5         -1.2692626      0.14398536    -4.3564782      0.40470507    -148.91164    
     61000  -156.75761      158.5          158.5          158.5          1.5834381      7.9872171     -2.3399591     -0.89694379    -156.75761    
     61020  -139.12424      158.5          158.5          158.5         -2.4953412     -2.2840537     -3.2044703     -1.9974995     -139.12424    
     61040  -131.00845      158.5          158.5          158.5          0.38436623    -1.6808178      0.15994201     2.6739745     -131.00845    
     61060  -156.42998      158.5          158.5          158.5         -3.2694116      0.68126108    -7.8680371     -2.6214589     -156.42998    
     61080  -154.13615      158.5          158.5          158.5          4.1714435      10.420475     -0.14860779     2.2424633     -154.13615    
     61100  -136.34553      158.5          158.5          158.5          0.98100479     4.287036       1.0820412     -2.4260628     -136.34553    
     61120  -152.60986      158.5          158.5          158.5         -3.1005962     -4.0653215     -1.3266083     -3.9098587     -152.60986    
     61140  -141.47522      158.5          158.5          158.5          1.0396781      3.6370532      1.276269      -1.7942881     -141.47522    
     61160  -154.85302      158.5          158.5          158.5          0.40462749     5.6648091     -1.265798      -3.1851287     -154.85302    
     61180  -136.32553      158.5          158.5          158.5          4.6993807      3.8448902      6.9074976      3.3457542     -136.32553    
     61200  -147.00519      158.5          158.5          158.5          1.3464058      1.0802111      5.3433805     -2.3843741     -147.00519    
     61220  -150.25314      158.5          158.5          158.5         -8.498578      -10.158802     -8.9456568     -6.3912753     -150.25314    
     61240  -115.52367      158.5          158.5          158.5          6.9487305      10.704976      7.0832972      3.0579185     -115.52367    
     61260  -154.52439      158.5          158.5          158.5         -2.446422      -3.2978569      0.91272558    -4.9541346     -154.52439    
     61280  -129.26744      158.5          158.5          158.5         -1.7790093     -4.6711214     -0.35558626    -0.31032033    -129.26744    
     61300  -148.876        158.5          158.5          158.5          5.6564995      7.1957662      6.6688557      3.1048766     -148.876      
     61320  -133.24691      158.5          158.5          158.5         -6.0459368     -6.0618226     -6.2089504     -5.8670373     -133.24691    
     61340  -151.56442      158.5          158.5          158.5          3.2697183      4.7525299      1.4984889      3.5581361     -151.56442    
     61360  -130.46565      158.5          158.5          158.5         -1.0072929      0.043936926   -1.0128954     -2.0529202     -130.46565    
     61380  -128.78026      158.5          158.5          158.5         -0.39959206    -1.8437253     -0.93570524     1.5806544     -128.78026    
     61400  -132.26073      158.5          158.5          158.5          3.9004052      8.9397905     -1.3262262      4.0876512     -132.26073    
     61420  -120.38864      158.5          158.5          158.5         -2.6187006      0.44958789    -4.9024684     -3.4032212     -120.38864    
     61440  -119.02945      158.5          158.5          158.5          4.0461695      2.4775755      8.130938       1.5299949     -119.02945    
     61460  -131.44445      158.5          158.5          158.5          1.2388981      1.1582098     -1.4781765      4.036661      -131.44445    
     61480  -114.46812      158.5          158.5          158.5         -2.0792288      1.0018161     -7.0248413     -0.21466117    -114.46812    
     61500  -118.46823      158.5          158.5          158.5          3.0453485      2.8336607      2.5534332      3.7489517     -118.46823    
     61520  -118.10278      158.5          158.5          158.5         -2.4574037     -5.6303134     -1.8761762      0.13427847    -118.10278    
     61540  -130.48899      158.5          158.5          158.5          5.3416116      3.7567147      7.3472607      4.9208594     -130.48899    
     61560  -136.00612      158.5          158.5          158.5         -0.38266188    -1.9503277     -2.1093355      2.9116775     -136.00612    
     61580  -130.56477      158.5          158.5          158.5          1.5445283      6.0279343     -0.57817261    -0.81617681    -130.56477    
     61600  -140.19227      158.5          158.5          158.5         -2.0509871      0.25078081    -1.2139262     -5.1898158     -140.19227    
     61620  -154.47803      158.5          158.5          158.5         -1.1447267     -5.5389974      0.29525792     1.8095594     -154.47803    
     61640  -150.5563       158.5          158.5          158.5          1.3349465     -0.06927906     0.15344604     3.9206727     -150.5563     
     61660  -137.73513      158.5          158.5          158.5         -3.5570081     -3.9610553     -1.0999108     -5.6100584     -137.73513    
     61680  -157.34979      158.5          158.5          158.5          1.8469092     -0.56360631     3.8681417      2.2361921     -157.34979    
     61700  -159.07256      158.5          158.5          158.5          0.25467519    -1.202061       1.3476149      0.61847163    -159.07256    
     61720  -157.21457      158.5          158.5          158.5         -1.3233871     -2.1324569     -1.2581118     -0.57959247    -157.21457    
     61740  -147.84162      158.5          158.5          158.5          2.4540461     -3.7701718      4.8735116      6.2587985     -147.84162    
     61760  -147.8863       158.5          158.5          158.5         -5.5689507     -4.1050316     -7.0526774     -5.549143      -147.8863     
     61780  -142.89923      158.5          158.5          158.5         -0.047881504   -2.4406166      1.9258726      0.37109948    -142.89923    
     61800  -157.82895      158.5          158.5          158.5         -3.5459523     -10.715253     -0.34976656     0.42716244    -157.82895    
     61820  -168.98955      158.5          158.5          158.5         -1.9535873     -2.0458624     -0.91045372    -2.9044459     -168.98955    
     61840  -157.04524      158.5          158.5          158.5          0.56503562     4.2161654      0.68391269    -3.2049712     -157.04524    
     61860  -146.51937      158.5          158.5          158.5         -0.60419546     0.9627802     -1.3965459     -1.3788207     -146.51937    
     61880  -148.36         158.5          158.5          158.5          1.5075839     -0.82237265     2.4023777      2.9427468     -148.36       
     61900  -162.74552      158.5          158.5          158.5         -0.086402091    0.7871229     -3.2202571      2.1739279     -162.74552    
     61920  -149.58235      158.5          158.5          158.5         -0.91944009    -0.76960871    -0.44305334    -1.5456582     -149.58235    
     61940  -146.03442      158.5          158.5          158.5          1.8432698      0.37250716     4.5493991      0.60790317    -146.03442    
     61960  -136.04422      158.5          158.5          158.5         -0.3826747     -2.5741102      2.6617652     -1.2356791     -136.04422    
     61980  -124.57393      158.5          158.5          158.5         -0.013073152    1.0445003     -0.70503488    -0.37868484    -124.57393    
     62000  -148.63826      158.5          158.5          158.5          0.09568521     3.5571947     -1.9712281     -1.2989109     -148.63826    
     62020  -123.7765       158.5          158.5          158.5         -1.664791      -1.0879405     -2.7449198     -1.1615128     -123.7765     
     62040  -135.00081      158.5          158.5          158.5          4.3376925      4.0236936      7.4906301      1.4987539     -135.00081    
     62060  -136.67922      158.5          158.5          158.5          0.45317021    -1.2039073      2.3884411      0.17497681    -136.67922    
     62080  -115.99305      158.5          158.5          158.5          0.40276592    -2.9211126      3.011174       1.1182363     -115.99305    
     62100  -117.2206       158.5          158.5          158.5          2.2092942      3.1390536      1.4075471      2.081282      -117.2206     
     62120  -128.84103      158.5          158.5          158.5         -2.0587015     -3.6807955     -1.8828635     -0.61244556    -128.84103    
     62140  -120.98439      158.5          158.5          158.5         -0.86022727    -2.4318539      0.90319784    -1.0520257     -120.98439    
     62160  -121.01679      158.5          158.5          158.5         -1.1712701     -1.5856208      0.2074147     -2.1356043     -121.01679    
     62180  -125.76434      158.5          158.5          158.5          0.16793469    -1.2624825      0.52516449     1.2411221     -125.76434    
     62200  -137.04375      158.5          158.5          158.5          3.6019206     -0.17458334     4.4400929      6.5402524     -137.04375    
     62220  -142.23768      158.5          158.5          158.5         -1.2532165     -3.1048177      0.41262655    -1.0674583     -142.23768    
     62240  -137.88017      158.5          158.5          158.5         -0.3249089      1.3201649     -3.929154       1.6342624     -137.88017    
     62260  -152.72892      158.5          158.5          158.5          3.1611348      3.5159361     -0.45860731     6.4260755     -152.72892    
     62280  -160.00244      158.5          158.5          158.5          6.0107559      4.8368179      7.5045285      5.6909214     -160.00244    
     62300  -150.14199      158.5          158.5          158.5         -0.28558193    -1.9971179      1.6588373     -0.51846518    -150.14199    
     62320  -146.238        158.5          158.5          158.5         -0.16251289     1.0213495     -1.9222322      0.41334409    -146.238      
     62340  -146.71169      158.5          158.5          158.5          1.7045946      2.9708934     -2.7818102      4.9247004     -146.71169    
     62360  -158.47966      158.5          158.5          158.5         -0.3702137     -0.95942202     0.2741496     -0.42536867    -158.47966    
     62380  -145.79669      158.5          158.5          158.5          0.52391575     0.049877643    3.8257552     -2.3038856     -145.79669    
     62400  -155.30684      158.5          158.5          158.5         -3.9303602     -3.5687682     -5.563489      -2.6588233     -155.30684    
     62420  -142.20391      158.5          158.5          158.5         -4.1924586     -1.9648777     -6.8821689     -3.7303291     -142.20391    
     62440  -166.38166      158.5          158.5          158.5          4.5155848      8.2560552      1.7181607      3.5725385     -166.38166    
     62460  -144.38897      158.5          158.5          158.5          0.50768578    -1.845851       2.8943269      0.47458149    -144.38897    
     62480  -152.68334      158.5          158.5          158.5          2.1309746      1.6350653      3.351484       1.4063745     -152.68334    
     62500  -134.3824       158.5          158.5          158.5         -1.8936388      0.969708      -3.7470157     -2.9036088     -134.3824     
     62520  -148.82308      158.5          158.5          158.5         -1.8970019     -1.8831998     -3.2708746     -0.53693126    -148.82308    
     62540  -132.26516      158.5          158.5          158.5          2.769586       4.8357511      0.0259488      3.4470582     -132.26516    
     62560  -130.69883      158.5          158.5          158.5         -3.1067953     -0.068173495   -1.2364301     -8.0157824     -130.69883    
     62580  -140.33535      158.5          158.5          158.5          0.98619168     4.0548866      1.6706631     -2.7669747     -140.33535    
     62600  -142.86734      158.5          158.5          158.5         -4.2436291     -0.95733733    -6.2630564     -5.5104934     -142.86734    
     62620  -137.79973      158.5          158.5          158.5         -0.46535676     1.9198375     -0.70089737    -2.6150104     -137.79973    
     62640  -123.74024      158.5          158.5          158.5          2.1587503      5.9841755      0.95324635    -0.46117098    -123.74024    
     62660  -131.51432      158.5          158.5          158.5         -1.3697193      2.6478719     -3.6456437     -3.1113862     -131.51432    
     62680  -133.74307      158.5          158.5          158.5          7.7062673      8.3350698      4.778635       10.005097     -133.74307    
     62700  -123.59721      158.5          158.5          158.5         -2.9025053     -5.1546375     -2.8105128     -0.74236568    -123.59721    
     62720  -153.27495      158.5          158.5          158.5          2.178886       3.8532925      3.5683379     -0.88497242    -153.27495    
     62740  -131.81203      158.5          158.5          158.5          1.5040921      0.92282886     1.2124431      2.3770043     -131.81203    
     62760  -134.56325      158.5          158.5          158.5          1.3347346      0.31746877     1.1078503      2.5788849     -134.56325    
     62780  -141.22321      158.5          158.5          158.5         -0.40401325     1.9909272     -2.4610008     -0.7419661     -141.22321    
     62800  -128.95039      158.5          158.5          158.5         -1.8494244     -3.8417963      0.41461218    -2.121089      -128.95039    
     62820  -143.52318      158.5          158.5          158.5          1.110459       3.996275      -1.1031463      0.43824816    -143.52318    
     62840  -154.59195      158.5          158.5          158.5         -2.4284652     -0.98983348    -2.6442901     -3.6512719     -154.59195    
     62860  -142.42182      158.5          158.5          158.5          0.40758963    -1.7262826      4.7549665     -1.805915      -142.42182    
     62880  -150.89517      158.5          158.5          158.5          2.1710134      0.067141085    3.2927061      3.1531929     -150.89517    
     62900  -139.5726       158.5          158.5          158.5         -3.1434819     -0.46170286    -5.5793579     -3.389385      -139.5726     
     62920  -155.65658      158.5          158.5          158.5          2.7657086      7.5477122     -2.1260924      2.8755062     -155.65658    
     62940  -146.19596      158.5          158.5          158.5          0.56659169     1.585191       0.21307083    -0.098486739   -146.19596    
     62960  -161.33067      158.5          158.5          158.5         -0.72744673     1.6852034      0.66247261    -4.5300162     -161.33067    
     62980  -133.78091      158.5          158.5          158.5          3.1932338      7.4458789     -0.063805943    2.1976285     -133.78091    
     63000  -154.44327      158.5          158.5          158.5         -2.6653681     -4.4002813     -4.198014       0.60219109    -154.44327    
     63020  -123.17         158.5          158.5          158.5          2.871503       1.1611339      3.4040091      4.049366      -123.17       
     63040  -132.43874      158.5          158.5          158.5         -2.4394848     -0.84831648    -2.5489187     -3.9212194     -132.43874    
     63060  -137.30936      158.5          158.5          158.5         -0.079931084    0.85377249    -0.56511618    -0.52844956    -137.30936    
     63080  -145.7713       158.5          158.5          158.5          0.68315123    -0.1949897      1.8560913      0.38835212    -145.7713     
     63100  -123.2768       158.5          158.5          158.5         -5.0315372     -4.7016418     -4.4626017     -5.9303679     -123.2768     
     63120  -151.03011      158.5          158.5          158.5          3.3028532      7.4673433      2.1195258      0.32169061    -151.03011    
     63140  -132.79347      158.5          158.5          158.5         -3.1358427     -1.9778975     -6.0337051     -1.3959254     -132.79347    
     63160  -146.44066      158.5          158.5          158.5          0.068953461   -0.82821863    -0.97803957     2.0131186     -146.44066    
     63180  -134.18112      158.5          158.5          158.5          2.3556813      1.5655596      7.5216515     -2.0201671     -134.18112    
     63200  -131.10096      158.5          158.5          158.5         -0.83687804    -2.0898913      0.98084045    -1.4015832     -131.10096    
     63220  -135.27001      158.5          158.5          158.5         -0.28299645    -2.4931087     -2.2234756      3.867595      -135.27001    
     63240  -164.5404       158.5          158.5          158.5         -2.3775676     -2.3637034     -1.8557092     -2.9132903     -164.5404     
     63260  -150.29373      158.5          158.5          158.5          2.0256254      3.7824918      5.4474521     -3.1530677     -150.29373    
     63280  -137.24261      158.5          158.5          158.5          2.4212312      4.6719508      1.468662       1.1230809     -137.24261    
     63300  -131.00972      158.5          158.5          158.5         -3.4700015     -3.7167202     -5.4690143     -1.2242701     -131.00972    
     63320  -152.31464      158.5          158.5          158.5          4.0687769      4.1821971      3.0514137      4.9727197     -152.31464    
     63340  -135.91111      158.5          158.5          158.5          1.6374934      3.9092291      0.94611023     0.057140894   -135.91111    
     63360  -127.32988      158.5          158.5          158.5          2.2791207      2.9817324      2.8021089      1.0535207     -127.32988    
     63380  -135.38367      158.5          158.5          158.5          1.2097119      0.68802984    -0.30124647     3.2423525     -135.38367    
     63400  -140.7974       158.5          158.5          158.5         -0.66153607     1.2381155     -1.6332291     -1.5894946     -140.7974     
     63420  -152.25115      158.5          158.5          158.5         -2.8901397      0.65981047    -3.2582296     -6.0719999     -152.25115    
     63440  -132.60018      158.5          158.5          158.5          2.0257476      0.30360695     3.6434367      2.130199      -132.60018    
     63460  -139.00573      158.5          158.5          158.5          3.2454994      1.7276514     -0.076044204    8.0848909     -139.00573    
     63480  -157.50196      158.5          158.5          158.5         -2.0499507      2.6311174     -5.7298613     -3.0511082     -157.50196    
     63500  -138.87009      158.5          158.5          158.5          4.029581       3.7307049      5.7653374      2.5927006     -138.87009    
     63520  -144.88427      158.5          158.5          158.5          0.3143377     -3.2822947     -1.0664802      5.2917881     -144.88427    
     63540  -149.42921      158.5          158.5          158.5          1.9704093      0.72115833     1.6863997      3.5036697     -149.42921    
     63560  -141.07566      158.5          158.5          158.5          0.08716675     1.0615568     -0.42107543    -0.37898117    -141.07566    
     63580  -142.70187      158.5          158.5          158.5         -4.4721878     -6.2884087     -4.9053215     -2.2228332     -142.70187    
     63600  -143.4106       158.5          158.5          158.5          2.2865229      3.5808826      3.5385233     -0.25983721    -143.4106     
     63620  -135.47867      158.5          158.5          158.5         -1.6893811     -1.9517026     -2.9966594     -0.11978123    -135.47867    
     63640  -130.07304      158.5          158.5          158.5         -1.8627483     -3.9192329     -4.8505741      3.1815622     -130.07304    
     63660  -150.69805      158.5          158.5          158.5          1.1561883     -2.8322427      1.3061105      4.9946971     -150.69805    
     63680  -137.03583      158.5          158.5          158.5         -0.4657032      0.62850328    -1.0574885     -0.96812441    -137.03583    
     63700  -147.38672      158.5          158.5          158.5         -0.080947115    2.3663138     -3.3648515      0.75569637    -147.38672    
     63720  -143.57654      158.5          158.5          158.5          0.86833346    -1.6464741      0.3907378      3.8607367     -143.57654    
     63740  -145.82923      158.5          158.5          158.5         -1.131572      -0.25479873    -1.1600977     -1.9798195     -145.82923    
     63760  -128.89156      158.5          158.5          158.5         -1.4263103      3.2792072     -1.3848656     -6.1732723     -128.89156    
     63780  -144.32542      158.5          158.5          158.5          0.81650131     1.1075403      2.3532749     -1.0113113     -144.32542    
     63800  -137.23934      158.5          158.5          158.5          0.1879264     -1.6800431      3.3806547     -1.1368324     -137.23934    
     63820  -139.49132      158.5          158.5          158.5          0.14833932     3.5267027     -0.49314782    -2.5885369     -139.49132    
     63840  -135.7599       158.5          158.5          158.5         -4.130011      -3.7698807     -2.0211198     -6.5990326     -135.7599     
     63860  -126.69309      158.5          158.5          158.5         -2.4730149     -5.1371289      0.98155414    -3.2634698     -126.69309    
     63880  -132.1632       158.5          158.5          158.5          1.0118664      3.9757436     -1.2335621      0.29341759    -132.1632     
     63900  -118.03426      158.5          158.5          158.5          0.53847155     4.3754808      2.394182      -5.1542481     -118.03426    
     63920  -130.15788      158.5          158.5          158.5          4.0454612      1.0561601      6.2233833      4.8568401     -130.15788    
     63940  -116.73892      158.5          158.5          158.5          0.22754846    -2.7057524      1.9781076      1.4102902     -116.73892    
     63960  -129.17613      158.5          158.5          158.5          0.014575929    3.682235      -1.5446291     -2.0938781     -129.17613    
     63980  -118.2674       158.5          158.5          158.5          1.9004874      6.7091441     -0.38173746    -0.62594429    -118.2674     
     64000  -120.92207      158.5          158.5          158.5         -1.1212418     -3.8314269     -2.179723       2.6474246     -120.92207    
     64020  -132.83074      158.5          158.5          158.5          1.2202089     -1.9707212      1.2353164      4.3960314     -132.83074    
     64040  -133.88377      158.5          158.5          158.5          0.34998378     2.439093      -3.8055717      2.4164301     -133.88377    
     64060  -122.64551      158.5          158.5          158.5         -2.1645944     -6.1821096     -0.39955478     0.087881253   -122.64551    
     64080  -128.09878      158.5          158.5          158.5         -0.38030797    -5.3008107      3.8608733      0.29901351    -128.09878    
     64100  -134.07254      158.5          158.5          158.5          0.60815939    -1.9376949      2.2764341      1.4857389     -134.07254    
     64120  -124.86174      158.5          158.5          158.5          1.3112218      1.7426541     -1.0288483      3.2198597     -124.86174    
     64140  -140.95907      158.5          158.5          158.5         -0.028694975    1.2476859     -2.1041664      0.77039551    -140.95907    
     64160  -148.38717      158.5          158.5          158.5         -1.7214995     -4.7144918     -5.1372546      4.687248      -148.38717    
     64180  -133.88815      158.5          158.5          158.5          0.7761342     -1.1775133      1.4137513      2.0921647     -133.88815    
     64200  -146.14713      158.5          158.5          158.5          0.064982307    1.5148095      0.38354511    -1.7034077     -146.14713    
     64220  -145.90405      158.5          158.5          158.5          0.43387685     1.1736045     -0.3187105      0.44673653    -145.90405    
     64240  -158.39179      158.5          158.5          158.5         -1.7248939     -1.8611903      0.46360046    -3.7770918     -158.39179    
     64260  -157.94235      158.5          158.5          158.5         -3.2182282     -1.4563167     -3.4922135     -4.7061543     -157.94235    
     64280  -152.72401      158.5          158.5          158.5         -2.3259132      3.4302929     -4.4464123     -5.9616203     -152.72401    
     64300  -144.77811      158.5          158.5          158.5          1.1727275      2.2399253      4.1179016     -2.8396444     -144.77811    
     64320  -152.33468      158.5          158.5          158.5         -0.074704962   -1.8943024      1.8950718     -0.22488432    -152.33468    
     64340  -144.90806      158.5          158.5          158.5          3.844299       7.2265301      1.6560186      2.6503484     -144.90806    
     64360  -150.00585      158.5          158.5          158.5          3.332956       6.8448153      2.686317       0.46773554    -150.00585    
     64380  -148.17104      158.5          158.5          158.5         -2.368859      -1.5535407     -0.024341638   -5.5286946     -148.17104    
     64400  -148.43207      158.5          158.5          158.5          2.2508092      3.8415968      1.6464744      1.2643562     -148.43207    
     64420  -144.32847      158.5          158.5          158.5         -2.5018482     -3.3357259     -4.6286761      0.45885741    -144.32847    
     64440  -145.97069      158.5          158.5          158.5         -0.99885466    -0.43154932     0.012482885   -2.5774975     -145.97069    
     64460  -131.57225      158.5          158.5          158.5          3.1268755      3.8349175      3.4252709      2.1204381     -131.57225    
     64480  -133.91799      158.5          158.5          158.5         -1.5275277     -3.7458705     -2.0438688      1.2071563     -133.91799    
     64500  -140.06356      158.5          158.5          158.5          2.5458744     -0.72900275     2.4304799      5.936146      -140.06356    
     64520  -137.67698      158.5          158.5          158.5          0.92335728    -2.6683572     -0.19879866     5.6372277     -137.67698    
     64540  -116.27754      158.5          158.5          158.5          3.3327021      1.477          4.8696439      3.6514625     -116.27754    
     64560  -121.81877      158.5          158.5          158.5          3.0533427      2.6413913      1.9118078      4.6068292     -121.81877    
     64580  -142.25599      158.5          158.5          158.5         -2.3676269     -4.3514195     -6.6028346      3.8513736     -142.25599    
     64600  -128.57461      158.5          158.5          158.5          5.6758179      1.9185013      6.2280136      8.8809388     -128.57461    
     64620  -139.10622      158.5          158.5          158.5         -3.2377346      0.72136008    -7.6225279     -2.8120358     -139.10622    
     64640  -117.81897      158.5          158.5          158.5          0.38822541     1.2449747     -4.6422         4.5619016     -117.81897    
     64660  -120.82609      158.5          158.5          158.5          1.4358145     -2.0372915      4.1452675      2.1994675     -120.82609    
     64680  -129.9049       158.5          158.5          158.5         -4.3914825     -7.2846977     -4.4567664     -1.4329835     -129.9049     
     64700  -127.95798      158.5          158.5          158.5          2.4813015      1.6302808      4.2919796      1.521644      -127.95798    
     64720  -135.86636      158.5          158.5          158.5         -5.9886687     -6.844217      -4.9179391     -6.2038499     -135.86636    
     64740  -130.60447      158.5          158.5          158.5          4.254681       0.34499668     4.9765592      7.4424872     -130.60447    
     64760  -134.30868      158.5          158.5          158.5         -1.2384969     -4.3871941      1.3011661     -0.62946262    -134.30868    
     64780  -130.74895      158.5          158.5          158.5         -3.5856093     -2.3837671     -3.0141261     -5.3589347     -130.74895    
     64800  -143.48079      158.5          158.5          158.5          2.959299       4.3623322      3.5292461      0.98631857    -143.48079    
     64820  -144.25181      158.5          158.5          158.5         -3.7843228     -7.8415234     -1.7954935     -1.7159516     -144.25181    
     64840  -138.45142      158.5          158.5          158.5          3.1127995      0.97642158     5.1233303      3.2386466     -138.45142    
     64860  -154.23143      158.5          158.5          158.5         -0.36664228     3.5529177      2.438582      -7.0914266     -154.23143    
     64880  -135.88626      158.5          158.5          158.5         -8.1236762     -5.3825319     -9.7979433     -9.1905535     -135.88626    
     64900  -139.27839      158.5          158.5          158.5          2.905631       1.5222727      6.1820551      1.0125651     -139.27839    
     64920  -150.16153      158.5          158.5          158.5         -0.4092638     -1.8095098      3.3080475     -2.7263291     -150.16153    
     64940  -144.71219      158.5          158.5          158.5         -1.0014318      2.515456      -6.3492338      0.82948256    -144.71219    
     64960  -147.52696      158.5          158.5          158.5          4.9603976      8.3469078      0.84405087     5.690234      -147.52696    
     64980  -150.94957      158.5          158.5          158.5         -2.2401362     -2.6351515     -2.2768148     -1.8084423     -150.94957    
     65000  -160.33668      158.5          158.5          158.5          2.6041511      1.2465729      3.4320132      3.133867      -160.33668    
     65020  -153.87661      158.5          158.5          158.5          2.0122008      6.3299156      2.8768783     -3.1701914     -153.87661    
     65040  -139.7261       158.5          158.5          158.5         -2.7516595      1.7972627     -2.6803666     -7.3718747     -139.7261     
     65060  -149.20346      158.5          158.5          158.5          0.69100529     4.7166703     -1.9378548     -0.70579953    -149.20346    
     65080  -148.3888       158.5          158.5          158.5         -5.1387219     -3.9809211     -5.6953597     -5.7398848     -148.3888     
     65100  -138.12952      158.5          158.5          158.5          2.1183979      0.10543339     2.8212943      3.428466      -138.12952    
     65120  -158.86237      158.5          158.5          158.5          0.9427792      4.4473485     -2.8000025      1.1809917     -158.86237    
     65140  -131.96063      158.5          158.5          158.5         -1.5506773      0.23959952    -3.1463019     -1.7453296     -131.96063    
     65160  -135.99512      158.5          158.5          158.5          1.3066327      1.3639663      3.8050674     -1.2491355     -135.99512    
     65180  -146.77888      158.5          158.5          158.5         -0.83017829     2.746124      -4.8616188     -0.3750401     -146.77888    
     65200  -146.72958      158.5          158.5          158.5          1.7257439      5.9546573     -0.81860419     0.041178678   -146.72958    
     65220  -127.97566      158.5          158.5          158.5          3.255857       5.9816657      2.3612153      1.4246901     -127.97566    
     65240  -138.90128      158.5          158.5          158.5         -4.5750342     -3.9872286     -4.9908675     -4.7470066     -138.90128    
     65260  -133.55151      158.5          158.5          158.5          1.0415129      4.1473406      0.12737931    -1.1501813     -133.55151    
     65280  -149.1032       158.5          158.5          158.5         -3.1336251      2.6067788     -7.530735      -4.476919      -149.1032     
     65300  -121.98308      158.5          158.5          158.5          5.2701871      4.8949469      5.7634832      5.1521311     -121.98308    
     65320  -133.16039      158.5          158.5          158.5          1.0923947     -0.90422522     3.9674357      0.21397381    -133.16039    
     65340  -130.20147      158.5          158.5          158.5         -2.8815633     -3.0661102     -0.97313834    -4.6054414     -130.20147    
     65360  -142.64683      158.5          158.5          158.5          3.779593       3.2980741      5.0211213      3.0195835     -142.64683    
     65380  -131.47223      158.5          158.5          158.5         -2.592091      -0.22703837    -2.0063687     -5.5428659     -131.47223    
     65400  -116.28608      158.5          158.5          158.5          2.0681639      4.038044       2.038327       0.12812067    -116.28608    
     65420  -132.19953      158.5          158.5          158.5         -1.9422402     -1.9704394      0.96952778    -4.825809      -132.19953    
     65440  -129.14263      158.5          158.5          158.5         -3.8303804     -3.4996417     -4.9899017     -3.0015977     -129.14263    
     65460  -143.53505      158.5          158.5          158.5          3.7237202      7.0889878      0.88448324     3.1976894     -143.53505    
     65480  -131.40397      158.5          158.5          158.5         -1.8787412      0.056135812   -4.3942902     -1.2980692     -131.40397    
     65500  -158.27582      158.5          158.5          158.5         -0.25235313    -2.5679424      3.5493699     -1.7384869     -158.27582    
     65520  -147.13174      158.5          158.5          158.5         -1.8313465     -4.519583       2.1172403     -3.0916968     -147.13174    
     65540  -145.26491      158.5          158.5          158.5          0.58836241     6.7456057     -3.6582613     -1.3222572     -145.26491    
     65560  -163.78104      158.5          158.5          158.5          0.35175021     3.5975603     -1.3111608     -1.2311489     -163.78104    
     65580  -166.13152      158.5          158.5          158.5         -1.1536047     -5.8302018     -0.49403668     2.8634244     -166.13152    
     65600  -160.78521      158.5          158.5          158.5          2.1519591      2.3955035      0.41705971     3.6433141     -160.78521    
     65620  -145.2936       158.5          158.5          158.5          2.2691664      5.9607921     -1.3466053      2.1933124     -145.2936     
     65640  -155.26615      158.5          158.5          158.5          0.10573841    -2.1149189     -3.1566306      5.5887648     -155.26615    
     65660  -171.51571      158.5          158.5          158.5          0.044527846   -5.2602234      3.5972958      1.7965111     -171.51571    
     65680  -159.73344      158.5          158.5          158.5         -2.1212071     -2.3593716     -1.1208423     -2.8834075     -159.73344    
     65700  -152.86571      158.5          158.5          158.5         -2.0658654      0.65899668    -3.6901887     -3.1664042     -152.86571    
     65720  -158.94356      158.5          158.5          158.5          0.96305793    -3.3960731      3.3572582      2.9279886     -158.94356    
     65740  -150.83177      158.5          158.5          158.5          0.017734345   -4.3460162      3.8169297      0.58228955    -150.83177    
     65760  -145.13992      158.5          158.5          158.5         -1.3850745      1.4546897      0.058236741   -5.6681499     -145.13992    
     65780  -138.72383      158.5          158.5          158.5          1.0041027     -1.9531544      2.4719108      2.4935517     -138.72383    
     65800  -126.5681       158.5          158.5          158.5          0.89042318    -0.8102895      0.22906983     3.2524892     -126.5681     
     65820  -144.93728      158.5          158.5          158.5         -3.8670171     -0.4853121     -5.7766804     -5.339059      -144.93728    
     65840  -134.76103      158.5          158.5          158.5          5.7051634      4.0507143      9.0323474      4.0324284     -134.76103    
     65860  -136.55059      158.5          158.5          158.5         -1.9866894     -2.7693431     -1.6870112     -1.503714      -136.55059    
     65880  -119.02284      158.5          158.5          158.5          3.934507       6.4265253      1.4512736      3.9257222     -119.02284    
     65900  -127.11182      158.5          158.5          158.5         -0.47695329    -0.62796795    -3.6688141      2.8659222     -127.11182    
     65920  -127.30178      158.5          158.5          158.5          1.1724944     -0.32859962     3.5165367      0.32954616    -127.30178    
     65940  -131.47218      158.5          158.5          158.5          2.9819961      1.6111693      6.1159584      1.2188606     -131.47218    
     65960  -126.72162      158.5          158.5          158.5         -2.2230758     -1.4362727     -4.6101844     -0.6227704     -126.72162    
     65980  -140.80949      158.5          158.5          158.5          1.4921082      4.8444347      0.47445989    -0.8425701     -140.80949    
     66000  -124.95114      158.5          158.5          158.5         -1.3389422      1.5988811     -0.14180613    -5.4739016     -124.95114    
     66020  -125.07761      158.5          158.5          158.5          1.8560781     -2.5977124      2.673868       5.4920787     -125.07761    
     66040  -141.03717      158.5          158.5          158.5          2.4249037      1.6113933      2.0170228      3.646295      -141.03717    
     66060  -120.64635      158.5          158.5          158.5         -1.8607998      2.7068143     -3.6065525     -4.6826612     -120.64635    
     66080  -140.82042      158.5          158.5          158.5          2.3240224      3.3931265      4.7020528     -1.123112      -140.82042    
     66100  -120.60748      158.5          158.5          158.5         -5.4917881     -6.243304      -2.7445514     -7.487509      -120.60748    
     66120  -137.20801      158.5          158.5          158.5          0.09058554     5.4738511     -4.5173612     -0.68473328    -137.20801    
     66140  -140.67393      158.5          158.5          158.5          2.0975069      2.8975373      2.4833327      0.91165084    -140.67393    
     66160  -141.02669      158.5          158.5          158.5          0.83510385    -2.4387181      7.4267983     -2.4827686     -141.02669    
     66180  -138.71205      158.5          158.5          158.5          2.5061979      3.1097849      0.10554668     4.3032621     -138.71205    
     66200  -140.053        158.5          158.5          158.5         -2.307627       4.0687024     -7.7707213     -3.2208622     -140.053      
     66220  -139.74221      158.5          158.5          158.5          4.0124241      2.4060155      4.6316081      4.9996486     -139.74221    
     66240  -137.46768      158.5          158.5          158.5          0.66797072    -4.4152794      3.9919353      2.4272562     -137.46768    
     66260  -130.67432      158.5          158.5          158.5         -2.8542774     -0.71114038    -1.6803727     -6.1713191     -130.67432    
     66280  -142.12969      158.5          158.5          158.5          1.1486346      0.96726828     0.24205866     2.2365769     -142.12969    
     66300  -118.88056      158.5          158.5          158.5         -1.3664287     -3.4611062     -2.9387523      2.3005726     -118.88056    
     66320  -127.90308      158.5          158.5          158.5          1.4676842      4.2650519      0.19544412    -0.057443269   -127.90308    
     66340  -128.83121      158.5          158.5          158.5         -3.2066333     -2.0641084     -3.8090895     -3.7467022     -128.83121    
     66360  -135.5871       158.5          158.5          158.5         -0.60638093    -2.5497344     -4.3948735      5.1254651     -135.5871     
     66380  -116.59981      158.5          158.5          158.5         -0.48517093     1.0437154     -2.4747143     -0.024513878   -116.59981    
     66400  -120.90057      158.5          158.5          158.5          0.97427665     1.7561998      2.1718162     -1.005186      -120.90057    
     66420  -129.7322       158.5          158.5          158.5          1.7491598      3.0887175      1.8443356      0.31442642    -129.7322     
     66440  -121.67586      158.5          158.5          158.5         -2.3828081      0.81235546    -8.6208883      0.66010861    -121.67586    
     66460  -136.39618      158.5          158.5          158.5          0.33176722    -1.4193317     -0.35573605     2.7703694     -136.39618    
     66480  -139.20153      158.5          158.5          158.5          0.55030863     0.57321016     3.7889803     -2.7112646     -139.20153    
     66500  -121.6378       158.5          158.5          158.5          3.7511285      11.19045       2.8988575     -2.8359216     -121.6378     
     66520  -143.65749      158.5          158.5          158.5          1.8837938      7.9100053     -0.60011369    -1.6585102     -143.65749    
     66540  -141.31258      158.5          158.5          158.5          0.065448531   -1.6721317     -1.7598641      3.6283413     -141.31258    
     66560  -131.30095      158.5          158.5          158.5         -1.7329033     -2.9276887      0.36270796    -2.6337291     -131.30095    
     66580  -145.53147      158.5          158.5          158.5         -3.4471734     -1.3570949     -1.5588111     -7.4256143     -145.53147    
     66600  -139.37669      158.5          158.5          158.5          3.7042703      3.2878389      3.3885424      4.4364297     -139.37669    
     66620  -129.0691       158.5          158.5          158.5         -1.0649261     -4.8371916      1.6580287     -0.015615484   -129.0691     
     66640  -137.64143      158.5          158.5          158.5          1.994976      -0.74846485     3.5347315      3.1986613     -137.64143    
     66660  -147.41658      158.5          158.5          158.5          2.8516632      2.2691985      6.3202343     -0.034443295   -147.41658    
     66680  -139.28053      158.5          158.5          158.5         -0.39406339     2.752277      -1.9105683     -2.0238988     -139.28053    
     66700  -136.28764      158.5          158.5          158.5         -1.0411231     -4.0174049     -3.0226804      3.9167159     -136.28764    
     66720  -129.92288      158.5          158.5          158.5          0.35885981    -2.14477        3.6873158     -0.46596633    -129.92288    
     66740  -136.0042       158.5          158.5          158.5         -0.81313898    -1.6346342     -0.60009075    -0.20469194    -136.0042     
     66760  -147.93965      158.5          158.5          158.5         -3.3742392     -3.7339729     -2.2194341     -4.1693108     -147.93965    
     66780  -136.53914      158.5          158.5          158.5         -2.155865      -1.2057316     -5.8639451      0.60208159    -136.53914    
     66800  -137.87767      158.5          158.5          158.5         -1.5371099     -3.4385056     -4.0938872      2.9210632     -137.87767    
     66820  -129.40857      158.5          158.5          158.5         -1.5867846     -3.498985       3.3207368     -4.5821055     -129.40857    
     66840  -127.96833      158.5          158.5          158.5          2.9713255      1.5987252      3.8996857      3.4155657     -127.96833    
     66860  -131.66389      158.5          158.5          158.5         -7.513152      -9.1420736     -9.9879248     -3.4094575     -131.66389    
     66880  -125.60222      158.5          158.5          158.5         -1.7354842     -7.2436146     -0.30388417     2.3410463     -125.60222    
     66900  -129.86367      158.5          158.5          158.5         -0.036833594   -4.6206475      4.8848518     -0.37470507    -129.86367    
     66920  -124.05416      158.5          158.5          158.5          0.64033684     3.9233662     -1.7249733     -0.27738228    -124.05416    
     66940  -136.93814      158.5          158.5          158.5          2.1479409      2.7243034     -0.82961012     4.5491295     -136.93814    
     66960  -128.564        158.5          158.5          158.5         -3.0808571     -6.9097869     -1.631066      -0.7017184     -128.564      
     66980  -131.14173      158.5          158.5          158.5          2.0539241     -0.16425889     4.580926       1.7451052     -131.14173    
     67000  -138.05109      158.5          158.5          158.5          5.3797363      7.9978533      2.6991713      5.4421845     -138.05109    
     67020  -106.412        158.5          158.5          158.5         -1.8892641      3.2838891     -8.1966305     -0.75505091    -106.412      
     67040  -136.2519       158.5          158.5          158.5         -0.88976024    -2.0120415     -1.4987582      0.84151895    -136.2519     
     67060  -110.92822      158.5          158.5          158.5          0.93098145    -0.016935411    2.2795198      0.53035993    -110.92822    
     67080  -137.51529      158.5          158.5          158.5         -0.82919902     2.836462       0.056109261   -5.3801683     -137.51529    
     67100  -124.96756      158.5          158.5          158.5          4.3393806      6.6106812      4.1243515      2.283109      -124.96756    
     67120  -133.41678      158.5          158.5          158.5          0.83755343    -0.80408143     4.4625344     -1.1457927     -133.41678    
     67140  -153.79249      158.5          158.5          158.5         -0.88723819    -3.0427198      2.53019       -2.1491848     -153.79249    
     67160  -114.11408      158.5          158.5          158.5         -0.61345044    -0.32467436     0.1689895     -1.6846665     -114.11408    
     67180  -155.72648      158.5          158.5          158.5         -2.1388841      0.19849696    -5.9155008     -0.69964831    -155.72648    
     67200  -130.34417      158.5          158.5          158.5          2.4215277      3.4923578      2.5834517      1.1887736     -130.34417    
     67220  -163.3459       158.5          158.5          158.5          0.88176482     2.3956557      0.88473698    -0.6350982     -163.3459     
     67240  -151.82655      158.5          158.5          158.5          1.6927084      6.4138163     -2.0343479      0.69865686    -151.82655    
     67260  -156.63277      158.5          158.5          158.5          0.19927887     3.419776      -1.6701401     -1.1517992     -156.63277    
     67280  -134.18107      158.5          158.5          158.5         -0.030104565   -1.4221159     -0.16580757     1.4976097     -134.18107    
     67300  -138.22113      158.5          158.5          158.5         -0.97195877     0.46894229    -0.88198339    -2.5028352     -138.22113    
     67320  -160.8135       158.5          158.5          158.5         -1.8422769      1.5116297     -2.3920179     -4.6464427     -160.8135     
     67340  -148.85786      158.5          158.5          158.5          0.85843611     2.5741214     -1.4994133      1.5006003     -148.85786    
     67360  -158.20039      158.5          158.5          158.5         -1.1733343     -0.51460791    -5.0073792      2.0019841     -158.20039    
     67380  -138.14097      158.5          158.5          158.5         -1.5550909      0.10491595    -4.4560372     -0.31415147    -138.14097    
     67400  -154.67129      158.5          158.5          158.5          0.36317923    -0.98998541     4.0688288     -1.9893057     -154.67129    
     67420  -140.40536      158.5          158.5          158.5          1.2533559     -2.162848       2.2901273      3.6327883     -140.40536    
     67440  -144.32974      158.5          158.5          158.5         -1.5035501     -4.1233667     -6.543586       6.1563023     -144.32974    
     67460  -128.91422      158.5          158.5          158.5          0.15415382     0.24610361     0.095626049    0.1207318     -128.91422    
     67480  -137.74086      158.5          158.5          158.5         -2.3023227     -1.6967479     -0.055680982   -5.1545392     -137.74086    
     67500  -125.13166      158.5          158.5          158.5         -2.3606108     -6.264655      -4.4423176      3.6251401     -125.13166    
     67520  -136.5211       158.5          158.5          158.5          1.9452028      2.2176646     -0.87689055     4.4948344     -136.5211     
     67540  -119.66313      158.5          158.5          158.5          3.4705497      3.8735596      8.855281      -2.3171914     -119.66313    
     67560  -128.95049      158.5          158.5          158.5         -1.4693365     -2.6349437      4.8948683     -6.6679342     -128.95049    
     67580  -119.8758       158.5          158.5          158.5         -0.79566572    -0.54888368    -4.6201972      2.7820838     -119.8758     
     67600  -128.19637      158.5          158.5          158.5         -0.88494682     0.87376515    -3.5486401      0.020034465   -128.19637    
     67620  -131.68063      158.5          158.5          158.5         -2.7016203     -3.2135679      0.48458447    -5.3758775     -131.68063    
     67640  -123.69622      158.5          158.5          158.5          3.9865217      4.7090059      7.1725626      0.07799671    -123.69622    
     67660  -140.72582      158.5          158.5          158.5         -0.66047486    -0.84657944     0.064706209   -1.1995513     -140.72582    
     67680  -136.19413      158.5          158.5          158.5          1.3176661      1.2038499     -2.8228229      5.5719713     -136.19413    
     67700  -147.04726      158.5          158.5          158.5          1.0589506     -0.76857672     0.28829303     3.6571356     -147.04726    
     67720  -129.31581      158.5          158.5          158.5          0.28635344     1.0923766      6.4587794     -6.6920956     -129.31581    
     67740  -132.61739      158.5          158.5          158.5          4.8367313      6.4002918      4.183323       3.9265792     -132.61739    
     67760  -130.35447      158.5          158.5          158.5         -3.7486094     -2.238896      -6.0794101     -2.927522      -130.35447    
     67780  -153.96307      158.5          158.5          158.5          2.6882659      1.9131118      6.0302402      0.12144575    -153.96307    
     67800  -156.79381      158.5          158.5          158.5         -1.5772269     -4.4693264      2.0997114     -2.3620656     -156.79381    
     67820  -146.20851      158.5          158.5          158.5          0.62932045    -1.1752335      3.2334765     -0.17028169    -146.20851    
     67840  -156.22647      158.5          158.5          158.5          0.32977589    -0.69444164    -0.86486257     2.5486319     -156.22647    
     67860  -154.05069      158.5          158.5          158.5         -1.2675581     -0.66098413    -4.2471394      1.1054493     -154.05069    
     67880  -150.94576      158.5          158.5          158.5          2.3755662      4.9149087      2.7055535     -0.4937635     -150.94576    
     67900  -126.85691      158.5          158.5          158.5         -2.2106239     -1.3757891      0.84217869    -6.0982613     -126.85691    
     67920  -156.09983      158.5          158.5          158.5          1.637065       2.6958336     -1.6744511      3.8898125     -156.09983    
     67940  -145.56247      158.5          158.5          158.5         -0.80811778     3.1759329     -4.8789795     -0.7213068     -145.56247    
     67960  -147.81945      158.5          158.5          158.5         -1.8811911     -3.8274807      1.6231757     -3.4392682     -147.81945    
     67980  -141.93882      158.5          158.5          158.5         -0.11300795    -3.1826061      2.8020726      0.041509683   -141.93882    
     68000  -145.50474      158.5          158.5          158.5          0.19897399     5.5812087     -4.3520137     -0.63227303    -145.50474    
     68020  -145.16252      158.5          158.5          158.5         -0.51032656     2.9381178     -2.6334991     -1.8355983     -145.16252    
     68040  -146.12438      158.5          158.5          158.5         -0.32021713    -1.3522099     -3.7105784      4.102137      -146.12438    
     68060  -123.822        158.5          158.5          158.5         -0.063508418   -1.4400834     -1.0828974      2.3324556     -123.822      
     68080  -131.00962      158.5          158.5          158.5          0.90255284    -0.12436652     2.5347668      0.29725824    -131.00962    
     68100  -118.99642      158.5          158.5          158.5         -0.1676086     -1.5237676     -2.3323915      3.3533333     -118.99642    
     68120  -123.03378      158.5          158.5          158.5         -0.091059407   -1.3959485     -1.4876058      2.6103761     -123.03378    
     68140  -130.39935      158.5          158.5          158.5         -0.98152724    -1.9211838     -2.0435889      1.020191      -130.39935    
     68160  -123.2588       158.5          158.5          158.5         -1.9677063     -6.5202654      2.5958121     -1.9786656     -123.2588     
     68180  -118.76483      158.5          158.5          158.5          0.76820164    -2.6453405      4.8031043      0.14684115    -118.76483    
     68200  -128.60138      158.5          158.5          158.5         -2.8216831     -1.3130187     -5.2018548     -1.9501759     -128.60138    
     68220  -122.9683       158.5          158.5          158.5         -0.35633074     0.9173255     -2.3008064      0.31448864    -122.9683     
     68240  -136.81534      158.5          158.5          158.5          5.8989323      3.9229106      11.496967      2.2769194     -136.81534    
     68260  -153.47533      158.5          158.5          158.5         -2.2084747     -3.7867962     -0.91965814    -1.9189697     -153.47533    
     68280  -128.20546      158.5          158.5          158.5         -0.73694305     2.0964523     -7.359718       3.0524365     -128.20546    
     68300  -133.66567      158.5          158.5          158.5          0.91312249     1.8961137      0.0010155492   0.84223818    -133.66567    
     68320  -132.31519      158.5          158.5          158.5         -0.096553977   -0.70663987     1.7332383     -1.3162603     -132.31519    
     68340  -150.248        158.5          158.5          158.5          1.7159824      5.0521683     -1.9826574      2.0784363     -150.248      
     68360  -143.68673      158.5          158.5          158.5          1.9320632      3.2844577      0.3149066      2.1968253     -143.68673    
     68380  -141.58175      158.5          158.5          158.5         -4.1753742     -1.6531382     -2.6928159     -8.1801687     -141.58175    
     68400  -149.8128       158.5          158.5          158.5         -0.22101593     1.8654208      0.83829001    -3.3667586     -149.8128     
     68420  -141.18018      158.5          158.5          158.5          2.4834376     -1.1671444      4.8485932      3.7688638     -141.18018    
     68440  -147.46626      158.5          158.5          158.5         -3.5996767     -4.6282581     -5.6240534     -0.54671853    -147.46626    
     68460  -145.42861      158.5          158.5          158.5          4.2548784      4.2008807      5.8278214      2.735933      -145.42861    
     68480  -141.41297      158.5          158.5          158.5         -2.4082424     -2.3590986      2.1395453     -7.0051739     -141.41297    
     68500  -150.52711      158.5          158.5          158.5         -1.4827604     -2.7836911     -2.7776523      1.113062      -150.52711    
     68520  -138.56391      158.5          158.5          158.5          0.030626377   -0.28837888     0.54424239    -0.16398439    -138.56391    
     68540  -146.69567      158.5          158.5          158.5          0.74857904     0.96593481     4.3086621     -3.0288599     -146.69567    
     68560  -149.59457      158.5          158.5          158.5          0.88783707     1.4578703      0.0030817838   1.2025592     -149.59457    
     68580  -139.03423      158.5          158.5          158.5         -1.4544424      0.028595893   -4.246538      -0.14538529    -139.03423    
     68600  -146.84326      158.5          158.5          158.5         -2.9218407     -4.9774181     -2.0680675     -1.7200365     -146.84326    
     68620  -147.83931      158.5          158.5          158.5          0.51797818     4.4444667      0.25139719    -3.1419294     -147.83931    
     68640  -134.82645      158.5          158.5          158.5          0.19043802     3.2441655      1.2048005     -3.8776519     -134.82645    
     68660  -134.47001      158.5          158.5          158.5          1.6220311     -4.6187832      2.8913006      6.593576      -134.47001    
     68680  -132.48103      158.5          158.5          158.5          1.3400645     -0.090171396    1.9616029      2.1487621     -132.48103    
     68700  -114.57077      158.5          158.5          158.5         -2.0698421      3.9207399     -1.6252467     -8.5050196     -114.57077    
     68720  -147.9176       158.5          158.5          158.5          1.4071347      0.802686       2.7404272      0.67829101    -147.9176     
     68740  -114.18473      158.5          158.5          158.5          3.5322421     -0.74922117     5.5146961      5.8312514     -114.18473    
     68760  -122.66324      158.5          158.5          158.5         -2.6751846      0.5420108     -3.8310497     -4.7365149     -122.66324    
     68780  -119.60219      158.5          158.5          158.5          1.7167932      8.341403      -2.7412402     -0.44978319    -119.60219    
     68800  -124.52074      158.5          158.5          158.5          1.3472693     -0.87487093    -1.3265954      6.2432741     -124.52074    
     68820  -144.24538      158.5          158.5          158.5          4.0404913     -0.76202875     4.8900721      7.9934306     -144.24538    
     68840  -129.32399      158.5          158.5          158.5         -0.86687387    -2.5170563      0.020857823   -0.10442309    -129.32399    
     68860  -122.18468      158.5          158.5          158.5         -5.4002544      1.3163232     -6.7966928     -10.720394     -122.18468    
     68880  -142.93513      158.5          158.5          158.5          2.9047655      3.1190537      1.7551111      3.8401316     -142.93513    
     68900  -125.67295      158.5          158.5          158.5         -5.6784801     -8.8217535     -6.216815      -1.9968718     -125.67295    
     68920  -127.42171      158.5          158.5          158.5         -2.531729      -2.021057      -1.5748543     -3.9992758     -127.42171    
     68940  -158.42019      158.5          158.5          158.5         -0.40076083     1.3997042     -0.97509805    -1.6268886     -158.42019    
     68960  -131.75463      158.5          158.5          158.5         -1.5693256      0.26901481    -2.1042489     -2.8727426     -131.75463    
     68980  -152.32408      158.5          158.5          158.5          1.6224031      2.5269068      3.2404149     -0.90011221    -152.32408    
     69000  -146.06724      158.5          158.5          158.5         -1.2036849     -0.95331179    -2.5364363     -0.12130648    -146.06724    
     69020  -152.18836      158.5          158.5          158.5         -0.23299803     0.58400012     0.938713      -2.2217072     -152.18836    
     69040  -150.67513      158.5          158.5          158.5         -0.97509989     3.200957      -4.9533683     -1.1728884     -150.67513    
     69060  -143.45871      158.5          158.5          158.5         -1.3021722      2.4232763     -3.0545428     -3.27525       -143.45871    
     69080  -141.92762      158.5          158.5          158.5          1.0712812     -0.48043729     6.5063127     -2.8120318     -141.92762    
     69100  -150.89075      158.5          158.5          158.5         -2.0817998     -0.12497464     0.13814193    -6.2585666     -150.89075    
     69120  -142.74912      158.5          158.5          158.5          3.3918038      6.191936       3.4941677      0.4893077     -142.74912    
     69140  -156.40884      158.5          158.5          158.5          0.14036775    -0.47231795    -1.1938565      2.0872777     -156.40884    
     69160  -145.55209      158.5          158.5          158.5         -0.76492214    -2.314002      -2.0431727      2.0624084     -145.55209    
     69180  -152.28252      158.5          158.5          158.5          2.7540271      1.3550915      2.0547503      4.8522394     -152.28252    
     69200  -167.52365      158.5          158.5          158.5         -0.61991641    -1.4843273      0.26776096    -0.64318291    -167.52365    
     69220  -139.93247      158.5          158.5          158.5         -3.2422467     -5.7232418     -2.2650869     -1.7384114     -139.93247    
     69240  -150.87505      158.5          158.5          158.5          2.3256417      2.1093582     -0.78858126     5.6561483     -150.87505    
     69260  -150.54174      158.5          158.5          158.5          3.0243053     -0.15507872     1.9851819      7.2428128     -150.54174    
     69280  -153.32645      158.5          158.5          158.5          0.90513845    -2.7967736      2.977324       2.5348649     -153.32645    
     69300  -152.6961       158.5          158.5          158.5          1.3417815      1.2637218      3.0436969     -0.28207423    -152.6961     
     69320  -147.24834      158.5          158.5          158.5         -1.7430697     -0.87706679     0.98176806    -5.3339103     -147.24834    
     69340  -160.65502      158.5          158.5          158.5          1.5589231     -2.8896401      6.3750571      1.1913523     -160.65502    
     69360  -144.13761      158.5          158.5          158.5          1.0550841      0.99980781     0.42818913     1.7372553     -144.13761    
     69380  -149.18709      158.5          158.5          158.5          0.39451838     4.0988901     -3.2955263      0.38019129    -149.18709    
     69400  -152.24328      158.5          158.5          158.5          1.9093893      3.0776087      4.654464      -2.0039048     -152.24328    
     69420  -136.88454      158.5          158.5          158.5         -4.4582962     -3.1839287     -4.0265577     -6.1644021     -136.88454    
     69440  -141.51026      158.5          158.5          158.5         -0.68672725     1.4117537     -2.9058085     -0.56612692    -141.51026    
     69460  -158.78856      158.5          158.5          158.5          2.1095306      0.212963       2.5309497      3.584679      -158.78856    
     69480  -143.14167      158.5          158.5          158.5         -0.85156038    -3.3268588     -0.30705346     1.0792311     -143.14167    
     69500  -127.09912      158.5          158.5          158.5          3.4407089     -0.86544634     5.130492       6.057081      -127.09912    
     69520  -144.60288      158.5          158.5          158.5         -1.1960679     -0.9361129     -1.0151841     -1.6369067     -144.60288    
     69540  -139.20669      158.5          158.5          158.5          4.7103139      8.1468397      2.1890417      3.7950602     -139.20669    
     69560  -140.57513      158.5          158.5          158.5          0.4930168     -1.3850881     -1.0447804      3.9089189     -140.57513    
     69580  -134.78453      158.5          158.5          158.5          0.85904253    -3.1499445     -1.5499607      7.2770328     -134.78453    
     69600  -134.84315      158.5          158.5          158.5          0.26670523    -0.10674333    -2.0620084      2.9688674     -134.84315    
     69620  -112.69369      158.5          158.5          158.5         -3.6564207     -1.4438364     -3.7078795     -5.817546      -112.69369    
     69640  -122.14241      158.5          158.5          158.5          4.1911863     -0.48069483     5.4978682      7.5563855     -122.14241    
     69660  -142.79669      158.5          158.5          158.5         -1.5818308     -4.8946044     -4.3066681      4.4557801     -142.79669    
     69680  -120.09952      158.5          158.5          158.5          2.0777558      3.5217263      1.0458951      1.6656459     -120.09952    
     69700  -139.2206       158.5          158.5          158.5          1.5292884     -0.44720779     1.2177431      3.8173299     -139.2206     
     69720  -109.67328      158.5          158.5          158.5         -2.4526985     -4.8964711      0.069998169   -2.5316224     -109.67328    
     69740  -147.2528       158.5          158.5          158.5          2.0950482      4.9005873      1.2607809      0.12377621    -147.2528     
     69760  -139.74953      158.5          158.5          158.5         -0.6268832     -2.1683947     -1.8930826      2.1808277     -139.74953    
     69780  -111.01246      158.5          158.5          158.5         -2.7882675     -8.194423      -1.9595935      1.7892139     -111.01246    
     69800  -143.09472      158.5          158.5          158.5         -0.039495014    2.7700221     -1.4309345     -1.4575726     -143.09472    
     69820  -133.32878      158.5          158.5          158.5         -2.8032006     -1.0769164     -2.353337      -4.9793485     -133.32878    
     69840  -131.52324      158.5          158.5          158.5          5.8927892      5.8736338      5.0531843      6.7515495     -131.52324    
     69860  -153.68465      158.5          158.5          158.5         -2.3751444     -2.169072      -3.7896398     -1.1667215     -153.68465    
     69880  -149.79586      158.5          158.5          158.5          3.0126651      4.9780902      3.4700617      0.58984326    -149.79586    
     69900  -146.1189       158.5          158.5          158.5         -1.7471405      0.40603027    -0.4551274     -5.1923242     -146.1189     
     69920  -147.96334      158.5          158.5          158.5         -1.817959      -1.4408844     -4.7334537      0.72046118    -147.96334    
     69940  -148.2516       158.5          158.5          158.5          3.2841134      1.7710505      2.4159944      5.6652953     -148.2516     
     69960  -149.43731      158.5          158.5          158.5         -3.9970134     -3.6818615      0.48822623    -8.7974051     -149.43731    
     69980  -158.88964      158.5          158.5          158.5          4.3874368      4.8676864      4.6258632      3.6687607     -158.88964    
     70000  -153.31875      158.5          158.5          158.5          0.12973998    -0.24379124    -0.22255748     0.85556865    -153.31875    
     70020  -150.45555      158.5          158.5          158.5         -5.1745464     -7.3828293     -2.1216426     -6.0191674     -150.45555    
     70040  -160.96139      158.5          158.5          158.5          1.4886823      5.974039       2.6346753     -4.1426675     -160.96139    
     70060  -170.91935      158.5          158.5          158.5         -2.6296487      0.8339532     -4.3289774     -4.3939218     -170.91935    
     70080  -145.94599      158.5          158.5          158.5          3.538039       0.92718879     6.707395       2.9795331     -145.94599    
     70100  -149.48483      158.5          158.5          158.5          1.4514823      1.8495436     -0.2707605      2.7756637     -149.48483    
     70120  -161.94501      158.5          158.5          158.5         -2.1496083     -1.2428586     -2.431968      -2.7739984     -161.94501    
     70140  -149.93231      158.5          158.5          158.5          1.9141089      1.980572       3.2406294      0.52112518    -149.93231    
     70160  -156.87234      158.5          158.5          158.5         -0.70222422    -1.164166      -1.5058141      0.56330744    -156.87234    
     70180  -154.24015      158.5          158.5          158.5          3.212902       1.8869002      6.5909655      1.1608402     -154.24015    
     70200  -138.94448      158.5          158.5          158.5         -0.71831379    -5.6608189      3.1626851      0.34319243    -138.94448    
     70220  -141.38955      158.5          158.5          158.5         -2.1353153     -4.2239165     -2.4619469      0.27991756    -141.38955    
     70240  -147.36453      158.5          158.5          158.5         -0.17879684     0.836508      -2.5192442      1.1463457     -147.36453    
     70260  -150.14871      158.5          158.5          158.5         -1.7753373     -3.4244663     -0.29310342    -1.6084423     -150.14871    
     70280  -151.87443      158.5          158.5          158.5          2.9090873      3.1616948      2.3410866      3.2244805     -151.87443    
     70300  -133.45007      158.5          158.5          158.5          0.4778874      3.0882005      1.3068744     -2.9614126     -133.45007    
     70320  -135.19059      158.5          158.5          158.5         -2.0786577     -3.0563822     -1.2615717     -1.9180193     -135.19059    
     70340  -135.13761      158.5          158.5          158.5          3.8006458      3.3352975      4.4548992      3.6117407     -135.13761    
     70360  -122.21411      158.5          158.5          158.5          0.28129585     0.045274639    1.9988032     -1.2001902     -122.21411    
     70380  -119.34643      158.5          158.5          158.5         -5.1057425     -2.2701511     -7.2433224     -5.803754      -119.34643    
     70400  -131.95047      158.5          158.5          158.5          1.8123601      5.1959248      1.9999035     -1.7587481     -131.95047    
     70420  -137.15287      158.5          158.5          158.5          1.1625265      0.46800885     5.4807437     -2.4611731     -137.15287    
     70440  -122.33766      158.5          158.5          158.5         -1.9363291      0.7823461     -5.8693461     -0.72198733    -122.33766    
     70460  -125.02454      158.5          158.5          158.5          0.50586574     3.3769948     -2.3256427      0.4662451     -125.02454    
     70480  -118.45473      158.5          158.5          158.5         -2.8388642     -2.0472095     -2.1916548     -4.2777282     -118.45473    
     70500  -129.06758      158.5          158.5          158.5         -0.418797      -6.4704586      0.61606393     4.5980037     -129.06758    
     70520  -140.81005      158.5          158.5          158.5          1.7752594      3.6771196      1.1444745      0.50418406    -140.81005    
     70540  -141.73008      158.5          158.5          158.5         -2.56584       -0.40325902    -4.341268      -2.952993      -141.73008    
     70560  -131.53024      158.5          158.5          158.5          1.8169069     -4.8896694      7.0816287      3.2587615     -131.53024    
     70580  -127.77345      158.5          158.5          158.5         -0.31231221     1.466849       0.92700268    -3.3307883     -127.77345    
     70600  -140.76586      158.5          158.5          158.5         -2.5422871      1.9117489     -5.7645907     -3.7740194     -140.76586    
     70620  -149.85793      158.5          158.5          158.5          1.4185481     -0.14772839     0.22979876     4.173574      -149.85793    
     70640  -142.21786      158.5          158.5          158.5         -4.1960885     -4.4701003     -4.5760415     -3.5421237     -142.21786    
     70660  -135.81612      158.5          158.5          158.5          0.54886732     4.0770794      3.838309      -6.2687864     -135.81612    
     70680  -140.18502      158.5          158.5          158.5         -1.4286778      1.1441869     -3.2017259     -2.2284946     -140.18502    
     70700  -142.94235      158.5          158.5          158.5         -6.1654788     -7.3245019     -10.076221     -1.0957134     -142.94235    
     70720  -149.14223      158.5          158.5          158.5          3.6268329      1.5730749      4.8749364      4.4324875     -149.14223    
     70740  -152.19263      158.5          158.5          158.5          1.7135464     -1.1539216      4.7437886      1.5507722     -152.19263    
     70760  -147.67896      158.5          158.5          158.5          0.88397578     3.697632       0.89262905    -1.9383337     -147.67896    
     70780  -162.78131      158.5          158.5          158.5          3.4603226      5.501141       1.8938685      2.9859585     -162.78131    
     70800  -141.15544      158.5          158.5          158.5         -2.3139885     -5.0154331     -1.8689637     -0.057568578   -141.15544    
     70820  -150.96961      158.5          158.5          158.5          0.67154289     2.5499566      0.78218304    -1.317511      -150.96961    
     70840  -160.4256       158.5          158.5          158.5          0.46191644     3.1519768      1.2121089     -2.9783364     -160.4256     
     70860  -159.87399      158.5          158.5          158.5         -0.14476607     1.2008384      0.74101216    -2.3761488     -159.87399    
     70880  -132.52218      158.5          158.5          158.5          1.6820058     -0.40858331     3.3406151      2.1139857     -132.52218    
     70900  -157.56981      158.5          158.5          158.5         -4.3617498     -6.3314739     -2.1664561     -4.5873195     -157.56981    
     70920  -148.27909      158.5          158.5          158.5          3.2829027      7.9166859      2.3000547     -0.36803263    -148.27909    
     70940  -152.3702       158.5          158.5          158.5         -0.94208984    -1.8955332     -1.3320532      0.40131689    -152.3702     
     70960  -156.83024      158.5          158.5          158.5         -3.1728872     -8.539384       0.21003837    -1.189316      -156.83024    
     70980  -155.50501      158.5          158.5          158.5          4.1673975      5.2901005      4.689155       2.5229371     -155.50501    
     71000  -154.63593      158.5          158.5          158.5          0.51294307     6.435415      -4.2806686     -0.61591714    -154.63593    
     71020  -162.24592      158.5          158.5          158.5          0.73752972    -1.7208692      2.5868926      1.3465657     -162.24592    
     71040  -167.75118      158.5          158.5          158.5          0.058712069   -3.2385871     -1.0163465      4.4310698     -167.75118    
     71060  -164.33452      158.5          158.5          158.5         -0.082732865    2.2674007     -4.603214       2.0876146     -164.33452    
     71080  -151.0467       158.5          158.5          158.5         -2.2637979     -2.3849267      1.4192748     -5.8257418     -151.0467     
     71100  -171.04201      158.5          158.5          158.5         -1.8632205     -4.4259308      0.2766045     -1.4403353     -171.04201    
     71120  -164.51138      158.5          158.5          158.5          0.36063383     0.96775705    -4.5829922      4.6971366     -164.51138    
     71140  -151.26315      158.5          158.5          158.5          2.2236272      2.9597601      2.5102211      1.2009005     -151.26315    
     71160  -137.20127      158.5          158.5          158.5          4.2201201      3.8976259      5.2564367      3.5062977     -137.20127    
     71180  -147.918        158.5          158.5          158.5         -2.0693612     -6.8129265     -1.0444476      1.6492905     -147.918      
     71200  -140.02306      158.5          158.5          158.5          1.5690275     -2.0543175      2.0041583      4.7572416     -140.02306    
     71220  -139.41361      158.5          158.5          158.5          0.73316632     0.03038785     1.272278       0.8968331     -139.41361    
     71240  -149.4701       158.5          158.5          158.5         -1.8927895     -5.1118995     -0.15437682    -0.41209215    -149.4701     
     71260  -118.23343      158.5          158.5          158.5          0.50509925     0.60853637     1.1985777     -0.29181629    -118.23343    
     71280  -140.04837      158.5          158.5          158.5         -4.1206962     -4.3710151     -5.1826108     -2.8084626     -140.04837    
     71300  -132.82317      158.5          158.5          158.5         -1.3204341     -0.46443426     1.2062289     -4.703097      -132.82317    
     71320  -137.89081      158.5          158.5          158.5         -2.340471       1.5315869     -5.2134132     -3.3395865     -137.89081    
     71340  -133.70789      158.5          158.5          158.5         -0.46149       -1.9217427     -3.1514835      3.6887562     -133.70789    
     71360  -139.79447      158.5          158.5          158.5          2.4365105      4.3106897      2.6556306      0.34321127    -139.79447    
     71380  -134.11194      158.5          158.5          158.5         -2.9245015     -0.37840716    -4.9253636     -3.4697339     -134.11194    
     71400  -143.34237      158.5          158.5          158.5          4.1087228      2.3254163      3.8052297      6.1955225     -143.34237    
     71420  -130.61552      158.5          158.5          158.5         -1.1637612      2.0060521     -2.6808586     -2.8164771     -130.61552    
     71440  -140.83441      158.5          158.5          158.5         -2.710194       0.33896983    -4.0700997     -4.3994521     -140.83441    
     71460  -128.96777      158.5          158.5          158.5          0.91801751     3.3231604     -0.99979303     0.43068515    -128.96777    
     71480  -161.42474      158.5          158.5          158.5         -6.1220597     -10.046455     -5.8314429     -2.4882808     -161.42474    
     71500  -142.20778      158.5          158.5          158.5          5.7877915      5.2352928      6.0832213      6.0448605     -142.20778    
     71520  -159.28366      158.5          158.5          158.5          2.2840237      4.0021238      4.7143919     -1.8644445     -159.28366    
     71540  -144.93013      158.5          158.5          158.5         -1.628877      -0.81833367    -1.3109724     -2.7573249     -144.93013    
     71560  -148.51676      158.5          158.5          158.5          0.74949217     0.8192051      0.073258949    1.3560125     -148.51676    
     71580  -156.40078      158.5          158.5          158.5         -0.94255878    -2.6794476      2.0376531     -2.1858818     -156.40078    
     71600  -157.4613       158.5          158.5          158.5          1.2413305      0.89165876     4.7868136     -1.9544809     -157.4613     
     71620  -171.69033      158.5          158.5          158.5          0.87331653     0.46643808     3.1013286     -0.94781712    -171.69033    
     71640  -151.91053      158.5          158.5          158.5          3.5800042      3.5644966      2.9004354      4.2750807     -151.91053    
     71660  -154.45858      158.5          158.5          158.5         -0.77696587    -2.7335575     -0.31908018     0.72174007    -154.45858    
     71680  -157.48062      158.5          158.5          158.5          0.82725693    -4.5650606      7.4945588     -0.44772744    -157.48062    
     71700  -151.12573      158.5          158.5          158.5         -0.56702828    -3.7248255      3.6731419     -1.6494013     -151.12573    
     71720  -159.52302      158.5          158.5          158.5         -2.9024985     -3.1609099     -3.3508054     -2.1957802     -159.52302    
     71740  -161.19771      158.5          158.5          158.5         -0.73654308    -0.72965117     2.9034855     -4.3834636     -161.19771    
     71760  -138.69885      158.5          158.5          158.5         -1.9431456     -2.9565896      1.1356763     -4.0085234     -138.69885    
     71780  -151.78999      158.5          158.5          158.5         -1.1906383     -4.7444177      1.198564      -0.026061097   -151.78999    
     71800  -144.71209      158.5          158.5          158.5          1.978579       1.2481463     -0.89975618     5.5873468     -144.71209    
     71820  -143.44324      158.5          158.5          158.5         -1.7180444      1.8732551     -4.1487746     -2.8786137     -143.44324    
     71840  -149.50622      158.5          158.5          158.5         -3.2104897     -2.4941921     -3.2127861     -3.9244909     -149.50622    
     71860  -136.86838      158.5          158.5          158.5         -1.2803005     -3.3658543     -0.29544924    -0.17959812    -136.86838    
     71880  -141.4346       158.5          158.5          158.5          1.7600838      4.7271975     -0.53165944     1.0847134     -141.4346     
     71900  -143.48248      158.5          158.5          158.5          1.160339       0.74717657     1.5837537      1.1500867     -143.48248    
     71920  -143.69124      158.5          158.5          158.5         -1.4914447     -0.75455705    -0.22971459    -3.4900625     -143.69124    
     71940  -149.80243      158.5          158.5          158.5          0.56106771     0.94920317    -0.36424765     1.0982476     -149.80243    
     71960  -143.08595      158.5          158.5          158.5          2.7787071      1.8844656      5.7039816      0.74767397    -143.08595    
     71980  -140.2033       158.5          158.5          158.5         -1.3572709     -0.10539712     1.0888631     -5.0552786     -140.2033     
     72000  -142.61482      158.5          158.5          158.5          2.8770352      4.0374262      0.18813913     4.4055402     -142.61482    
     72020  -155.38206      158.5          158.5          158.5         -1.1731925     -1.5296369     -0.6051949     -1.3847458     -155.38206    
     72040  -137.41981      158.5          158.5          158.5          1.3777025      1.6641477      3.0003436     -0.53138384    -137.41981    
     72060  -142.89638      158.5          158.5          158.5          0.47123595    -0.026127493    0.47571409     0.96412126    -142.89638    
     72080  -153.46738      158.5          158.5          158.5         -0.98267231     0.82203383    -6.3806756      2.6106248     -153.46738    
     72100  -140.43996      158.5          158.5          158.5          0.64109681     1.8857227     -2.0088393      2.046407      -140.43996    
     72120  -153.15763      158.5          158.5          158.5          2.682285       3.3319763      4.9711537     -0.25627488    -153.15763    
     72140  -157.55315      158.5          158.5          158.5          0.14080775     0.35259136    -0.29970643     0.3695383     -157.55315    
     72160  -142.39356      158.5          158.5          158.5          0.36341035     3.0089965     -1.9001951     -0.018570329   -142.39356    
     72180  -152.00701      158.5          158.5          158.5          0.82602091    -0.44042402     3.6658275     -0.74734081    -152.00701    
     72200  -143.37475      158.5          158.5          158.5         -0.74569753    -1.6367207     -1.5954515      0.9950797     -143.37475    
     72220  -154.23911      158.5          158.5          158.5          0.97251242     0.73590038     1.3767037      0.80493317    -154.23911    
     72240  -148.66452      158.5          158.5          158.5          1.260681      -0.17325762     1.3688861      2.5864145     -148.66452    
     72260  -152.8598       158.5          158.5          158.5         -2.1474722     -4.3383328     -2.6268517      0.52276801    -152.8598     
     72280  -150.35401      158.5          158.5          158.5         -0.6017788     -1.3058678     -1.7613069      1.2618383     -150.35401    
     72300  -145.18531      158.5          158.5          158.5         -2.0479209     -2.9441171     -2.921313      -0.27833267    -145.18531    
     72320  -145.30252      158.5          158.5          158.5         -4.1408437     -4.0018048     -3.5611512     -4.859575      -145.30252    
     72340  -153.8171       158.5          158.5          158.5          2.1476007      3.046689       0.90824388     2.4878691     -153.8171     
     72360  -130.44296      158.5          158.5          158.5         -2.1454853     -4.2532527     -2.6422699      0.45906676    -130.44296    
     72380  -134.95489      158.5          158.5          158.5          3.9992955      3.4381757      2.7939244      5.7657862     -134.95489    
     72400  -139.68117      158.5          158.5          158.5          2.4545245      5.0065394      1.4489989      0.90803518    -139.68117    
     72420  -138.24797      158.5          158.5          158.5         -8.3622154     -7.3091355     -11.501518     -6.275993      -138.24797    
     72440  -140.95757      158.5          158.5          158.5          4.8959096      1.8747524      5.8796699      6.9333064     -140.95757    
     72460  -124.33793      158.5          158.5          158.5         -4.4838289     -1.8973733     -7.8974306     -3.6566828     -124.33793    
     72480  -137.38038      158.5          158.5          158.5         -1.9988021      2.4232382     -5.7600655     -2.6595789     -137.38038    
     72500  -127.19886      158.5          158.5          158.5         -0.48589574    -3.6249465      2.6655142     -0.49825491    -127.19886    
     72520  -131.39017      158.5          158.5          158.5         -8.0800498     -13.994707     -2.2085426     -8.0369003     -131.39017    
     72540  -135.51577      158.5          158.5          158.5          7.8717745      8.0498126      2.6902581      12.875253     -135.51577    
     72560  -148.70016      158.5          158.5          158.5         -1.3326499     -1.2256076     -0.79821832    -1.9741238     -148.70016    
     72580  -145.32365      158.5          158.5          158.5         -0.41811868    -0.43498039     1.7197572     -2.5391328     -145.32365    
     72600  -147.1289       158.5          158.5          158.5          5.3731396      6.1583237      5.2535912      4.7075038     -147.1289     
     72620  -146.50445      158.5          158.5          158.5         -5.0966693     -3.7047338     -6.5188272     -5.066447      -146.50445    
     72640  -140.62548      158.5          158.5          158.5          4.426929       8.7740852      0.86743482     3.6392671     -140.62548    
     72660  -153.11559      158.5          158.5          158.5         -1.575799      -4.6293045     -0.74690987     0.64881721    -153.11559    
     72680  -142.43353      158.5          158.5          158.5         -1.3639252     -1.0754111      2.2812823     -5.2976469     -142.43353    
     72700  -150.31665      158.5          158.5          158.5          3.4704189      9.3623964      0.13024245     0.91861799    -150.31665    
     72720  -142.4426       158.5          158.5          158.5         -5.6703509     -6.200253      -7.4476749     -3.3631248     -142.4426     
     72740  -141.78348      158.5          158.5          158.5          4.0377401      1.6242441      5.1543937      5.3345824     -141.78348    
     72760  -142.05112      158.5          158.5          158.5          2.6783545      1.425094       2.9855159      3.6244535     -142.05112    
     72780  -138.93007      158.5          158.5          158.5          0.31120937    -0.26139622     0.4300591      0.76496524    -138.93007    
     72800  -153.99126      158.5          158.5          158.5          0.88700911     4.1026111     -0.63484176    -0.80674202    -153.99126    
     72820  -147.35457      158.5          158.5          158.5         -2.6479119     -0.88453277    -0.8675536     -6.1916493     -147.35457    
     72840  -146.52193      158.5          158.5          158.5          2.5069227      4.5385896      1.889506       1.0926724     -146.52193    
     72860  -143.50824      158.5          158.5          158.5         -2.1739631     -0.3270041     -3.5746534     -2.6202318     -143.50824    
     72880  -134.31496      158.5          158.5          158.5         -0.88690102     0.3648068     -0.24030798    -2.7852019     -134.31496    
     72900  -143.17706      158.5          158.5          158.5          1.9927537      3.9375437      1.467011       0.57370643    -143.17706    
     72920  -150.47099      158.5          158.5          158.5         -1.0954052     -2.5816797     -0.59516736    -0.10936842    -150.47099    
     72940  -159.81989      158.5          158.5          158.5          1.5072707     -1.5587947      3.766058       2.3145487     -159.81989    
     72960  -126.83416      158.5          158.5          158.5          0.79027101    -2.0121327      2.4893461      1.8935996     -126.83416    
     72980  -132.69564      158.5          158.5          158.5          3.5267238     -0.01373537     5.8564995      4.7374073     -132.69564    
     73000  -136.79329      158.5          158.5          158.5         -3.5395307     -4.1160968     -0.69460295    -5.8078924     -136.79329    
     73020  -136.72261      158.5          158.5          158.5         -0.23284486     1.2217509      1.9095224     -3.8298079     -136.72261    
     73040  -151.03278      158.5          158.5          158.5          1.4892832      1.1297817      0.82661904     2.5114487     -151.03278    
     73060  -126.04893      158.5          158.5          158.5         -2.2879441     -2.9911857     -0.46753616    -3.4051106     -126.04893    
     73080  -147.33933      158.5          158.5          158.5         -0.36840631    -1.1302602      1.3819784     -1.3569371     -147.33933    
     73100  -143.59902      158.5          158.5          158.5          0.71720298     0.022580637    0.97584335     1.153185      -143.59902    
     73120  -120.00187      158.5          158.5          158.5         -0.32041894    -4.7834898      2.8165367      1.0056963     -120.00187    
     73140  -137.40714      158.5          158.5          158.5          4.0156191      2.0086964      4.6183421      5.4198187     -137.40714    
     73160  -133.49747      158.5          158.5          158.5         -0.046686953    3.2762273     -2.4610313     -0.95525686    -133.49747    
     73180  -111.88128      158.5          158.5          158.5          2.2580789      4.3738706      2.8687409     -0.46837473    -111.88128    
     73200  -122.70915      158.5          158.5          158.5          1.8504873      1.795352       2.3573864      1.3987236     -122.70915    
     73220  -139.88475      158.5          158.5          158.5         -1.615425       1.0114592     -3.8371838     -2.0205503     -139.88475    
     73240  -126.13307      158.5          158.5          158.5         -0.047751152    2.2319006     -0.41522469    -1.9599294     -126.13307    
     73260  -135.14008      158.5          158.5          158.5         -3.5293478     -6.6240091     -1.8969525     -2.0670818     -135.14008    
     73280  -153.80416      158.5          158.5          158.5          0.78254154     2.4204122     -2.414698       2.3419104     -153.80416    
     73300  -142.49349      158.5          158.5          158.5          0.10164387    -0.004590517    1.7246161     -1.415094      -142.49349    
     73320  -138.12866      158.5          158.5          158.5         -0.196857      -2.7251544      1.1286384      1.005945      -138.12866    
     73340  -147.04238      158.5          158.5          158.5          0.48217254     2.2621624     -2.8270925      2.0114477     -147.04238    
     73360  -164.8898       158.5          158.5          158.5          0.29088075    -0.36759492     1.7094183     -0.4691811     -164.8898     
     73380  -151.00763      158.5          158.5          158.5          2.0137317      2.4328376      2.4730023      1.1353552     -151.00763    
     73400  -163.44272      158.5          158.5          158.5         -1.6014092      1.0319045     -2.0357932     -3.8003389     -163.44272    
     73420  -136.75936      158.5          158.5          158.5          0.20344252    -1.8768154     -1.7673675      4.2545105     -136.75936    
     73440  -156.03629      158.5          158.5          158.5         -0.27066618    -4.3694489      0.99573421     2.5617161     -156.03629    
     73460  -159.74978      158.5          158.5          158.5         -0.34025786    -1.4268434      1.5539481     -1.1478782     -159.74978    
     73480  -154.21732      158.5          158.5          158.5         -1.7058467     -1.9501255     -1.8918052     -1.2756094     -154.21732    
     73500  -135.50919      158.5          158.5          158.5          1.6668466      3.1729781      1.8738623     -0.046300677   -135.50919    
     73520  -151.53714      158.5          158.5          158.5         -2.2415892     -4.7250556     -0.52797275    -1.4717392     -151.53714    
     73540  -140.01189      158.5          158.5          158.5          1.0149596     -2.9591666      2.4768332      3.5272122     -140.01189    
     73560  -146.23892      158.5          158.5          158.5          2.9901415      1.1536686      2.3207144      5.4960415     -146.23892    
     73580  -140.17437      158.5          158.5          158.5         -4.0343735     -0.37911025    -8.3735365     -3.3504738     -140.17437    
     73600  -129.18906      158.5          158.5          158.5          6.4799791      5.1728794      8.9184284      5.3486294     -129.18906    
     73620  -134.29544      158.5          158.5          158.5         -4.7487283     -6.7083823     -2.8370219     -4.7007807     -134.29544    
     73640  -143.20979      158.5          158.5          158.5         -1.850953      -3.9823277     -0.42224844    -1.1482828     -143.20979    
     73660  -126.58242      158.5          158.5          158.5          1.4754753     -0.083576023    4.2018608      0.30814129    -126.58242    
     73680  -123.56707      158.5          158.5          158.5         -4.4881294     -3.500972      -5.2526997     -4.7107165     -123.56707    
     73700  -130.48528      158.5          158.5          158.5          4.8030481      6.8427608      3.5815822      3.9848013     -130.48528    
     73720  -141.92895      158.5          158.5          158.5         -1.6748857      1.3277473     -3.4963585     -2.8560457     -141.92895    
     73740  -123.89961      158.5          158.5          158.5         -4.8209857     -5.385883      -3.1271025     -5.9499715     -123.89961    
     73760  -161.06443      158.5          158.5          158.5          6.4002208      6.4858829      6.6199424      6.0948371     -161.06443    
     73780  -151.77787      158.5          158.5          158.5          2.5879212      1.2359226      5.1611844      1.3666564     -151.77787    
     73800  -137.35945      158.5          158.5          158.5         -0.88072489    -3.4515633      3.1182129     -2.3088243     -137.35945    
     73820  -136.30613      158.5          158.5          158.5          1.9577154      2.1039527      0.1457741      3.6234193     -136.30613    
     73840  -148.469        158.5          158.5          158.5          1.6749349      2.7395823     -1.5609012      3.8461237     -148.469      
     73860  -150.45786      158.5          158.5          158.5          3.748709       5.2689072      5.497897       0.47932282    -150.45786    
     73880  -136.48639      158.5          158.5          158.5         -1.2182259      0.63086532     2.5096703     -6.7952132     -136.48639    
     73900  -152.06421      158.5          158.5          158.5         -1.7196847     -0.79807907    -4.6631812      0.30220621    -152.06421    
     73920  -125.62726      158.5          158.5          158.5          0.73519647     0.94990915    -3.4492726      4.7049529     -125.62726    
     73940  -164.00024      158.5          158.5          158.5         -2.4651726     -2.8511659      0.62492685    -5.1692786     -164.00024    
     73960  -153.12451      158.5          158.5          158.5          3.5719032      1.1125791      7.8818566      1.721274      -153.12451    
     73980  -161.16235      158.5          158.5          158.5         -1.4602877      0.64600274    -5.3833607      0.35649479    -161.16235    
     74000  -145.37725      158.5          158.5          158.5         -0.8699604     -1.6715976      0.57278132    -1.511065      -145.37725    
     74020  -164.87454      158.5          158.5          158.5          1.5379014     -3.1164648      7.1071627      0.62300619    -164.87454    
     74040  -134.63098      158.5          158.5          158.5         -3.6467496     -7.901733      -0.55670987    -2.481806      -134.63098    
     74060  -166.5492       158.5          158.5          158.5          3.4212914      0.6377646      3.4195497      6.2065599     -166.5492     
     74080  -173.44528      158.5          158.5          158.5          1.1041544      2.5693754     -0.2569541      1.0000419     -173.44528    
     74100  -154.13534      158.5          158.5          158.5          0.03831168     1.9826918      1.8596275     -3.7273843     -154.13534    
     74120  -159.20034      158.5          158.5          158.5          0.53134887    -0.51675878     1.4853753      0.62543012    -159.20034    
     74140  -167.73002      158.5          158.5          158.5         -2.6335053     -3.5116633     -3.1319082     -1.2569445     -167.73002    
     74160  -156.27653      158.5          158.5          158.5          3.8326644      7.9046481      0.19361527     3.3997298     -156.27653    
     74180  -150.32683      158.5          158.5          158.5         -2.1736854     -2.2447197     -4.5735869      0.29725041    -150.32683    
     74200  -162.02961      158.5          158.5          158.5         -1.654134      -1.4276992     -0.94255494    -2.5921478     -162.02961    
     74220  -158.85903      158.5          158.5          158.5         -0.33332053     1.1191589     -0.53660868    -1.5825118     -158.85903    
     74240  -165.64798      158.5          158.5          158.5         -1.0431191      1.0765909     -2.0364613     -2.1694869     -165.64798    
     74260  -164.01233      158.5          158.5          158.5          3.3495077      4.753982       0.81863801     4.4759032     -164.01233    
     74280  -162.58843      158.5          158.5          158.5         -0.90661187    -1.4074391     -1.8640214      0.55162497    -162.58843    
     74300  -165.10681      158.5          158.5          158.5          0.50224535     2.4148736      0.83447977    -1.7426173     -165.10681    
     74320  -156.66345      158.5          158.5          158.5          4.2529266      8.0219256      0.71553429     4.0213199     -156.66345    
     74340  -164.33402      158.5          158.5          158.5          0.44890642     1.6133462      2.3274332     -2.5940602     -164.33402    
     74360  -147.97677      158.5          158.5          158.5         -0.95397938     0.96979016    -1.8473802     -1.9843481     -147.97677    
     74380  -162.69568      158.5          158.5          158.5         -0.20118106     4.4099841     -3.0952231     -1.9183042     -162.69568    
     74400  -141.80587      158.5          158.5          158.5         -1.3256203      0.7475949     -2.7635648     -1.9608911     -141.80587    
     74420  -140.10069      158.5          158.5          158.5         -0.32365298    -0.67144407     0.32306288    -0.62257776    -140.10069    
     74440  -149.09875      158.5          158.5          158.5          0.83061636     0.85704497    -2.6576237      4.2924278     -149.09875    
     74460  -136.69845      158.5          158.5          158.5          0.21610678    -1.11578       -0.23442677     1.998527      -136.69845    
     74480  -155.74284      158.5          158.5          158.5         -0.27778433     3.6183522     -0.76801512    -3.6836901     -155.74284    
     74500  -144.23192      158.5          158.5          158.5          1.6041026      2.8273363     -3.6722036      5.657175      -144.23192    
     74520  -130.18524      158.5          158.5          158.5         -0.64352627    -6.005147       0.13200092     3.9425673     -130.18524    
     74540  -150.11481      158.5          158.5          158.5          1.6353525     -2.7308536      3.4624072      4.1745038     -150.11481    
     74560  -159.16882      158.5          158.5          158.5         -0.12968705     2.786722      -1.8144286     -1.3613545     -159.16882    
     74580  -131.60321      158.5          158.5          158.5         -4.6901262     -3.285957      -4.8554749     -5.9289469     -131.60321    
     74600  -141.56739      158.5          158.5          158.5         -3.5333354     -5.4047751     -4.9246504     -0.2705806     -141.56739    
     74620  -156.49432      158.5          158.5          158.5         -2.5759094     -0.25521744    -5.3280526     -2.1444582     -156.49432    
     74640  -140.81792      158.5          158.5          158.5          1.2421001      5.7493773     -2.5175027      0.49442586    -140.81792    
     74660  -148.91208      158.5          158.5          158.5          0.88850548     1.4504505      1.6021645     -0.38709851    -148.91208    
     74680  -152.01641      158.5          158.5          158.5         -0.84091508    -5.0182787      3.3670042     -0.87147079    -152.01641    
     74700  -148.07255      158.5          158.5          158.5         -1.5809366      0.85343762    -5.4322218     -0.16402556    -148.07255    
     74720  -153.39465      158.5          158.5          158.5          0.039006269    1.9418229     -2.2288292      0.40402502    -153.39465    
     74740  -168.31229      158.5          158.5          158.5         -1.000147      -3.682297       0.40580286     0.27605313    -168.31229    
     74760  -158.36728      158.5          158.5          158.5          2.9309328      5.2061936      0.94918044     2.6374244     -158.36728    
     74780  -173.6171       158.5          158.5          158.5          1.4313102      2.4748563     -1.0887914      2.9078655     -173.6171     
     74800  -173.29806      158.5          158.5          158.5         -4.0612013     -5.9510177     -4.9586912     -1.2738948     -173.29806    
     74820  -181.71885      158.5          158.5          158.5          0.86397379    -1.7732922      2.4060732      1.9591405     -181.71885    
     74840  -162.24596      158.5          158.5          158.5         -3.7932438     -6.601015      -0.66359806    -4.1151185     -162.24596    
     74860  -180.6212       158.5          158.5          158.5          4.7732752      4.8122231      4.6441399      4.8634625     -180.6212     
     74880  -176.29339      158.5          158.5          158.5          3.2743894      3.002745       3.1945463      3.6258769     -176.29339    
     74900  -176.57685      158.5          158.5          158.5         -5.8709175     -6.3549057     -3.2608768     -7.9969699     -176.57685    
     74920  -161.83464      158.5          158.5          158.5          9.512054       7.932207       13.266207      7.3377478     -161.83464    
     74940  -167.80963      158.5          158.5          158.5         -5.5712434     -5.1200171     -7.8434835     -3.7502297     -167.80963    
     74960  -161.03617      158.5          158.5          158.5          3.4874593      4.9495531      2.3628898      3.1499352     -161.03617    
     74980  -163.19714      158.5          158.5          158.5          1.769844       2.9062246      4.0918548     -1.6885473     -163.19714    
     75000  -143.56342      158.5          158.5          158.5         -7.2786392     -4.717039      -7.1898369     -9.9290416     -143.56342    
     75020  -170.77598      158.5          158.5          158.5          7.0960289      5.3506995      6.7974437      9.1399433     -170.77598    
     75040  -166.42572      158.5          158.5          158.5         -3.211567      -3.2947248     -2.7556055     -3.5843709     -166.42572    
     75060  -161.30558      158.5          158.5          158.5          0.83926404     2.9290718      2.0584052     -2.4696849     -161.30558    
     75080  -159.11013      158.5          158.5          158.5          2.91521        1.6506958      2.8965148      4.1984194     -159.11013    
     75100  -153.3225       158.5          158.5          158.5         -3.0672942     -2.1750988     -1.4355632     -5.5912205     -153.3225     
     75120  -157.32373      158.5          158.5          158.5          3.3864592      5.1476071      6.0361116     -1.024341      -157.32373    
     75140  -153.28312      158.5          158.5          158.5         -0.15022476     1.6762155      1.1374463     -3.2643361     -153.28312    
     75160  -141.53944      158.5          158.5          158.5         -3.2886873     -1.1662761     -4.2813592     -4.4184265     -141.53944    
     75180  -145.06025      158.5          158.5          158.5          0.2951066     -1.7151794      4.2428366     -1.6423374     -145.06025    
     75200  -147.02695      158.5          158.5          158.5         -2.2324031     -0.89507119    -0.49849023    -5.3036477     -147.02695    
     75220  -146.06466      158.5          158.5          158.5          2.8650146      3.9984693      4.0057651      0.59080944    -146.06466    
     75240  -162.99941      158.5          158.5          158.5          2.1290445     -0.64261389     4.6278157      2.4019317     -162.99941    
     75260  -151.8272       158.5          158.5          158.5          2.4776133     -1.6907209      3.8230982      5.3004625     -151.8272     
     75280  -132.22254      158.5          158.5          158.5          0.50497159    -1.1534699      1.0843332      1.5840515     -132.22254    
     75300  -158.29498      158.5          158.5          158.5          0.082027088    1.6545563      2.4119792     -3.8204542     -158.29498    
     75320  -139.46394      158.5          158.5          158.5          2.1242369      1.4571199      4.3268312      0.58875963    -139.46394    
     75340  -141.09905      158.5          158.5          158.5          1.4043956      0.76537142    -2.1922341      5.6400496     -141.09905    
     75360  -130.769        158.5          158.5          158.5         -4.445467      -1.4983093     -4.1862219     -7.6518697     -130.769      
     75380  -154.19505      158.5          158.5          158.5         -0.97406805    -6.3054169      4.0245399     -0.6413272     -154.19505    
     75400  -130.77664      158.5          158.5          158.5         -0.066588999   -0.66381501    -3.1313681      3.5954161     -130.77664    
     75420  -142.17695      158.5          158.5          158.5         -3.0382366      4.6416498     -8.6546447     -5.1017149     -142.17695    
     75440  -145.50694      158.5          158.5          158.5          5.9466861      6.2372637      6.2973779      5.3054168     -145.50694    
     75460  -152.91979      158.5          158.5          158.5         -6.0835036     -10.468709     -3.0763515     -4.7054507     -152.91979    
     75480  -143.1698       158.5          158.5          158.5          2.2451811      7.0518558     -0.54224872     0.2259361     -143.1698     
     75500  -151.24509      158.5          158.5          158.5          0.21969998     8.6312933     -6.8956258     -1.0765676     -151.24509    
     75520  -146.88247      158.5          158.5          158.5         -5.0278042     -7.6566533     -6.3235504     -1.103209      -146.88247    
     75540  -159.55729      158.5          158.5          158.5          0.34306012    -1.2797341      2.0137674      0.295147      -159.55729    
     75560  -157.86532      158.5          158.5          158.5         -5.3863597     -1.5724362     -7.8996695     -6.6869733     -157.86532    
     75580  -160.54074      158.5          158.5          158.5          1.4290995      1.6950971      0.56139321     2.0308082     -160.54074    
     75600  -158.35089      158.5          158.5          158.5          0.45375207     0.60564526     2.3231308     -1.5675199     -158.35089    
     75620  -158.82835      158.5          158.5          158.5         -2.7948213     -1.7326826     -5.0272333     -1.6245478     -158.82835    
     75640  -164.22387      158.5          158.5          158.5          4.3083031      1.6242724      1.9594356      9.3412013     -164.22387    
     75660  -166.93025      158.5          158.5          158.5         -1.7729049     -1.4385356     -4.4121604      0.53198135    -166.93025    
     75680  -169.30646      158.5          158.5          158.5          4.4016064      3.0019108      8.2521928      1.9507156     -169.30646    
     75700  -142.0218       158.5          158.5          158.5          0.6572438     -2.567922       2.539709       1.9999444     -142.0218     
     75720  -170.57035      158.5          158.5          158.5         -1.4685983     -3.963241      -2.3577493      1.9151953     -170.57035    
     75740  -150.36303      158.5          158.5          158.5          2.3589018      3.0804265      1.9401357      2.0561431     -150.36303    
     75760  -161.98715      158.5          158.5          158.5         -1.5802632      1.0230936      0.16112689    -5.9250102     -161.98715    
     75780  -141.79334      158.5          158.5          158.5         -1.5227693     -5.6468062      3.182533      -2.1040347     -141.79334    
     75800  -127.84949      158.5          158.5          158.5          5.1493733      5.0632046      3.1509029      7.2340125     -127.84949    
     75820  -146.34005      158.5          158.5          158.5         -1.1883969      1.4615287     -5.6125845      0.58586528    -146.34005    
     75840  -143.85704      158.5          158.5          158.5          2.4410953     -0.11833566     5.3702639      2.0713577     -143.85704    
     75860  -134.84841      158.5          158.5          158.5          2.062346      -4.506554       3.4210731      7.272519      -134.84841    
     75880  -136.22553      158.5          158.5          158.5         -3.3428063     -5.3510655     -5.9547948      1.2774415     -136.22553    
     75900  -115.01915      158.5          158.5          158.5          3.9750006      8.6344335      1.2199461      2.0706223     -115.01915    
     75920  -147.61001      158.5          158.5          158.5         -2.6366298      1.7890192     -2.4762542     -7.2226544     -147.61001    
     75940  -131.51997      158.5          158.5          158.5         -2.6752151     -3.7627435     -4.8677619      0.60486016    -131.51997    
     75960  -126.43344      158.5          158.5          158.5          2.5490605      3.4099913      1.4657567      2.7714336     -126.43344    
     75980  -121.83381      158.5          158.5          158.5         -5.1591509     -1.4858669     -6.9893933     -7.0021925     -121.83381    
     76000  -151.7813       158.5          158.5          158.5          0.84035828     3.1619423      0.91895992    -1.5598274     -151.7813     
     76020  -127.31678      158.5          158.5          158.5         -1.9279149     -4.5221794      0.36315849    -1.6247239     -127.31678    
     76040  -160.74542      158.5          158.5          158.5         -1.6806059     -2.6293159     -2.2425509     -0.16995084    -160.74542    
     76060  -137.04862      158.5          158.5          158.5          3.2755035      7.1305476      1.6758399      1.0201232     -137.04862    
     76080  -143.40779      158.5          158.5          158.5          0.048113954    1.3294911      0.64034893    -1.8254982     -143.40779    
     76100  -162.73524      158.5          158.5          158.5          1.0828133      2.1181385      5.4932433     -4.3629419     -162.73524    
     76120  -155.8434       158.5          158.5          158.5          0.34723348     0.54766055    -2.5488006      3.0428405     -155.8434     
     76140  -155.38535      158.5          158.5          158.5         -3.136668      -1.8225218     -9.4126876      1.8252053     -155.38535    
     76160  -158.19518      158.5          158.5          158.5         -1.5028868      0.36400419    -2.4015344     -2.4711301     -158.19518    
     76180  -170.99127      158.5          158.5          158.5         -1.6617572     -3.6754884     -1.2176516     -0.092131482   -170.99127    
     76200  -149.2402       158.5          158.5          158.5          1.85385       -0.27679417    -3.0372897      8.8756339     -149.2402     
     76220  -163.90811      158.5          158.5          158.5          0.25000679    -2.239576      -3.7088117      6.6984081     -163.90811    
     76240  -150.37077      158.5          158.5          158.5          1.8657539     -1.6854762      5.2781983      2.0045396     -150.37077    
     76260  -149.55088      158.5          158.5          158.5         -2.5812794     -3.2849019     -2.1443295     -2.3146068     -149.55088    
     76280  -171.19141      158.5          158.5          158.5          3.5004612      4.120256       1.4002466      4.9808811     -171.19141    
     76300  -165.57203      158.5          158.5          158.5          0.87974445     0.63156186     1.5246802      0.48299129    -165.57203    
     76320  -162.77207      158.5          158.5          158.5          2.4456829      1.786257       2.662352       2.8884396     -162.77207    
     76340  -163.04654      158.5          158.5          158.5          4.6305358      4.041582       4.8285717      5.0214536     -163.04654    
     76360  -148.52234      158.5          158.5          158.5         -6.5353522     -4.1016204     -6.9355867     -8.5688494     -148.52234    
     76380  -154.66388      158.5          158.5          158.5          4.2778883      6.4597386      3.1275096      3.2464167     -154.66388    
     76400  -156.04626      158.5          158.5          158.5         -1.521923      -3.6121965      1.5281455     -2.4817179     -156.04626    
     76420  -160.34217      158.5          158.5          158.5          1.2741581     -0.0086140489   0.81304906     3.0180392     -160.34217    
     76440  -159.66342      158.5          158.5          158.5          6.4656293      2.2021324      8.1140947      9.0806608     -159.66342    
     76460  -143.77418      158.5          158.5          158.5         -3.8497553     -2.8444988     -1.7603545     -6.9444126     -143.77418    
     76480  -142.12852      158.5          158.5          158.5          2.2288556      6.3032768      1.7043881     -1.3210981     -142.12852    
     76500  -150.61532      158.5          158.5          158.5         -2.0194227     -0.96116411    -2.2734979     -2.823606      -150.61532    
     76520  -143.68242      158.5          158.5          158.5          0.7497466     -0.6184279      4.8990309     -2.0313632     -143.68242    
     76540  -157.36057      158.5          158.5          158.5         -1.0016757     -1.3632484      0.3568009     -1.9985797     -157.36057    
     76560  -144.00946      158.5          158.5          158.5         -3.1297141      1.0500988     -9.2076282     -1.231613      -144.00946    
     76580  -143.95754      158.5          158.5          158.5          2.6602085      2.7937806      1.5708274      3.6160175     -143.95754    
     76600  -127.91695      158.5          158.5          158.5          0.78749959    -0.26216397     2.3629035      0.26175926    -127.91695    
     76620  -131.33942      158.5          158.5          158.5         -1.9888935     -1.8753568     -1.3107218     -2.7806018     -131.33942    
     76640  -129.93454      158.5          158.5          158.5          3.4797836      1.5920907     -0.86490358     9.7121638     -129.93454    
     76660  -134.84909      158.5          158.5          158.5         -0.17018624    -2.7217245     -3.3925647      5.6037305     -134.84909    
     76680  -132.30697      158.5          158.5          158.5          0.911297      -1.2140985      4.0042911     -0.056301601   -132.30697    
     76700  -118.62363      158.5          158.5          158.5         -2.6317847     -2.7383731     -4.6727815     -0.48419956    -118.62363    
     76720  -115.73012      158.5          158.5          158.5         -3.5094045      0.31143608    -8.2798512     -2.5597983     -115.73012    
     76740  -127.9022       158.5          158.5          158.5         -2.2397435     -6.27393       -1.0462869      0.60098651    -127.9022     
     76760  -131.44654      158.5          158.5          158.5          1.5272946     -0.74420771     2.2630976      3.062994      -131.44654    
     76780  -133.57518      158.5          158.5          158.5         -3.0500959      2.4286647     -5.450468      -6.1284843     -133.57518    
     76800  -160.73647      158.5          158.5          158.5          2.1053783      4.5742867      5.4012789     -3.6594307     -160.73647    
     76820  -147.52287      158.5          158.5          158.5          1.81983       -4.3293331      6.0625468      3.7262762     -147.52287    
     76840  -149.64736      158.5          158.5          158.5          1.9737223      1.0637299      5.3060258     -0.44858891    -149.64736    
     76860  -147.59258      158.5          158.5          158.5          6.2626751      9.3984595      8.8233722      0.56619359    -147.59258    
     76880  -160.91057      158.5          158.5          158.5         -5.5082588     -2.7199478     -5.3602063     -8.4446224     -160.91057    
     76900  -157.15854      158.5          158.5          158.5          2.9195786      1.325601       5.4099491      2.0231857     -157.15854    
     76920  -157.05956      158.5          158.5          158.5         -4.5971523     -1.6625786     -5.1662534     -6.9626249     -157.05956    
     76940  -140.5957       158.5          158.5          158.5         -0.27470792     4.5421253      0.29679022    -5.6630393     -140.5957     
     76960  -165.55922      158.5          158.5          158.5         -0.26222941    -2.4626716      3.612092      -1.9361086     -165.55922    
     76980  -151.87396      158.5          158.5          158.5         -2.9303759     -3.2253838     -4.5925082     -0.97323559    -151.87396    
     77000  -158.70293      158.5          158.5          158.5          0.93798873     2.8715632      0.51338908    -0.57098612    -158.70293    
     77020  -154.03747      158.5          158.5          158.5          0.22056447     0.44930712     3.4451666     -3.2327803     -154.03747    
     77040  -149.24048      158.5          158.5          158.5          2.8007974      2.99783        5.5752498     -0.17068755    -149.24048    
     77060  -153.02479      158.5          158.5          158.5         -0.28217782    -2.3054393     -1.9796362      3.4385421     -153.02479    
     77080  -138.31966      158.5          158.5          158.5          0.46800371    -1.3140983     -0.43256774     3.1506772     -138.31966    
     77100  -142.20628      158.5          158.5          158.5         -0.084779381    2.1371014      0.24284783    -2.6342873     -142.20628    
     77120  -151.44843      158.5          158.5          158.5         -0.24432538    -1.3427391      0.060122823    0.5496402     -151.44843    
     77140  -143.00324      158.5          158.5          158.5         -3.6739649     -3.3895527     -3.9025973     -3.7297448     -143.00324    
     77160  -138.54125      158.5          158.5          158.5         -1.6346055      0.19016944    -1.4469597     -3.6470264     -138.54125    
     77180  -141.81032      158.5          158.5          158.5         -0.88443176    -0.10635126     0.39472434    -2.9416684     -141.81032    
     77200  -132.43596      158.5          158.5          158.5          1.4370933     -1.3254714      3.9125078      1.7242434     -132.43596    
     77220  -128.55398      158.5          158.5          158.5          3.6524547      1.1886066      4.8556369      4.9131207     -128.55398    
     77240  -141.95025      158.5          158.5          158.5         -4.9997305     -2.5529462     -4.9644113     -7.4818339     -141.95025    
     77260  -125.18128      158.5          158.5          158.5          3.2153617      2.8636568      3.012571       3.7698573     -125.18128    
     77280  -150.37176      158.5          158.5          158.5         -2.0144804     -4.7756069     -0.92726499    -0.34056931    -150.37176    
     77300  -130.71831      158.5          158.5          158.5          0.58591745     0.23988078     1.4879423      0.029929323   -130.71831    
     77320  -144.78081      158.5          158.5          158.5          5.8341184      5.9282559      8.6152459      2.9588535     -144.78081    
     77340  -139.19032      158.5          158.5          158.5         -7.4716607     -5.5292379     -8.7335267     -8.1522174     -139.19032    
     77360  -137.29128      158.5          158.5          158.5          3.0492442      4.4983765      3.1408951      1.5084608     -137.29128    
     77380  -151.89873      158.5          158.5          158.5         -1.6587084     -0.32905744     0.35099363    -4.9980614     -151.89873    
     77400  -136.52193      158.5          158.5          158.5         -1.2103773     -1.0544067     -1.170355      -1.4063702     -136.52193    
     77420  -138.12907      158.5          158.5          158.5         -0.43014217     2.2350296      0.75531889    -4.280775      -138.12907    
     77440  -153.37618      158.5          158.5          158.5         -0.88216899    -4.3421716      3.0262672     -1.3306025     -153.37618    
     77460  -157.99652      158.5          158.5          158.5         -0.32654136     1.4124303     -4.3151684      1.923114      -157.99652    
     77480  -157.19051      158.5          158.5          158.5          3.7703598      4.8486981      3.6239953      2.8383861     -157.19051    
     77500  -142.89429      158.5          158.5          158.5          0.43041666    -4.8288781      3.1632227      2.9569053     -142.89429    
     77520  -159.48814      158.5          158.5          158.5         -1.8378146     -1.2499855     -6.3447719      2.0813136     -159.48814    
     77540  -163.09544      158.5          158.5          158.5          1.1338872      3.7675447      0.10764801    -0.47353097    -163.09544    
     77560  -136.06051      158.5          158.5          158.5         -3.0480023     -7.0545109     -0.64071031    -1.4487858     -136.06051    
     77580  -153.45445      158.5          158.5          158.5          1.3055141      0.0053534894  -2.9988511      6.9100399     -153.45445    
     77600  -145.81033      158.5          158.5          158.5          2.3923525      5.6944425     -2.3672332      3.8498482     -145.81033    
     77620  -143.61628      158.5          158.5          158.5          0.76871935    -0.97275939     2.2956126      0.98330481    -143.61628    
     77640  -145.80556      158.5          158.5          158.5          3.3341543      2.6309691      3.7121707      3.6593229     -145.80556    
     77660  -156.95648      158.5          158.5          158.5         -1.3577735     -1.1210535     -3.880417       0.92814988    -156.95648    
     77680  -127.136        158.5          158.5          158.5          0.96425234    -1.129064      -0.37771437     4.3995354     -127.136      
     77700  -143.21282      158.5          158.5          158.5         -1.389162      -0.98956313    -1.1437607     -2.034162      -143.21282    
     77720  -128.73525      158.5          158.5          158.5         -0.045284743    2.5567         0.056059897   -2.7486142     -128.73525    
     77740  -158.70546      158.5          158.5          158.5         -0.3910435     -1.7373394     -0.51168553     1.0758945     -158.70546    
     77760  -139.08358      158.5          158.5          158.5         -0.70057459    -3.1471344     -4.2969916      5.3424022     -139.08358    
     77780  -142.2972       158.5          158.5          158.5          0.43308625     1.4877883     -1.7887787      1.6002492     -142.2972     
     77800  -131.53294      158.5          158.5          158.5         -0.86974009     1.1648724     -3.2777664     -0.49632626    -131.53294    
     77820  -136.86377      158.5          158.5          158.5         -2.6613334     -4.8821523     -2.7655086     -0.33633925    -136.86377    
     77840  -141.37328      158.5          158.5          158.5          0.044050866    3.4709168     -1.9877539     -1.3510103     -141.37328    
     77860  -150.54327      158.5          158.5          158.5          0.053356455    3.4288651     -1.5748887     -1.6939071     -150.54327    
     77880  -138.82424      158.5          158.5          158.5         -2.3431845     -2.1926877     -0.63273325    -4.2041326     -138.82424    
     77900  -152.17835      158.5          158.5          158.5          1.3313328      4.3343979      0.18712416    -0.52752356    -152.17835    
     77920  -158.1421       158.5          158.5          158.5         -1.7539077     -2.0871978     -4.4574886      1.2829634     -158.1421     
     77940  -149.84167      158.5          158.5          158.5         -0.84971065    -3.319944       0.36797262     0.40283941    -149.84167    
     77960  -147.17637      158.5          158.5          158.5         -1.6165446      3.9315811     -0.28277658    -8.4984384     -147.17637    
     77980  -142.53842      158.5          158.5          158.5         -0.602772      -0.40652668    -1.7910445      0.38925517    -142.53842    
     78000  -152.45026      158.5          158.5          158.5          1.7879648     -0.65079848     1.3813857      4.6333072     -152.45026    
     78020  -139.27578      158.5          158.5          158.5         -2.578318      -1.3273023     -1.8191726     -4.5884791     -139.27578    
     78040  -151.82345      158.5          158.5          158.5          2.5123502      3.9899723      0.88878333     2.6582949     -151.82345    
     78060  -141.26758      158.5          158.5          158.5         -0.34842841    -1.9272234     -0.68039186     1.5623301     -141.26758    
     78080  -155.99961      158.5          158.5          158.5         -0.33547423     0.44538417    -1.3309604     -0.1208465     -155.99961    
     78100  -153.96807      158.5          158.5          158.5         -0.080198905   -2.5557518      2.4199537     -0.10479864    -153.96807    
     78120  -148.76199      158.5          158.5          158.5          4.1954801      3.0773514      2.5405091      6.9685799     -148.76199    
     78140  -151.80112      158.5          158.5          158.5          0.4724697     -1.2894251      0.81008122     1.896753      -151.80112    
     78160  -139.12983      158.5          158.5          158.5          1.0738337     -1.3315375      4.8077333     -0.25469481    -139.12983    
     78180  -155.64373      158.5          158.5          158.5         -1.1861329     -2.0289052     -0.01204013    -1.5174534     -155.64373    
     78200  -154.11128      158.5          158.5          158.5         -0.91022148    -2.3629873     -0.39550895     0.027831819   -154.11128    
     78220  -152.41142      158.5          158.5          158.5          3.4369072      3.3079891      2.8497351      4.1529973     -152.41142    
     78240  -146.45609      158.5          158.5          158.5          0.07881908     2.0891171     -1.1825448     -0.67011504    -146.45609    
     78260  -155.04412      158.5          158.5          158.5          1.450494       2.0396414     -0.21367715     2.5255177     -155.04412    
     78280  -167.55597      158.5          158.5          158.5         -0.69388279     1.8047854     -6.9163335      3.0298997     -167.55597    
     78300  -135.74869      158.5          158.5          158.5         -4.8312755     -5.3733503     -3.3308102     -5.7896662     -135.74869    
     78320  -149.53239      158.5          158.5          158.5          5.1073703      5.5276287      7.0993815      2.6951008     -149.53239    
     78340  -145.34331      158.5          158.5          158.5         -0.8229634      3.8209253     -5.7634794     -0.52633615    -145.34331    
     78360  -161.11602      158.5          158.5          158.5          0.93650194     2.7961019     -2.5457825      2.5591864     -161.11602    
     78380  -143.26581      158.5          158.5          158.5         -2.6620999     -5.3849618      1.1250623     -3.7264001     -143.26581    
     78400  -147.33623      158.5          158.5          158.5         -3.5436272     -5.2255129     -3.7109902     -1.6943785     -147.33623    
     78420  -160.74412      158.5          158.5          158.5          4.6740091      6.2857958      5.0916734      2.6445579     -160.74412    
     78440  -166.00601      158.5          158.5          158.5         -0.053924059   -0.95159616     0.20733487     0.58248912    -166.00601    
     78460  -170.22452      158.5          158.5          158.5          2.2784587     -0.77302361     2.3733896      5.2350101     -170.22452    
     78480  -157.68262      158.5          158.5          158.5         -1.4668532      0.031995399   -1.7499411     -2.682614      -157.68262    
     78500  -164.7008       158.5          158.5          158.5         -3.3587398     -0.17384851    -3.8857212     -6.0166498     -164.7008     
     78520  -168.07879      158.5          158.5          158.5          4.6505213      5.3771315      1.7365978      6.8378347     -168.07879    
     78540  -147.9044       158.5          158.5          158.5         -0.75890748    -1.2959108     -2.230914       1.2501024     -147.9044     
     78560  -148.2275       158.5          158.5          158.5          0.74399844     1.493463       3.7480258     -3.0094935     -148.2275     
     78580  -153.79398      158.5          158.5          158.5         -0.092298266   -1.6400668      3.9546912     -2.5915192     -153.79398    
     78600  -143.92294      158.5          158.5          158.5         -3.0624862     -4.0543041     -5.6475816      0.51442732    -143.92294    
     78620  -146.31915      158.5          158.5          158.5          4.4047233      3.7918864      5.4437177      3.9785659     -146.31915    
     78640  -157.96449      158.5          158.5          158.5         -1.8627943     -2.4229974      2.4684495     -5.633835      -157.96449    
     78660  -148.08604      158.5          158.5          158.5          0.27937524    -2.1288552      1.6274781      1.3395029     -148.08604    
     78680  -143.99881      158.5          158.5          158.5         -0.24292177     1.9367837     -0.84286138    -1.8226876     -143.99881    
     78700  -121.9359       158.5          158.5          158.5         -1.3980162      2.1292517     -3.2654517     -3.0578486     -121.9359     
     78720  -123.59398      158.5          158.5          158.5          1.4978612     -1.7071036      2.2633268      3.9373605     -123.59398    
     78740  -131.33061      158.5          158.5          158.5         -0.90286219     1.1784823     -2.3609428     -1.526126      -131.33061    
     78760  -142.76892      158.5          158.5          158.5          3.1009376      3.6970923      0.87694698     4.7287734     -142.76892    
     78780  -133.01666      158.5          158.5          158.5          0.072614337   -3.649389       0.60780342     3.2594285     -133.01666    
     78800  -134.1675       158.5          158.5          158.5          0.65252376     2.6656984     -1.2463393      0.5382122     -134.1675     
     78820  -140.08814      158.5          158.5          158.5          3.1785781      2.8882207      2.2710379      4.3764758     -140.08814    
     78840  -140.36139      158.5          158.5          158.5         -5.6975285     -4.0840938     -3.4808597     -9.527632      -140.36139    
     78860  -130.49865      158.5          158.5          158.5         -0.085091638   -0.58466072     1.2832126     -0.95382683    -130.49865    
     78880  -129.92502      158.5          158.5          158.5         -0.38313322    -0.84419844    -3.646781       3.3415798     -129.92502    
     78900  -141.1776       158.5          158.5          158.5         -3.9498288     -5.6318141     -0.036209165   -6.181463      -141.1776     
     78920  -141.0056       158.5          158.5          158.5          3.6078783      7.1201091      3.5792929      0.124233      -141.0056     
     78940  -135.86065      158.5          158.5          158.5         -0.27801185     2.2801682     -2.1551096     -0.95909421    -135.86065    
     78960  -147.29557      158.5          158.5          158.5         -1.0961233     -1.8597135      0.62369571    -2.0523521     -147.29557    
     78980  -158.77424      158.5          158.5          158.5          2.8227441     -0.1529262      7.4544128      1.1667456     -158.77424    
     79000  -156.00189      158.5          158.5          158.5         -3.3573934     -2.7246938     -4.7529647     -2.5945217     -156.00189    
     79020  -145.78756      158.5          158.5          158.5          0.2827965      3.8462179     -1.5732681     -1.4245603     -145.78756    
     79040  -151.57398      158.5          158.5          158.5          3.0918765      2.234696       5.6253808      1.4155527     -151.57398    
     79060  -153.86524      158.5          158.5          158.5          2.1739582     -1.5668173      3.6705669      4.4181251     -153.86524    
     79080  -164.74882      158.5          158.5          158.5         -0.87611612    -0.9781778      0.95186763    -2.6020382     -164.74882    
     79100  -152.14042      158.5          158.5          158.5         -0.34706987     3.0519428      2.0272638     -6.1204162     -152.14042    
     79120  -169.56254      158.5          158.5          158.5          2.4973264      3.6480533      1.9728353      1.8710907     -169.56254    
     79140  -161.66787      158.5          158.5          158.5          1.7932184      1.8334379      2.8467842      0.69943305    -161.66787    
     79160  -168.11361      158.5          158.5          158.5          1.2955997      1.1353823      3.3253092     -0.57389225    -168.11361    
     79180  -158.88977      158.5          158.5          158.5         -1.2554391      1.2672864     -1.5189393     -3.5146643     -158.88977    
     79200  -165.91411      158.5          158.5          158.5          1.3810266      4.6857788     -2.3186828      1.7759838     -165.91411    
     79220  -167.40292      158.5          158.5          158.5          1.3373515     -1.38513        1.2102305      4.186954      -167.40292    
     79240  -142.8592       158.5          158.5          158.5         -1.8698969     -3.5172809     -1.0568351     -1.0355747     -142.8592     
     79260  -155.6042       158.5          158.5          158.5          0.62842803     3.7969904     -3.5670769      1.6553705     -155.6042     
     79280  -149.20602      158.5          158.5          158.5          3.4439677      5.3817083      2.8448581      2.1053368     -149.20602    
     79300  -160.88247      158.5          158.5          158.5          0.4525126      1.0221501     -0.91610258     1.2514902     -160.88247    
     79320  -149.27885      158.5          158.5          158.5          0.39741336     0.20755606    -0.1176127      1.1022967     -149.27885    
     79340  -150.54505      158.5          158.5          158.5         -0.1565508      1.1271652     -1.2284072     -0.3684104     -150.54505    
     79360  -138.44758      158.5          158.5          158.5         -0.86897819     2.2974429     -3.8911278     -1.0132497     -138.44758    
     79380  -134.59506      158.5          158.5          158.5         -0.20466068     1.3459377      1.642366      -3.6022857     -134.59506    
     79400  -144.36715      158.5          158.5          158.5         -0.17503889     0.093304279   -1.1060505      0.48762951    -144.36715    
     79420  -127.21033      158.5          158.5          158.5         -3.6596293     -5.83019       -4.8783318     -0.2703661     -127.21033    
     79440  -147.03588      158.5          158.5          158.5         -2.815814      -3.4068807      0.44493665    -5.485498      -147.03588    
     79460  -127.94318      158.5          158.5          158.5          0.43719496     1.5565442     -0.89108318     0.64612382    -127.94318    
     79480  -131.05446      158.5          158.5          158.5         -2.9585376     -1.4995986     -3.4977919     -3.8782225     -131.05446    
     79500  -148.30464      158.5          158.5          158.5         -0.92969469    -2.266055      -0.72340045     0.20037138    -148.30464    
     79520  -152.63175      158.5          158.5          158.5          3.6855755      2.910399       3.6142486      4.532079      -152.63175    
     79540  -112.25754      158.5          158.5          158.5          0.095993953    3.8959927     -2.5478794     -1.0601314     -112.25754    
     79560  -137.76889      158.5          158.5          158.5          1.3924068      0.21595124     2.6205359      1.3407332     -137.76889    
     79580  -147.1158       158.5          158.5          158.5          0.35400713    -0.49877715    -1.7801585      3.340957      -147.1158     
     79600  -138.42011      158.5          158.5          158.5         -5.8174237     -5.0480032     -8.7680821     -3.6361857     -138.42011    
     79620  -131.56685      158.5          158.5          158.5          2.0911489      2.1776748      2.15462        1.9411519     -131.56685    
     79640  -147.93518      158.5          158.5          158.5         -4.0276066     -0.80994265    -8.2220063     -3.0508708     -147.93518    
     79660  -155.18095      158.5          158.5          158.5         -1.2380962     -2.377009      -2.1864543      0.84917454    -155.18095    
     79680  -149.0527       158.5          158.5          158.5          1.6987231     -2.6950629      1.4293463      6.361886      -149.0527     
     79700  -151.77351      158.5          158.5          158.5         -2.2235217     -4.8701217      1.4948666     -3.2953102     -151.77351    
     79720  -156.34876      158.5          158.5          158.5         -0.39390837     1.4807603      0.88078826    -3.5432737     -156.34876    
     79740  -154.57939      158.5          158.5          158.5          1.4111493     -0.35418434     1.803245       2.7843873     -154.57939    
     79760  -154.96349      158.5          158.5          158.5         -0.52331782    -4.4957192     -1.8580494      4.7838151     -154.96349    
     79780  -152.91325      158.5          158.5          158.5          1.1938795      2.4646491      0.65710401     0.45988556    -152.91325    
     79800  -170.2222       158.5          158.5          158.5         -0.44383657     1.8101198      0.92307367    -4.0647032     -170.2222     
     79820  -161.03574      158.5          158.5          158.5         -1.1750256      2.2453707     -4.4370047     -1.3334428     -161.03574    
     79840  -146.65273      158.5          158.5          158.5          1.7173867      1.5846783      2.5832921      0.98418977    -146.65273    
     79860  -161.99717      158.5          158.5          158.5         -0.28647743    -0.20490049     0.12173741    -0.77626922    -161.99717    
     79880  -160.2409       158.5          158.5          158.5         -1.4392357      1.4204383     -2.8697464     -2.8683991     -160.2409     
     79900  -144.91539      158.5          158.5          158.5          1.1638077      1.3240397      4.7323358     -2.5649524     -144.91539    
     79920  -138.02144      158.5          158.5          158.5          1.0826382      0.50838127     2.7190325      0.020500872   -138.02144    
     79940  -153.69805      158.5          158.5          158.5         -0.21355145     2.15244        0.46102471    -3.254119      -153.69805    
     79960  -138.81533      158.5          158.5          158.5         -1.190892      -2.2044599     -0.95629416    -0.41192203    -138.81533    
     79980  -128.74821      158.5          158.5          158.5          0.61401919    -0.87553765    -1.4896515      4.2072467     -128.74821    
     80000  -147.68888      158.5          158.5          158.5         -3.1193909     -4.3887453     -1.6359369     -3.3334903     -147.68888    
     80020  -136.79328      158.5          158.5          158.5          0.42849329    -1.1416917      1.1484321      1.2787395     -136.79328    
     80040  -155.311        158.5          158.5          158.5          1.5017378      2.4844523     -1.2518124      3.2725734     -155.311      
     80060  -144.13154      158.5          158.5          158.5         -0.91766466     0.60759399    -1.3437143     -2.0168737     -144.13154    
     80080  -130.76378      158.5          158.5          158.5          1.7771952      2.2729854      2.3706195      0.68798066    -130.76378    
     80100  -136.52617      158.5          158.5          158.5         -2.9109406     -3.060624      -2.6323393     -3.0398584     -136.52617    
     80120  -134.50202      158.5          158.5          158.5          0.47265702     0.094338859    0.79410406     0.52952815    -134.50202    
     80140  -147.59282      158.5          158.5          158.5          3.8067422      4.6085217      4.0248551      2.7868499     -147.59282    
     80160  -144.2685       158.5          158.5          158.5          1.4211218      2.5110613      2.5932301     -0.84092602    -144.2685     
     80180  -141.15689      158.5          158.5          158.5          3.7005262      3.1019582      6.1514372      1.8481834     -141.15689    
     80200  -146.19766      158.5          158.5          158.5         -2.8205029     -3.6018033     -0.35948722    -4.5002183     -146.19766    
     80220  -140.7333       158.5          158.5          158.5         -1.3420644      0.54731881    -2.1686432     -2.4048688     -140.7333     
     80240  -135.77547      158.5          158.5          158.5          2.494831       6.2468909     -0.012051144    1.2496532     -135.77547    
     80260  -129.01991      158.5          158.5          158.5         -1.8695278     -2.0498543     -2.197581      -1.3611482     -129.01991    
     80280  -155.5839       158.5          158.5          158.5          3.4599232      4.1550213      4.4914329      1.7333153     -155.5839     
     80300  -149.6793       158.5          158.5          158.5          1.0518795      1.984544       2.8274283     -1.6563339     -149.6793     
     80320  -139.98235      158.5          158.5          158.5         -3.0890855     -6.9315276     -3.7910997      1.4553706     -139.98235    
     80340  -155.60334      158.5          158.5          158.5          5.6179785      8.6106951      3.1369443      5.106296      -155.60334    
     80360  -152.347        158.5          158.5          158.5         -2.4829932     -1.1421745     -1.9462013     -4.3606037     -152.347      
     80380  -145.61162      158.5          158.5          158.5          2.0381875      0.69306973     2.8037134      2.6177793     -145.61162    
     80400  -162.79955      158.5          158.5          158.5          1.9023796      3.2996075      4.0736615     -1.6661303     -162.79955    
     80420  -145.14645      158.5          158.5          158.5         -2.5531866      0.83782804    -5.1703249     -3.3270629     -145.14645    
     80440  -130.74323      158.5          158.5          158.5         -0.9464422      0.31543285    -2.4404764     -0.71428301    -130.74323    
     80460  -135.0999       158.5          158.5          158.5         -4.018412      -5.0675589      0.6576658     -7.6453428     -135.0999     
     80480  -142.79843      158.5          158.5          158.5          1.7891181     -0.6445318      5.2268109      0.78507527    -142.79843    
     80500  -146.23506      158.5          158.5          158.5         -1.4680885     -0.5407595     -4.1699259      0.30641985    -146.23506    
     80520  -140.38405      158.5          158.5          158.5         -0.68841351     2.847913       0.90068761    -5.8138411     -140.38405    
     80540  -135.67019      158.5          158.5          158.5          3.1773837      5.5443534      4.2852616     -0.29746402    -135.67019    
     80560  -134.13954      158.5          158.5          158.5          1.5110526      3.2047343     -0.89836678     2.2267903     -134.13954    
     80580  -138.31402      158.5          158.5          158.5         -1.6868478     -0.78484265    -3.3285694     -0.94713154    -138.31402    
     80600  -121.94282      158.5          158.5          158.5          1.9295325      3.6721077     -0.56334689     2.6798366     -121.94282    
     80620  -135.08471      158.5          158.5          158.5         -0.81911622    -0.46203389    -0.76745679    -1.227858      -135.08471    
     80640  -113.56424      158.5          158.5          158.5         -0.53452389    -2.3687809      0.94710749    -0.18189824    -113.56424    
     80660  -130.7065       158.5          158.5          158.5         -1.00383       -1.3905442     -3.4365096      1.8155638     -130.7065     
     80680  -119.99613      158.5          158.5          158.5         -4.4695775     -5.2371388     -2.127388      -6.0442058     -119.99613    
     80700  -135.6564       158.5          158.5          158.5          2.9750841      4.0731797      5.5212629     -0.66919022    -135.6564     
     80720  -123.55276      158.5          158.5          158.5          3.8873532      1.0010166      5.5583357      5.1027074     -123.55276    
     80740  -139.16987      158.5          158.5          158.5          3.5967498      0.35603156     5.4485509      4.985667      -139.16987    
     80760  -140.45298      158.5          158.5          158.5         -2.8112524     -2.0444155     -3.4656445     -2.9236971     -140.45298    
     80780  -145.84876      158.5          158.5          158.5         -1.5122681     -3.2430131      0.37052961    -1.6643209     -145.84876    
     80800  -147.89714      158.5          158.5          158.5          3.1397535      2.043726       1.4971281      5.8784063     -147.89714    
     80820  -146.59447      158.5          158.5          158.5         -4.0768691     -4.5507002     -3.2779249     -4.4019823     -146.59447    
     80840  -153.99243      158.5          158.5          158.5         -0.64307203    -2.3257728     -0.250125       0.64668168    -153.99243    
     80860  -146.47942      158.5          158.5          158.5         -1.5576612     -1.4639432     -3.8441396      0.63509938    -146.47942    
     80880  -166.28142      158.5          158.5          158.5          0.92755151     2.1027069      1.9514095     -1.2714618     -166.28142    
     80900  -167.67191      158.5          158.5          158.5         -2.9321879     -4.0921734      1.6486204     -6.3530105     -167.67191    
     80920  -158.05024      158.5          158.5          158.5          1.5196218     -2.2565919      1.6185902      5.1968671     -158.05024    
     80940  -170.30001      158.5          158.5          158.5         -0.13995195    -0.99741135    -0.79880151     1.376357      -170.30001    
     80960  -169.74886      158.5          158.5          158.5          1.1027303      5.7158454      1.8882695     -4.2959239     -169.74886    
     80980  -152.99412      158.5          158.5          158.5         -0.022777442    0.49579148    -1.5694184      1.0052946     -152.99412    
     81000  -161.82584      158.5          158.5          158.5         -5.040146      -5.8540628     -9.7416537      0.4752786     -161.82584    
     81020  -148.01343      158.5          158.5          158.5          3.4559921      6.661435      -0.18681323     3.8933545     -148.01343    
     81040  -151.657        158.5          158.5          158.5          0.87498594     1.1052257      1.3827663      0.13696588    -151.657      
     81060  -145.43493      158.5          158.5          158.5         -2.0117748     -4.2091665     -1.4929751     -0.33318289    -145.43493    
     81080  -155.57965      158.5          158.5          158.5          2.1485715      0.71085077    -0.00074939302  5.7356132     -155.57965    
     81100  -137.90193      158.5          158.5          158.5         -0.25535925     2.0688044     -0.72680616    -2.108076      -137.90193    
     81120  -147.63998      158.5          158.5          158.5         -0.98297573     0.62168751    -0.22982487    -3.3407898     -147.63998    
     81140  -138.95712      158.5          158.5          158.5          3.4984087     -0.64267157     3.7080807      7.4298169     -138.95712    
     81160  -127.22032      158.5          158.5          158.5         -4.1487337     -5.2404341     -3.2533593     -3.9524078     -127.22032    
     81180  -150.37071      158.5          158.5          158.5         -1.7288706     -0.21764982    -2.1467774     -2.8221847     -150.37071    
     81200  -130.79959      158.5          158.5          158.5          1.4601003     -1.0902606      1.4821513      3.9884101     -130.79959    
     81220  -129.8269       158.5          158.5          158.5          2.12629        1.2491365     -0.56337144     5.6931049     -129.8269     
     81240  -148.60864      158.5          158.5          158.5          5.1681055      3.5642089      4.5233569      7.4167508     -148.60864    
     81260  -151.92651      158.5          158.5          158.5         -1.0829201     -0.6504099     -2.1852542     -0.41309607    -151.92651    
     81280  -136.81995      158.5          158.5          158.5         -2.6990864      0.13422664    -1.2553709     -6.976115      -136.81995    
     81300  -116.33634      158.5          158.5          158.5          2.838585       0.96158103     5.7829392      1.7712347     -116.33634    
     81320  -126.95758      158.5          158.5          158.5          2.2326113     -0.084613218    1.593875       5.188572      -126.95758    
     81340  -151.57789      158.5          158.5          158.5         -3.2169919      0.060027253   -3.9746584     -5.7363445     -151.57789    
     81360  -123.5267       158.5          158.5          158.5          1.994606       5.4672764      2.2852367     -1.7686951     -123.5267     
     81380  -135.63295      158.5          158.5          158.5         -0.83445508     0.88239193    -1.3345062     -2.051251      -135.63295    
     81400  -136.7659       158.5          158.5          158.5         -0.10711304    -2.3085126     -1.1225957      3.1097692     -136.7659     
     81420  -122.35469      158.5          158.5          158.5         -3.2577221     -3.2450419     -1.1774644     -5.3506601     -122.35469    
     81440  -144.16117      158.5          158.5          158.5          0.32453112     3.8089792      0.3520606     -3.1874465     -144.16117    
     81460  -137.73207      158.5          158.5          158.5          1.9566365      0.65030591     1.2203668      3.9992369     -137.73207    
     81480  -150.11585      158.5          158.5          158.5          1.5218633      3.0980901     -2.2938226      3.7613225     -150.11585    
     81500  -142.92333      158.5          158.5          158.5          1.303886       3.2391702     -0.32489119     0.99737901    -142.92333    
     81520  -141.02308      158.5          158.5          158.5         -2.2349663     -6.2738042      2.9994585     -3.4305532     -141.02308    
     81540  -155.97451      158.5          158.5          158.5          3.1267677      3.2162337      4.5434861      1.6205834     -155.97451    
     81560  -153.95069      158.5          158.5          158.5         -0.19328587     0.86105108    -4.8534319      3.4125232     -153.95069    
     81580  -153.31587      158.5          158.5          158.5         -0.022247058   -2.9496711      0.74902704     2.1339029     -153.31587    
     81600  -146.23565      158.5          158.5          158.5          0.27469819    -1.5886443      3.2316562     -0.81891737    -146.23565    
     81620  -146.0696       158.5          158.5          158.5         -1.0586346     -4.1510229     -3.0096752      3.9847944     -146.0696     
     81640  -142.37231      158.5          158.5          158.5         -0.55326256     0.95079275     1.0642121     -3.6747926     -142.37231    
     81660  -151.36102      158.5          158.5          158.5         -0.75271478    -0.7662744     -0.43667467    -1.0551953     -151.36102    
     81680  -153.18638      158.5          158.5          158.5          3.7343365      0.20187934     2.9559862      8.0451439     -153.18638    
     81700  -146.88824      158.5          158.5          158.5          2.3693184      1.6840029      2.9042516      2.5197008     -146.88824    
     81720  -159.50827      158.5          158.5          158.5          0.26813917     0.29886708     0.87624822    -0.37069779    -159.50827    
     81740  -144.96705      158.5          158.5          158.5         -0.3032321      1.0303996     -2.3407597      0.40066379    -144.96705    
     81760  -148.20093      158.5          158.5          158.5         -2.7438118     -3.0685384     -2.7429793     -2.4199176     -148.20093    
     81780  -158.33707      158.5          158.5          158.5          2.2499275      2.3309428      3.4186217      1.000218      -158.33707    
     81800  -136.69367      158.5          158.5          158.5          2.4954687      4.1442567      3.4797123     -0.13756307    -136.69367    
     81820  -130.28124      158.5          158.5          158.5         -3.1470388     -2.29579       -2.3968799     -4.7484464     -130.28124    
     81840  -120.22998      158.5          158.5          158.5          0.088395356    0.39054514     3.3359497     -3.4613087     -120.22998    
     81860  -136.212        158.5          158.5          158.5          2.0655093      2.0450375      5.6590171     -1.5075266     -136.212      
     81880  -135.43602      158.5          158.5          158.5          0.94761347     0.38673689     0.71074271     1.7453608     -135.43602    
     81900  -133.23778      158.5          158.5          158.5          2.8640251      3.646171       0.16574129     4.7801629     -133.23778    
     81920  -133.398        158.5          158.5          158.5         -2.5192821     -4.020413      -2.1287675     -1.4086658     -133.398      
     81940  -114.12722      158.5          158.5          158.5         -1.9081751     -2.3675195     -0.54210369    -2.8149021     -114.12722    
     81960  -132.50502      158.5          158.5          158.5         -1.6666761      0.60002254    -4.6417768     -0.95827421    -132.50502    
     81980  -124.72274      158.5          158.5          158.5         -5.8280287     -5.2541131     -7.7357108     -4.4942621     -124.72274    
     82000  -117.5409       158.5          158.5          158.5          1.9225114     -0.97252445     6.8734603     -0.13340168    -117.5409     
     82020  -123.51608      158.5          158.5          158.5         -4.0296612     -5.6257241     -1.1734752     -5.2897843     -123.51608    
     82040  -126.59067      158.5          158.5          158.5         -1.3615374      3.3937407     -6.9743721     -0.50398097    -126.59067    
     82060  -136.12625      158.5          158.5          158.5          0.77008342     2.3718773     -1.8524751      1.7908481     -136.12625    
     82080  -140.65435      158.5          158.5          158.5          1.3573508      1.1923952      2.4618261      0.41783127    -140.65435    
     82100  -131.9051       158.5          158.5          158.5          1.0111166      3.7202124     -0.52586979    -0.16099275    -131.9051     
     82120  -147.53226      158.5          158.5          158.5          1.0257143     -0.083076858   -1.044874       4.2050939     -147.53226    
     82140  -146.93153      158.5          158.5          158.5          0.24090195    -2.5346981      0.70862311     2.5487808     -146.93153    
     82160  -131.99803      158.5          158.5          158.5          0.0943001     -1.612507       3.6035912     -1.708184      -131.99803    
     82180  -146.6738       158.5          158.5          158.5          1.7202597     -1.1688465      4.3565978      1.9730279     -146.6738     
     82200  -141.25693      158.5          158.5          158.5         -2.2376814      0.27308248    -2.9948419     -3.9912847     -141.25693    
     82220  -138.76999      158.5          158.5          158.5          1.2187235      0.20310784     3.4030804      0.04998238    -138.76999    
     82240  -153.74925      158.5          158.5          158.5          0.4728434     -0.95282659     1.7730387      0.59831807    -153.74925    
     82260  -153.35335      158.5          158.5          158.5          0.19104073     2.5828976     -1.3094886     -0.70028687    -153.35335    
     82280  -154.5495       158.5          158.5          158.5         -2.9970153     -2.9308185     -4.0605258     -1.9997018     -154.5495     
     82300  -153.64463      158.5          158.5          158.5          1.8538247     -0.89593126     3.2105372      3.2468682     -153.64463    
     82320  -156.925        158.5          158.5          158.5          0.00325764     0.35823207     0.95824833    -1.3067075     -156.925      
     82340  -147.13431      158.5          158.5          158.5         -0.025556665    1.5206581     -1.7404992      0.14317115    -147.13431    
     82360  -168.93908      158.5          158.5          158.5         -1.1329943     -0.24213641    -2.4967607     -0.66008577    -168.93908    
     82380  -158.43554      158.5          158.5          158.5         -0.17200215     0.67446744    -0.42799908    -0.76247481    -158.43554    
     82400  -151.74689      158.5          158.5          158.5          0.045490145    2.5818179     -2.9903278      0.54498032    -151.74689    
     82420  -145.62397      158.5          158.5          158.5          2.074277      -0.78040849     4.3898422      2.6133973     -145.62397    
     82440  -152.4496       158.5          158.5          158.5         -0.29218325    -3.3411297      1.23186        1.23272       -152.4496     
     82460  -143.79809      158.5          158.5          158.5         -1.6650783      1.7391134     -5.1419461     -1.5924022     -143.79809    
     82480  -144.47271      158.5          158.5          158.5          1.8707321      4.9403205      0.14240168     0.52947406    -144.47271    
     82500  -144.15267      158.5          158.5          158.5         -2.8814267     -3.587548      -2.5135288     -2.5432034     -144.15267    
     82520  -141.90305      158.5          158.5          158.5         -1.6414582      0.19047399    -1.3012806     -3.813568      -141.90305    
     82540  -131.3134       158.5          158.5          158.5          0.38639145     1.926042       0.52771507    -1.2945827     -131.3134     
     82560  -139.44611      158.5          158.5          158.5          1.830393       1.2710616      1.2473373      2.9727799     -139.44611    
     82580  -148.11507      158.5          158.5          158.5          2.5973405     -1.8214937      4.5941603      5.019355      -148.11507    
     82600  -135.20973      158.5          158.5          158.5          1.2295874      2.358193       1.7301957     -0.39962657    -135.20973    
     82620  -120.83826      158.5          158.5          158.5          1.564407       4.3539544      0.83280572    -0.49353902    -120.83826    
     82640  -132.49885      158.5          158.5          158.5          0.037318011    0.70850178     0.53027542    -1.1268232     -132.49885    
     82660  -130.25177      158.5          158.5          158.5         -0.54240464    -2.0304811      2.7098853     -2.3066182     -130.25177    
     82680  -123.59207      158.5          158.5          158.5         -3.6277884     -5.7672814     -0.87879057    -4.2372931     -123.59207    
     82700  -118.86743      158.5          158.5          158.5         -0.30414646     0.28273084     1.1986004     -2.3937706     -118.86743    
     82720  -121.75217      158.5          158.5          158.5          3.636442       5.1397389      4.8858729      0.88371429    -121.75217    
     82740  -124.50115      158.5          158.5          158.5         -4.7399657     -3.9762604     -1.4177394     -8.8258974     -124.50115    
     82760  -121.82126      158.5          158.5          158.5          1.1575541     -0.63883682     0.90099553     3.2105037     -121.82126    
     82780  -127.75084      158.5          158.5          158.5          0.64718441     0.60695049    -0.29140192     1.6260046     -127.75084    
     82800  -121.3634       158.5          158.5          158.5          0.13805272     0.19779982    -3.3035326      3.5198909     -121.3634     
     82820  -114.26567      158.5          158.5          158.5          2.0000522      3.516445      -0.15245225     2.6361639     -114.26567    
     82840  -134.88373      158.5          158.5          158.5         -0.43688631     2.7965416     -2.3164101     -1.7907904     -134.88373    
     82860  -132.19299      158.5          158.5          158.5          4.2603338      5.076239       1.9816836      5.7230786     -132.19299    
     82880  -123.71858      158.5          158.5          158.5         -2.2523106     -5.623027      -2.9971987      1.8632939     -123.71858    
     82900  -140.51593      158.5          158.5          158.5         -1.0233448     -2.994511      -1.669547       1.5940236     -140.51593    
     82920  -141.82985      158.5          158.5          158.5          2.5605894      4.3331288      1.858583       1.4900564     -141.82985    
     82940  -143.42077      158.5          158.5          158.5         -3.7673681     -3.8699503     -3.7807522     -3.6514017     -143.42077    
     82960  -137.64472      158.5          158.5          158.5          2.2682241      2.2001229      4.4135818      0.1909676     -137.64472    
     82980  -145.20229      158.5          158.5          158.5         -1.3310347     -2.5880076     -0.15966338    -1.245433      -145.20229    
     83000  -134.84832      158.5          158.5          158.5          0.51872886     2.9668569     -2.7096868      1.2990165     -134.84832    
     83020  -147.33835      158.5          158.5          158.5          4.6175926      4.6632277      6.3461367      2.8434135     -147.33835    
     83040  -146.75679      158.5          158.5          158.5         -1.8345111     -0.39314348     1.1359822     -6.2463722     -146.75679    
     83060  -150.87065      158.5          158.5          158.5         -0.62065896     3.2304673     -2.1961883     -2.8962558     -150.87065    
     83080  -145.52963      158.5          158.5          158.5         -0.71270653     1.4382073     -2.4034139     -1.172913      -145.52963    
     83100  -146.6111       158.5          158.5          158.5         -2.4560071     -4.858277      -1.0450821     -1.4646621     -146.6111     
     83120  -127.90101      158.5          158.5          158.5          1.7259097     -4.5540694      5.7576008      3.9741978     -127.90101    
     83140  -139.28877      158.5          158.5          158.5         -3.4298917     -3.5556277     -1.7091454     -5.0249018     -139.28877    
     83160  -125.42103      158.5          158.5          158.5          1.7114451      0.5913593      2.8334634      1.7095127     -125.42103    
     83180  -114.53478      158.5          158.5          158.5         -0.75626068    -7.835781       1.2608013      4.3061976     -114.53478    
     83200  -129.41137      158.5          158.5          158.5          1.181843       0.37539318     0.40462156     2.7655143     -129.41137    
     83220  -125.20073      158.5          158.5          158.5         -0.20045147    -0.89578305     1.9418928     -1.6474642     -125.20073    
     83240  -138.54804      158.5          158.5          158.5         -1.5933827     -2.3931485      0.19560437    -2.5826039     -138.54804    
     83260  -122.52185      158.5          158.5          158.5          1.359372       3.4351083      0.1301943      0.51281337    -122.52185    
     83280  -116.77151      158.5          158.5          158.5         -1.4272008     -1.7310198     -3.8275337      1.2769509     -116.77151    
     83300  -114.29346      158.5          158.5          158.5         -0.83780086    -0.164362       1.3170312     -3.6660718     -114.29346    
     83320  -119.19241      158.5          158.5          158.5         -0.077039561   -1.7053553      0.058360781    1.4158759     -119.19241    
     83340  -114.72621      158.5          158.5          158.5         -7.5479529     -11.342079     -9.1934037     -2.1083761     -114.72621    
     83360  -116.90986      158.5          158.5          158.5          1.4575433      2.1942703      3.3954998     -1.2171402     -116.90986    
     83380  -118.93799      158.5          158.5          158.5         -1.1696104      2.5733693     -2.1651739     -3.9170267     -118.93799    
     83400  -124.20315      158.5          158.5          158.5          1.2287517      1.8353707     -1.7342962      3.5851805     -124.20315    
     83420  -145.62465      158.5          158.5          158.5         -0.82811546    -2.8081851      3.9505633     -3.6267245     -145.62465    
     83440  -162.12937      158.5          158.5          158.5         -1.9787665     -2.3899203      0.22763817    -3.7740174     -162.12937    
     83460  -138.42438      158.5          158.5          158.5          3.5840901      7.4354421     -1.4787513      4.7955796     -138.42438    
     83480  -141.22064      158.5          158.5          158.5          1.9215172      1.715878       3.9233165      0.12535712    -141.22064    
     83500  -143.51274      158.5          158.5          158.5          3.9526016      2.8153077      6.0549054      2.9875918     -143.51274    
     83520  -144.98781      158.5          158.5          158.5         -1.3886374     -3.5445218     -2.2660878      1.6446973     -144.98781    
     83540  -145.16715      158.5          158.5          158.5          1.9366722      1.2107905      4.8040468     -0.20482058    -145.16715    
     83560  -138.27045      158.5          158.5          158.5          1.9827777      1.6962078      5.2673968     -1.0152715     -138.27045    
     83580  -141.76907      158.5          158.5          158.5         -1.4183717     -1.6467332     -2.6201111      0.011729205   -141.76907    
     83600  -154.2811       158.5          158.5          158.5          4.80882        7.1435224      1.6951798      5.5877579     -154.2811     
     83620  -136.96243      158.5          158.5          158.5          0.24499393     2.168473      -1.498315       0.064823782   -136.96243    
     83640  -139.78185      158.5          158.5          158.5         -0.32462509     1.9490128     -1.8479013     -1.0749867     -139.78185    
     83660  -142.19311      158.5          158.5          158.5         -0.58251358     2.4920814     -3.7853139     -0.45430818    -142.19311    
     83680  -145.11798      158.5          158.5          158.5          2.5306218      5.0482302      0.90084206     1.6427932     -145.11798    
     83700  -146.20494      158.5          158.5          158.5          0.96843067    -2.9115586      4.3120568      1.5047939     -146.20494    
     83720  -143.22995      158.5          158.5          158.5          1.2999187     -0.36569732     0.16575707     4.0996963     -143.22995    
     83740  -148.63675      158.5          158.5          158.5          1.3356325      5.6629826     -0.2778852     -1.3781998     -148.63675    
     83760  -150.38455      158.5          158.5          158.5          0.27589411     2.8135577      0.29141992    -2.2772953     -150.38455    
     83780  -134.78799      158.5          158.5          158.5         -3.6060622     -6.6853562     -4.6590217      0.52619123    -134.78799    
     83800  -133.26         158.5          158.5          158.5         -1.924447      -1.1622451     -0.63375308    -3.977343      -133.26       
     83820  -135.21501      158.5          158.5          158.5         -0.36796932     2.2353674     -1.8994587     -1.4398167     -135.21501    
     83840  -142.85854      158.5          158.5          158.5         -2.3215046     -1.5066547     -6.135166       0.67730709    -142.85854    
     83860  -118.83992      158.5          158.5          158.5         -0.44460243    -1.0612467     -1.1900937      0.91753317    -118.83992    
     83880  -130.86887      158.5          158.5          158.5          0.098492565   -0.26892713    -0.73337455     1.2977794     -130.86887    
     83900  -141.55651      158.5          158.5          158.5         -0.088254941    0.36881612     1.0367489     -1.6703299     -141.55651    
     83920  -131.6141       158.5          158.5          158.5         -3.354863      -5.2535405     -3.5144379     -1.2966108     -131.6141     
     83940  -133.44526      158.5          158.5          158.5          0.027313791   -0.41759616    -1.5342485      2.033786      -133.44526    
     83960  -136.31671      158.5          158.5          158.5          0.064502743    4.047812       1.1209941     -4.9752978     -136.31671    
     83980  -140.27629      158.5          158.5          158.5          0.28794975     0.62085836     1.1771769     -0.93418604    -140.27629    
     84000  -134.32635      158.5          158.5          158.5         -1.2543374     -3.54838       -1.7684802      1.5538479     -134.32635    
     84020  -152.8626       158.5          158.5          158.5         -0.98361319    -3.2207705      0.77034251    -0.50041162    -152.8626     
     84040  -127.89146      158.5          158.5          158.5          4.5508103      3.5680922      4.5258191      5.5585197     -127.89146    
     84060  -133.85518      158.5          158.5          158.5         -2.0016066     -0.27775601    -4.4672628     -1.2598008     -133.85518    
     84080  -131.58939      158.5          158.5          158.5          0.10046767    -0.58296667    -3.7579051      4.6422748     -131.58939    
     84100  -146.67375      158.5          158.5          158.5          0.32764044    -1.8371673      1.0276729      1.7924157     -146.67375    
     84120  -145.77356      158.5          158.5          158.5         -0.36026695    -0.16212109     2.5060738     -3.4247535     -145.77356    
     84140  -144.6705       158.5          158.5          158.5          6.8597497      6.4780751      2.8490731      11.252101     -144.6705     
     84160  -157.7804       158.5          158.5          158.5         -2.4548939     -0.80998819    -5.7045319     -0.85016152    -157.7804     
     84180  -152.21017      158.5          158.5          158.5          0.80173067     4.6468159      2.6312162     -4.8728401     -152.21017    
     84200  -150.7037       158.5          158.5          158.5          0.79172589    -2.3459664      6.9229736     -2.2018295     -150.7037     
     84220  -146.43167      158.5          158.5          158.5         -2.2675464     -3.5636367     -3.0068474     -0.23215501    -146.43167    
     84240  -152.25278      158.5          158.5          158.5          4.7038306      6.8038615      1.1471639      6.1604665     -152.25278    
     84260  -138.12352      158.5          158.5          158.5         -3.4431227     -6.2523298      0.035731297   -4.1127696     -138.12352    
     84280  -144.42065      158.5          158.5          158.5         -1.4313521     -5.1488739      2.8883524     -2.0335347     -144.42065    
     84300  -131.87721      158.5          158.5          158.5          3.3177855      4.6532394      1.1389406      4.1611766     -131.87721    
     84320  -154.47608      158.5          158.5          158.5          0.84706248     2.6317621      1.6848127     -1.7753874     -154.47608    
     84340  -141.21875      158.5          158.5          158.5          0.50704028     0.30042684     1.6991142     -0.47842016    -141.21875    
     84360  -139.15523      158.5          158.5          158.5         -2.5514371     -2.9581578     -3.7427321     -0.95342148    -139.15523    
     84380  -133.90066      158.5          158.5          158.5          3.9809554      2.7792486      4.0651223      5.0984953     -133.90066    
     84400  -141.1862       158.5          158.5          158.5          0.23074282     0.036171494   -2.3488082      3.0048652     -141.1862     
     84420  -132.23007      158.5          158.5          158.5         -0.77129053     0.21823062    -2.9350938      0.40299164    -132.23007    
     84440  -132.40781      158.5          158.5          158.5         -1.6188446     -0.75285287     0.2638878     -4.3675688     -132.40781    
     84460  -124.0361       158.5          158.5          158.5         -1.1374081     -2.7695304     -1.6792163      1.0365223     -124.0361     
     84480  -140.00414      158.5          158.5          158.5          1.3533877     -2.4961067     -0.4056207      6.9618904     -140.00414    
     84500  -135.99493      158.5          158.5          158.5         -1.4530242      2.5362793     -4.4130143     -2.4823376     -135.99493    
     84520  -126.38539      158.5          158.5          158.5          4.1051747      5.3647617      2.5515939      4.3991685     -126.38539    
     84540  -119.81323      158.5          158.5          158.5         -3.3960613     -4.9472812     -3.4872239     -1.7536786     -119.81323    
     84560  -128.02389      158.5          158.5          158.5         -0.23827652    -0.22682757    -3.7818691      3.2938671     -128.02389    
     84580  -130.45832      158.5          158.5          158.5         -2.0935023     -0.4955931     -4.2786706     -1.5062432     -130.45832    
     84600  -129.21192      158.5          158.5          158.5         -0.83226038     2.7333025     -2.7091454     -2.5209383     -129.21192    
     84620  -126.64863      158.5          158.5          158.5         -1.3065448      0.48782661    -1.2800162     -3.1274449     -126.64863    
     84640  -136.60054      158.5          158.5          158.5         -6.2356809     -2.9288221     -7.8847637     -7.893457      -136.60054    
     84660  -129.67855      158.5          158.5          158.5          3.5758109      3.0111714      2.1860548      5.5302065     -129.67855    
     84680  -138.82713      158.5          158.5          158.5         -1.2008279     -0.58246519    -2.2511867     -0.76883187    -138.82713    
     84700  -128.8792       158.5          158.5          158.5          2.2148775      3.4823096      6.3364859     -3.1741631     -128.8792     
     84720  -158.56205      158.5          158.5          158.5          2.0055349      1.9339313      2.9895794      1.093094      -158.56205    
     84740  -149.37423      158.5          158.5          158.5         -4.0958859      0.73940568    -10.231316     -2.7957474     -149.37423    
     84760  -138.75189      158.5          158.5          158.5          0.28663896    -0.096030619   -1.9024533      2.8584007     -138.75189    
     84780  -141.44131      158.5          158.5          158.5         -4.9627451     -7.7541472     -3.021366      -4.1127222     -141.44131    
     84800  -168.32156      158.5          158.5          158.5          2.2483235      5.4209442      1.168079       0.15594724    -168.32156    
     84820  -167.17551      158.5          158.5          158.5          5.1429823      8.3066999      2.1575603      4.9646866     -167.17551    
     84840  -140.58179      158.5          158.5          158.5         -0.84863664    -5.8939015     -0.80674579     4.1547374     -140.58179    
     84860  -143.80254      158.5          158.5          158.5          4.1026294      1.0821886      7.9941675      3.2315321     -143.80254    
     84880  -147.82641      158.5          158.5          158.5         -0.69392095    -0.53258417     1.586381      -3.1355597     -147.82641    
     84900  -148.21309      158.5          158.5          158.5         -0.55998727     2.1448196     -3.125243      -0.69953837    -148.21309    
     84920  -146.29989      158.5          158.5          158.5          2.3102238      0.567506       1.4028138      4.9603514     -146.29989    
     84940  -141.97875      158.5          158.5          158.5         -1.1715819     -4.9461725      2.1787588     -0.74733186    -141.97875    
     84960  -121.65668      158.5          158.5          158.5          4.2945997      2.5199618      5.5828551      4.7809822     -121.65668    
     84980  -134.93867      158.5          158.5          158.5          1.0619815      4.6518803     -0.34031204    -1.1256236     -134.93867    
     85000  -125.73199      158.5          158.5          158.5         -0.97419028    -6.446712       1.207804       2.3163371     -125.73199    
     85020  -149.74518      158.5          158.5          158.5         -1.05444       -3.5496039      5.2188221     -4.8325383     -149.74518    
     85040  -139.22809      158.5          158.5          158.5          2.397447       5.9044308      3.24172       -1.9538098     -139.22809    
     85060  -123.69581      158.5          158.5          158.5          0.24933574    -0.18963938    -3.1532516      4.0908982     -123.69581    
     85080  -115.89093      158.5          158.5          158.5         -1.3966508     -5.2982583      0.57206511     0.53624081    -115.89093    
     85100  -136.37409      158.5          158.5          158.5         -1.1390512     -1.2693397      2.5159074     -4.6637213     -136.37409    
     85120  -121.25057      158.5          158.5          158.5         -2.7013366     -3.3031555      0.63873827    -5.4395926     -121.25057    
     85140  -153.30036      158.5          158.5          158.5         -2.9374338     -5.8355351     -0.7713515     -2.2054147     -153.30036    
     85160  -134.60314      158.5          158.5          158.5         -1.1141715     -3.6227315     -3.2620672      3.5422844     -134.60314    
     85180  -138.42299      158.5          158.5          158.5         -2.2198397     -3.3120741     -0.89856591    -2.448879      -138.42299    
     85200  -147.43678      158.5          158.5          158.5          3.7613093      6.7998972      1.5356215      2.9484092     -147.43678    
     85220  -152.18877      158.5          158.5          158.5         -4.8028276     -4.825728      -11.276101      1.6933466     -152.18877    
     85240  -158.43112      158.5          158.5          158.5          1.5834758     -2.7296577      3.8851977      3.5948872     -158.43112    
     85260  -158.0541       158.5          158.5          158.5         -0.75587917     0.6235772     -0.27935783    -2.6118569     -158.0541     
     85280  -166.96585      158.5          158.5          158.5         -1.3620886      2.0367282     -5.7223739     -0.40062014    -166.96585    
     85300  -159.46503      158.5          158.5          158.5          5.2722337      4.4622087      4.396794       6.9576983     -159.46503    
     85320  -154.49859      158.5          158.5          158.5         -2.0836732     -1.2974275     -0.55913272    -4.3944593     -154.49859    
     85340  -152.32864      158.5          158.5          158.5         -0.52430339    -0.62130361    -0.67885124    -0.27275532    -152.32864    
     85360  -155.55098      158.5          158.5          158.5          1.173608       1.4115853      2.9217202     -0.81248154    -155.55098    
     85380  -146.71725      158.5          158.5          158.5          1.7181477      9.5198381     -1.4276066     -2.9377886     -146.71725    
     85400  -170.01258      158.5          158.5          158.5         -0.77431554    -2.6388593     -2.889477       3.2053897     -170.01258    
     85420  -146.63919      158.5          158.5          158.5          1.4260016     -3.8331038      2.7563779      5.3547306     -146.63919    
     85440  -134.32199      158.5          158.5          158.5          1.8119475      5.7043195      3.8370972     -4.1055742     -134.32199    
     85460  -154.07187      158.5          158.5          158.5         -1.1206592      4.629164      -4.1354652     -3.8556763     -154.07187    
     85480  -146.0149       158.5          158.5          158.5          5.7446331      5.363626       3.4905988      8.3796745     -146.0149     
     85500  -134.65341      158.5          158.5          158.5         -3.863315      -6.1393729      1.4932194     -6.9437914     -134.65341    
     85520  -140.0047       158.5          158.5          158.5         -0.76671041    -1.6817452      1.5545892     -2.1729752     -140.0047     
     85540  -128.53649      158.5          158.5          158.5          1.4365303      2.9180868     -4.9196597      6.3111638     -128.53649    
     85560  -124.77694      158.5          158.5          158.5         -3.8270383     -5.9781701     -6.1010177      0.59807292    -124.77694    
     85580  -147.13781      158.5          158.5          158.5          2.2675139      1.9746369      4.508262       0.31964297    -147.13781    
     85600  -122.0096       158.5          158.5          158.5          0.052355791    0.16236062     2.5160479     -2.5213411     -122.0096     
     85620  -137.75647      158.5          158.5          158.5         -0.52383788     1.8007746     -5.2825449      1.9102566     -137.75647    
     85640  -135.65913      158.5          158.5          158.5          4.6480579      7.4095418      1.3316864      5.2029455     -135.65913    
     85660  -131.39548      158.5          158.5          158.5         -4.5430179     -10.956186      2.2356265     -4.9084936     -131.39548    
     85680  -131.46775      158.5          158.5          158.5          1.202473      -0.38120276     3.1316973      0.85692435    -131.46775    
     85700  -149.07459      158.5          158.5          158.5         -2.04751       -4.7360022     -3.0431586      1.6366307     -149.07459    
     85720  -131.17255      158.5          158.5          158.5         -4.9873148     -6.9627523     -4.2076472     -3.791545      -131.17255    
     85740  -136.30646      158.5          158.5          158.5          3.7315456      2.9899981      6.3328115      1.8718271     -136.30646    
     85760  -144.31247      158.5          158.5          158.5         -0.61871786    -2.8016378      1.4245292     -0.47904498    -144.31247    
     85780  -145.55388      158.5          158.5          158.5          1.5754419      2.7090555     -4.1051638      6.1224338     -145.55388    
     85800  -135.62222      158.5          158.5          158.5         -1.4191223     -1.1185263     -2.7731891     -0.36565152    -135.62222    
     85820  -133.52665      158.5          158.5          158.5         -4.1735999     -6.3902748     -3.7708003     -2.3597248     -133.52665    
     85840  -140.12998      158.5          158.5          158.5          1.9425061      0.7204323      3.3605889      1.746497      -140.12998    
     85860  -144.41425      158.5          158.5          158.5         -1.9603222     -1.0447461     -4.5026416     -0.33357896    -144.41425    
     85880  -149.74428      158.5          158.5          158.5          0.65006448     0.66729619    -1.6080032      2.8909005     -149.74428    
     85900  -157.66202      158.5          158.5          158.5         -0.78658121    -2.9277164      2.4678317     -1.8998589     -157.66202    
     85920  -152.70044      158.5          158.5          158.5         -4.3369006     -2.7327514     -6.2702993     -4.0076511     -152.70044    
     85940  -158.67835      158.5          158.5          158.5         -1.816718       2.997468      -7.0633991     -1.3842229     -158.67835    
     85960  -164.07025      158.5          158.5          158.5         -0.019823475   -1.233981       1.6217689     -0.44725842    -164.07025    
     85980  -162.17131      158.5          158.5          158.5         -1.5877088     -1.0890277     -0.15490298    -3.5191957     -162.17131    
     86000  -149.18217      158.5          158.5          158.5          0.49695187    -0.47687887    -0.7351279      2.7028624     -149.18217    
     86020  -167.90399      158.5          158.5          158.5         -0.44507393     0.78377625    -2.0147891     -0.10420893    -167.90399    
     86040  -151.17141      158.5          158.5          158.5         -1.8612578     -1.2531566     -1.7058878     -2.624729      -151.17141    
     86060  -165.60418      158.5          158.5          158.5          1.4301301      0.94312827     2.1636538      1.1836082     -165.60418    
     86080  -146.74846      158.5          158.5          158.5          1.4062582      3.1920963      1.1303041     -0.10362581    -146.74846    
     86100  -140.56516      158.5          158.5          158.5         -1.1958226     -0.70320605    -1.0564333     -1.8278285     -140.56516    
     86120  -145.2802       158.5          158.5          158.5          6.1726578      11.220361      1.2150398      6.0825725     -145.2802     
     86140  -125.92104      158.5          158.5          158.5         -3.5571538      0.54994227    -1.6545629     -9.5668407     -125.92104    
     86160  -140.89813      158.5          158.5          158.5          1.4203653      0.86790942     4.0988148     -0.7056283     -140.89813    
     86180  -123.36465      158.5          158.5          158.5         -0.55895885     0.071376871   -0.23732156    -1.5109319     -123.36465    
     86200  -130.96198      158.5          158.5          158.5          0.51385736     2.1485996     -0.95671644     0.34968888    -130.96198    
     86220  -135.31322      158.5          158.5          158.5          5.9741577      6.3988642      4.9200174      6.6035915     -135.31322    
     86240  -138.97521      158.5          158.5          158.5         -2.1483047     -0.87348399     2.2383927     -7.8098229     -138.97521    
     86260  -126.84958      158.5          158.5          158.5          4.70272        5.9929474      8.5737357     -0.45852316    -126.84958    
     86280  -136.19378      158.5          158.5          158.5         -3.4049957     -2.6158779     -4.1188962     -3.480213      -136.19378    
     86300  -130.06759      158.5          158.5          158.5         -4.2529758     -6.3361968     -1.8331425     -4.5895881     -130.06759    
     86320  -132.40476      158.5          158.5          158.5          3.8236305     -0.5284454      9.5944539      2.4048829     -132.40476    
     86340  -137.3334       158.5          158.5          158.5         -3.5429715     -5.0618379     -0.4312848     -5.1357917     -137.3334     
     86360  -140.24649      158.5          158.5          158.5          7.0503667      11.6493        3.0871365      6.4146635     -140.24649    
     86380  -123.38104      158.5          158.5          158.5         -0.13230006    -2.5573338      1.1865564      0.97387721    -123.38104    
     86400  -137.64061      158.5          158.5          158.5         -0.25739486    -2.0873684      4.0400283     -2.7248445     -137.64061    
     86420  -156.75697      158.5          158.5          158.5          3.1455491      7.1013479      3.8966516     -1.5613523     -156.75697    
     86440  -129.79128      158.5          158.5          158.5         -3.2102889     -3.5052218     -4.5087551     -1.6168899     -129.79128    
     86460  -145.73569      158.5          158.5          158.5          6.7244778      4.5818655      8.2529888      7.3385792     -145.73569    
     86480  -151.45765      158.5          158.5          158.5         -1.8083976      0.71556967    -0.26130554    -5.879457      -151.45765    
     86500  -138.08574      158.5          158.5          158.5         -0.06921446     1.3511289     -0.98312105    -0.57565121    -138.08574    
     86520  -136.30838      158.5          158.5          158.5          2.2679205      3.375598       1.6737665      1.7543971     -136.30838    
     86540  -144.23248      158.5          158.5          158.5         -6.642213      -6.8556029     -6.7310571     -6.3399791     -144.23248    
     86560  -131.38935      158.5          158.5          158.5         -0.82348653    -1.9399749     -2.36689        1.8364053     -131.38935    
     86580  -156.02833      158.5          158.5          158.5         -1.2533876     -1.9679803     -3.0951175      1.3029351     -156.02833    
     86600  -141.21464      158.5          158.5          158.5          0.066178322   -5.7953301      2.8844162      3.1094489     -141.21464    
     86620  -146.99205      158.5          158.5          158.5         -0.30046902    -2.3170343      0.73712313     0.67850414    -146.99205    
     86640  -150.08031      158.5          158.5          158.5         -0.49623507     0.85987039    -2.8930102      0.54443456    -150.08031    
     86660  -146.73034      158.5          158.5          158.5          0.40514635     0.75349342    -0.88592727     1.3478729     -146.73034    
     86680  -131.58946      158.5          158.5          158.5         -1.3658573     -4.5378786     -1.8484634      2.2887701     -131.58946    
     86700  -121.25272      158.5          158.5          158.5         -2.9212992     -7.2070239      1.3521028     -2.9089766     -121.25272    
     86720  -136.90553      158.5          158.5          158.5          1.1565739      1.578869       4.6741266     -2.7832737     -136.90553    
     86740  -128.09596      158.5          158.5          158.5          1.604806       2.3021086      1.2362684      1.2760409     -128.09596    
     86760  -119.33196      158.5          158.5          158.5         -2.783057      -4.9150308     -2.1304359     -1.3037043     -119.33196    
     86780  -126.27673      158.5          158.5          158.5         -0.35604795     4.9038443     -4.6159059     -1.3560822     -126.27673    
     86800  -122.08067      158.5          158.5          158.5          1.1119939      6.2694208     -3.8534468      0.92000762    -122.08067    
     86820  -151.25719      158.5          158.5          158.5          0.65896839    -0.072671024    1.5299821      0.51959406    -151.25719    
     86840  -124.13557      158.5          158.5          158.5          2.1529461      1.0634651      2.4735827      2.9217904     -124.13557    
     86860  -125.31422      158.5          158.5          158.5         -3.4899351      0.79961779    -8.3343152     -2.935108      -125.31422    
     86880  -129.14963      158.5          158.5          158.5         -1.0514518      1.5852328     -4.4614817     -0.27810642    -129.14963    
     86900  -157.96368      158.5          158.5          158.5         -2.4642245     -3.5785619     -2.155201      -1.6589105     -157.96368    
     86920  -155.51146      158.5          158.5          158.5          2.6351864      2.7745242      3.8803677      1.2506673     -155.51146    
     86940  -160.65228      158.5          158.5          158.5          2.2797629      5.4048142     -1.8759678      3.3104422     -160.65228    
     86960  -137.1935       158.5          158.5          158.5         -3.2085425     -2.6863915     -6.1571377     -0.78209823    -137.1935     
     86980  -146.22297      158.5          158.5          158.5          4.0860938      0.35928241     9.2462977      2.6527013     -146.22297    
     87000  -171.7814       158.5          158.5          158.5          0.97542309     0.40578539     0.8104589      1.710025      -171.7814     
     87020  -153.81495      158.5          158.5          158.5          2.5855885      5.99832        0.41098232     1.3474631     -153.81495    
     87040  -164.7561       158.5          158.5          158.5          4.134321       4.2642538      5.5609263      2.577783      -164.7561     
     87060  -146.75616      158.5          158.5          158.5         -3.2582701     -4.6754658     -2.2756895     -2.823655      -146.75616    
     87080  -145.77786      158.5          158.5          158.5          1.7732517     -0.42285358     4.839792       0.90281659    -145.77786    
     87100  -155.31329      158.5          158.5          158.5          0.24673193    -1.0276392     -0.10996268     1.8777977     -155.31329    
     87120  -138.36912      158.5          158.5          158.5         -3.8784344     -2.5752799     -7.0451146     -2.0149086     -138.36912    
     87140  -133.07339      158.5          158.5          158.5          1.5180504      0.80783571     3.4027136      0.34360204    -133.07339    
     87160  -137.48006      158.5          158.5          158.5         -1.0879605      0.85809814     0.18046091    -4.3024405     -137.48006    
     87180  -120.29077      158.5          158.5          158.5          0.17230345     4.1248139     -0.44074286    -3.1671606     -120.29077    
     87200  -133.09205      158.5          158.5          158.5         -2.2591622      0.58895918    -5.1541833     -2.2122624     -133.09205    
     87220  -137.87678      158.5          158.5          158.5         -1.6659561     -1.3033352     -2.0939448     -1.6005884     -137.87678    
     87240  -122.3622       158.5          158.5          158.5         -2.1042447     -2.2488291      0.98094687    -5.0448518     -122.3622     
     87260  -120.99654      158.5          158.5          158.5         -4.8566218     -2.9648172     -6.1495895     -5.4554587     -120.99654    
     87280  -144.08022      158.5          158.5          158.5          1.6748972      1.6743062      0.36086132     2.989524      -144.08022    
     87300  -128.92183      158.5          158.5          158.5         -1.7934633     -2.3341762     -3.0067409     -0.039472871   -128.92183    
     87320  -140.28479      158.5          158.5          158.5          3.0327655      2.454044       1.5683729      5.0758796     -140.28479    
     87340  -123.65114      158.5          158.5          158.5          4.1159689      8.0054828      3.0228234      1.3196005     -123.65114    
     87360  -137.28027      158.5          158.5          158.5         -3.541155      -4.9530669     -0.14063027    -5.5297679     -137.28027    
     87380  -124.79749      158.5          158.5          158.5          4.4876271      2.009327       5.2418304      6.2117238     -124.79749    
     87400  -147.74613      158.5          158.5          158.5         -2.9905792      1.0028547     -5.909724      -4.0648683     -147.74613    
     87420  -134.30535      158.5          158.5          158.5          3.1583441      6.0702944      5.189151      -1.784413      -134.30535    
     87440  -121.75568      158.5          158.5          158.5          0.36208921    -0.7717264      0.58735405     1.27064       -121.75568    
     87460  -143.37661      158.5          158.5          158.5         -2.2534028     -1.1028295     -4.4367188     -1.2206602     -143.37661    
     87480  -127.088        158.5          158.5          158.5          2.1973122      2.3052371      3.2826418      1.0040575     -127.088      
     87500  -127.1713       158.5          158.5          158.5         -0.56098452     0.33071022    -3.7816313      1.7679676     -127.1713     
     87520  -151.3316       158.5          158.5          158.5          2.3578873      2.2919274      3.0949691      1.6867653     -151.3316     
     87540  -149.12209      158.5          158.5          158.5          1.3183544     -0.39983458     3.8087252      0.54617258    -149.12209    
     87560  -132.11084      158.5          158.5          158.5          1.3619395      3.2206119     -2.3628148      3.2280213     -132.11084    
     87580  -166.23528      158.5          158.5          158.5         -0.052935804   -3.27801       -0.17320236     3.2924049     -166.23528    
     87600  -149.97803      158.5          158.5          158.5         -0.77787403    -4.0876765      0.51470787     1.2393466     -149.97803    
     87620  -152.19341      158.5          158.5          158.5         -1.6895652     -4.5286937      0.59063275    -1.1306347     -152.19341    
     87640  -151.56751      158.5          158.5          158.5         -1.1419885     -3.5380352      0.92205687    -0.80998721    -151.56751    
     87660  -160.69492      158.5          158.5          158.5         -2.3393838     -2.8545316     -3.6978403     -0.46577966    -160.69492    
     87680  -163.23441      158.5          158.5          158.5          1.5911515      2.8121876     -0.50689527     2.468162      -163.23441    
     87700  -157.71966      158.5          158.5          158.5         -2.2614333     -5.1510177      0.091710416   -1.7249928     -157.71966    
     87720  -161.43311      158.5          158.5          158.5         -2.7309575     -7.6164389      0.56424141    -1.140675      -161.43311    
     87740  -164.55316      158.5          158.5          158.5          0.80826071     4.0032224      1.3802759     -2.9587162     -164.55316    
     87760  -154.43885      158.5          158.5          158.5         -2.0992542     -0.6703119     -1.7251105     -3.9023401     -154.43885    
     87780  -153.34735      158.5          158.5          158.5          0.67453126    -3.34631        5.7264289     -0.3565252     -153.34735    
     87800  -162.49241      158.5          158.5          158.5          3.9964886      0.63490638     5.4810587      5.8735006     -162.49241    
     87820  -145.94494      158.5          158.5          158.5         -4.0493813     -3.7594285     -3.7474135     -4.641302      -145.94494    
     87840  -146.03883      158.5          158.5          158.5          1.8909387      5.6824518      4.1738549     -4.1834905     -146.03883    
     87860  -144.19556      158.5          158.5          158.5          0.034127844   -1.2850333      1.2934114      0.09400543    -144.19556    
     87880  -139.76464      158.5          158.5          158.5          0.47261759    -6.0111358      2.525287       4.9037016     -139.76464    
     87900  -155.49631      158.5          158.5          158.5          3.476428       2.7439849      4.205284       3.4800152     -155.49631    
     87920  -155.60444      158.5          158.5          158.5         -3.6314693      1.1107739     -3.2291652     -8.7760166     -155.60444    
     87940  -140.14088      158.5          158.5          158.5          3.8188672      3.6044446      6.1371979      1.7149593     -140.14088    
     87960  -148.99074      158.5          158.5          158.5          0.45904272    -1.6526811      0.89343726     2.136372      -148.99074    
     87980  -141.10964      158.5          158.5          158.5         -0.86638014     1.4367163     -2.6134713     -1.4223854     -141.10964    
     88000  -138.98359      158.5          158.5          158.5          2.634815       4.4323586      4.7919344     -1.3198481     -138.98359    
     88020  -138.00451      158.5          158.5          158.5         -2.7879453     -7.2003394     -1.2026242      0.039127746   -138.00451    
     88040  -129.39039      158.5          158.5          158.5          0.70294527     0.2868063     -4.3618241      6.1838536     -129.39039    
     88060  -163.49281      158.5          158.5          158.5         -0.42079526     2.6437749      0.06408709    -3.9702478     -163.49281    
     88080  -153.14059      158.5          158.5          158.5          1.2949045      1.2971584      6.4836478     -3.8960926     -153.14059    
     88100  -139.92435      158.5          158.5          158.5          0.33930725    -2.8102641     -0.18672862     4.0149144     -139.92435    
     88120  -140.94643      158.5          158.5          158.5         -3.8030591     -6.2467861     -5.7991925      0.63680116    -140.94643    
     88140  -153.60501      158.5          158.5          158.5          4.9318417      4.5125975      5.4839319      4.7989957     -153.60501    
     88160  -134.93273      158.5          158.5          158.5         -5.1258163     -2.6395633     -4.5070612     -8.2308243     -134.93273    
     88180  -144.12957      158.5          158.5          158.5          0.65504795     0.47560523     0.31131668     1.1782219     -144.12957    
     88200  -147.26343      158.5          158.5          158.5          0.1657824     -1.9889049     -0.71852336     3.2047754     -147.26343    
     88220  -145.71308      158.5          158.5          158.5         -2.6570715     -4.9087671     -3.9668884      0.90444094    -145.71308    
     88240  -150.30289      158.5          158.5          158.5          4.5906813      8.1821299      0.19639689     5.3935171     -150.30289    
     88260  -143.73425      158.5          158.5          158.5         -1.2047891      1.7149627     -2.2389319     -3.0903981     -143.73425    
     88280  -155.88011      158.5          158.5          158.5         -2.7843263     -2.8809547     -4.2374283     -1.2345959     -155.88011    
     88300  -157.45075      158.5          158.5          158.5          2.2427768      0.83187812    -0.3123795      6.2088317     -157.45075    
     88320  -163.27254      158.5          158.5          158.5         -1.3112327     -4.8969392     -0.43961351     1.4028547     -163.27254    
     88340  -148.22204      158.5          158.5          158.5          1.2779118      1.0797463     -1.4678614      4.2218505     -148.22204    
     88360  -157.0944       158.5          158.5          158.5          0.1900719      0.99621562    -2.0849599      1.65896       -157.0944     
     88380  -163.63231      158.5          158.5          158.5          1.4392304      1.2705847      1.8842771      1.1628293     -163.63231    
     88400  -176.42816      158.5          158.5          158.5         -1.9302231     -1.9072366     -1.2689928     -2.6144399     -176.42816    
     88420  -154.6792       158.5          158.5          158.5          3.5246216      2.2482916      7.5157328      0.80984038    -154.6792     
     88440  -152.7308       158.5          158.5          158.5         -0.17283687    -1.4545622     -0.57990059     1.5159521     -152.7308     
     88460  -146.25124      158.5          158.5          158.5         -1.8755738      0.66381103    -1.7199147     -4.5706176     -146.25124    
     88480  -153.66174      158.5          158.5          158.5          0.61093986     4.8551532      1.6156542     -4.6379878     -153.66174    
     88500  -151.91146      158.5          158.5          158.5         -5.148069      -5.5997114     -3.8484742     -5.9960214     -151.91146    
     88520  -145.27308      158.5          158.5          158.5          4.7131471      2.4499919      5.8949471      5.7945023     -145.27308    
     88540  -150.4075       158.5          158.5          158.5          0.29569694     0.35045904     2.0412019     -1.5045701     -150.4075     
     88560  -147.51239      158.5          158.5          158.5          0.992544       1.2923537      1.4407769      0.24450135    -147.51239    
     88580  -141.05948      158.5          158.5          158.5          2.926557       6.3336419      2.5185257     -0.072496681   -141.05948    
     88600  -142.6526       158.5          158.5          158.5         -2.8848501     -5.1233147     -0.44854532    -3.0826902     -142.6526     
     88620  -120.55249      158.5          158.5          158.5         -0.48709007    -3.1701724      2.4436163     -0.73471411    -120.55249    
     88640  -135.95718      158.5          158.5          158.5         -1.5602983     -2.1373207     -4.3231446      1.7795704     -135.95718    
     88660  -111.71788      158.5          158.5          158.5         -3.9939066     -2.8978648     -5.8648343     -3.2190208     -111.71788    
     88680  -129.94257      158.5          158.5          158.5          2.1845362     -2.5136411      6.5531779      2.5140718     -129.94257    
     88700  -138.44852      158.5          158.5          158.5         -1.6706627      2.8073438     -4.5034031     -3.3159287     -138.44852    
     88720  -144.47184      158.5          158.5          158.5          1.3539677      5.0451541     -0.32802647    -0.65522469    -144.47184    
     88740  -123.55183      158.5          158.5          158.5          4.2897848      2.0616486      5.4523944      5.3553113     -123.55183    
     88760  -125.54684      158.5          158.5          158.5         -1.8420431      0.050618086   -1.8037917     -3.7729556     -125.54684    
     88780  -124.65432      158.5          158.5          158.5          2.5141698      3.269981       3.3729461      0.89958227    -124.65432    
     88800  -133.70189      158.5          158.5          158.5          0.87282101     0.74032983     1.5244568      0.35367644    -133.70189    
     88820  -141.08291      158.5          158.5          158.5         -2.990114      -5.022706      -1.795752      -2.1518838     -141.08291    
     88840  -117.12619      158.5          158.5          158.5          1.3490906     -1.6893193      2.7099783      3.0266127     -117.12619    
     88860  -121.56927      158.5          158.5          158.5         -1.6032428      1.1865423     -5.631386      -0.36488472    -121.56927    
     88880  -139.72109      158.5          158.5          158.5         -0.33757408     5.4775853     -4.1033426     -2.3869649     -139.72109    
     88900  -124.73756      158.5          158.5          158.5          1.4068447      0.77421826     3.279405       0.16691085    -124.73756    
     88920  -125.56326      158.5          158.5          158.5         -3.7885148     -7.2983311     -0.6453191     -3.4218944     -125.56326    
     88940  -126.26479      158.5          158.5          158.5          2.199355       3.3964137     -1.6446296      4.8462807     -126.26479    
     88960  -144.97616      158.5          158.5          158.5          0.28107263     1.7877728     -2.3477648      1.4032099     -144.97616    
     88980  -142.79235      158.5          158.5          158.5         -3.7071058     -7.1229863      1.3090192     -5.3073503     -142.79235    
     89000  -138.98085      158.5          158.5          158.5         -1.8926454     -2.7585176      0.49287364    -3.4122923     -138.98085    
     89020  -147.35225      158.5          158.5          158.5         -1.2148998      2.0838487     -4.4683231     -1.260225      -147.35225    
     89040  -127.15282      158.5          158.5          158.5          4.8888815      7.1663469      5.5392156      1.9610819     -127.15282    
     89060  -140.8696       158.5          158.5          158.5         -2.8367995     -5.28103       -1.7838305     -1.4455379     -140.8696     
     89080  -140.09028      158.5          158.5          158.5         -2.6243409     -2.6307537     -4.9840719     -0.25819698    -140.09028    
     89100  -144.39481      158.5          158.5          158.5         -0.036083088    5.451767      -0.17093757    -5.3890786     -144.39481    
     89120  -133.74393      158.5          158.5          158.5         -1.4416007     -3.2266615      0.93856818    -2.0367088     -133.74393    
     89140  -149.16655      158.5          158.5          158.5          1.1578873      0.13294605     1.5456378      1.7950781     -149.16655    
     89160  -137.66425      158.5          158.5          158.5         -1.2165303      0.54221406     0.47154957    -4.6633546     -137.66425    
     89180  -139.51612      158.5          158.5          158.5         -2.3424027     -2.6451708     -2.6132067     -1.7688306     -139.51612    
     89200  -137.80126      158.5          158.5          158.5          2.2361944      0.15240176     3.4437112      3.1124701     -137.80126    
     89220  -137.45452      158.5          158.5          158.5         -4.9223603     -2.9959721     -6.2346538     -5.5364549     -137.45452    
     89240  -121.35054      158.5          158.5          158.5          2.4966148      2.2609412      2.2083191      3.020584      -121.35054    
     89260  -132.78353      158.5          158.5          158.5          1.552437       1.4656244     -1.6939981      4.8856846     -132.78353    
     89280  -126.82516      158.5          158.5          158.5          3.3582502      8.1337807     -0.65522834     2.5961983     -126.82516    
     89300  -134.26803      158.5          158.5          158.5          2.2123218      3.7310123      4.1032032     -1.1972502     -134.26803    
     89320  -117.99719      158.5          158.5          158.5         -0.54472098    -2.8305718     -0.88617922     2.0825881     -117.99719    
     89340  -132.37378      158.5          158.5          158.5         -1.4175539     -2.1411275     -5.0380886      2.9265545     -132.37378    
     89360  -125.40507      158.5          158.5          158.5          0.00010616528 -1.2837017      2.2442231     -0.96020282    -125.40507    
     89380  -123.64359      158.5          158.5          158.5         -0.36952979     0.77177234     1.6731058     -3.5534675     -123.64359    
     89400  -132.56915      158.5          158.5          158.5          0.053819682   -0.92730105     0.88832494     0.20043515    -132.56915    
     89420  -134.77255      158.5          158.5          158.5          0.59129221     1.5599443     -1.3494286      1.5633609     -134.77255    
     89440  -145.8293       158.5          158.5          158.5         -0.01231999    -5.2554273      1.6386675      3.5797998     -145.8293     
     89460  -140.32296      158.5          158.5          158.5         -1.1438153     -1.4869238      0.58697484    -2.5314969     -140.32296    
     89480  -145.21749      158.5          158.5          158.5          1.9282625      4.1363417      2.8247369     -1.176291      -145.21749    
     89500  -145.93611      158.5          158.5          158.5          1.6590432     -3.8425622      4.7167999      4.1028919     -145.93611    
     89520  -160.32951      158.5          158.5          158.5         -0.8126766     -3.9544073     -0.18063975     1.6970172     -160.32951    
     89540  -155.11048      158.5          158.5          158.5          0.86641907     5.0281805     -1.0014395     -1.4274838     -155.11048    
     89560  -156.33114      158.5          158.5          158.5         -3.0238292      0.12145723    -4.2243589     -4.9685859     -156.33114    
     89580  -145.85853      158.5          158.5          158.5          1.6395423     -1.0286215      2.5563076      3.3909408     -145.85853    
     89600  -144.34443      158.5          158.5          158.5          1.9943867      0.14526284     3.9680734      1.8698239     -144.34443    
     89620  -152.05464      158.5          158.5          158.5          0.75330406     3.721534      -0.92463567    -0.53698615    -152.05464    
     89640  -155.12716      158.5          158.5          158.5          2.5778702      4.2627027      2.7141768      0.75673124    -155.12716    
     89660  -145.74948      158.5          158.5          158.5         -3.2249266     -8.3529525     -2.4717071      1.1498796     -145.74948    
     89680  -154.00508      158.5          158.5          158.5          1.8829763      6.1441436      0.15044273    -0.64565738    -154.00508    
     89700  -135.98896      158.5          158.5          158.5         -3.0680958      3.5491467     -1.4762084     -11.277226     -135.98896    
     89720  -149.22943      158.5          158.5          158.5          4.2749949      2.8609402      6.7301869      3.2338577     -149.22943    
     89740  -140.87874      158.5          158.5          158.5          0.71281292    -3.3741823     -3.5097283      9.0223494     -140.87874    
     89760  -137.79385      158.5          158.5          158.5         -3.5415526     -3.3013122     -6.6671863     -0.65615927    -137.79385    
     89780  -126.26806      158.5          158.5          158.5          1.9058104      2.6889761      7.0126755     -3.9842206     -126.26806    
     89800  -136.46426      158.5          158.5          158.5         -4.4848203     -5.185592      -1.7424976     -6.5263714     -136.46426    
     89820  -141.32828      158.5          158.5          158.5          1.1932838     -1.4919433     -1.2490685      6.320863      -141.32828    
     89840  -131.57173      158.5          158.5          158.5          0.075131301    1.175985      -2.1435922      1.1930011     -131.57173    
     89860  -123.44506      158.5          158.5          158.5         -3.9224796     -6.0219488     -3.8244829     -1.9210071     -123.44506    
     89880  -146.01361      158.5          158.5          158.5          1.7611367      1.4412004      1.9604892      1.8817206     -146.01361    
     89900  -122.59226      158.5          158.5          158.5         -0.088858902    2.9422685      0.89008273    -4.0989279     -122.59226    
     89920  -130.88733      158.5          158.5          158.5          1.4081295      1.5419111      3.5896539     -0.9071765     -130.88733    
     89940  -138.92536      158.5          158.5          158.5          0.62103019    -0.26953084     0.9564409      1.1761805     -138.92536    
     89960  -128.35899      158.5          158.5          158.5         -6.6288604     -7.4324005     -4.4247561     -8.0294247     -128.35899    
     89980  -135.10907      158.5          158.5          158.5          2.0164169      2.8688999      2.7136828      0.46666818    -135.10907    
     90000  -127.51258      158.5          158.5          158.5          1.3304542      0.67993441     0.11451637     3.1969118     -127.51258    
     90020  -130.18709      158.5          158.5          158.5          0.55213062    -0.8433496      1.2974098      1.2023317     -130.18709    
     90040  -138.87141      158.5          158.5          158.5          3.0158997      4.2195452      2.0892116      2.7389422     -138.87141    
     90060  -145.55312      158.5          158.5          158.5         -4.3013804     -1.1358937     -10.496011     -1.2722364     -145.55312    
     90080  -144.94478      158.5          158.5          158.5         -0.47507321    -0.33988842    -2.4957583      1.4104271     -144.94478    
     90100  -133.46201      158.5          158.5          158.5          1.6824466     -2.0567915      4.7074249      2.3967064     -133.46201    
     90120  -138.07001      158.5          158.5          158.5          0.25411405     1.3276063     -1.6560786      1.0908144     -138.07001    
     90140  -147.66242      158.5          158.5          158.5          1.8244156      6.101798       1.597112      -2.225663      -147.66242    
     90160  -149.98752      158.5          158.5          158.5         -1.8558898     -0.7738488     -1.0075712     -3.7862493     -149.98752    
     90180  -140.87881      158.5          158.5          158.5         -6.2453854     -11.042443     -6.5146996     -1.1790138     -140.87881    
     90200  -157.98163      158.5          158.5          158.5          0.57373759     0.35357447    -1.3866304      2.7542687     -157.98163    
     90220  -147.96938      158.5          158.5          158.5         -1.2653578      3.1756554     -4.597053      -2.3746758     -147.96938    
     90240  -152.18997      158.5          158.5          158.5          0.66159347    -0.3373341      2.8011698     -0.4790553     -152.18997    
     90260  -150.05705      158.5          158.5          158.5         -1.2391606     -3.6398515      2.8058242     -2.8834544     -150.05705    
     90280  -159.62998      158.5          158.5          158.5          1.951735       2.9364195     -0.02705673     2.9458423     -159.62998    
     90300  -154.33833      158.5          158.5          158.5          1.0862882      3.222223      -1.8242185      1.86086       -154.33833    
     90320  -152.65516      158.5          158.5          158.5          0.4270376     -3.1832891      6.2300845     -1.7656825     -152.65516    
     90340  -151.20894      158.5          158.5          158.5          2.8428695      2.3508579      3.5402785      2.6374721     -151.20894    
     90360  -166.76987      158.5          158.5          158.5         -2.7824396     -0.24571549    -10.47812       2.3765169     -166.76987    
     90380  -151.17469      158.5          158.5          158.5         -0.48795669    -2.2544593     -1.9279792      2.7185685     -151.17469    
     90400  -156.13994      158.5          158.5          158.5          4.9568606      3.1652891      6.6493851      5.0559074     -156.13994    
     90420  -160.46817      158.5          158.5          158.5         -1.9464694     -0.069958399   -0.81390596    -4.9555439     -160.46817    
     90440  -163.81027      158.5          158.5          158.5          1.6647033     -0.25661514     2.2810269      2.9696982     -163.81027    
     90460  -140.81091      158.5          158.5          158.5          1.1986901     -1.3373548      1.6879515      3.2454736     -140.81091    
     90480  -139.63859      158.5          158.5          158.5         -3.1678517     -3.2341978     -3.7445859     -2.5247714     -139.63859    
     90500  -160.02424      158.5          158.5          158.5          2.5244115      1.8777612      5.5966985      0.09877495    -160.02424    
     90520  -128.44421      158.5          158.5          158.5          0.4602613      1.3555072     -1.6979786      1.7232553     -128.44421    
     90540  -148.85726      158.5          158.5          158.5          1.577247       2.9427476     -4.1420333      5.9310268     -148.85726    
     90560  -152.4574       158.5          158.5          158.5          1.1559938     -0.094843011    4.996269      -1.4334444     -152.4574     
     90580  -119.47368      158.5          158.5          158.5         -3.3575688     -5.3547384      3.9837889     -8.701757      -119.47368    
     90600  -140.72288      158.5          158.5          158.5          1.5458218      5.004836      -1.584402       1.2170313     -140.72288    
     90620  -148.16464      158.5          158.5          158.5         -0.45579024    -0.39042653    -3.3049118      2.3279676     -148.16464    
     90640  -144.06687      158.5          158.5          158.5          1.3923367     -1.0456788      6.7899193     -1.5672305     -144.06687    
     90660  -127.80143      158.5          158.5          158.5          2.8123906      7.7214382      2.9424521     -2.2267185     -127.80143    
     90680  -133.53472      158.5          158.5          158.5         -5.6596895     -4.0960372     -9.8780985     -3.0049328     -133.53472    
     90700  -130.4323       158.5          158.5          158.5          1.9870145     -2.4669189      2.7721687      5.6557938     -130.4323     
     90720  -139.21193      158.5          158.5          158.5         -0.083302932    0.30029647     2.8924772     -3.4426825     -139.21193    
     90740  -133.54669      158.5          158.5          158.5         -1.2922375      1.0153557     -1.0769652     -3.815103      -133.54669    
     90760  -131.53855      158.5          158.5          158.5          1.5751447      1.8163568      0.57327428     2.335803      -131.53855    
     90780  -122.18473      158.5          158.5          158.5         -2.5679534     -1.8108958     -4.8140098     -1.0789545     -122.18473    
     90800  -133.99766      158.5          158.5          158.5         -3.6863558     -5.2568389     -1.1583811     -4.6438475     -133.99766    
     90820  -132.6512       158.5          158.5          158.5         -1.0092504      0.033373906    0.20714606    -3.2682712     -132.6512     
     90840  -139.47423      158.5          158.5          158.5         -2.6115217     -0.65259859    -2.949362      -4.2326046     -139.47423    
     90860  -139.96045      158.5          158.5          158.5         -0.60498706     0.088283172   -1.3679289     -0.53531548    -139.96045    
     90880  -151.00998      158.5          158.5          158.5          1.5269182      1.3129858      2.5647468      0.70302204    -151.00998    
     90900  -149.29133      158.5          158.5          158.5         -1.1152288     -2.0135696     -0.57948444    -0.75263239    -149.29133    
     90920  -151.65394      158.5          158.5          158.5          2.469836       1.0311352      3.2721072      3.1062655     -151.65394    
     90940  -158.29596      158.5          158.5          158.5         -1.2410419     -1.3042791     -1.637065      -0.78178163    -158.29596    
     90960  -156.84319      158.5          158.5          158.5          1.9833167      3.1002         2.9055463     -0.055796097   -156.84319    
     90980  -153.86567      158.5          158.5          158.5         -0.17329628    -0.034125667    1.0274161     -1.5131793     -153.86567    
     91000  -155.52994      158.5          158.5          158.5         -4.3478365     -3.374748      -4.5963925     -5.0723689     -155.52994    
     91020  -162.01752      158.5          158.5          158.5          1.5419109      1.8417277      1.4686132      1.3153917     -162.01752    
     91040  -151.08912      158.5          158.5          158.5          3.4930589      4.610184       4.632048       1.2369448     -151.08912    
     91060  -147.62827      158.5          158.5          158.5         -2.1089453     -1.644527      -1.092316      -3.589993      -147.62827    
     91080  -154.40767      158.5          158.5          158.5          0.15434116     0.28128283    -1.353466       1.5352066     -154.40767    
     91100  -155.69471      158.5          158.5          158.5         -3.1476869     -2.452675      -3.3554169     -3.6349687     -155.69471    
     91120  -146.7897       158.5          158.5          158.5          1.6283244      0.23217944     6.5251448     -1.8723511     -146.7897     
     91140  -138.0992       158.5          158.5          158.5         -1.6592654     -0.12465037    -0.26939875    -4.5837472     -138.0992     
     91160  -132.15243      158.5          158.5          158.5         -0.66819449    -4.3077111      0.89197562     1.411152      -132.15243    
     91180  -148.94999      158.5          158.5          158.5          3.282434      -0.49605817     9.7219446      0.62141555    -148.94999    
     91200  -140.49793      158.5          158.5          158.5          0.61456472     0.24644657     4.1006227     -2.5033751     -140.49793    
     91220  -144.58635      158.5          158.5          158.5         -1.4373382     -1.564024      -4.0673488      1.3193583     -144.58635    
     91240  -123.7321       158.5          158.5          158.5          1.2718143      0.54236336     0.085905846    3.1871736     -123.7321     
     91260  -143.32723      158.5          158.5          158.5          1.6263048     -0.1276114      5.5675783     -0.56105238    -143.32723    
     91280  -144.91065      158.5          158.5          158.5          2.1231643      1.7313696      2.6667792      1.9713441     -144.91065    
     91300  -150.8081       158.5          158.5          158.5          1.1460927      1.213576       1.8629087      0.36179357    -150.8081     
     91320  -139.76164      158.5          158.5          158.5         -2.4914913     -3.7632457     -0.30915801    -3.4020701     -139.76164    
     91340  -138.65003      158.5          158.5          158.5         -0.039015396    0.36704599    -0.23878362    -0.24530855    -138.65003    
     91360  -134.42821      158.5          158.5          158.5         -1.5930805     -4.0124256      1.2454196     -2.0122354     -134.42821    
     91380  -126.3353       158.5          158.5          158.5          0.88491916     0.90102098    -0.66036205     2.4140986     -126.3353     
     91400  -132.66635      158.5          158.5          158.5          1.5198702      1.4058811     -1.3005541      4.4542836     -132.66635    
     91420  -139.53816      158.5          158.5          158.5          0.71974663     2.9455367     -0.037788505   -0.74850837    -139.53816    
     91440  -144.36134      158.5          158.5          158.5          0.59233402     1.0565169      0.86860818    -0.14812305    -144.36134    
     91460  -141.58697      158.5          158.5          158.5         -0.79743649     1.5157438     -1.189483      -2.7185703     -141.58697    
     91480  -159.88588      158.5          158.5          158.5          2.6289769      2.7741238      3.0321117      2.0806951     -159.88588    
     91500  -151.61546      158.5          158.5          158.5         -4.1394869     -4.6371379     -1.6725893     -6.1087336     -151.61546    
     91520  -138.67411      158.5          158.5          158.5         -4.8884012     -5.9850286     -6.582309      -2.0978659     -138.67411    
     91540  -148.93282      158.5          158.5          158.5          1.3143504     -0.12371489    -1.3603412      5.4271074     -148.93282    
     91560  -140.14468      158.5          158.5          158.5         -3.4377053     -2.0337988     -6.127751      -2.1515661     -140.14468    
     91580  -154.22172      158.5          158.5          158.5          1.3662542      3.4273276     -1.7029981      2.3744333     -154.22172    
     91600  -141.08359      158.5          158.5          158.5          4.920553       3.4920367      5.4315768      5.8380453     -141.08359    
     91620  -149.62776      158.5          158.5          158.5         -0.23037527     4.1308985     -6.5111001      1.6890758     -149.62776    
     91640  -138.26386      158.5          158.5          158.5         -4.5662868      3.1750772     -10.498765     -6.375173      -138.26386    
     91660  -130.04388      158.5          158.5          158.5         -0.5751378     -2.4651202      1.3717905     -0.63208374    -130.04388    
     91680  -142.35658      158.5          158.5          158.5         -5.8927242     -6.1186169     -6.3865892     -5.1729665     -142.35658    
     91700  -134.73684      158.5          158.5          158.5         -0.9533272      5.2079278     -3.8251909     -4.2427185     -134.73684    
     91720  -135.02114      158.5          158.5          158.5          2.459407       5.2147555      2.1491241      0.014341354   -135.02114    
     91740  -140.39807      158.5          158.5          158.5         -2.0369069     -4.7159808     -2.0607652      0.66602533    -140.39807    
     91760  -137.44247      158.5          158.5          158.5          0.92238826    -3.74923        3.4183794      3.0980153     -137.44247    
     91780  -129.4443       158.5          158.5          158.5         -2.5108645     -3.1817867     -4.1475888     -0.20321796    -129.4443     
     91800  -128.22252      158.5          158.5          158.5          2.5744398      5.6306647     -1.9111706      4.0038252     -128.22252    
     91820  -131.82779      158.5          158.5          158.5          6.5607042      1.8516027      7.1303904      10.70012      -131.82779    
     91840  -118.30998      158.5          158.5          158.5         -0.38166678    -2.140759      -1.8770736      2.8728323     -118.30998    
     91860  -114.96404      158.5          158.5          158.5          1.9602332      4.8357996      0.43822563     0.6066743     -114.96404    
     91880  -117.42638      158.5          158.5          158.5         -2.0353597     -1.4072995     -0.566851      -4.1319285     -117.42638    
     91900  -122.51282      158.5          158.5          158.5          0.84480656    -6.5591921      4.7989048      4.294707      -122.51282    
     91920  -145.52556      158.5          158.5          158.5          0.21029486    -5.1159654      4.074743       1.6721069     -145.52556    
     91940  -126.05197      158.5          158.5          158.5         -2.8809714      1.6886534     -5.1515877     -5.17998       -126.05197    
     91960  -129.1495       158.5          158.5          158.5          0.89142252     1.518307       0.017401504    1.1385591     -129.1495     
     91980  -126.0773       158.5          158.5          158.5         -3.8360476     -8.2646921     -1.8484722     -1.3949786     -126.0773     
     92000  -120.69653      158.5          158.5          158.5          0.47931725     0.81216356    -0.043101224    0.6688894     -120.69653    
     92020  -135.56497      158.5          158.5          158.5          1.9464034      8.2223496     -1.1140859     -1.2690535     -135.56497    
     92040  -137.62828      158.5          158.5          158.5         -2.9001219     -0.24603497    -3.7619784     -4.6923523     -137.62828    
     92060  -136.87181      158.5          158.5          158.5          0.20822913     0.42266919     0.12935408     0.072664119   -136.87181    
     92080  -148.89499      158.5          158.5          158.5         -1.6190085     -3.8026029     -0.66135665    -0.39306591    -148.89499    
     92100  -154.19931      158.5          158.5          158.5         -0.49011743     2.4709277     -5.1352207      1.1939407     -154.19931    
     92120  -156.86177      158.5          158.5          158.5          1.7230522      4.7864451      0.49730738    -0.11459575    -156.86177    
     92140  -151.94912      158.5          158.5          158.5          0.39595932    -0.056193162    1.7865003     -0.54242913    -151.94912    
     92160  -149.02539      158.5          158.5          158.5          1.8016381      1.5609679      1.6915597      2.1523868     -149.02539    
     92180  -150.97014      158.5          158.5          158.5          2.594524       0.81443142     1.9182504      5.0508902     -150.97014    
     92200  -151.09314      158.5          158.5          158.5          1.3128648      0.25091486     2.0762444      1.6114353     -151.09314    
     92220  -153.25243      158.5          158.5          158.5          2.7090358      2.567122       4.2399343      1.320051      -153.25243    
     92240  -142.89365      158.5          158.5          158.5         -2.3220717     -4.6426274      1.5318282     -3.8554158     -142.89365    
     92260  -147.08842      158.5          158.5          158.5          2.9557757     -2.2959334      8.5909699      2.5722905     -147.08842    
     92280  -138.34611      158.5          158.5          158.5         -1.1389791     -3.2390116     -0.91371463     0.73578895    -138.34611    
     92300  -121.27256      158.5          158.5          158.5          1.3919087     -1.9531809      4.4100526      1.7188545     -121.27256    
     92320  -138.50286      158.5          158.5          158.5         -2.1448593     -5.0579835      3.2402135     -4.616808      -138.50286    
     92340  -116.95847      158.5          158.5          158.5         -4.0085684     -4.4392392     -4.9363315     -2.6501344     -116.95847    
     92360  -108.47473      158.5          158.5          158.5          3.5451152      5.3950035      1.5549631      3.6853789     -108.47473    
     92380  -123.40701      158.5          158.5          158.5         -5.1530703     -7.7640431     -3.3704019     -4.3247658     -123.40701    
     92400  -119.28955      158.5          158.5          158.5          0.48993115    -2.3310257      3.4336291      0.36718998    -119.28955    
     92420  -116.62326      158.5          158.5          158.5         -3.5575332     -5.2326478     -3.2621638     -2.1777881     -116.62326    
     92440  -128.19362      158.5          158.5          158.5         -2.9326153     -4.3806674     -3.5784331     -0.83874547    -128.19362    
     92460  -135.64954      158.5          158.5          158.5         -1.5314322      0.20024421    -3.6619708     -1.13257       -135.64954    
     92480  -113.96546      158.5          158.5          158.5         -0.33480247     1.4907139     -1.724553      -0.77056832    -113.96546    
     92500  -118.96105      158.5          158.5          158.5          0.053880806    4.0376839     -5.438963       1.5629215     -118.96105    
     92520  -112.90208      158.5          158.5          158.5         -1.2342939      4.7207022     -2.2948662     -6.1287179     -112.90208    
     92540  -138.73741      158.5          158.5          158.5          2.14247        5.8394045      1.4802548     -0.89224944    -138.73741    
     92560  -133.60442      158.5          158.5          158.5         -4.9531775     -3.1209575     -7.724101      -4.0144741     -133.60442    
     92580  -130.54362      158.5          158.5          158.5          0.16512412     4.6638284     -5.723963       1.555507      -130.54362    
     92600  -145.8296       158.5          158.5          158.5         -2.3603732     -2.5339496      1.076598      -5.623768      -145.8296     
     92620  -141.03507      158.5          158.5          158.5          1.391599      -3.6293488      7.8639728     -0.059826824   -141.03507    
     92640  -151.01914      158.5          158.5          158.5          6.7298678      5.5451706      8.7474844      5.8969484     -151.01914    
     92660  -141.90056      158.5          158.5          158.5         -3.5406517     -2.5119347     -6.0555008     -2.0545195     -141.90056    
     92680  -144.01653      158.5          158.5          158.5          2.7752891      0.43468323     1.529415       6.3617689     -144.01653    
     92700  -158.42731      158.5          158.5          158.5          2.8623533     -0.73832749     6.8542613      2.4711262     -158.42731    
     92720  -143.22794      158.5          158.5          158.5          0.13567242     0.11401132     2.7828691     -2.4898632     -143.22794    
     92740  -154.41663      158.5          158.5          158.5          1.1523378      4.5519884      0.53950377    -1.6344787     -154.41663    
     92760  -148.65048      158.5          158.5          158.5         -0.49212019    -1.3147768      2.390423      -2.5520068     -148.65048    
     92780  -151.24357      158.5          158.5          158.5         -0.48700648    -1.3861513      4.4931142     -4.5679824     -151.24357    
     92800  -156.94961      158.5          158.5          158.5          2.9412087      5.5022452      3.0896602      0.23172081    -156.94961    
     92820  -155.86045      158.5          158.5          158.5         -1.3451109     -0.46181046    -5.0280447      1.4545223     -155.86045    
     92840  -150.9072       158.5          158.5          158.5          0.28336042     0.040884369   -0.74102542     1.5502223     -150.9072     
     92860  -160.13032      158.5          158.5          158.5          3.0586351      3.1804665      4.7325713      1.2628674     -160.13032    
     92880  -148.23814      158.5          158.5          158.5         -3.8723665     -2.4150477     -5.4435437     -3.7585081     -148.23814    
     92900  -139.0822       158.5          158.5          158.5          0.64947815     0.51719311    -4.860877       6.2921183     -139.0822     
     92920  -132.2548       158.5          158.5          158.5          3.1251901      7.7515911     -2.789846       4.413825      -132.2548     
     92940  -125.9096       158.5          158.5          158.5         -3.4634861     -4.0801907     -0.48083878    -5.8294288     -125.9096     
     92960  -152.72519      158.5          158.5          158.5         -0.13310534     1.1175807     -2.7224428      1.2055461     -152.72519    
     92980  -137.86364      158.5          158.5          158.5          0.47631907     4.1418686     -5.8923931      3.1794817     -137.86364    
     93000  -128.36337      158.5          158.5          158.5         -3.7543644     -6.4822757     -2.4421807     -2.3386367     -128.36337    
     93020  -129.50636      158.5          158.5          158.5          3.7248662      3.045735       5.6627576      2.4661061     -129.50636    
     93040  -137.40741      158.5          158.5          158.5         -1.0558075     -0.080592508   -1.9986174     -1.0882125     -137.40741    
     93060  -131.18763      158.5          158.5          158.5          1.9449207      1.6888566     -0.84813345     4.994039      -131.18763    
     93080  -106.50748      158.5          158.5          158.5          3.0458123      5.1668345      1.2351068      2.7354957     -106.50748    
     93100  -127.94123      158.5          158.5          158.5         -0.31246114    -1.1830879      2.2455105     -1.999806      -127.94123    
     93120  -124.97451      158.5          158.5          158.5          3.6154633      5.547992       1.7217019      3.576696      -124.97451    
     93140  -110.28766      158.5          158.5          158.5         -4.1999432     -5.8643691     -2.3828537     -4.3526067     -110.28766    
     93160  -120.54232      158.5          158.5          158.5          0.41543965    -0.48329093     4.7793425     -3.0497326     -120.54232    
     93180  -134.11322      158.5          158.5          158.5         -0.29016013     0.46743207    -0.52814916    -0.8097633     -134.11322    
     93200  -109.45622      158.5          158.5          158.5         -3.4600147     -7.1313216      0.842997      -4.0917196     -109.45622    
     93220  -124.985        158.5          158.5          158.5          3.1313945      2.7229924      4.4780766      2.1931146     -124.985      
     93240  -124.53759      158.5          158.5          158.5         -2.6795625     -4.6554152     -1.5436433     -1.8396291     -124.53759    
     93260  -136.05365      158.5          158.5          158.5          0.17901901     0.26032881     1.0770642     -0.80033594    -136.05365    
     93280  -133.84389      158.5          158.5          158.5          1.8610135      1.2529474      1.5358492      2.7942438     -133.84389    
     93300  -134.45495      158.5          158.5          158.5         -0.82040018    -4.8085807      1.0752582      1.272122      -134.45495    
     93320  -131.41113      158.5          158.5          158.5          0.8518716     -1.9625017      5.5548008     -1.0366844     -131.41113    
     93340  -142.13331      158.5          158.5          158.5         -4.6343831     -5.7230478     -1.7033413     -6.4767602     -142.13331    
     93360  -138.14464      158.5          158.5          158.5         -2.6745199     -0.51669103    -4.9899817     -2.5168868     -138.14464    
     93380  -134.88152      158.5          158.5          158.5          5.0478681      4.4174889      4.1403208      6.5857945     -134.88152    
     93400  -135.24906      158.5          158.5          158.5          1.9283237      0.84251227     2.3599534      2.5825055     -135.24906    
     93420  -139.41399      158.5          158.5          158.5         -0.57162858    -0.67005481    -0.13055515    -0.91427578    -139.41399    
     93440  -145.29124      158.5          158.5          158.5          0.39953559    -1.7153368      0.87545843     2.0384852     -145.29124    
     93460  -147.59066      158.5          158.5          158.5          0.36796698     2.3984583     -3.2682638      1.9737065     -147.59066    
     93480  -149.5077       158.5          158.5          158.5         -0.20375298     1.373971       0.56055273    -2.5457827     -149.5077     
     93500  -137.5757       158.5          158.5          158.5         -1.4062087     -2.7178708      1.2383971     -2.7391524     -137.5757     
     93520  -151.59605      158.5          158.5          158.5         -4.3273107     -2.1725956     -8.6996284     -2.109708      -151.59605    
     93540  -130.39564      158.5          158.5          158.5         -0.8283925      2.9532591     -1.8023289     -3.6361077     -130.39564    
     93560  -140.4261       158.5          158.5          158.5          2.4858191      2.3312389      4.3386545      0.7875641     -140.4261     
     93580  -139.656        158.5          158.5          158.5         -2.726428      -2.9082487     -3.8004156     -1.4706197     -139.656      
     93600  -127.7319       158.5          158.5          158.5          3.9039665      7.8279824      0.4037162      3.4802009     -127.7319     
     93620  -132.43257      158.5          158.5          158.5         -0.9958889     -1.2040237     -2.1506994      0.36705645    -132.43257    
     93640  -146.28832      158.5          158.5          158.5         -2.4527166     -6.5879084     -0.54616631    -0.2240749     -146.28832    
     93660  -119.29155      158.5          158.5          158.5          5.1897507      4.0112425      10.85946       0.69854917    -119.29155    
     93680  -130.90248      158.5          158.5          158.5         -1.8109311     -1.5618101     -0.16164524    -3.7093378     -130.90248    
     93700  -124.53804      158.5          158.5          158.5         -1.93802       -2.0778289     -0.89665804    -2.8395732     -124.53804    
     93720  -114.16843      158.5          158.5          158.5         -4.7558008     -7.2580834     -3.5395085     -3.4698106     -114.16843    
     93740  -131.24153      158.5          158.5          158.5          0.50506532    -0.37845445    -1.2192107      3.1128611     -131.24153    
     93760  -128.07959      158.5          158.5          158.5          4.9485127      5.1460676      4.3661244      5.3333461     -128.07959    
     93780  -129.57932      158.5          158.5          158.5          2.1766471      4.740044       4.3263483     -2.5364511     -129.57932    
     93800  -133.42576      158.5          158.5          158.5          6.4299193      5.8926184      7.7306317      5.6665078     -133.42576    
     93820  -134.78355      158.5          158.5          158.5         -4.5438125     -6.1342039     -7.7697439      0.27251017    -134.78355    
     93840  -137.27776      158.5          158.5          158.5          1.6497344      4.3493949      0.081492955    0.51831528    -137.27776    
     93860  -147.47196      158.5          158.5          158.5          2.2834395      3.274087       3.6862958     -0.11006444    -147.47196    
     93880  -136.89215      158.5          158.5          158.5         -4.0772962     -5.2919181     -3.746597      -3.1933736     -136.89215    
     93900  -138.07795      158.5          158.5          158.5          3.0091247      2.8283947      2.2137547      3.9852248     -138.07795    
     93920  -160.25163      158.5          158.5          158.5         -0.64527076     1.2500812      1.1556271     -4.3415206     -160.25163    
     93940  -134.03302      158.5          158.5          158.5         -3.1219934     -4.326752      -1.5868724     -3.4523557     -134.03302    
     93960  -151.50756      158.5          158.5          158.5          0.30992517     2.1211312     -1.1936989      0.0023432723  -151.50756    
     93980  -146.10252      158.5          158.5          158.5          0.23894008    -2.6395535      0.60367042     2.7527033     -146.10252    
     94000  -141.82489      158.5          158.5          158.5          3.5043442     -1.095364       5.2408338      6.3675627     -141.82489    
     94020  -151.11012      158.5          158.5          158.5         -2.7798046     -1.4856798     -5.5920743     -1.2616598     -151.11012    
     94040  -137.02681      158.5          158.5          158.5         -1.6535898     -4.6873204     -3.6776035      3.4041545     -137.02681    
     94060  -140.47255      158.5          158.5          158.5          1.5400168     -1.1384563      0.81423596     4.9442706     -140.47255    
     94080  -130.53103      158.5          158.5          158.5         -6.551651      -6.3034614     -5.4532956     -7.8981959     -130.53103    
     94100  -140.95886      158.5          158.5          158.5         -1.1570269     -2.8612651     -1.7826108      1.1727952     -140.95886    
     94120  -117.65205      158.5          158.5          158.5          0.86305504     2.7166118     -3.5972641      3.4698175     -117.65205    
     94140  -146.18012      158.5          158.5          158.5         -3.8151824     -4.2837721     -3.6532638     -3.5085115     -146.18012    
     94160  -143.07725      158.5          158.5          158.5          1.047169       0.041858623    0.80321394     2.2964345     -143.07725    
     94180  -134.06508      158.5          158.5          158.5          2.8378285      8.2607406     -2.218326       2.4710709     -134.06508    
     94200  -136.08414      158.5          158.5          158.5         -0.75364016     0.52041403    -2.9168633      0.13552882    -136.08414    
     94220  -127.7694       158.5          158.5          158.5          4.4094063      2.1150565      6.4354052      4.6777573     -127.7694     
     94240  -153.30315      158.5          158.5          158.5         -2.7425245     -0.30320223    -3.3460439     -4.5783274     -153.30315    
     94260  -135.66137      158.5          158.5          158.5          2.3915562      4.5677222      1.5798388      1.0271076     -135.66137    
     94280  -124.73544      158.5          158.5          158.5          2.32489        0.43202824     6.1468559      0.3957859     -124.73544    
     94300  -129.61838      158.5          158.5          158.5         -2.9980617     -3.3177778      3.1560486     -8.832456      -129.61838    
     94320  -138.36847      158.5          158.5          158.5          3.0089813      3.4130619      2.6607231      2.9531589     -138.36847    
     94340  -138.62834      158.5          158.5          158.5         -3.8599561     -3.0080673     -7.1300866     -1.4417143     -138.62834    
     94360  -139.33978      158.5          158.5          158.5         -5.4879253     -0.58838948    -7.0551527     -8.8202336     -139.33978    
     94380  -153.13428      158.5          158.5          158.5          3.2320326      4.5365436      1.5373222      3.622232      -153.13428    
     94400  -147.03686      158.5          158.5          158.5          2.2354234      0.40586351     0.68022244     5.6201843     -147.03686    
     94420  -150.6792       158.5          158.5          158.5         -1.195676      -4.2112452      1.0024121     -0.3781949     -150.6792     
     94440  -163.90775      158.5          158.5          158.5          0.53514384     4.0555297     -0.66100303    -1.7890952     -163.90775    
     94460  -156.20825      158.5          158.5          158.5         -2.6658347     -0.87788011    -5.4842923     -1.6353317     -156.20825    
     94480  -155.82363      158.5          158.5          158.5         -0.077122602   -3.5375744      2.1739438      1.1322627     -155.82363    
     94500  -158.27695      158.5          158.5          158.5         -0.010553465   -2.9662124      4.7242647     -1.7897126     -158.27695    
     94520  -139.99878      158.5          158.5          158.5         -2.2705201     -1.1885444     -1.3145282     -4.3084878     -139.99878    
     94540  -156.98082      158.5          158.5          158.5          0.54236187     1.9167419     -3.0107038      2.7210474     -156.98082    
     94560  -146.43696      158.5          158.5          158.5          1.8177379      0.87222292     1.4441867      3.1368041     -146.43696    
     94580  -149.41479      158.5          158.5          158.5         -1.4765095     -0.88450014     1.565582      -5.1106105     -149.41479    
     94600  -158.58657      158.5          158.5          158.5          2.7231612      1.1340589      4.2626482      2.7727766     -158.58657    
     94620  -156.82142      158.5          158.5          158.5          2.0808306      0.76920086     1.8110896      3.6622015     -156.82142    
     94640  -162.9104       158.5          158.5          158.5          1.1742019      2.7849882      3.161896      -2.4242785     -162.9104     
     94660  -113.61933      158.5          158.5          158.5         -0.56603221     2.2445101      0.86149938    -4.8041061     -113.61933    
     94680  -145.42388      158.5          158.5          158.5         -4.0277611     -2.8150898     -2.9232516     -6.3449419     -145.42388    
     94700  -161.13821      158.5          158.5          158.5          2.9579095      3.1111094      0.83879173     4.9238273     -161.13821    
     94720  -148.39477      158.5          158.5          158.5          0.35080956     0.32501467     0.82772584    -0.10031183    -148.39477    
     94740  -150.5117       158.5          158.5          158.5         -0.54922528     0.86811095     1.4083955     -3.9241823     -150.5117     
     94760  -139.8903       158.5          158.5          158.5         -3.5854187     -6.089159      -5.3614793      0.69438227    -139.8903     
     94780  -134.90041      158.5          158.5          158.5         -3.167936       0.017699698   -7.701302      -1.8202058     -134.90041    
     94800  -143.61619      158.5          158.5          158.5          1.8947682      8.8201148     -0.45300777    -2.6828023     -143.61619    
     94820  -126.10099      158.5          158.5          158.5         -2.4222989     -4.7279365     -3.4307424      0.89178226    -126.10099    
     94840  -139.22983      158.5          158.5          158.5          1.355766      -1.3055404      2.5707098      2.8021286     -139.22983    
     94860  -140.20702      158.5          158.5          158.5          3.6330054      4.2485793      2.6147296      4.0357075     -140.20702    
     94880  -128.54648      158.5          158.5          158.5         -1.385779       0.94023087    -5.6595422      0.56197439    -128.54648    
     94900  -140.26783      158.5          158.5          158.5         -1.239379      -2.1547928     -1.9977659      0.43442187    -140.26783    
     94920  -137.28841      158.5          158.5          158.5         -0.73204925    -3.5294255     -0.81476169     2.1480394     -137.28841    
     94940  -128.62377      158.5          158.5          158.5         -0.61132685     0.827712      -1.9011301     -0.76056249    -128.62377    
     94960  -125.83838      158.5          158.5          158.5         -0.40138215     3.9460301     -4.2905231     -0.85965343    -125.83838    
     94980  -121.145        158.5          158.5          158.5         -1.8114405     -3.1681181     -1.5222878     -0.74391566    -121.145      
     95000  -130.32265      158.5          158.5          158.5          0.5128397     -2.4535097      7.502377      -3.5103482     -130.32265    
     95020  -145.33128      158.5          158.5          158.5          1.3186651      3.8463098      2.2169876     -2.1073022     -145.33128    
     95040  -109.5459       158.5          158.5          158.5         -1.7268127      1.8403561     -0.11657339    -6.9042207     -109.5459     
     95060  -114.40633      158.5          158.5          158.5         -0.51537476     0.7048684      2.6293807     -4.8803734     -114.40633    
     95080  -127.19247      158.5          158.5          158.5          4.0533338      1.7562459      8.0253295      2.3784259     -127.19247    
     95100  -120.97616      158.5          158.5          158.5          0.059118627   -1.308405       1.480001       0.0057598808  -120.97616    
     95120  -128.24578      158.5          158.5          158.5          2.3065091      2.9342999      2.7532055      1.2320219     -128.24578    
     95140  -134.52081      158.5          158.5          158.5          1.7802009     -1.1927108      4.7507772      1.7825362     -134.52081    
     95160  -131.26528      158.5          158.5          158.5         -2.8520868     -5.2729695     -2.6278764     -0.65541445    -131.26528    
     95180  -141.93503      158.5          158.5          158.5          3.0321102      1.2094145      2.9698462      4.91707       -141.93503    
     95200  -122.97256      158.5          158.5          158.5         -3.4007931     -2.301777      -6.1089003     -1.7917021     -122.97256    
     95220  -130.92606      158.5          158.5          158.5          3.8817517      0.86097966     5.2630251      5.5212504     -130.92606    
     95240  -133.97698      158.5          158.5          158.5          3.5571491      0.79427891     4.5894148      5.2877538     -133.97698    
     95260  -132.27889      158.5          158.5          158.5         -3.901217      -2.8693262     -5.8131401     -3.0211846     -132.27889    
     95280  -145.35659      158.5          158.5          158.5          3.9752509      4.3108427      1.7063288      5.9085811     -145.35659    
     95300  -122.05001      158.5          158.5          158.5         -6.2826082     -7.9096554     -6.9175974     -4.0205719     -122.05001    
     95320  -149.82152      158.5          158.5          158.5         -1.1970664      0.049055215   -4.4474281      0.80717363    -149.82152    
     95340  -135.37968      158.5          158.5          158.5          2.4939515      5.4975        -1.1674876      3.1518421     -135.37968    
     95360  -133.29971      158.5          158.5          158.5         -5.1137802     -5.4662974     -5.5674093     -4.3076338     -133.29971    
     95380  -137.56163      158.5          158.5          158.5          2.5344681      1.6618466      3.6257008      2.3158568     -137.56163    
     95400  -148.59289      158.5          158.5          158.5         -3.1024081     -4.9986252     -3.8079454     -0.50065375    -148.59289    
     95420  -137.03002      158.5          158.5          158.5          0.53626047    -0.88933328    -1.246527       3.7446417     -137.03002    
     95440  -152.33947      158.5          158.5          158.5          3.141669       5.3294444      2.9698787      1.1256838     -152.33947    
     95460  -135.67504      158.5          158.5          158.5          0.093750697   -0.88083836    -1.0241561      2.1862465     -135.67504    
     95480  -121.95383      158.5          158.5          158.5          5.6633791      3.3859788      5.4103735      8.193785      -121.95383    
     95500  -117.34112      158.5          158.5          158.5         -0.34968113     0.72285094     0.39428583    -2.1661802     -117.34112    
     95520  -124.52605      158.5          158.5          158.5         -1.1132378     -2.4920529      1.1197728     -1.9674332     -124.52605    
     95540  -121.69257      158.5          158.5          158.5          4.0761206      1.4474169      4.6720742      6.1088707     -121.69257    
     95560  -105.91866      158.5          158.5          158.5         -8.3371331     -8.6682517     -13.540334     -2.8028133     -105.91866    
     95580  -86.567245      158.5          158.5          158.5          4.6700478      7.3860299      5.8347916      0.78932194    -86.567245    
     95600  -123.96063      158.5          158.5          158.5         -2.5206952     -0.60206142    -0.49600327    -6.464021      -123.96063    
     95620  -107.50279      158.5          158.5          158.5         -0.044959997   -3.4586935     -2.0267048      5.3505182     -107.50279    
     95640  -107.57973      158.5          158.5          158.5          3.1741904      1.8780436      1.1994273      6.4451002     -107.57973    
     95660  -90.568964      158.5          158.5          158.5         -7.7727458     -5.6026734     -9.7168473     -7.9987166     -90.568964    
     95680  -92.230293      158.5          158.5          158.5          1.7747863      5.7031547     -5.1402373      4.7614416     -92.230293    
     95700  -105.53604      158.5          158.5          158.5         -5.2370565     -6.5604374     -5.8398095     -3.3109226     -105.53604    
     95720  -109.16657      158.5          158.5          158.5         -0.50043057    -0.52048702     3.633013      -4.6138177     -109.16657    
     95740  -114.16811      158.5          158.5          158.5          3.8087219      8.6038755      1.7906064      1.0316838     -114.16811    
     95760  -120.03465      158.5          158.5          158.5         -3.0703087     -0.47863974    -8.6598131     -0.072473301   -120.03465    
     95780  -133.25889      158.5          158.5          158.5          2.9414576     -0.56142209     4.1106706      5.2751243     -133.25889    
     95800  -140.01329      158.5          158.5          158.5          1.3639724      1.9607251     -0.16513397     2.2963262     -140.01329    
     95820  -142.31849      158.5          158.5          158.5         -0.33841551     1.3905704     -1.6084262     -0.79739066    -142.31849    
     95840  -141.71679      158.5          158.5          158.5          3.0555318      2.721291       1.5341568      4.9111478     -141.71679    
     95860  -146.94634      158.5          158.5          158.5         -2.0318351     -3.2311848      1.3453951     -4.2097156     -146.94634    
     95880  -147.68076      158.5          158.5          158.5          1.5416246      0.047247268    6.4521953     -1.8745688     -147.68076    
     95900  -136.5456       158.5          158.5          158.5          1.5442709      0.88411241     4.033994      -0.28529372    -136.5456     
     95920  -142.8401       158.5          158.5          158.5         -1.316871      -1.492967       3.5850145     -6.0426606     -142.8401     
     95940  -152.03036      158.5          158.5          158.5          0.4374401     -3.1250482      6.700199      -2.2628305     -152.03036    
     95960  -140.83527      158.5          158.5          158.5          0.53693496    -1.2619102      1.8696142      1.0031008     -140.83527    
     95980  -148.25619      158.5          158.5          158.5         -0.97821235     1.0645022     -2.9082322     -1.0909071     -148.25619    
     96000  -168.86556      158.5          158.5          158.5         -0.10428571    -2.4211118      0.14774533     1.9605093     -168.86556    
     96020  -161.25537      158.5          158.5          158.5          0.16097826    -2.4193523      2.8803299      0.021957206   -161.25537    
     96040  -159.57104      158.5          158.5          158.5         -2.0097599     -1.488968      -1.2908264     -3.2494852     -159.57104    
     96060  -154.0827       158.5          158.5          158.5         -1.6511969      1.6428437     -7.9313222      1.3348879     -154.0827     
     96080  -163.11537      158.5          158.5          158.5          3.2420101      5.4335945     -1.1936249      5.4860606     -163.11537    
     96100  -149.36631      158.5          158.5          158.5         -0.23212614    -0.70724772    -4.0440092      4.0548785     -149.36631    
     96120  -153.20606      158.5          158.5          158.5         -1.62644       -4.8216677     -1.9883821      1.9307298     -153.20606    
     96140  -162.27121      158.5          158.5          158.5         -2.9529455     -1.8430018     -3.34667       -3.6691646     -162.27121    
     96160  -151.52578      158.5          158.5          158.5         -3.6835194     -2.3378828     -5.4597551     -3.2529204     -151.52578    
     96180  -151.98532      158.5          158.5          158.5          0.88505701     1.7501921      0.32149714     0.58348184    -151.98532    
     96200  -151.07264      158.5          158.5          158.5         -2.6702724     -2.3387796     -1.3523233     -4.3197143     -151.07264    
     96220  -156.21526      158.5          158.5          158.5         -0.31725722     1.1489779     -2.3962137      0.29546417    -156.21526    
     96240  -149.77289      158.5          158.5          158.5          1.8864929      3.2407775     -1.2027888      3.6214899     -149.77289    
     96260  -152.46522      158.5          158.5          158.5         -1.5989023     -3.7226618      0.39871813    -1.4727633     -152.46522    
     96280  -134.04982      158.5          158.5          158.5          2.3921394      2.6081568      2.9228732      1.6453883     -134.04982    
     96300  -135.50727      158.5          158.5          158.5          0.22403026     3.0484544     -3.2833706      0.90700701    -135.50727    
     96320  -148.61093      158.5          158.5          158.5          0.56574388    -0.69674433     2.9125285     -0.51855254    -148.61093    
     96340  -123.26141      158.5          158.5          158.5          2.4547828     -2.76726        10.674613     -0.54300418    -123.26141    
     96360  -143.47967      158.5          158.5          158.5          0.063732298    1.3413898      2.1101049     -3.2602978     -143.47967    
     96380  -132.99062      158.5          158.5          158.5          0.35674777     2.6233921     -3.0301514      1.4770026     -132.99062    
     96400  -146.86963      158.5          158.5          158.5          1.700436      -2.3537339      5.3889738      2.0660681     -146.86963    
     96420  -125.70559      158.5          158.5          158.5          2.2636988     -0.35197335     8.0108959     -0.8678262     -125.70559    
     96440  -151.7277       158.5          158.5          158.5          0.90323755     3.0338713     -3.5969653      3.2728066     -151.7277     
     96460  -116.38776      158.5          158.5          158.5          1.4377793      2.0676851      0.56328971     1.6823631     -116.38776    
     96480  -160.88326      158.5          158.5          158.5         -2.0255076     -1.8935853      2.4809231     -6.6638605     -160.88326    
     96500  -127.91548      158.5          158.5          158.5          1.0837229      2.1764304      3.758351      -2.6836127     -127.91548    
     96520  -144.02244      158.5          158.5          158.5         -4.5336503     -4.0177169     -4.6379153     -4.9453187     -144.02244    
     96540  -141.80264      158.5          158.5          158.5          2.0171154     -0.0022394772   2.2405837      3.8130021     -141.80264    
     96560  -148.16715      158.5          158.5          158.5          2.1583772      3.4742524      0.13466914     2.8662101     -148.16715    
     96580  -139.37983      158.5          158.5          158.5         -3.3616031     -5.2482766     -2.9560127     -1.8805199     -139.37983    
     96600  -151.41308      158.5          158.5          158.5         -1.4775794     -2.0554145     -2.351557      -0.025766583   -151.41308    
     96620  -130.78447      158.5          158.5          158.5         -0.76053878     2.1070335     -7.2086699      2.8200201     -130.78447    
     96640  -160.51303      158.5          158.5          158.5         -1.0440975      0.13366005    -4.9670027      1.7010502     -160.51303    
     96660  -141.66185      158.5          158.5          158.5         -0.025739664   -0.78422407     1.3363931     -0.62938805    -141.66185    
     96680  -151.71765      158.5          158.5          158.5         -1.6071123      1.3918715     -5.8641817     -0.34902662    -151.71765    
     96700  -139.13781      158.5          158.5          158.5          0.087690382   -2.3958288     -1.6025874      4.2614873     -139.13781    
     96720  -147.41747      158.5          158.5          158.5         -0.87551305    -2.0108546      2.2784417     -2.8941262     -147.41747    
     96740  -130.39246      158.5          158.5          158.5          2.094889       6.4334511      0.27402327    -0.42280735    -130.39246    
     96760  -157.17701      158.5          158.5          158.5          0.4522629      2.8689769     -1.969101       0.45691283    -157.17701    
     96780  -148.31929      158.5          158.5          158.5         -1.2082063     -1.0786208     -2.2160251     -0.32997289    -148.31929    
     96800  -153.22406      158.5          158.5          158.5         -6.5166939     -6.2515748     -7.3125535     -5.9859533     -153.22406    
     96820  -156.96412      158.5          158.5          158.5          4.8238302      1.7875233      8.9788237      3.7051436     -156.96412    
     96840  -161.91028      158.5          158.5          158.5          2.9293008      0.42512805     6.6317481      1.7310264     -161.91028    
     96860  -135.10102      158.5          158.5          158.5          2.5835873      1.1667667      2.2699083      4.314087      -135.10102    
     96880  -140.71845      158.5          158.5          158.5          6.8282706      2.8819108      8.075657       9.5272439     -140.71845    
     96900  -137.29709      158.5          158.5          158.5         -3.1657353     -4.0477907      1.0218773     -6.4712927     -137.29709    
     96920  -153.62294      158.5          158.5          158.5          0.72069264     1.2412346      0.027666048    0.89317726    -153.62294    
     96940  -146.57025      158.5          158.5          158.5         -1.9577097     -3.5391942     -2.8281183      0.49418354    -146.57025    
     96960  -148.92244      158.5          158.5          158.5          0.26690651     0.018615585    0.43500081     0.34710313    -148.92244    
     96980  -149.15991      158.5          158.5          158.5          3.4962686      3.0315262      5.2717828      2.1854968     -149.15991    
     97000  -153.71633      158.5          158.5          158.5          1.2153973     -1.3349032      1.9351095      3.0459856     -153.71633    
     97020  -145.76986      158.5          158.5          158.5         -0.12079794    -2.7251094     -4.6596797      7.0223952     -145.76986    
     97040  -130.95864      158.5          158.5          158.5          0.65097487     0.93420207    -2.3882148      3.4069374     -130.95864    
     97060  -142.91164      158.5          158.5          158.5         -0.73527523    -3.6377505      3.7302114     -2.2982866     -142.91164    
     97080  -135.72298      158.5          158.5          158.5         -2.4845337     -0.3996475     -6.2843701     -0.76958346    -135.72298    
     97100  -149.79467      158.5          158.5          158.5          2.8177433      7.8368044     -2.5092767      3.1257022     -149.79467    
     97120  -136.7546       158.5          158.5          158.5         -5.1858673     -1.4141159     -6.1994688     -7.9440171     -136.7546     
     97140  -135.26506      158.5          158.5          158.5          2.2196642      3.7679313      1.0972467      1.7938146     -135.26506    
     97160  -146.02035      158.5          158.5          158.5          0.82313653     1.7157295     -0.43345434     1.1871344     -146.02035    
     97180  -133.29868      158.5          158.5          158.5         -5.251447      -1.1678912     -7.4743817     -7.112068      -133.29868    
     97200  -136.28417      158.5          158.5          158.5          2.5263219      2.6609243      1.5157787      3.4022627     -136.28417    
     97220  -140.87324      158.5          158.5          158.5         -5.370312      -6.4450289     -3.2701231     -6.395784      -140.87324    
     97240  -136.06463      158.5          158.5          158.5          2.1231737      1.2659284      3.8254313      1.2781613     -136.06463    
     97260  -131.40532      158.5          158.5          158.5          0.63766295     3.8052417      0.53845484    -2.4307077     -131.40532    
     97280  -146.92599      158.5          158.5          158.5         -0.14250137    -0.47788743    -0.066218665    0.11660198    -146.92599    
     97300  -143.59331      158.5          158.5          158.5          2.3741109     -0.35373691     2.4783733      4.9976962     -143.59331    
     97320  -150.7105       158.5          158.5          158.5         -1.0363208      1.4887779     -0.91377872    -3.6839616     -150.7105     
     97340  -136.85622      158.5          158.5          158.5          0.98343863    -2.4100201      2.4233182      2.9370177     -136.85622    
     97360  -163.78734      158.5          158.5          158.5         -2.0007737     -3.1908051     -1.1733682     -1.6381478     -163.78734    
     97380  -151.83193      158.5          158.5          158.5          5.7539265      2.6541815      7.2503706      7.3572273     -151.83193    
     97400  -160.90989      158.5          158.5          158.5         -1.9191062     -2.1645299      0.69491777    -4.2877064     -160.90989    
     97420  -147.41652      158.5          158.5          158.5         -2.4285791     -0.20714001    -3.6840087     -3.3945887     -147.41652    
     97440  -145.38825      158.5          158.5          158.5          5.5446877      1.1040077      3.5668831      11.963172     -145.38825    
     97460  -151.57575      158.5          158.5          158.5         -3.4426678     -5.9931204     -2.7892521     -1.545631      -151.57575    
     97480  -149.0946       158.5          158.5          158.5         -0.46249277    -0.027221788   -0.92788043    -0.43237608    -149.0946     
     97500  -163.98198      158.5          158.5          158.5          3.3394039      2.5385384      3.5618216      3.9178516     -163.98198    
     97520  -153.38551      158.5          158.5          158.5         -0.020642569    0.45816124     1.1020858     -1.6221747     -153.38551    
     97540  -143.7246       158.5          158.5          158.5         -1.5323045      0.43528253    -5.8382577      0.80606181    -143.7246     
     97560  -153.20636      158.5          158.5          158.5          1.6267904      3.4127913     -2.6556752      4.1232552     -153.20636    
     97580  -146.38211      158.5          158.5          158.5         -2.1325161     -3.7978498     -1.7321971     -0.86750134    -146.38211    
     97600  -165.34178      158.5          158.5          158.5          0.97834345    -4.5010704      1.9093531      5.5267477     -165.34178    
     97620  -131.32779      158.5          158.5          158.5          1.1589098     -0.51780445     2.772897       1.2216367     -131.32779    
     97640  -135.31592      158.5          158.5          158.5         -4.1738102     -2.2033832     -1.9509063     -8.3671411     -135.31592    
     97660  -114.31618      158.5          158.5          158.5          0.097028546   -3.8559525      1.6670217      2.4800164     -114.31618    
     97680  -150.62532      158.5          158.5          158.5          2.1319948      3.7959819     -2.1099539      4.7099565     -150.62532    
     97700  -111.19934      158.5          158.5          158.5         -1.0250695     -0.79777365     0.97673546    -3.2541703     -111.19934    
     97720  -134.18773      158.5          158.5          158.5         -1.8645652      1.1352147     -2.9452337     -3.7836765     -134.18773    
     97740  -120.34479      158.5          158.5          158.5         -1.8127224     -0.61520804    -5.0315944      0.20863518    -120.34479    
     97760  -151.28352      158.5          158.5          158.5          0.78589338     0.023721369   -0.30661796     2.6405767     -151.28352    
     97780  -119.92788      158.5          158.5          158.5         -2.4377729      0.97648034     0.36350487    -8.6533039     -119.92788    
     97800  -149.91901      158.5          158.5          158.5          3.2315743      4.9975045      5.4778858     -0.78066751    -149.91901    
     97820  -140.16945      158.5          158.5          158.5          4.4621128      1.2550664      3.7236977      8.4075744     -140.16945    
     97840  -130.82728      158.5          158.5          158.5         -5.1692684     -6.2790325     -5.2450146     -3.9837581     -130.82728    
     97860  -130.98891      158.5          158.5          158.5          4.0338139      5.5249439      8.4334618     -1.8569638     -130.98891    
     97880  -141.7279       158.5          158.5          158.5         -0.75657449    -0.70344664    -0.13397216    -1.4323047     -141.7279     
     97900  -138.8519       158.5          158.5          158.5         -2.4788736     -1.4606743     -5.3473934     -0.62855306    -138.8519     
     97920  -149.64791      158.5          158.5          158.5         -3.1955013     -4.7902498     -1.9720773     -2.8241767     -149.64791    
     97940  -150.52425      158.5          158.5          158.5          0.46930469    -0.10697579     4.0783898     -2.5634999     -150.52425    
     97960  -150.84639      158.5          158.5          158.5         -0.38243276     2.1860508      1.6137008     -4.9470498     -150.84639    
     97980  -148.76637      158.5          158.5          158.5          2.055351       0.19013476     1.4022455      4.5736727     -148.76637    
     98000  -159.82648      158.5          158.5          158.5         -1.9194956     -4.3235385     -0.036135333   -1.398813      -159.82648    
     98020  -167.07019      158.5          158.5          158.5         -1.6150881     -3.0434519     -1.4620486     -0.33976397    -167.07019    
     98040  -142.40141      158.5          158.5          158.5          4.7138546      2.1818697      1.8580521      10.101642     -142.40141    
     98060  -155.98162      158.5          158.5          158.5         -1.0243444     -0.13007132    -5.3507616      2.4077996     -155.98162    
     98080  -147.5903       158.5          158.5          158.5          0.65821246    -0.98050144     4.4941876     -1.5390488     -147.5903     
     98100  -158.66225      158.5          158.5          158.5          1.5110475      0.31327496     3.5833905      0.63647715    -158.66225    
     98120  -135.72186      158.5          158.5          158.5         -1.2325711      1.1278031     -5.7843779      0.95886137    -135.72186    
     98140  -159.77336      158.5          158.5          158.5          3.387977       4.7935833      3.4978971      1.8724507     -159.77336    
     98160  -148.61784      158.5          158.5          158.5         -2.3773466     -3.1154104      1.7518774     -5.7685068     -148.61784    
     98180  -151.28546      158.5          158.5          158.5          0.34375623    -0.82908334     1.415379       0.44497301    -151.28546    
     98200  -138.35721      158.5          158.5          158.5          2.203194       3.8290611     -4.5311704      7.3116912     -138.35721    
     98220  -153.51842      158.5          158.5          158.5          0.52071706     3.5789949     -0.12401793    -1.8928258     -153.51842    
     98240  -124.49783      158.5          158.5          158.5          1.2587487      2.5861454      3.0311143     -1.8410135     -124.49783    
     98260  -148.84446      158.5          158.5          158.5         -0.49785182     2.1843905     -5.1332441      1.4552982     -148.84446    
     98280  -138.715        158.5          158.5          158.5         -1.4778744     -1.4725839     -5.1665495      2.2055102     -138.715      
     98300  -150.61279      158.5          158.5          158.5         -1.0383947     -1.9270639      2.2096701     -3.3977902     -150.61279    
     98320  -152.86869      158.5          158.5          158.5          3.9248715      4.0843951      7.4040915      0.28612787    -152.86869    
     98340  -131.81574      158.5          158.5          158.5         -3.6677379     -4.4589592     -5.5491691     -0.9950854     -131.81574    
     98360  -141.06574      158.5          158.5          158.5         -1.6204278     -2.8663159     -3.2263972      1.2314297     -141.06574    
     98380  -141.03509      158.5          158.5          158.5          3.5134911      1.4082734      6.7170217      2.415178      -141.03509    
     98400  -111.58218      158.5          158.5          158.5         -3.7360198     -6.3139212     -3.0354903     -1.8586478     -111.58218    
     98420  -119.65483      158.5          158.5          158.5          6.6481453      8.2718025      3.8282356      7.8443977     -119.65483    
     98440  -104.25069      158.5          158.5          158.5          3.9272454      4.0638162      5.2259597      2.4919604     -104.25069    
     98460  -146.44594      158.5          158.5          158.5         -0.58378468    -2.3614885      3.5858312     -2.9756968     -146.44594    
     98480  -104.43019      158.5          158.5          158.5         -1.6586807     -4.6461401     -0.8669077      0.5370057     -104.43019    
     98500  -121.40845      158.5          158.5          158.5         -2.6684209     -7.5913874      0.5366811     -0.9505563     -121.40845    
     98520  -114.75736      158.5          158.5          158.5          2.1489149      7.2579802      2.7630046     -3.57424       -114.75736    
     98540  -138.89256      158.5          158.5          158.5          0.3676075      1.006659       4.8666351     -4.7704716     -138.89256    
     98560  -109.63341      158.5          158.5          158.5         -0.089051538   -4.8084296      3.3723982      1.1688768     -109.63341    
     98580  -118.78224      158.5          158.5          158.5          2.253563       4.0559847     -1.9291921      4.6338963     -118.78224    
     98600  -112.70556      158.5          158.5          158.5         -2.8689699      2.5084451     -7.96476       -3.1505947     -112.70556    
     98620  -133.67375      158.5          158.5          158.5          2.0892006      2.5557325      3.7387129     -0.026843608   -133.67375    
     98640  -116.45778      158.5          158.5          158.5         -4.7602874     -9.8385206     -1.2561936     -3.186148      -116.45778    
     98660  -137.24777      158.5          158.5          158.5         -3.7566036     -3.8290356     -4.7180511     -2.722724      -137.24777    
     98680  -126.92282      158.5          158.5          158.5          4.149152       9.5363918      0.37088386     2.5401803     -126.92282    
     98700  -140.74903      158.5          158.5          158.5         -6.1399126     -7.2238876     -5.0326956     -6.1631547     -140.74903    
     98720  -156.76793      158.5          158.5          158.5          0.55209266    -2.7324854      2.289714       2.0990494     -156.76793    
     98740  -129.90581      158.5          158.5          158.5          0.43422689     5.1504271     -5.9747159      2.1269694     -129.90581    
     98760  -159.46881      158.5          158.5          158.5         -0.54582648     2.9713753     -3.5765599     -1.0322949     -159.46881    
     98780  -154.69941      158.5          158.5          158.5          4.5562498      1.8054652      5.9188755      5.9444086     -154.69941    
     98800  -152.31758      158.5          158.5          158.5         -3.9624953     -2.5002586     -6.8382412     -2.548986      -152.31758    
     98820  -159.0653       158.5          158.5          158.5          1.463912       5.5790732     -3.5221464      2.3348093     -159.0653     
     98840  -152.71332      158.5          158.5          158.5         -0.070611558    5.1586373     -2.7149645     -2.6555075     -152.71332    
     98860  -151.21768      158.5          158.5          158.5         -1.0079523      0.051947911   -2.6138412     -0.46196367    -151.21768    
     98880  -134.17566      158.5          158.5          158.5          4.0555643      3.4121325      4.5255436      4.2290168     -134.17566    
     98900  -157.93493      158.5          158.5          158.5         -3.0427824     -0.179469      -2.5426936     -6.4061847     -157.93493    
     98920  -154.76433      158.5          158.5          158.5         -0.50291002     2.8340397     -1.0537471     -3.2890227     -154.76433    
     98940  -151.05882      158.5          158.5          158.5          3.352984      -0.051804154    5.8803276      4.2304284     -151.05882    
     98960  -158.04082      158.5          158.5          158.5         -0.70233954    -4.8957082      3.3666287     -0.57793918    -158.04082    
     98980  -141.91851      158.5          158.5          158.5         -0.48097366     2.6853275      1.6843296     -5.8125781     -141.91851    
     99000  -145.65008      158.5          158.5          158.5          2.5241479      5.5477175      3.585879      -1.5611527     -145.65008    
     99020  -149.38682      158.5          158.5          158.5          2.0020209     -2.5736123      4.3986248      4.18105       -149.38682    
     99040  -133.96046      158.5          158.5          158.5         -0.64803729    -4.9718284      2.5400286      0.48768786    -133.96046    
     99060  -147.93148      158.5          158.5          158.5         -0.55134978     1.5579898     -1.419673      -1.7923661     -147.93148    
     99080  -144.31762      158.5          158.5          158.5          1.4982446      2.7817308     -0.26036138     1.9733643     -144.31762    
     99100  -137.44716      158.5          158.5          158.5         -0.66253172    -3.7128813      4.3923735     -2.6670873     -137.44716    
     99120  -127.09092      158.5          158.5          158.5          2.9965789      2.8488108      5.6897108      0.45121506    -127.09092    
     99140  -143.6827       158.5          158.5          158.5         -2.3817011     -1.2245942     -6.0925201      0.17201096    -143.6827     
     99160  -120.10677      158.5          158.5          158.5         -1.110197      -0.65587386    -4.6104934      1.9357763     -120.10677    
     99180  -141.10058      158.5          158.5          158.5         -0.3785117     -0.012754326   -1.6856738      0.56289305    -141.10058    
     99200  -121.97261      158.5          158.5          158.5         -4.4968955     -7.2006986     -3.0809518     -3.2090362     -121.97261    
     99220  -128.18722      158.5          158.5          158.5          0.37932459    -1.5055933     -0.38772452     3.0312916     -128.18722    
     99240  -111.08805      158.5          158.5          158.5          1.2073425      3.3569819     -5.2399844      5.5050301     -111.08805    
     99260  -118.66254      158.5          158.5          158.5         -3.3826052     -2.3446617     -6.022041      -1.7811131     -118.66254    
     99280  -134.13777      158.5          158.5          158.5          0.5862142     -0.51047435    -0.9135891      3.1827061     -134.13777    
     99300  -117.56861      158.5          158.5          158.5         -2.6895248     -1.4830089     -6.1933738     -0.39219183    -117.56861    
     99320  -142.86083      158.5          158.5          158.5         -0.53524701     0.61095983    -6.0429823      3.8262814     -142.86083    
     99340  -136.86076      158.5          158.5          158.5         -0.33552049    -0.17395798    -2.1413635      1.3087601     -136.86076    
     99360  -135.83969      158.5          158.5          158.5         -3.3736353     -2.0089799     -4.8963147     -3.2156112     -135.83969    
     99380  -135.45975      158.5          158.5          158.5         -1.5073314     -0.41941181    -2.2378448     -1.8647377     -135.45975    
     99400  -152.76932      158.5          158.5          158.5          0.47253323    -0.24927311    -0.44167297     2.1085458     -152.76932    
     99420  -142.24857      158.5          158.5          158.5         -3.3380212     -4.0864245     -2.353887      -3.5737521     -142.24857    
     99440  -147.41567      158.5          158.5          158.5         -0.1438275     -1.1413802      4.0483208     -3.3384231     -147.41567    
     99460  -150.45414      158.5          158.5          158.5          2.7178457      2.7402518      2.7642925      2.6489928     -150.45414    
     99480  -147.77913      158.5          158.5          158.5         -1.02041       -3.7053303     -0.97381914     1.6179193     -147.77913    
     99500  -141.28673      158.5          158.5          158.5          5.5193921      3.5424571      12.832845      0.1828743     -141.28673    
     99520  -149.69385      158.5          158.5          158.5          1.6975801      2.3017184      5.400653      -2.6096312     -149.69385    
     99540  -148.7472       158.5          158.5          158.5         -1.8681193     -2.0105138     -3.5678142     -0.026029919   -148.7472     
     99560  -154.89182      158.5          158.5          158.5          1.3133162      2.0933306     -1.4314427      3.2780609     -154.89182    
     99580  -147.81658      158.5          158.5          158.5         -0.26830707     1.4805763      0.16064612    -2.4461436     -147.81658    
     99600  -152.0308       158.5          158.5          158.5         -1.0065037     -5.2554783      5.1490932     -2.9131259     -152.0308     
     99620  -163.51823      158.5          158.5          158.5         -0.622643      -0.85940543     0.51141971    -1.5199433     -163.51823    
     99640  -128.29636      158.5          158.5          158.5          2.141289       6.0854403     -0.43690045     0.77532697    -128.29636    
     99660  -153.81691      158.5          158.5          158.5         -0.50316867     1.0703175     -0.37018695    -2.2096365     -153.81691    
     99680  -126.56483      158.5          158.5          158.5          0.93042715     2.3012504      2.134182      -1.644151      -126.56483    
     99700  -155.40271      158.5          158.5          158.5         -4.3124282     -0.46974662    -6.6423973     -5.8251406     -155.40271    
     99720  -133.88184      158.5          158.5          158.5          1.3836763      4.9077479     -7.3588375      6.6021184     -133.88184    
     99740  -133.94853      158.5          158.5          158.5          2.5639057      2.0447138      0.65784514     4.9891581     -133.94853    
     99760  -117.58445      158.5          158.5          158.5         -4.3927423     -6.6289206     -0.88741954    -5.6618869     -117.58445    
     99780  -124.04745      158.5          158.5          158.5          3.162412       6.2443661      1.3713454      1.8715243     -124.04745    
     99800  -118.14861      158.5          158.5          158.5         -6.1760384     -3.1864173     -9.8887777     -5.4529203     -118.14861    
     99820  -133.62302      158.5          158.5          158.5         -1.4563395     -4.5416087     -2.9329823      3.1055725     -133.62302    
     99840  -121.4333       158.5          158.5          158.5         -0.42842567     2.8843108     -2.2297675     -1.9398204     -121.4333     
     99860  -118.92944      158.5          158.5          158.5         -2.0886345      2.2051912     -6.0456758     -2.4254188     -118.92944    
     99880  -134.88688      158.5          158.5          158.5          3.4861875      1.7995073      2.2573875      6.4016678     -134.88688    
     99900  -122.27162      158.5          158.5          158.5          1.5083251     -0.23788714     2.2558357      2.5070267     -122.27162    
     99920  -135.12133      158.5          158.5          158.5         -0.53272673    -1.7740362      1.0180585     -0.84220248    -135.12133    
     99940  -159.66168      158.5          158.5          158.5          0.88280294     2.3929         1.0281329     -0.77262406    -159.66168    
     99960  -147.14544      158.5          158.5          158.5         -0.14015668     3.3410805     -3.9389528      0.17740224    -147.14544    
     99980  -141.22149      158.5          158.5          158.5         -0.49350152    -7.9007475      4.8348904      1.5853526     -141.22149    
    100000  -137.35408      158.5          158.5          158.5          1.8021734     -1.9710307      8.5076494     -1.1300986     -137.35408    
    100020  -151.16317      158.5          158.5          158.5          0.89988944    -0.74147028     4.8148459     -1.3737073     -151.16317    
    100040  -144.56405      158.5          158.5          158.5         -3.5096125     -2.7696588     -5.9147155     -1.8444634     -144.56405    
    100060  -149.35488      158.5          158.5          158.5          2.5634908      1.9302942      4.9048966      0.85528157    -149.35488    
    100080  -146.70204      158.5          158.5          158.5          1.4123236      1.373821       4.6066561     -1.7435064     -146.70204    
    100100  -145.76298      158.5          158.5          158.5          1.7322493      2.2493351      2.0748931      0.87251981    -145.76298    
    100120  -153.2239       158.5          158.5          158.5          2.23057        3.7828212      0.72449953     2.1843891     -153.2239     
    100140  -145.25022      158.5          158.5          158.5          0.52519982     2.9090077      1.1415054     -2.4749137     -145.25022    
    100160  -160.56446      158.5          158.5          158.5         -1.6585063     -2.9924448      2.7610624     -4.7441366     -160.56446    
    100180  -142.85986      158.5          158.5          158.5         -0.7890713     -2.5438374      1.8069505     -1.630327      -142.85986    
    100200  -144.06447      158.5          158.5          158.5         -3.662349      -1.6454934     -9.4665932      0.12503954    -144.06447    
    100220  -151.47786      158.5          158.5          158.5          0.28705114    -0.56788628     1.8577113     -0.42867161    -151.47786    
    100240  -154.30387      158.5          158.5          158.5         -0.12335094    -2.2893336      3.63236       -1.7130792     -154.30387    
    100260  -124.4768       158.5          158.5          158.5          1.1284128      1.9593108     -3.0192872      4.4452149     -124.4768     
    100280  -134.68741      158.5          158.5          158.5          0.50975348     2.6550355     -4.2185789      3.0928039     -134.68741    
    100300  -126.53787      158.5          158.5          158.5         -1.7874955      1.7671883     -5.5195353     -1.6101396     -126.53787    
    100320  -146.84129      158.5          158.5          158.5          0.19380719     1.6911191     -2.2005322      1.0908347     -146.84129    
    100340  -124.02042      158.5          158.5          158.5         -0.51413598    -0.60621879    -1.8270449      0.89085578    -124.02042    
    100360  -125.85068      158.5          158.5          158.5         -1.7369228     -2.3324217     -0.21211271    -2.666234      -125.85068    
    100380  -121.98313      158.5          158.5          158.5         -0.13299256    -4.7710848      3.8832418      0.48886535    -121.98313    
    100400  -126.44334      158.5          158.5          158.5         -2.5964506     -7.5654888      0.54072152    -0.76458467    -126.44334    
    100420  -131.07031      158.5          158.5          158.5          1.6419164      4.1007255      1.4871288     -0.66210517    -131.07031    
    100440  -125.29562      158.5          158.5          158.5          2.1543101      0.32758954     4.1398457      1.9954951     -125.29562    
    100460  -113.35711      158.5          158.5          158.5         -0.93474704    -2.0196425      0.83286192    -1.6174605     -113.35711    
    100480  -143.0788       158.5          158.5          158.5          0.24888595     0.41318816     0.041803761    0.29166593    -143.0788     
    100500  -120.03945      158.5          158.5          158.5          3.7427954      0.20722379     6.7796587      4.2415037     -120.03945    
    100520  -116.41291      158.5          158.5          158.5         -3.2885858     -2.2458735     -5.2985077     -2.3213761     -116.41291    
    100540  -138.5136       158.5          158.5          158.5          3.1912874      3.0696438      2.9077602      3.5964581     -138.5136     
    100560  -132.79766      158.5          158.5          158.5          0.71159907     3.9679309     -0.28096622    -1.5521675     -132.79766    
    100580  -141.46822      158.5          158.5          158.5         -5.8470989     -2.8162612     -8.4104194     -6.3146161     -141.46822    
    100600  -130.14232      158.5          158.5          158.5          3.3944543     -0.41313391     4.3316284      6.2648684     -130.14232    
    100620  -137.27667      158.5          158.5          158.5         -3.4592254     -5.3373504     -0.65828079    -4.382045      -137.27667    
    100640  -158.8345       158.5          158.5          158.5         -0.29219896     2.079466      -2.9185925     -0.037470438   -158.8345     
    100660  -151.54044      158.5          158.5          158.5          3.4764902      3.5107053      0.96913695     5.9496284     -151.54044    
    100680  -137.88355      158.5          158.5          158.5          0.032962584   -1.0892084     -0.86779762     2.0558938     -137.88355    
    100700  -148.34288      158.5          158.5          158.5          1.8575687      4.1649206     -1.6202003      3.0279859     -148.34288    
    100720  -134.20912      158.5          158.5          158.5         -3.0532147      1.5585311     -9.8408135     -0.87736166    -134.20912    
    100740  -142.5477       158.5          158.5          158.5         -2.4502968     -0.86070364    -4.8114787     -1.6787082     -142.5477     
    100760  -139.59349      158.5          158.5          158.5          0.82099525     0.7575227      2.1614715     -0.45600842    -139.59349    
    100780  -159.0185       158.5          158.5          158.5         -2.4697414     -3.2227192     -0.22972929    -3.9567758     -159.0185     
    100800  -156.20564      158.5          158.5          158.5          0.64320557     2.1598245     -3.0788199      2.8486122     -156.20564    
    100820  -131.28348      158.5          158.5          158.5         -4.7418922     -0.95717145    -7.6699952     -5.5985099     -131.28348    
    100840  -154.34041      158.5          158.5          158.5          1.5510992      0.690844       2.8347044      1.1277491     -154.34041    
    100860  -154.25045      158.5          158.5          158.5         -0.44153329     0.27191802    -2.3789053      0.78238735    -154.25045    
    100880  -144.15794      158.5          158.5          158.5          0.53108211     4.0453812     -1.046489      -1.4056459     -144.15794    
    100900  -144.67811      158.5          158.5          158.5          6.3944479      9.8153068      3.7116518      5.6563851     -144.67811    
    100920  -144.60872      158.5          158.5          158.5         -3.339152      -4.5309779     -3.0706621     -2.4158161     -144.60872    
    100940  -151.64349      158.5          158.5          158.5          4.1824188      2.73288        5.9552004      3.859176      -151.64349    
    100960  -151.40854      158.5          158.5          158.5         -8.2545885     -7.3376432     -8.981521      -8.4446014     -151.40854    
    100980  -158.77754      158.5          158.5          158.5          0.19119645    -1.7782494      2.6086914     -0.25685271    -158.77754    
    101000  -151.38997      158.5          158.5          158.5          6.566737       4.088517       10.506314      5.1053798     -151.38997    
    101020  -148.00815      158.5          158.5          158.5         -6.0147193     -7.3964292     -4.5362265     -6.1115022     -148.00815    
    101040  -143.2749       158.5          158.5          158.5          7.7974248      7.4682412      5.3024155      10.621618     -143.2749     
    101060  -153.12722      158.5          158.5          158.5         -2.6503227     -0.90101425    -4.9619923     -2.0879617     -153.12722    
    101080  -142.0212       158.5          158.5          158.5         -0.77213967    -1.9863392      3.5070324     -3.8371121     -142.0212     
    101100  -144.69847      158.5          158.5          158.5          4.0350525      2.3097868      7.0900968      2.705274      -144.69847    
    101120  -152.47837      158.5          158.5          158.5         -6.0963865     -8.4262817     -5.4879548     -4.374923      -152.47837    
    101140  -152.76141      158.5          158.5          158.5          6.8858051      5.2451298      9.0650551      6.3472305     -152.76141    
    101160  -137.32899      158.5          158.5          158.5         -0.19312241    -3.0082151      3.5417071     -1.1128592     -137.32899    
    101180  -147.31201      158.5          158.5          158.5         -0.89026126    -2.384448      -0.3393994      0.053063661   -147.31201    
    101200  -158.16262      158.5          158.5          158.5          2.659345       1.4002409      2.564197       4.013597      -158.16262    
    101220  -145.38858      158.5          158.5          158.5         -1.0502732     -4.0964073      0.69436535     0.25122243    -145.38858    
    101240  -160.95097      158.5          158.5          158.5          1.6770329      2.1871102      1.9540267      0.88996185    -160.95097    
    101260  -145.41747      158.5          158.5          158.5         -0.61052348    -1.9992        -0.0068989461   0.17452848    -145.41747    
    101280  -161.55979      158.5          158.5          158.5          0.54274309    -1.1921904      1.6736528      1.1467669     -161.55979    
    101300  -146.39804      158.5          158.5          158.5         -1.1335895      1.933575      -1.4662085     -3.8681351     -146.39804    
    101320  -143.72124      158.5          158.5          158.5         -2.2931855     -1.7518235     -3.2732991     -1.8544339     -143.72124    
    101340  -140.31468      158.5          158.5          158.5          0.16353552    -1.0636431      1.900096      -0.34584639    -140.31468    
    101360  -156.69916      158.5          158.5          158.5         -3.4831777     -2.4875334     -4.4988512     -3.4631484     -156.69916    
    101380  -144.15719      158.5          158.5          158.5          0.87867255     4.4464295     -2.8917937      1.0813819     -144.15719    
    101400  -155.57393      158.5          158.5          158.5          0.32032197    -0.18555947     0.77605359     0.37047179    -155.57393    
    101420  -141.98094      158.5          158.5          158.5          1.9833661     -1.7610265      3.6079606      4.1031642     -141.98094    
    101440  -133.83476      158.5          158.5          158.5          0.3257256     -1.3314123     -1.7525373      4.0611264     -133.83476    
    101460  -141.38031      158.5          158.5          158.5          3.1643242      4.1610387      2.6660942      2.6658398     -141.38031    
    101480  -144.75959      158.5          158.5          158.5          0.87527357     0.86346714    -0.070997073    1.8333506     -144.75959    
    101500  -119.41225      158.5          158.5          158.5         -5.8505915     -6.6153222     -9.1417203     -1.794732      -119.41225    
    101520  -127.794        158.5          158.5          158.5         -0.6591118      0.9731277      0.34599365    -3.2964568     -127.794      
    101540  -134.9162       158.5          158.5          158.5         -3.8837027     -0.34972588    -4.7336191     -6.567763      -134.9162     
    101560  -138.95209      158.5          158.5          158.5          1.9025646      0.76235484     0.1642786      4.7810604     -138.95209    
    101580  -137.57955      158.5          158.5          158.5          2.3279622      2.3916193      0.40472346     4.1875439     -137.57955    
    101600  -114.50751      158.5          158.5          158.5          0.52173106     3.0432732      0.0048226079  -1.4829026     -114.50751    
    101620  -148.07211      158.5          158.5          158.5          2.8478899      2.3378049      6.9465041     -0.74063932    -148.07211    
    101640  -142.2961       158.5          158.5          158.5         -0.74513376    -1.247081      -4.4402912      3.4519709     -142.2961     
    101660  -124.15553      158.5          158.5          158.5         -3.5812716      1.335397      -11.281252     -0.79795985    -124.15553    
    101680  -127.31626      158.5          158.5          158.5          3.2018255      3.8501332      4.3794671      1.3758763     -127.31626    
    101700  -131.5504       158.5          158.5          158.5         -3.0201298     -7.154414       1.0520179     -2.9579933     -131.5504     
    101720  -145.17181      158.5          158.5          158.5          1.1237707     -0.76393581     3.0219173      1.1133306     -145.17181    
    101740  -125.19057      158.5          158.5          158.5          2.2447246      3.3473035      3.3869763     -0.00010592606 -125.19057    
    101760  -138.75969      158.5          158.5          158.5         -2.3496512      0.20039741    -0.57552374    -6.6738273     -138.75969    
    101780  -132.74338      158.5          158.5          158.5          1.0242224      3.1183733      1.5709994     -1.6167054     -132.74338    
    101800  -146.84782      158.5          158.5          158.5          2.4353214     -1.4294864      4.6584413      4.0770094     -146.84782    
    101820  -144.31522      158.5          158.5          158.5          0.3627142      0.38953976     0.23696487     0.46163796    -144.31522    
    101840  -124.84631      158.5          158.5          158.5         -2.7608957     -0.84391621    -3.378595      -4.060176      -124.84631    
    101860  -144.61248      158.5          158.5          158.5         -1.2424579      0.25584875    -4.1912108      0.20798834    -144.61248    
    101880  -165.32032      158.5          158.5          158.5          2.7085529      1.2613224      3.582493       3.2818434     -165.32032    
    101900  -144.08673      158.5          158.5          158.5          1.0703331     -1.0383034      3.1407662      1.1085366     -144.08673    
    101920  -147.79936      158.5          158.5          158.5         -1.5714429     -1.5082312     -0.83430143    -2.3717961     -147.79936    
    101940  -141.37425      158.5          158.5          158.5         -2.1067283     -3.4359463      1.3206872     -4.2049257     -141.37425    
    101960  -151.15231      158.5          158.5          158.5         -0.60708519     1.0487899     -2.4726796     -0.39736587    -151.15231    
    101980  -141.63133      158.5          158.5          158.5          1.0878242      3.1401402     -1.8152305      1.9385631     -141.63133    
    102000  -142.04516      158.5          158.5          158.5         -3.5020447     -6.1351416     -2.2722562     -2.0987362     -142.04516    
    102020  -152.04584      158.5          158.5          158.5          1.0209797      3.3238998     -1.468602       1.2076413     -152.04584    
    102040  -133.16909      158.5          158.5          158.5         -2.0423865     -1.3306354     -2.008776      -2.787748      -133.16909    
    102060  -157.19809      158.5          158.5          158.5          0.53254101     0.68638294    -0.030112283    0.94135237    -157.19809    
    102080  -150.6528       158.5          158.5          158.5         -2.5726433     -1.3185394     -4.3542266     -2.0451639     -150.6528     
    102100  -142.74225      158.5          158.5          158.5          1.9344135      3.4783285      0.89334971     1.4315622     -142.74225    
    102120  -143.22513      158.5          158.5          158.5          4.124345       2.5117298      8.8320318      1.0292735     -143.22513    
    102140  -142.15765      158.5          158.5          158.5         -5.2452245     -3.6301018     -6.7577981     -5.3477736     -142.15765    
    102160  -122.48897      158.5          158.5          158.5          0.25951054     3.4074242     -3.2114734      0.5825808     -122.48897    
    102180  -162.02148      158.5          158.5          158.5         -4.192983      -5.487839      -0.50734405    -6.5837659     -162.02148    
    102200  -145.06539      158.5          158.5          158.5          3.8099742      0.35982959     5.5363511      5.5337421     -145.06539    
    102220  -123.41557      158.5          158.5          158.5          5.0377002      6.7319969      2.1114172      6.2696866     -123.41557    
    102240  -134.313        158.5          158.5          158.5         -2.3509067      0.91674629    -9.9230793      1.9536128     -134.313      
    102260  -132.76682      158.5          158.5          158.5          2.7761514      2.859583       3.4214874      2.0473836     -132.76682    
    102280  -132.05076      158.5          158.5          158.5         -1.2749118     -2.4655064      0.49472866    -1.8539577     -132.05076    
    102300  -135.08111      158.5          158.5          158.5         -0.94857451     1.2289597     -3.6473684     -0.42731486    -135.08111    
    102320  -122.35381      158.5          158.5          158.5          2.9771652      7.6620784     -0.52023907     1.7896563     -122.35381    
    102340  -117.21927      158.5          158.5          158.5         -4.3455847     -8.3847222      0.68028729    -5.3323193     -117.21927    
    102360  -121.80942      158.5          158.5          158.5          0.63751155    -6.2595104      8.650773      -0.47872794    -121.80942    
    102380  -141.09786      158.5          158.5          158.5         -1.9157122     -0.99532273    -0.62104       -4.1307738     -141.09786    
    102400  -122.90218      158.5          158.5          158.5          0.16426297     3.7828821     -5.4146614      2.1245682     -122.90218    
    102420  -127.04742      158.5          158.5          158.5          4.121628       2.4286999      4.1499656      5.7862186     -127.04742    
    102440  -119.31455      158.5          158.5          158.5         -2.0980594     -4.7954231      0.50019351    -1.9989487     -119.31455    
    102460  -133.82151      158.5          158.5          158.5         -2.0004633     -0.41305514    -4.3636858     -1.224649      -133.82151    
    102480  -138.31782      158.5          158.5          158.5         -1.2951042     -0.69911015    -1.6315675     -1.5546351     -138.31782    
    102500  -142.00302      158.5          158.5          158.5         -0.59639212    -2.2579145      2.3679947     -1.8992566     -142.00302    
    102520  -129.5971       158.5          158.5          158.5         -0.77986388     0.39695982     1.4889132     -4.2254647     -129.5971     
    102540  -127.38722      158.5          158.5          158.5          1.1168228      3.2492635     -1.5075683      1.6087731     -127.38722    
    102560  -142.70838      158.5          158.5          158.5         -0.14128482    -2.499174      -0.57481609     2.6501356     -142.70838    
    102580  -138.14275      158.5          158.5          158.5         -1.9464004     -2.3409978     -4.6307917      1.1325882     -138.14275    
    102600  -155.03747      158.5          158.5          158.5         -1.0664688     -0.11750604    -4.0749665      0.99306621    -155.03747    
    102620  -147.21742      158.5          158.5          158.5          3.7589004      0.39616275     9.9517479      0.92879051    -147.21742    
    102640  -155.30196      158.5          158.5          158.5          2.0991427      2.5886444      1.5321473      2.1766364     -155.30196    
    102660  -144.13133      158.5          158.5          158.5         -2.1217939     -0.099209263   -6.0611762     -0.20499626    -144.13133    
    102680  -143.9582       158.5          158.5          158.5          4.3319655      1.7992957      6.7417282      4.4548726     -143.9582     
    102700  -142.66317      158.5          158.5          158.5         -1.6015618     -2.033952       2.3841784     -5.1549118     -142.66317    
    102720  -149.49548      158.5          158.5          158.5         -3.3540433     -1.4871774     -3.4903871     -5.0845654     -149.49548    
    102740  -142.23366      158.5          158.5          158.5          2.1716161      6.7713851     -1.1718358      0.91529885    -142.23366    
    102760  -129.49789      158.5          158.5          158.5         -4.5272504     -2.5215294     -5.0215448     -6.0386771     -129.49789    
    102780  -131.09294      158.5          158.5          158.5          1.4933814     -0.16197215     4.4461008      0.19601561    -131.09294    
    102800  -151.11857      158.5          158.5          158.5          1.6734979      2.5097488     -1.6265181      4.1372629     -151.11857    
    102820  -130.82716      158.5          158.5          158.5         -5.0156404     -1.7207183     -7.974263      -5.3519399     -130.82716    
    102840  -147.991        158.5          158.5          158.5          6.9235519      4.8108619      10.849721      5.1100729     -147.991      
    102860  -131.19402      158.5          158.5          158.5         -1.2147819     -4.8218885      0.47897639     0.69856636    -131.19402    
    102880  -134.22307      158.5          158.5          158.5          0.43247332    -0.44528448    -0.2302374      1.9729418     -134.22307    
    102900  -124.17835      158.5          158.5          158.5          2.6003564      0.64334657     2.936023       4.2216997     -124.17835    
    102920  -133.15561      158.5          158.5          158.5         -5.4405506     -6.8670517     -5.0157894     -4.4388108     -133.15561    
    102940  -122.36957      158.5          158.5          158.5          0.11444295    -0.78762285    -1.0403045      2.1712562     -122.36957    
    102960  -127.64289      158.5          158.5          158.5         -0.87645079    -2.7483424      0.37105632    -0.25206633    -127.64289    
    102980  -106.87476      158.5          158.5          158.5          3.7261403      4.418801       1.6564533      5.1031666     -106.87476    
    103000  -134.34084      158.5          158.5          158.5          2.9207377      4.6813318      0.35368489     3.7271965     -134.34084    
    103020  -140.32589      158.5          158.5          158.5          3.9596969     -0.13387396     6.7206339      5.2923309     -140.32589    
    103040  -119.24303      158.5          158.5          158.5         -4.0602992     -3.6302631     -5.4079966     -3.142638      -119.24303    
    103060  -127.79861      158.5          158.5          158.5         -1.9291173      2.1561646     -3.2160091     -4.7275072     -127.79861    
    103080  -108.92785      158.5          158.5          158.5          4.4060813     -0.030969826    6.7348075      6.5144062     -108.92785    
    103100  -133.05941      158.5          158.5          158.5         -5.921155      -9.7957156     -7.5454624     -0.42228701    -133.05941    
    103120  -123.10822      158.5          158.5          158.5          0.6171607      3.9432437     -2.6100124      0.51825076    -123.10822    
    103140  -130.70638      158.5          158.5          158.5         -1.7890543      0.5577209     -5.213974      -0.71090994    -130.70638    
    103160  -133.3248       158.5          158.5          158.5         -1.1587934     -2.8601438     -0.034962733   -0.58127351    -133.3248     
    103180  -135.92925      158.5          158.5          158.5          1.7108062     -0.43005829     5.3477841      0.21469283    -135.92925    
    103200  -156.24639      158.5          158.5          158.5         -6.5919504     -4.2295047     -7.9055811     -7.6407653     -156.24639    
    103220  -137.4245       158.5          158.5          158.5          1.0175522      0.88932034    -1.1249776      3.288314      -137.4245     
    103240  -147.14815      158.5          158.5          158.5          0.34979325     3.2918521      0.23607341    -2.4785458     -147.14815    
    103260  -137.6848       158.5          158.5          158.5          0.3436485      5.3514743     -2.1652711     -2.1552577     -137.6848     
    103280  -144.82053      158.5          158.5          158.5          1.1727074     -0.07621186     1.1907503      2.4035839     -144.82053    
    103300  -150.99179      158.5          158.5          158.5         -2.558287      -1.0755293     -1.7164947     -4.8828369     -150.99179    
    103320  -168.01827      158.5          158.5          158.5          1.1033627      5.1427551     -2.9060769      1.0734098     -168.01827    
    103340  -138.43563      158.5          158.5          158.5         -0.52242375     1.173905      -2.9630014      0.22182509    -138.43563    
    103360  -142.92103      158.5          158.5          158.5          3.7147543      3.2518987      7.2090794      0.68328494    -142.92103    
    103380  -160.69451      158.5          158.5          158.5         -2.0579961     -2.7014764     -4.7823747      1.3098628     -160.69451    
    103400  -150.36355      158.5          158.5          158.5         -1.7009214     -1.5788393     -4.8563768      1.3324518     -150.36355    
    103420  -141.28428      158.5          158.5          158.5          0.96498005     2.2983981      2.8690077     -2.2724657     -141.28428    
    103440  -150.55144      158.5          158.5          158.5          1.0144609     -0.30740832     2.8716049      0.47918606    -150.55144    
    103460  -161.50761      158.5          158.5          158.5          4.0469875      2.2298093      7.3442749      2.5668784     -161.50761    
    103480  -135.62998      158.5          158.5          158.5          0.54897009     2.0849541      0.71736282    -1.1554066     -135.62998    
    103500  -141.82152      158.5          158.5          158.5         -1.2003111     -2.4229555     -0.94167622    -0.23630158    -141.82152    
    103520  -148.93596      158.5          158.5          158.5          0.79162015    -0.70523956     3.7938126     -0.71371253    -148.93596    
    103540  -160.138        158.5          158.5          158.5         -0.43680487    -0.7481097     -0.99566814     0.43336323    -160.138      
    103560  -141.20945      158.5          158.5          158.5          3.4252397      6.4456891     -2.6515391      6.481569      -141.20945    
    103580  -150.79127      158.5          158.5          158.5          1.6802938     -1.1830374      2.2299062      3.9940126     -150.79127    
    103600  -151.35268      158.5          158.5          158.5          1.416343      -1.7066723      2.5733661      3.3823353     -151.35268    
    103620  -140.75269      158.5          158.5          158.5          0.78025265     1.7132841     -1.5905958      2.2180697     -140.75269    
    103640  -156.35291      158.5          158.5          158.5         -1.0301061     -5.8954135      0.20875208     2.5963431     -156.35291    
    103660  -143.4957       158.5          158.5          158.5         -1.1059871     -2.92524       -4.7163135      4.3235922     -143.4957     
    103680  -136.83597      158.5          158.5          158.5         -3.0765098     -4.7205947     -3.2630952     -1.2458396     -136.83597    
    103700  -131.0824       158.5          158.5          158.5         -0.70589108     0.2954143     -0.40606189    -2.0070256     -131.0824     
    103720  -131.6794       158.5          158.5          158.5         -1.992503      -0.50666953    -5.1556168     -0.3152228     -131.6794     
    103740  -132.00081      158.5          158.5          158.5         -1.2227299     -2.3687571     -1.861331       0.56189848    -132.00081    
    103760  -144.57344      158.5          158.5          158.5         -0.29100821    -1.6229707     -0.02973204     0.77967806    -144.57344    
    103780  -142.61101      158.5          158.5          158.5         -3.5145773     -2.6386728     -5.2758432     -2.6292158     -142.61101    
    103800  -144.73405      158.5          158.5          158.5          2.441635       3.8234772      1.2942855      2.2071423     -144.73405    
    103820  -144.55911      158.5          158.5          158.5         -0.67065429    -4.3477141      4.4964556     -2.1607044     -144.55911    
    103840  -142.55423      158.5          158.5          158.5          1.7751106      0.072390547    2.4668338      2.7861074     -142.55423    
    103860  -149.33767      158.5          158.5          158.5          0.94962141     3.8813684     -1.812431       0.77992674    -149.33767    
    103880  -138.84391      158.5          158.5          158.5         -1.8785351     -2.3156652     -0.8697938     -2.4501463     -138.84391    
    103900  -136.91835      158.5          158.5          158.5          0.69328372     4.6055627     -0.67236816    -1.8533434     -136.91835    
    103920  -141.63583      158.5          158.5          158.5          0.11339432    -1.5933189      3.2471864     -1.3136845     -141.63583    
    103940  -133.3008       158.5          158.5          158.5          4.5447091      3.8971461      8.5225857      1.2143956     -133.3008     
    103960  -141.30643      158.5          158.5          158.5          2.8060838      4.0938303      3.8626971      0.4617239     -141.30643    
    103980  -134.65547      158.5          158.5          158.5         -0.39411733     0.12469672    -1.8601657      0.553117      -134.65547    
    104000  -154.33843      158.5          158.5          158.5          2.922721       3.6819689      3.5477548      1.5384393     -154.33843    
    104020  -149.43306      158.5          158.5          158.5         -2.8300412     -6.0440605      1.1734449     -3.619508      -149.43306    
    104040  -149.02829      158.5          158.5          158.5          0.65062051     1.3130427      0.96573282    -0.32691402    -149.02829    
    104060  -141.23662      158.5          158.5          158.5          2.7317323      7.3671793      0.080545935    0.74747162    -141.23662    
    104080  -141.10231      158.5          158.5          158.5         -2.0041873     -2.3050677     -1.9965562     -1.7109379     -141.10231    
    104100  -154.68743      158.5          158.5          158.5         -0.72186179    -4.2636836     -0.87335932     2.9714575     -154.68743    
    104120  -147.43589      158.5          158.5          158.5          1.8617846     -2.1747951      3.5012882      4.2588608     -147.43589    
    104140  -151.01409      158.5          158.5          158.5         -7.8575686     -6.2221647     -6.9537902     -10.396751     -151.01409    
    104160  -154.52589      158.5          158.5          158.5          3.5657956      4.7138018      3.2331693      2.7504158     -154.52589    
    104180  -171.0987       158.5          158.5          158.5          2.048517       2.0120562      0.45587065     3.6776241     -171.0987     
    104200  -166.61831      158.5          158.5          158.5         -0.57642018     0.61050465     1.6356059     -3.9753711     -166.61831    
    104220  -163.01682      158.5          158.5          158.5          4.6473262      7.1171845      6.6316913      0.19310277    -163.01682    
    104240  -169.96007      158.5          158.5          158.5         -2.3988474     -1.3236219     -4.8951237     -0.97779675    -169.96007    
    104260  -170.64006      158.5          158.5          158.5          0.11857953    -4.2887757      1.0342719      3.6102424     -170.64006    
    104280  -176.36634      158.5          158.5          158.5          1.2879684      0.33426688     2.1803111      1.3493271     -176.36634    
    104300  -172.27762      158.5          158.5          158.5         -6.6723249     -2.6727086     -10.156088     -7.1881781     -172.27762    
    104320  -156.39817      158.5          158.5          158.5          3.6017694      5.1707395      0.80756002     4.8270087     -156.39817    
    104340  -166.15726      158.5          158.5          158.5          1.4544054      0.53004061     3.4358789      0.3972968     -166.15726    
    104360  -155.91862      158.5          158.5          158.5         -4.1316442     -6.1673636     -0.2737739     -5.9537953     -155.91862    
    104380  -168.20843      158.5          158.5          158.5          4.2502007      5.625034       0.99596498     6.1296031     -168.20843    
    104400  -158.10604      158.5          158.5          158.5         -4.3411476     -5.3035178     -4.2597691     -3.4601559     -158.10604    
    104420  -150.9157       158.5          158.5          158.5         -1.8665454     -3.819187       0.14885033    -1.9292995     -150.9157     
    104440  -140.90995      158.5          158.5          158.5          2.2406031      3.5793057      0.79457093     2.3479326     -140.90995    
    104460  -146.39886      158.5          158.5          158.5         -3.9850456     -1.8522707     -7.0195271     -3.0833389     -146.39886    
    104480  -168.20459      158.5          158.5          158.5          2.2419604      4.5142522      2.0969737      0.11465536    -168.20459    
    104500  -140.79184      158.5          158.5          158.5         -0.023782329   -1.6651997      3.62939       -2.0355373     -140.79184    
    104520  -134.22924      158.5          158.5          158.5         -1.6587571     -2.5752311     -1.6117083     -0.78933194    -134.22924    
    104540  -128.96956      158.5          158.5          158.5          1.9927344      2.3501686     -1.9800099      5.6080444     -128.96956    
    104560  -125.5338       158.5          158.5          158.5         -2.2511899     -0.9015587     -4.8315612     -1.0204497     -125.5338     
    104580  -145.46362      158.5          158.5          158.5          0.85008907    -3.6290909      4.4177255      1.7616326     -145.46362    
    104600  -139.92031      158.5          158.5          158.5         -1.9141712     -5.2415482     -1.2143641      0.7133987     -139.92031    
    104620  -149.22637      158.5          158.5          158.5          2.4836287      4.5134341     -2.6038057      5.5412576     -149.22637    
    104640  -126.55855      158.5          158.5          158.5          2.3212304      7.7298549     -2.1189079      1.3527443     -126.55855    
    104660  -140.97414      158.5          158.5          158.5         -4.7680719     -2.8596442     -4.0321632     -7.4124083     -140.97414    
    104680  -138.32253      158.5          158.5          158.5          4.3882314     -0.86302986     3.638797       10.388927     -138.32253    
    104700  -143.10868      158.5          158.5          158.5         -2.270458      -4.9542525     -2.8883116      1.0311901     -143.10868    
    104720  -134.44288      158.5          158.5          158.5         -0.49093146     3.0803281     -2.0882452     -2.4648773     -134.44288    
    104740  -126.55507      158.5          158.5          158.5          5.9019804      6.8519225      3.5912657      7.2627529     -126.55507    
    104760  -139.48934      158.5          158.5          158.5         -2.4148981     -1.0747798     -4.5896647     -1.5802498     -139.48934    
    104780  -134.93296      158.5          158.5          158.5          3.5794216     -0.040375617    5.5555898      5.2230505     -134.93296    
    104800  -155.45231      158.5          158.5          158.5          0.34392533     2.326183      -5.7242064      4.4297994     -155.45231    
    104820  -146.69394      158.5          158.5          158.5         -1.5985604     -0.0036864948  -4.3585712     -0.43342356    -146.69394    
    104840  -161.65777      158.5          158.5          158.5          2.6154248      0.0090000165   8.0042035     -0.16692914    -161.65777    
    104860  -155.61438      158.5          158.5          158.5         -1.8751311     -4.0161493     -1.8809403      0.27169623    -155.61438    
    104880  -138.60497      158.5          158.5          158.5          2.135036       3.8490897     -0.57621519     3.1322335     -138.60497    
    104900  -150.0973       158.5          158.5          158.5         -0.40617561    -0.097396249    0.39329453    -1.5144251     -150.0973     
    104920  -154.12013      158.5          158.5          158.5          0.393072      -4.4178188      1.5907874      4.0062474     -154.12013    
    104940  -157.34694      158.5          158.5          158.5          1.1309539     -0.13969111    -0.081571602    3.6141245     -157.34694    
    104960  -163.26364      158.5          158.5          158.5          2.488272       5.009991       0.32009245     2.1347327     -163.26364    
    104980  -153.68369      158.5          158.5          158.5         -1.6720689     -2.7503001     -2.0295583     -0.23634826    -153.68369    
    105000  -157.00049      158.5          158.5          158.5          1.5834377      1.4266342      2.4708208      0.852858      -157.00049    
    105020  -170.14506      158.5          158.5          158.5          2.4754259      1.7021739      3.9980002      1.7261036     -170.14506    
    105040  -160.4974       158.5          158.5          158.5         -1.9040818     -5.3043067     -0.44678671     0.038847993   -160.4974     
    105060  -153.80693      158.5          158.5          158.5          0.44471446    -1.1163378      3.4669144     -1.0164332     -153.80693    
    105080  -147.65845      158.5          158.5          158.5         -2.8215917     -2.6818484     -2.9577128     -2.8252139     -147.65845    
    105100  -138.46853      158.5          158.5          158.5          0.4731598      2.7618074     -3.5576458      2.2153178     -138.46853    
    105120  -143.84063      158.5          158.5          158.5          0.46583117     2.7480154      1.1075943     -2.4581163     -143.84063    
    105140  -129.66717      158.5          158.5          158.5         -3.1878404     -2.6001163     -2.7618705     -4.2015343     -129.66717    
    105160  -137.72465      158.5          158.5          158.5          2.0952147      4.8725448      0.4325353      0.98056392    -137.72465    
    105180  -131.44593      158.5          158.5          158.5         -2.4466511     -2.1029781     -0.51465174    -4.7223234     -131.44593    
    105200  -116.40347      158.5          158.5          158.5         -2.6707764     -5.8790208     -0.63927712    -1.4940313     -116.40347    
    105220  -155.07017      158.5          158.5          158.5          1.8240555      5.2032602      2.6094837     -2.3405775     -155.07017    
    105240  -115.68381      158.5          158.5          158.5          0.40385579     6.5196666     -0.94202061    -4.3660786     -115.68381    
    105260  -143.2556       158.5          158.5          158.5         -0.37714281    -0.66083038    -1.2980046      0.82740652    -143.2556     
    105280  -128.47037      158.5          158.5          158.5         -0.98915111    -3.1232839      2.2951717     -2.1393411     -128.47037    
    105300  -127.64088      158.5          158.5          158.5         -1.7562275      4.9030985     -3.4103693     -6.7614118     -127.64088    
    105320  -121.09482      158.5          158.5          158.5          1.8373909      6.3518113     -1.7995324      0.95989366    -121.09482    
    105340  -143.27898      158.5          158.5          158.5          0.65008489    -1.9484936      4.0053971     -0.10664881    -143.27898    
    105360  -131.04286      158.5          158.5          158.5         -4.9851783     -7.3467132     -1.2535866     -6.3552353     -131.04286    
    105380  -126.48359      158.5          158.5          158.5         -3.0813467     -2.4121698     -2.0895669     -4.7423033     -126.48359    
    105400  -141.98724      158.5          158.5          158.5          1.4035029      8.4150795     -3.6135469     -0.59102393    -141.98724    
    105420  -132.99612      158.5          158.5          158.5         -1.3409882      1.1671316     -0.27435784    -4.9157383     -132.99612    
    105440  -133.45603      158.5          158.5          158.5         -0.34285277    -4.7091288      3.476947       0.20362351    -133.45603    
    105460  -134.80971      158.5          158.5          158.5          2.8681557      4.4674311      1.2449581      2.8920777     -134.80971    
    105480  -134.81785      158.5          158.5          158.5         -3.0008405     -2.4730744     -2.820495      -3.7089521     -134.81785    
    105500  -152.65746      158.5          158.5          158.5         -2.0940219     -7.8626559     -0.19141314     1.7720033     -152.65746    
    105520  -154.08052      158.5          158.5          158.5          1.1387477      0.41860204     1.4091473      1.5884936     -154.08052    
    105540  -155.82106      158.5          158.5          158.5          2.3807197      5.6391824      0.78408372     0.71889308    -155.82106    
    105560  -145.23161      158.5          158.5          158.5         -1.3285539     -3.326703      -1.2307777      0.57181892    -145.23161    
    105580  -155.31472      158.5          158.5          158.5          0.57744377    -5.0408188      3.3725112      3.4006389     -155.31472    
    105600  -166.66129      158.5          158.5          158.5         -0.90716055    -3.9653798     -0.62657501     1.8704732     -166.66129    
    105620  -151.11206      158.5          158.5          158.5         -3.4494729     -3.9856021     -4.5386507     -1.8241658     -151.11206    
    105640  -164.24773      158.5          158.5          158.5          3.1708578      3.4265751      2.0877193      3.9982791     -164.24773    
    105660  -167.92598      158.5          158.5          158.5         -1.5399758     -2.3337961     -1.8043698     -0.4817616     -167.92598    
    105680  -161.41446      158.5          158.5          158.5         -0.66032267    -4.1080184     -0.067033037    2.1940834     -161.41446    
    105700  -157.01129      158.5          158.5          158.5          0.80336488     1.100903      -2.5459226      3.8551142     -157.01129    
    105720  -166.54969      158.5          158.5          158.5         -2.8074856     -0.89104257    -2.0441118     -5.4873025     -166.54969    
    105740  -169.9019       158.5          158.5          158.5          4.4338364      6.2569803      5.3547962      1.6897327     -169.9019     
    105760  -156.19644      158.5          158.5          158.5          3.1394247      2.2600604      2.3001387      4.8580751     -156.19644    
    105780  -158.22794      158.5          158.5          158.5          0.37017326     3.4604397     -1.2046259     -1.145294      -158.22794    
    105800  -141.84258      158.5          158.5          158.5          1.8005166      6.2878224      1.1669077     -2.0531803     -141.84258    
    105820  -172.80607      158.5          158.5          158.5         -0.28629037    -2.0528642      2.281656      -1.0876628     -172.80607    
    105840  -155.83319      158.5          158.5          158.5          3.5232635     -1.5126481      6.6121742      5.4702643     -155.83319    
    105860  -148.32896      158.5          158.5          158.5          1.4541314      5.3159676     -0.26401338    -0.68955998    -148.32896    
    105880  -159.50338      158.5          158.5          158.5          0.13793808     2.9186694     -1.4273157     -1.0775394     -159.50338    
    105900  -143.87916      158.5          158.5          158.5         -0.1893948     -1.8308089      0.48905273     0.77357178    -143.87916    
    105920  -153.71064      158.5          158.5          158.5          0.098538437    0.31981901    -0.4078893      0.3836856     -153.71064    
    105940  -133.93027      158.5          158.5          158.5         -2.4426377     -4.8052664     -2.1362482     -0.38639852    -133.93027    
    105960  -150.78886      158.5          158.5          158.5          0.86775496    -2.6297143      3.1729273      2.0600518     -150.78886    
    105980  -125.90849      158.5          158.5          158.5          1.5619855      2.6002942      1.5403186      0.54534361    -125.90849    
    106000  -143.87307      158.5          158.5          158.5         -0.83706672    -3.4479021      0.12513253     0.81156937    -143.87307    
    106020  -133.7224       158.5          158.5          158.5          0.57720982    -1.0015703      4.9889066     -2.2557068     -133.7224     
    106040  -150.54567      158.5          158.5          158.5         -2.7623587     -4.7887412     -1.2039226     -2.2944124     -150.54567    
    106060  -133.99502      158.5          158.5          158.5          0.96816696    -2.8078401     -0.90618355     6.6185245     -133.99502    
    106080  -143.36359      158.5          158.5          158.5          0.53554373    -3.0006575      1.790488       2.8168007     -143.36359    
    106100  -142.51746      158.5          158.5          158.5         -0.20460188    -2.5171893      1.1299249      0.77345876    -142.51746    
    106120  -136.49331      158.5          158.5          158.5          2.2754433      3.3996474      1.8190394      1.607643      -136.49331    
    106140  -144.57712      158.5          158.5          158.5         -0.36300359    -1.7017946      0.10409818     0.50868565    -144.57712    
    106160  -126.20837      158.5          158.5          158.5         -3.3974919     -7.5050465     -3.3628477      0.67541832    -126.20837    
    106180  -141.87566      158.5          158.5          158.5          0.88128567     0.13890789     0.51817048     1.9867786     -141.87566    
    106200  -121.30131      158.5          158.5          158.5         -2.0921191      0.49668593    -4.0974296     -2.6756135     -121.30131    
    106220  -152.07915      158.5          158.5          158.5         -1.1711254      0.61676029    -2.9502949     -1.1798416     -152.07915    
    106240  -151.52403      158.5          158.5          158.5         -1.983924      -4.5276627     -1.7803244      0.35621508    -151.52403    
    106260  -150.86592      158.5          158.5          158.5         -1.1648966     -0.36860243    -3.5837036      0.45761623    -150.86592    
    106280  -158.39499      158.5          158.5          158.5          2.0755069      4.5587462      2.7900325     -1.122258      -158.39499    
    106300  -151.36851      158.5          158.5          158.5          0.58116096     0.66337938     1.9170665     -0.83696297    -151.36851    
    106320  -160.27156      158.5          158.5          158.5          3.8579005      4.7637115     -0.59963704     7.409627      -160.27156    
    106340  -158.26122      158.5          158.5          158.5         -0.86079946     1.5753507     -0.72799186    -3.4297573     -158.26122    
    106360  -167.30686      158.5          158.5          158.5         -1.4530577     -0.82648976     2.1688449     -5.7015283     -167.30686    
    106380  -161.68546      158.5          158.5          158.5          1.0236278      2.4897184     -0.55905751     1.1402225     -161.68546    
    106400  -171.50941      158.5          158.5          158.5         -4.5312485     -3.0675411     -3.0536245     -7.47258       -171.50941    
    106420  -166.72065      158.5          158.5          158.5          5.7262702      3.3691168      10.007385      3.8023092     -166.72065    
    106440  -157.97101      158.5          158.5          158.5         -2.4425617      1.3154452     -5.3232434     -3.3198869     -157.97101    
    106460  -160.18331      158.5          158.5          158.5         -1.6329463      0.68613163    -2.1936253     -3.3913452     -160.18331    
    106480  -162.02321      158.5          158.5          158.5          4.5356226      0.40018165     7.5480891      5.6585969     -162.02321    
    106500  -142.73052      158.5          158.5          158.5         -7.9194913     -6.0401688     -11.73248      -5.9858248     -142.73052    
    106520  -155.82367      158.5          158.5          158.5          4.3165215      2.9102054      2.5842503      7.4551089     -155.82367    
    106540  -153.77159      158.5          158.5          158.5         -0.62788073    -3.0668605      2.3302976     -1.1470793     -153.77159    
    106560  -165.26258      158.5          158.5          158.5         -2.3206401     -0.38687283    -1.7533371     -4.8217105     -165.26258    
    106580  -142.01208      158.5          158.5          158.5          5.1139141      3.5013855      4.145189       7.6951679     -142.01208    
    106600  -158.94549      158.5          158.5          158.5         -5.3560807     -5.7636679     -9.3312235     -0.97335085    -158.94549    
    106620  -141.29208      158.5          158.5          158.5          4.3184847      3.0843137      6.4822571      3.3888832     -141.29208    
    106640  -143.23048      158.5          158.5          158.5          1.012247      -1.1610783      4.4785711     -0.2807519     -143.23048    
    106660  -151.74304      158.5          158.5          158.5         -1.8734325     -1.4475999     -0.44869957    -3.723998      -151.74304    
    106680  -156.51595      158.5          158.5          158.5          2.0296331      0.75926644     0.65976408     4.6698689     -156.51595    
    106700  -140.98968      158.5          158.5          158.5         -4.0909772     -6.5332219     -0.35871574    -5.3809939     -140.98968    
    106720  -145.51684      158.5          158.5          158.5          2.1066249      5.6442885      3.6360518     -2.9604656     -145.51684    
    106740  -136.37283      158.5          158.5          158.5         -1.5916633      1.0010949     -6.3821496      0.60606463    -136.37283    
    106760  -142.16912      158.5          158.5          158.5          1.6089834     -0.54437659     1.0886573      4.2826695     -142.16912    
    106780  -135.11901      158.5          158.5          158.5          0.034055662   -2.886803       4.3414482     -1.3524782     -135.11901    
    106784  -134.2468       158.5          158.5          158.5          2.4359832      0.35859999     4.4539656      2.4953839     -134.2468     
Loop time of 7.87547 on 1 procs for 100000 steps with 100 atoms

Performance: 1097.078 ns/day, 0.022 hours/ns, 12697.657 timesteps/s, 1.270 Matom-step/s
90.3% CPU use with 1 MPI tasks x no OpenMP threads

MPI task timing breakdown:
Section |  min time  |  avg time  |  max time  |%varavg| %total
---------------------------------------------------------------
Pair    | 5.346      | 5.346      | 5.346      |   0.0 | 67.88
Bond    | 1.3626     | 1.3626     | 1.3626     |   0.0 | 17.30
Neigh   | 0.53018    | 0.53018    | 0.53018    |   0.0 |  6.73
Comm    | 0.0252     | 0.0252     | 0.0252     |   0.0 |  0.32
Output  | 0.33041    | 0.33041    | 0.33041    |   0.0 |  4.20
Modify  | 0.23222    | 0.23222    | 0.23222    |   0.0 |  2.95
Other   |            | 0.04888    |            |       |  0.62

Nlocal:            100 ave         100 max         100 min
Histogram: 1 0 0 0 0 0 0 0 0 0
Nghost:              0 ave           0 max           0 min
Histogram: 1 0 0 0 0 0 0 0 0 0
Neighs:           4651 ave        4651 max        4651 min
Histogram: 1 0 0 0 0 0 0 0 0 0
FullNghs:            0 ave           0 max           0 min
Histogram: 1 0 0 0 0 0 0 0 0 0

Total # of neighbors = 4651
Ave neighs/atom = 46.51
Ave special neighs/atom = 5.88
Neighbor list builds = 5453
Dangerous builds = 909
print "All done"
All done
Total wall time: 0:00:34
