read_data	InitialFile.txt
Reading data file ...
  orthogonal box = (0 0 0) to (158.5 158.5 158.5)
  1 by 1 by 1 MPI processor grid
WARNING: Atom style in data file atomic differs from currently defined atom style molecular (src/src/read_data.cpp:621)
  reading atoms ...
  100 atoms
  scanning bonds ...
  1 = max bonds/atom
  scanning angles ...
  1 = max angles/atom
  scanning dihedrals ...
  1 = max dihedrals/atom
  reading bonds ...
  99 bonds
  reading angles ...
  98 angles
  reading dihedrals ...
  97 dihedrals
Finding 1-2 1-3 1-4 neighbors ...
  special bond factors lj:    0        0        0       
  special bond factors coul:  0        0        0       
     2 = max # of 1-2 neighbors
     2 = max # of 1-3 neighbors
     4 = max # of 1-4 neighbors
     6 = max # of special neighbors
  special bonds CPU = 0.018 seconds
  read_data CPU = 0.056 seconds

# Dreiding potential information
neighbor	2.0 bin
neigh_modify every 1 delay 0 check yes

bond_style      harmonic
bond_coeff	1 350 1.53
bond_coeff	2 700 1.53

angle_style     harmonic
angle_coeff	1 60 109.5
angle_coeff	2 120 109.5

dihedral_style	multi/harmonic
dihedral_coeff	1 1.73 -4.49 0.776 6.99 0.0
dihedral_coeff	2 1.73 -4.49 0.776 6.99 0.0

pair_style	lj/cut 10.5
pair_coeff	* * 1.0 1.0 10.5
pair_coeff	3 3 2.0 0.5 10.5

compute csym all centro/atom fcc
compute peratom all pe/atom


#####################################################
# Equilibration (Brownian dynamics at 300 K)

velocity 	all create 300.0 1231
fix		1 all nve/limit 0.05
fix 2 all brownian 30.0 12908410 gamma_t 3.0 rng gaussian # Compute a correct 300K simulation, check the value for gamma_t
thermo_style	custom step temp
thermo          10000
timestep	1
run		100000
Generated 0 of 3 mixed pair_coeff terms from geometric mixing rule
WARNING: One or more atoms are time integrated more than once (src/src/modify.cpp:289)
Neighbor list info ...
  update: every = 1 steps, delay = 0 steps, check = yes
  max neighbors/atom: 2000, page size: 100000
  master list distance cutoff = 12.5
  ghost atom cutoff = 12.5
  binsize = 6.25, bins = 26 26 26
  2 neighbor lists, perpetual/occasional/extra = 1 1 0
  (1) pair lj/cut, perpetual
      attributes: half, newton on
      pair build: half/bin/newton
      stencil: half/bin/3d
      bin: standard
  (2) compute centro/atom, occasional
      attributes: full, newton on
      pair build: full/bin
      stencil: full/bin/3d
      bin: standard
Per MPI rank memory allocation (min/avg/max) = 8.1 | 8.1 | 8.1 Mbytes
   Step          Temp     
         0   300          
     10000   301.14599    
     20000   258.43265    
     30000   315.00716    
     40000   287.928      
     50000   283.03081    
     60000   294.87487    
     70000   308.54187    
     80000   273.87121    
     90000   333.45859    
    100000   336.77018    
Loop time of 3.78971 on 1 procs for 100000 steps with 100 atoms

Performance: 2279.858 ns/day, 0.011 hours/ns, 26387.244 timesteps/s, 2.639 Matom-step/s
96.4% CPU use with 1 MPI tasks x no OpenMP threads

MPI task timing breakdown:
Section |  min time  |  avg time  |  max time  |%varavg| %total
---------------------------------------------------------------
Pair    | 0.84648    | 0.84648    | 0.84648    |   0.0 | 22.34
Bond    | 1.7674     | 1.7674     | 1.7674     |   0.0 | 46.64
Neigh   | 0.00895    | 0.00895    | 0.00895    |   0.0 |  0.24
Comm    | 0.016977   | 0.016977   | 0.016977   |   0.0 |  0.45
Output  | 0.00292    | 0.00292    | 0.00292    |   0.0 |  0.08
Modify  | 1.0714     | 1.0714     | 1.0714     |   0.0 | 28.27
Other   |            | 0.07563    |            |       |  2.00

Nlocal:            100 ave         100 max         100 min
Histogram: 1 0 0 0 0 0 0 0 0 0
Nghost:              0 ave           0 max           0 min
Histogram: 1 0 0 0 0 0 0 0 0 0
Neighs:            630 ave         630 max         630 min
Histogram: 1 0 0 0 0 0 0 0 0 0
FullNghs:            0 ave           0 max           0 min
Histogram: 1 0 0 0 0 0 0 0 0 0

Total # of neighbors = 630
Ave neighs/atom = 6.3
Ave special neighs/atom = 5.88
Neighbor list builds = 81
Dangerous builds = 0
unfix 1
unfix 2
write_restart 	restart.${simname}.dreiding1
write_restart 	restart.InitialFile.dreiding1
System init for write_restart ...
Generated 0 of 3 mixed pair_coeff terms from geometric mixing rule

#####################################################
# Define Settings
compute eng all pe/atom
compute eatoms all reduce sum c_eng

#####################################################
# Minimization

dump mydmp all atom 100 dump.lammpstrj

reset_timestep 0
fix 1 all nvt temp 300.0 300.0 100.0
thermo 20
thermo_style custom step pe lx ly lz press pxx pyy pzz c_eatoms
min_style cg
minimize 1e-25 1e-25 500000 1000000
Generated 0 of 3 mixed pair_coeff terms from geometric mixing rule
Per MPI rank memory allocation (min/avg/max) = 9.225 | 9.225 | 9.225 Mbytes
   Step         PotEng           Lx             Ly             Lz           Press           Pxx            Pyy            Pzz          c_eatoms   
         0   16.887103      158.5          158.5          158.5          1.5350059      2.2073965      0.7835975      1.6140237      16.887103    
        20   2.5524196      158.5          158.5          158.5          2.2160604      2.4198831      2.1976265      2.0306715      2.5524196    
        40   2.0888763      158.5          158.5          158.5          2.2407899      2.4775276      2.1936896      2.0511525      2.0888763    
        60   1.9134504      158.5          158.5          158.5          2.2067691      2.3869425      2.2179808      2.015384       1.9134504    
        80   1.862429       158.5          158.5          158.5          2.112045       2.2950357      2.12043        1.9206694      1.862429     
       100   1.5858978      158.5          158.5          158.5          2.1010873      2.2389277      2.1317966      1.9325377      1.5858978    
       120   1.2151314      158.5          158.5          158.5          1.7365788      1.9033828      1.7027897      1.6035639      1.2151314    
       140   1.133          158.5          158.5          158.5          1.8108524      2.0311123      1.7991888      1.6022562      1.133        
       160   1.0477338      158.5          158.5          158.5          1.7263096      1.946452       1.7138124      1.5186643      1.0477338    
       180   1.0476624      158.5          158.5          158.5          1.7269606      1.947093       1.714416       1.5193727      1.0476624    
       200   1.0467251      158.5          158.5          158.5          1.7408456      1.9607427      1.7272693      1.5345247      1.0467251    
       220   1.0201008      158.5          158.5          158.5          1.6930607      1.9116931      1.6791884      1.4883006      1.0201008    
       240   0.85872422     158.5          158.5          158.5          1.3650434      1.5808861      1.3385712      1.1756728      0.85872422   
       260   0.82112555     158.5          158.5          158.5          1.2985698      1.5141612      1.287986       1.0935621      0.82112555   
       280   0.81072935     158.5          158.5          158.5          1.3067621      1.5352865      1.2859812      1.0990187      0.81072935   
       300   0.80176914     158.5          158.5          158.5          1.2938211      1.5150213      1.2805193      1.0859228      0.80176914   
       320   0.79259845     158.5          158.5          158.5          1.304419       1.5157333      1.2910083      1.1065154      0.79259845   
       340   0.78302806     158.5          158.5          158.5          1.2833227      1.4916702      1.2766892      1.0816086      0.78302806   
       360   0.77839217     158.5          158.5          158.5          1.2796794      1.4794082      1.278144       1.0814861      0.77839217   
       380   0.73349577     158.5          158.5          158.5          1.2614806      1.5432562      1.2108494      1.0303363      0.73349577   
       400   0.73332067     158.5          158.5          158.5          1.260281       1.5392369      1.2111826      1.0304234      0.73332067   
       411   0.73332067     158.5          158.5          158.5          1.260281       1.5392369      1.2111826      1.0304234      0.73332067   
Loop time of 0.0826352 on 1 procs for 411 steps with 100 atoms

74.5% CPU use with 1 MPI tasks x no OpenMP threads

Minimization stats:
  Stopping criterion = energy tolerance
  Energy initial, next-to-last, final = 
       16.887103411951   0.73332067211997   0.73332067211997
  Force two-norm initial, final = 142.96626 3.088905
  Force max component initial, final = 32.49507 1.5594032
  Final line search alpha, max atom move = 0.032063548 0.05
  Iterations, force evaluations = 411 1501

MPI task timing breakdown:
Section |  min time  |  avg time  |  max time  |%varavg| %total
---------------------------------------------------------------
Pair    | 0.033229   | 0.033229   | 0.033229   |   0.0 | 40.21
Bond    | 0.03995    | 0.03995    | 0.03995    |   0.0 | 48.34
Neigh   | 0          | 0          | 0          |   0.0 |  0.00
Comm    | 0.00032888 | 0.00032888 | 0.00032888 |   0.0 |  0.40
Output  | 0.0040775  | 0.0040775  | 0.0040775  |   0.0 |  4.93
Modify  | 0          | 0          | 0          |   0.0 |  0.00
Other   |            | 0.00505    |            |       |  6.11

Nlocal:            100 ave         100 max         100 min
Histogram: 1 0 0 0 0 0 0 0 0 0
Nghost:              0 ave           0 max           0 min
Histogram: 1 0 0 0 0 0 0 0 0 0
Neighs:            640 ave         640 max         640 min
Histogram: 1 0 0 0 0 0 0 0 0 0
FullNghs:            0 ave           0 max           0 min
Histogram: 1 0 0 0 0 0 0 0 0 0

Total # of neighbors = 640
Ave neighs/atom = 6.4
Ave special neighs/atom = 5.88
Neighbor list builds = 0
Dangerous builds = 0

group type1_atoms type 1
35 atoms in group type1_atoms
group type2_atoms type 2
28 atoms in group type2_atoms
group type3_atoms type 3
37 atoms in group type3_atoms

molecule mol1closeTo3PRE mol1closeTo3PRE.txt
Read molecule template mol1closeTo3PRE:
  1 molecules
  0 fragments
  3 atoms with max type 3
  2 bonds with max type 1
  1 angles with max type 1
  0 dihedrals with max type 0
  0 impropers with max type 0
molecule mol1closeTo3POST mol1closeTo3POST.txt
Read molecule template mol1closeTo3POST:
  1 molecules
  0 fragments
  3 atoms with max type 3
  2 bonds with max type 1
  1 angles with max type 1
  0 dihedrals with max type 0
  0 impropers with max type 0
molecule mol3closeTo1POST mol3closeTo1POST.txt
ERROR on proc 0: Unknown section 'dihedrals' in molecule file
 (src/src/molecule.cpp:655)
Last command: molecule mol3closeTo1POST mol3closeTo1POST.txt
