read_data	InitialFile.txt
Reading data file ...
  orthogonal box = (0 0 0) to (100000 100000 100000)
  1 by 1 by 1 MPI processor grid
  reading atom labelmap ...
  reading bond labelmap ...
  reading atoms ...
  100 atoms
  scanning bonds ...
  1 = max bonds/atom
  reading bonds ...
  99 bonds
Finding 1-2 1-3 1-4 neighbors ...
  special bond factors lj:    0        0        0       
  special bond factors coul:  0        0        0       
     2 = max # of 1-2 neighbors
     2 = max # of 1-3 neighbors
     4 = max # of 1-4 neighbors
     6 = max # of special neighbors
  special bonds CPU = 0.017 seconds
  read_data CPU = 0.036 seconds

labelmap atom 1 A 2 U 3 M

# Dreiding potential information
neighbor	2.0 bin
neigh_modify every 1 delay 0 check yes

bond_style      harmonic
bond_coeff	Normal 0.1 450
bond_coeff	M-M 0.1 350

#angle_style     harmonic
#angle_coeff	Normal 60 109.5
#angle_coeff	M-M 120 109.5

#dihedral_style	multi/harmonic
#dihedral_coeff	1 1.73 -4.49 0.776 6.99 0.0
#dihedral_coeff	2 1.73 -4.49 0.776 6.99 0.0

pair_style	lj/cut 10.5
pair_coeff	* * 2 450 2000
pair_coeff	M M 2 350 2000

compute csym all centro/atom fcc
compute peratom all pe/atom


#####################################################
# Equilibration (Brownian dynamics at 300 K)

velocity 	all create 300.0 1231
fix		1 all nve/limit 100
fix 2 all brownian 300.0 12908410 gamma_t 2.0 rng gaussian # Compute a correct 300K simulation, check the value for gamma_t
thermo_style	custom step temp
thermo          10000
timestep	1
run		100000
Generated 0 of 3 mixed pair_coeff terms from geometric mixing rule
WARNING: One or more atoms are time integrated more than once (src/src/modify.cpp:289)
Neighbor list info ...
  update: every = 1 steps, delay = 0 steps, check = yes
  max neighbors/atom: 2000, page size: 100000
  master list distance cutoff = 2002
  ghost atom cutoff = 2002
  binsize = 1001, bins = 100 100 100
  2 neighbor lists, perpetual/occasional/extra = 1 1 0
  (1) pair lj/cut, perpetual
      attributes: half, newton on
      pair build: half/bin/newton
      stencil: half/bin/3d
      bin: standard
  (2) compute centro/atom, occasional
      attributes: full, newton on
      pair build: full/bin
      stencil: full/bin/3d
      bin: standard
Per MPI rank memory allocation (min/avg/max) = 9.673 | 9.673 | 9.673 Mbytes
   Step          Temp     
         0   300          
     10000   296.01795    
     20000   249.45643    
     30000   321.88553    
     40000   279.04392    
     50000   283.01213    
     60000   298.96075    
     70000   300.13072    
     80000   259.14798    
     90000   323.75605    
    100000   318.22138    
Loop time of 1.80449 on 1 procs for 100000 steps with 100 atoms

Performance: 4788.050 ns/day, 0.005 hours/ns, 55417.242 timesteps/s, 5.542 Matom-step/s
97.8% CPU use with 1 MPI tasks x no OpenMP threads

MPI task timing breakdown:
Section |  min time  |  avg time  |  max time  |%varavg| %total
---------------------------------------------------------------
Pair    | 0.20972    | 0.20972    | 0.20972    |   0.0 | 11.62
Bond    | 0.11105    | 0.11105    | 0.11105    |   0.0 |  6.15
Neigh   | 0.57694    | 0.57694    | 0.57694    |   0.0 | 31.97
Comm    | 0.09672    | 0.09672    | 0.09672    |   0.0 |  5.36
Output  | 0.00023869 | 0.00023869 | 0.00023869 |   0.0 |  0.01
Modify  | 0.75638    | 0.75638    | 0.75638    |   0.0 | 41.92
Other   |            | 0.05344    |            |       |  2.96

Nlocal:            100 ave         100 max         100 min
Histogram: 1 0 0 0 0 0 0 0 0 0
Nghost:              6 ave           6 max           6 min
Histogram: 1 0 0 0 0 0 0 0 0 0
Neighs:            136 ave         136 max         136 min
Histogram: 1 0 0 0 0 0 0 0 0 0
FullNghs:            0 ave           0 max           0 min
Histogram: 1 0 0 0 0 0 0 0 0 0

Total # of neighbors = 136
Ave neighs/atom = 1.36
Ave special neighs/atom = 5.88
Neighbor list builds = 1326
Dangerous builds = 0
unfix 1
unfix 2
write_restart 	restart.${simname}.dreiding1
write_restart 	restart.InitialFile.dreiding1
System init for write_restart ...
Generated 0 of 3 mixed pair_coeff terms from geometric mixing rule

#####################################################
# Define Settings
compute eng all pe/atom
compute eatoms all reduce sum c_eng

#####################################################
# Minimization

dump mydmp all atom 100 dump.lammpstrj

reset_timestep 0
fix 1 all nvt temp 300.0 300.0 100.0
thermo 20
thermo_style custom step pe lx ly lz press pxx pyy pzz c_eatoms
min_style cg
minimize 1.0e-4 1.0e-6 10000 10000
Generated 0 of 3 mixed pair_coeff terms from geometric mixing rule
Per MPI rank memory allocation (min/avg/max) = 10.8 | 10.8 | 10.8 Mbytes
   Step         PotEng           Lx             Ly             Lz           Press           Pxx            Pyy            Pzz          c_eatoms   
         0   212.77537      100000         100000         100000         6.3316992e-07  1.7627187e-06  8.5158149e-08  5.1632907e-08  212.77537    
        20   165.36495      100000         100000         100000         5.8252029e-07  1.6198768e-06  7.7710104e-08  4.9974024e-08  165.36495    
        40   123.53596      100000         100000         100000         5.0648299e-07  1.4065542e-06  6.6819112e-08  4.6075695e-08  123.53596    
        60   91.54788       100000         100000         100000         4.3284908e-07  1.200564e-06   5.6611556e-08  4.1371699e-08  91.54788     
        80   65.853863      100000         100000         100000         3.634241e-07   1.0065603e-06  4.7314625e-08  3.6397339e-08  65.853863    
       100   45.354757      100000         100000         100000         2.9837411e-07  8.2488733e-07  3.8875651e-08  3.1359352e-08  45.354757    
       120   29.335688      100000         100000         100000         2.3750367e-07  6.5497359e-07  3.1200235e-08  2.633717e-08   29.335688    
       140   17.231777      100000         100000         100000         1.8056203e-07  4.9611535e-07  2.4207971e-08  2.1362761e-08  17.231777    
       160   8.5814465      100000         100000         100000         1.273498e-07   3.477513e-07   1.7843479e-08  1.6454611e-08  8.5814465    
       180   3.0003653      100000         100000         100000         7.7804909e-08  2.096952e-07   1.208109e-08   1.1638438e-08  3.0003653    
       200   0.19348935     100000         100000         100000         3.3205622e-08  8.5477645e-08  7.0556473e-09  7.0835736e-09  0.19348935   
       220  -0.31806708     100000         100000         100000         1.3050816e-08  2.9343124e-08  4.8515327e-09  4.9577918e-09 -0.31806708   
       240  -0.36996864     100000         100000         100000         6.9356455e-09  1.2304826e-08  4.1947245e-09  4.3073866e-09 -0.36996864   
       260  -0.37524338     100000         100000         100000         5.0717802e-09  7.1092664e-09  3.9962751e-09  4.109799e-09  -0.37524338   
       266  -0.37554152     100000         100000         100000         4.825724e-09   6.4231592e-09  3.9701701e-09  4.0838426e-09 -0.37554152   
Loop time of 0.0156322 on 1 procs for 266 steps with 100 atoms

93.4% CPU use with 1 MPI tasks x no OpenMP threads

Minimization stats:
  Stopping criterion = energy tolerance
  Energy initial, next-to-last, final = 
      212.775367303893 -0.375504818817899 -0.375541523953033
  Force two-norm initial, final = 6.5168033 0.0058046539
  Force max component initial, final = 1.6677786 0.0020641137
  Final line search alpha, max atom move = 1 0.0020641137
  Iterations, force evaluations = 266 266

MPI task timing breakdown:
Section |  min time  |  avg time  |  max time  |%varavg| %total
---------------------------------------------------------------
Pair    | 0.0013806  | 0.0013806  | 0.0013806  |   0.0 |  8.83
Bond    | 0.00047879 | 0.00047879 | 0.00047879 |   0.0 |  3.06
Neigh   | 0.011855   | 0.011855   | 0.011855   |   0.0 | 75.84
Comm    | 0.0001268  | 0.0001268  | 0.0001268  |   0.0 |  0.81
Output  | 0.00051468 | 0.00051468 | 0.00051468 |   0.0 |  3.29
Modify  | 0          | 0          | 0          |   0.0 |  0.00
Other   |            | 0.001277   |            |       |  8.17

Nlocal:            100 ave         100 max         100 min
Histogram: 1 0 0 0 0 0 0 0 0 0
Nghost:              6 ave           6 max           6 min
Histogram: 1 0 0 0 0 0 0 0 0 0
Neighs:            136 ave         136 max         136 min
Histogram: 1 0 0 0 0 0 0 0 0 0
FullNghs:            0 ave           0 max           0 min
Histogram: 1 0 0 0 0 0 0 0 0 0

Total # of neighbors = 136
Ave neighs/atom = 1.36
Ave special neighs/atom = 5.88
Neighbor list builds = 21
Dangerous builds = 0

#molecule mol1closeTo3PRE mol1closeTo3PRE.txt
#molecule mol1closeTo3POST mol1closeTo3POST.txt
#molecule mol3closeTo1POST mol3closeTo1POST.txt
#molecule mol2closeTo3PRE mol2closeTo3PRE.txt
#molecule mol2closeTo3POST mol2closeTo3POST.txt
#molecule mol3closeTo2POST mol3closeTo2POST.txt
#molecule mol2closeTo1PRE mol2closeTo1PRE.txt
#molecule mol2closeTo1POST mol2closeTo1POST.txt

molecule mol1 molTemplate.txt
Read molecule template mol1:
  1 molecules
  0 fragments
  10 atoms with max type 3
  9 bonds with max type 2
  0 angles with max type 0
  0 dihedrals with max type 0
  0 impropers with max type 0
molecule mol2 molTemplate2.txt
Read molecule template mol2:
  1 molecules
  0 fragments
  10 atoms with max type 3
  9 bonds with max type 2
  0 angles with max type 0
  0 dihedrals with max type 0
  0 impropers with max type 0

#####################################################
# Do the reactions
fix 3 all bond/react   react reax all 1 0 1000 mol1 mol2 map_1to2.txt molecule intra   #react reac1to2 all 1 0 10 mol1closeTo3PRE mol1closeTo3POST map_1to2.txt molecule intra   #react reac2to3 all 1 0 10 mol2closeTo3PRE mol2closeTo3POST map_2to3.txt molecule intra   #react reac3to2 all 1 0 10 mol2closeTo3PRE mol3closeTo2POST map_3to2.txt molecule intra  #react reac2to1 all 1 0 10 mol2closeTo1PRE mol2closeTo1POST map_2to1.txt molecule intra
dynamic group bond_react_MASTER_group defined



thermo_style custom step temp f_3[1]

run 100000

CITE-CITE-CITE-CITE-CITE-CITE-CITE-CITE-CITE-CITE-CITE-CITE-CITE

Your simulation uses code contributions which should be cited:

- fix bond/react: reacter.org doi:10.1016/j.polymer.2017.09.038, doi:10.1021/acs.macromol.0c02012

@Article{Gissinger17,
 author = {J. R. Gissinger and B. D. Jensen and K. E. Wise},
 title = {Modeling Chemical Reactions in Classical Molecular Dynamics Simulations},
 journal = {Polymer},
 year =    2017,
 volume =  128,
 pages =   {211--217}
}

@Article{Gissinger20,
 author = {J. R. Gissinger, B. D. Jensen, K. E. Wise},
 title = {{REACTER}: A Heuristic Method for Reactive Molecular Dynamics},
 journal = {Macromolecules},
 year =    2020,
 volume =  53,
 number =  22,
 pages =   {9953--9961}
}

CITE-CITE-CITE-CITE-CITE-CITE-CITE-CITE-CITE-CITE-CITE-CITE-CITE

Generated 0 of 3 mixed pair_coeff terms from geometric mixing rule
Neighbor list info ...
  update: every = 1 steps, delay = 0 steps, check = yes
  max neighbors/atom: 2000, page size: 100000
  master list distance cutoff = 2002
  ghost atom cutoff = 2002
  binsize = 1001, bins = 100 100 100
  3 neighbor lists, perpetual/occasional/extra = 1 2 0
  (1) pair lj/cut, perpetual
      attributes: half, newton on
      pair build: half/bin/newton
      stencil: half/bin/3d
      bin: standard
  (2) compute centro/atom, occasional
      attributes: full, newton on
      pair build: full/bin
      stencil: full/bin/3d
      bin: standard
  (3) fix bond/react, occasional, copy from (1)
      attributes: half, newton on
      pair build: copy
      stencil: none
      bin: none
Per MPI rank memory allocation (min/avg/max) = 11.11 | 11.11 | 11.11 Mbytes
   Step          Temp          f_3[1]    
       266   318.22138      0            
       280   314.13977      0            
       300   296.03006      0            
       320   270.12702      0            
       340   246.161        0            
       360   233.24692      0            
       380   237.55166      0            
       400   259.88223      0            
       420   292.3592       0            
       440   322.17883      0            
       460   340.98711      0            
       480   345.99415      0            
       500   338.5403       0            
       520   323.53312      0            
       540   307.52286      0            
       560   295.9435       0            
       580   291.14074      0            
       600   292.0178       0            
       620   295.12432      0            
       640   296.53859      0            
       660   293.75046      0            
       680   286.75673      0            
       700   277.91336      0            
       720   270.73939      0            
       740   268.38633      0            
       760   272.49094      0            
       780   282.73745      0            
       800   297.0322       0            
       820   312.05634      0            
       840   324.25277      0            
       860   331.3384       0            
       880   333.47353      0            
       900   332.90868      0            
       920   332.31403      0            
       940   333.01405      0            
       960   334.07422      0            
       980   332.54385      0            
      1000   324.85245      0            
      1020   309.5263       0            
      1040   290.13729      0            
      1060   273.41758      0            
      1080   263.2952       0            
      1100   259.89383      0            
      1120   261.91991      0            
      1140   267.66166      0            
      1160   275.05209      0            
      1180   281.99698      0            
      1200   287.02984      0            
      1220   289.8715       0            
      1240   291.51013      0            
      1260   293.68687      0            
      1280   297.99998      0            
      1300   305.04058      0            
      1320   313.96498      0            
      1340   322.72459      0            
      1360   328.87971      0            
      1380   330.62724      0            
      1400   327.53807      0            
      1420   320.63735      0            
      1440   311.81166      0            
      1460   302.89082      0            
      1480   294.91456      0            
      1500   287.95419      0            
      1520   281.47617      0            
      1540   274.8816       0            
      1560   267.89521      0            
      1580   260.7921       0            
      1600   254.51222      0            
      1620   250.56081      0            
      1640   250.59846      0            
      1660   255.72455      0            
      1680   265.52291      0            
      1700   277.43841      0            
      1720   287.99755      0            
      1740   295.34397      0            
      1760   299.29476      0            
      1780   300.15893      0            
      1800   298.68691      0            
      1820   296.10878      0            
      1840   293.82903      0            
      1860   293.01565      0            
      1880   294.30717      0            
      1900   297.72807      0            
      1920   302.78919      0            
      1940   308.69037      0            
      1960   314.53227      0            
      1980   319.46731      0            
      2000   322.76474      0            
      2020   323.81986      0            
      2040   322.17339      0            
      2060   317.60213      0            
      2080   310.29022      0            
      2100   301.00185      0            
      2120   291.07942      0            
      2140   282.11435      0            
      2160   275.39883      0            
      2180   271.5159       0            
      2200   270.29425      0            
      2220   271.05576      0            
      2240   272.99181      0            
      2260   275.56377      0            
      2280   278.86168      0            
      2300   283.82179      0            
      2320   291.99752      0            
      2340   304.23208      0            
      2360   318.58856      0            
      2380   330.92657      0            
      2400   338.53178      0            
      2420   341.29618      0            
      2440   340.20911      0            
      2460   336.30584      0            
      2480   330.53394      0            
      2500   323.85348      0            
      2520   317.21975      0            
      2540   311.42891      0            
      2560   306.93795      0            
      2580   303.77282      0            
      2600   301.57277      0            
      2620   299.74964      0            
      2640   297.70368      0            
      2660   295.02936      0            
      2680   291.65449      0            
      2700   287.87826      0            
      2720   284.30721      0            
      2740   281.7187       0            
      2760   280.90047      0            
      2780   282.51729      0            
      2800   287.04646      0            
      2820   294.80118      0            
      2840   305.98834      0            
      2860   320.56259      0            
      2880   337.52069      0            
      2900   354.1066       0            
      2920   366.62622      0            
      2940   372.54345      0            
      2960   371.17744      0            
      2980   362.75409      0            
      3000   347.58134      0            
      3020   327.13204      0            
      3040   306.93349      0            
      3060   293.86523      0            
      3080   288.59003      0            
      3100   287.46663      0            
      3120   287.94359      0            
      3140   289.12971      0            
      3160   290.8715       0            
      3180   293.18274      0            
      3200   295.93398      0            
      3220   298.733        0            
      3240   301.00299      0            
      3260   302.22144      0            
      3280   302.2107       0            
      3300   301.333        0            
      3320   300.47307      0            
      3340   300.78213      0            
      3360   303.25993      0            
      3380   308.31817      0            
      3400   315.48048      0            
      3420   323.34126      0            
      3440   329.83066      0            
      3460   332.72784      0            
      3480   330.28822      0            
      3500   321.8779       0            
      3520   308.53061      0            
      3540   293.02199      0            
      3560   278.79587      0            
      3580   268.27334      0            
      3600   262.19343      0            
      3620   260.17343      0            
      3640   261.45565      0            
      3660   265.33378      0            
      3680   271.27349      0            
      3700   278.8088       0            
      3720   287.31423      0            
      3740   295.84789      0            
      3760   303.26896      0            
      3780   308.60203      0            
      3800   311.37442      0            
      3820   311.70833      0            
      3840   310.18425      0            
      3860   307.61896      0            
      3880   304.8621       0            
      3900   302.6287       0            
      3920   301.36628      0            
      3940   301.1822       0            
      3960   301.86091      0            
      3980   302.96868      0            
      4000   304.00363      0            
      4020   304.52814      0            
      4040   304.23067      0            
      4060   302.90003      0            
      4080   300.33894      0            
      4100   296.27751      0            
      4120   290.37324      0            
      4140   282.41043      0            
      4160   272.73048      0            
      4180   262.54939      0            
      4200   253.6331       0            
      4220   247.53739      0            
      4240   245.18176      0            
      4260   246.94831      0            
      4280   252.94698      0            
      4300   263.05508      0            
      4320   276.33926      0            
      4340   290.16065      0            
      4360   300.97081      0            
      4380   306.99648      0            
      4400   309.1292       0            
      4420   309.43391      0            
      4440   309.6973       0            
      4460   310.83128      0            
      4480   312.82407      0            
      4500   314.98524      0            
      4520   316.34131      0            
      4540   316.03847      0            
      4560   313.61936      0            
      4580   309.10613      0            
      4600   302.91461      0            
      4620   295.68648      0            
      4640   288.12273      0            
      4660   280.86192      0            
      4680   274.42037      0            
      4700   269.20093      0            
      4720   265.55035      0            
      4740   263.8325       0            
      4760   264.53834      0            
      4780   268.5269       0            
      4800   277.24741      0            
      4820   291.70207      0            
      4840   309.21501      0            
      4860   323.45747      0            
      4880   330.89313      0            
      4900   332.86793      0            
      4920   332.38081      0            
      4940   331.76891      0            
      4960   331.89211      0            
      4980   332.04629      0            
      5000   330.48487      0            
      5020   325.47101      0            
      5040   316.41352      0            
      5060   304.34221      0            
      5080   291.39762      0            
      5100   279.93865      0            
      5120   271.9439       0            
      5140   268.68293      0            
      5160   270.45439      0            
      5180   276.45159      0            
      5200   284.91262      0            
      5220   293.6102       0            
      5240   300.57584      0            
      5260   304.78673      0            
      5280   306.47679      0            
      5300   306.88418      0            
      5320   307.553        0            
      5340   309.53985      0            
      5360   312.89633      0            
      5380   316.63605      0            
      5400   319.13685      0            
      5420   318.66255      0            
      5440   313.69112      0            
      5460   303.5953       0            
      5480   290.15167      0            
      5500   277.35885      0            
      5520   268.67501      0            
      5540   265.06056      0            
      5560   265.31678      0            
      5580   267.31114      0            
      5600   269.07387      0            
      5620   269.58779      0            
      5640   269.17695      0            
      5660   269.36832      0            
      5680   272.20224      0            
      5700   279.16616      0            
      5720   290.25446      0            
      5740   303.84615      0            
      5760   317.43331      0            
      5780   328.43774      0            
      5800   334.77408      0            
      5820   335.33959      0            
      5840   330.36831      0            
      5860   321.39161      0            
      5880   310.72953      0            
      5900   300.71364      0            
      5920   292.98904      0            
      5940   288.18036      0            
      5960   285.98611      0            
      5980   285.56242      0            
      6000   285.98913      0            
      6020   286.6471       0            
      6040   287.4115       0            
      6060   288.65721      0            
      6080   291.17096      0            
      6100   296.12047      0            
      6120   305.01418      0            
      6140   318.81495      0            
      6160   335.78824      0            
      6180   351.17889      0            
      6200   360.62103      0            
      6220   362.60405      0            
      6240   357.86584      0            
      6260   348.17009      0            
      6280   335.69287      0            
      6300   322.82516      0            
      6320   311.84646      0            
      6340   304.16129      0            
      6360   299.71362      0            
      6380   297.28906      0            
      6400   295.38177      0            
      6420   292.93803      0            
      6440   289.6973       0            
      6460   286.16539      0            
      6480   283.33386      0            
      6500   282.27424      0            
      6520   283.73886      0            
      6540   287.8818       0            
      6560   294.17675      0            
      6580   301.56248      0            
      6600   308.79065      0            
      6620   314.87388      0            
      6640   319.45794      0            
      6660   322.9329       0            
      6680   326.1942       0            
      6700   330.10644      0            
      6720   334.8189       0            
      6740   339.18064      0            
      6760   340.73364      0            
      6780   336.73147      0            
      6800   325.92114      0            
      6820   309.95463      0            
      6840   292.77511      0            
      6860   278.10655      0            
      6880   267.92723      0            
      6900   262.8001       0            
      6920   262.4888       0            
      6940   266.22523      0            
      6960   272.87024      0            
      6980   281.12792      0            
      7000   289.78874      0            
      7020   297.93663      0            
      7040   305.07841      0            
      7060   311.14868      0            
      7080   316.34135      0            
      7100   320.8096       0            
      7120   324.39952      0            
      7140   326.58608      0            
      7160   326.64594      0            
      7180   323.94582      0            
      7200   318.15914      0            
      7220   309.3034       0            
      7240   297.7273       0            
      7260   284.40519      0            
      7280   271.41614      0            
      7300   261.33187      0            
      7320   255.49787      0            
      7340   253.50507      0            
      7360   254.12117      0            
      7380   256.18007      0            
      7400   258.92644      0            
      7420   262.05421      0            
      7440   265.64172      0            
      7460   269.97706      0            
      7480   275.26001      0            
      7500   281.34591      0            
      7520   287.70945      0            
      7540   293.63593      0            
      7560   298.51756      0            
      7580   302.10332      0            
      7600   304.58976      0            
      7620   306.52146      0            
      7640   308.55278      0            
      7660   311.17024      0            
      7680   314.47114      0            
      7700   318.0562       0            
      7720   321.04812      0            
      7740   322.21604      0            
      7760   320.18756      0            
      7780   313.79308      0            
      7800   302.68486      0            
      7820   288.1611       0            
      7840   273.26058      0            
      7860   261.2877       0            
      7880   254.2249       0            
      7900   252.60386      0            
      7920   256.06231      0            
      7940   263.64         0            
      7960   273.81247      0            
      7980   284.54187      0            
      8000   293.57748      0            
      8020   299.09508      0            
      8040   300.4315       0            
      8060   298.41595      0            
      8080   295.01528      0            
      8100   292.48805      0            
      8120   292.50335      0            
      8140   295.58796      0            
      8160   301.02604      0            
      8180   307.17866      0            
      8200   312.10605      0            
      8220   314.28088      0            
      8240   313.11941      0            
      8260   309.11277      0            
      8280   303.52119      0            
      8300   297.80077      0            
      8320   293.0416       0            
      8340   289.6541       0            
      8360   287.39328      0            
      8380   285.65209      0            
      8400   283.857        0            
      8420   281.78727      0            
      8440   279.69399      0            
      8460   278.17348      0            
      8480   277.85202      0            
      8500   279.06397      0            
      8520   281.7257       0            
      8540   285.46026      0            
      8560   289.86447      0            
      8580   294.75162      0            
      8600   300.24287      0            
      8620   306.66038      0            
      8640   314.24414      0            
      8660   322.77671      0            
      8680   331.28601      0            
      8700   338.04516      0            
      8720   340.99161      0            
      8740   338.4681       0            
      8760   330.00778      0            
      8780   316.8437       0            
      8800   301.80617      0            
      8820   288.31092      0            
      8840   278.80525      0            
      8860   273.85386      0            
      8880   272.41437      0            
      8900   272.74521      0            
      8920   273.33359      0            
      8940   273.54954      0            
      8960   273.85284      0            
      8980   275.48004      0            
      9000   279.72917      0            
      9020   287.14614      0            
      9040   296.98514      0            
      9060   307.22165      0            
      9080   315.17606      0            
      9100   318.54293      0            
      9120   316.39742      0            
      9140   309.68504      0            
      9160   300.91127      0            
      9180   293.16325      0            
      9200   288.93373      0            
      9220   289.25276      0            
      9240   293.42334      0            
      9260   299.40641      0            
      9280   304.69523      0            
      9300   307.3413       0            
      9320   306.69762      0            
      9340   303.55689      0            
      9360   299.67671      0            
      9380   296.94668      0            
      9400   296.52413      0            
      9420   298.3111       0            
      9440   301.05115      0            
      9460   302.99442      0            
      9480   302.78869      0            
      9500   300.15366      0            
      9520   296.00579      0            
      9540   291.98995      0            
      9560   289.68495      0            
      9580   289.88957      0            
      9600   292.31103      0            
      9620   295.76803      0            
      9640   298.80159      0            
      9660   300.41681      0            
      9680   300.60499      0            
      9700   300.37785      0            
      9720   301.27736      0            
      9740   304.58292      0            
      9760   310.57655      0            
      9780   318.20299      0            
      9800   325.31553      0            
      9820   329.45983      0            
      9840   328.87262      0            
      9860   323.22297      0            
      9880   313.75106      0            
      9900   302.77351      0            
      9920   292.78632      0            
      9940   285.51607      0            
      9960   281.3209       0            
      9980   279.24462      0            
     10000   277.67782      0            
     10020   275.24523      0            
     10040   271.49073      0            
     10060   267.11093      0            
     10080   263.73994      0            
     10100   263.48532      0            
     10120   268.40075      0            
     10140   279.65526      0            
     10160   295.80705      0            
     10180   311.91372      0            
     10200   323.14888      0            
     10220   328.63505      0            
     10240   330.22021      0            
     10260   329.92003      0            
     10280   328.84694      0            
     10300   327.07232      0            
     10320   323.90929      0            
     10340   318.50826      0            
     10360   310.53952      0            
     10380   300.5989       0            
     10400   290.11315      0            
     10420   280.85791      0            
     10440   274.39332      0            
     10460   271.64656      0            
     10480   272.73473      0            
     10500   277.05246      0            
     10520   283.58858      0            
     10540   291.35074      0            
     10560   299.71242      0            
     10580   308.51006      0            
     10600   317.83056      0            
     10620   327.6007       0            
     10640   337.22018      0            
     10660   345.4651       0            
     10680   350.7074       0            
     10700   351.24585      0            
     10720   345.47727      0            
     10740   332.30674      0            
     10760   313.04619      0            
     10780   293.19532      0            
     10800   279.08796      0            
     10820   272.79057      0            
     10840   272.45097      0            
     10860   274.96151      0            
     10880   277.53259      0            
     10900   278.48563      0            
     10920   277.6312       0            
     10940   276.16371      0            
     10960   276.06831      0            
     10980   279.23189      0            
     11000   286.54368      0            
     11020   297.30951      0            
     11040   309.36425      0            
     11060   320.03591      0            
     11080   327.40411      0            
     11100   330.98488      0            
     11120   331.53763      0            
     11140   330.29652      0            
     11160   328.12312      0            
     11180   325.03539      0            
     11200   320.364        0            
     11220   313.42743      0            
     11240   304.26287      0            
     11260   293.91689      0            
     11280   284.19632      0            
     11300   277.15031      0            
     11320   274.49921      0            
     11340   277.04637      0            
     11360   284.19209      0            
     11380   293.84603      0            
     11400   302.97036      0            
     11420   308.66962      0            
     11440   309.38217      0            
     11460   305.57208      0            
     11480   299.5321       0            
     11500   294.38296      0            
     11520   292.76139      0            
     11540   295.77764      0            
     11560   302.62872      0            
     11580   310.96902      0            
     11600   317.8747       0            
     11620   321.01707      0            
     11640   319.57166      0            
     11660   314.5087       0            
     11680   308.12602      0            
     11700   302.95408      0            
     11720   300.52971      0            
     11740   300.68202      0            
     11760   301.68396      0            
     11780   301.16875      0            
     11800   297.3571       0            
     11820   289.9848       0            
     11840   280.46581      0            
     11860   271.27394      0            
     11880   264.96377      0            
     11900   263.32765      0            
     11920   266.95648      0            
     11940   275.21873      0            
     11960   286.50989      0            
     11980   298.5985       0            
     12000   309.09742      0            
     12020   316.23947      0            
     12040   319.66875      0            
     12060   320.50372      0            
     12080   320.5303       0            
     12100   321.17161      0            
     12120   322.85656      0            
     12140   324.97145      0            
     12160   326.25429      0            
     12180   325.36811      0            
     12200   321.41807      0            
     12220   314.29336      0            
     12240   304.80294      0            
     12260   294.52102      0            
     12280   285.241        0            
     12300   278.25986      0            
     12320   273.96384      0            
     12340   271.98922      0            
     12360   271.94148      0            
     12380   273.89667      0            
     12400   278.08622      0            
     12420   284.37458      0            
     12440   292.02676      0            
     12460   299.82063      0            
     12480   306.43037      0            
     12500   310.91206      0            
     12520   313.05107      0            
     12540   313.38091      0            
     12560   312.85532      0            
     12580   312.34033      0            
     12600   312.17954      0            
     12620   312.03894      0            
     12640   311.09514      0            
     12660   308.46951      0            
     12680   303.70028      0            
     12700   297.03393      0            
     12720   289.39855      0            
     12740   282.05577      0            
     12760   276.08211      0            
     12780   271.95351      0            
     12800   269.47476      0            
     12820   268.0849       0            
     12840   267.35283      0            
     12860   267.40754      0            
     12880   269.11058      0            
     12900   273.87022      0            
     12920   282.99746      0            
     12940   296.50373      0            
     12960   311.96021      0            
     12980   325.2329       0            
     13000   333.08129      0            
     13020   334.71951      0            
     13040   331.49018      0            
     13060   325.88312      0            
     13080   320.49518      0            
     13100   317.07557      0            
     13120   315.90899      0            
     13140   315.79576      0            
     13160   314.68926      0            
     13180   310.75587      0            
     13200   303.3599       0            
     13220   293.45115      0            
     13240   283.18276      0            
     13260   275.05698      0            
     13280   271.03888      0            
     13300   271.90922      0            
     13320   277.00136      0            
     13340   284.44126      0            
     13360   291.88193      0            
     13380   297.45086      0            
     13400   300.45519      0            
     13420   301.50445      0            
     13440   302.01271      0            
     13460   303.33626      0            
     13480   305.96617      0            
     13500   309.16911      0            
     13520   311.27151      0            
     13540   310.48461      0            
     13560   305.88374      0            
     13580   298.03391      0            
     13600   288.9142       0            
     13620   281.17173      0            
     13640   277.08978      0            
     13660   277.75594      0            
     13680   282.73215      0            
     13700   290.24057      0            
     13720   297.7696       0            
     13740   303.01428      0            
     13760   304.85627      0            
     13780   303.86853      0            
     13800   302.00786      0            
     13820   301.63248      0            
     13840   304.34686      0            
     13860   310.21336      0            
     13880   317.66832      0            
     13900   324.18594      0            
     13920   327.40881      0            
     13940   326.20426      0            
     13960   321.105        0            
     13980   313.91942      0            
     14000   306.75546      0            
     14020   300.99958      0            
     14040   296.77021      0            
     14060   293.07222      0            
     14080   288.50127      0            
     14100   282.09702      0            
     14120   273.94036      0            
     14140   265.28055      0            
     14160   258.20644      0            
     14180   255.03623      0            
     14200   257.66237      0            
     14220   267.00039      0            
     14240   282.40339      0            
     14260   300.86463      0            
     14280   317.17014      0            
     14300   326.71417      0            
     14320   328.53289      0            
     14340   324.96055      0            
     14360   319.21306      0            
     14380   313.71297      0            
     14400   309.62163      0            
     14420   306.96767      0            
     14440   305.08773      0            
     14460   303.20582      0            
     14480   300.90528      0            
     14500   298.28867      0            
     14520   295.79039      0            
     14540   293.79559      0            
     14560   292.31383      0            
     14580   290.90909      0            
     14600   288.9367       0            
     14620   285.96567      0            
     14640   282.16035      0            
     14660   278.41297      0            
     14680   276.1473       0            
     14700   276.86698      0            
     14720   281.60259      0            
     14740   290.39042      0            
     14760   301.91031      0            
     14780   313.60612      0            
     14800   322.69857      0            
     14820   327.68245      0            
     14840   329.05809      0            
     14860   328.75506      0            
     14880   328.82318      0            
     14900   330.1878       0            
     14920   332.01286      0            
     14940   331.95297      0            
     14960   327.34758      0            
     14980   317.06052      0            
     15000   302.8221       0            
     15020   288.37475      0            
     15040   277.01285      0            
     15060   270.32147      0            
     15080   268.48043      0            
     15100   270.72379      0            
     15120   275.59364      0            
     15140   281.30322      0            
     15160   286.30264      0            
     15180   289.82743      0            
     15200   292.1273       0            
     15220   294.21637      0            
     15240   297.24444      0            
     15260   301.79777      0            
     15280   307.48293      0            
     15300   313.01912      0            
     15320   316.81994      0            
     15340   317.78344      0            
     15360   315.86736      0            
     15380   312.11072      0            
     15400   308.03925      0            
     15420   304.68537      0            
     15440   301.64663      0            
     15460   296.91333      0            
     15480   288.5417       0            
     15500   277.25501      0            
     15520   265.88502      0            
     15540   256.39366      0            
     15560   249.43141      0            
     15580   245.51689      0            
     15600   245.38647      0            
     15620   249.56973      0            
     15640   257.78105      0            
     15660   268.48786      0            
     15680   279.2015       0            
     15700   287.78887      0            
     15720   293.72342      0            
     15740   298.03299      0            
     15760   302.29561      0            
     15780   307.58879      0            
     15800   313.82522      0            
     15820   319.64769      0            
     15840   322.94172      0            
     15860   321.80463      0            
     15880   315.55528      0            
     15900   305.27134      0            
     15920   293.52746      0            
     15940   283.42564      0            
     15960   277.39879      0            
     15980   276.34239      0            
     16000   279.3834       0            
     16020   284.3036       0            
     16040   288.44864      0            
     16060   289.82051      0            
     16080   287.95402      0            
     16100   284.19058      0            
     16120   281.17195      0            
     16140   281.75939      0            
     16160   287.8269       0            
     16180   299.3175       0            
     16200   313.95742      0            
     16220   328.03223      0            
     16240   337.96915      0            
     16260   341.73171      0            
     16280   339.33463      0            
     16300   332.4679       0            
     16320   323.55416      0            
     16340   314.70739      0            
     16360   307.05034      0            
     16380   300.6161       0            
     16400   294.73686      0            
     16420   288.63732      0            
     16440   281.97295      0            
     16460   275.14621      0            
     16480   269.30023      0            
     16500   265.97765      0            
     16520   266.55199      0            
     16540   271.61786      0            
     16560   280.5411       0            
     16580   291.38175      0            
     16600   301.39472      0            
     16620   308.06461      0            
     16640   310.13997      0            
     16660   307.98989      0            
     16680   303.16114      0            
     16700   297.61439      0            
     16720   293.08297      0            
     16740   290.68531      0            
     16760   290.80092      0            
     16780   293.18388      0            
     16800   297.22527      0            
     16820   302.23201      0            
     16840   307.60031      0            
     16860   312.82233      0            
     16880   317.3501       0            
     16900   320.41249      0            
     16920   320.90801      0            
     16940   317.49326      0            
     16960   309.02955      0            
     16980   295.55607      0            
     17000   279.28581      0            
     17020   264.02034      0            
     17040   252.9553       0            
     17060   247.49158      0            
     17080   247.67727      0            
     17100   252.82458      0            
     17120   261.74012      0            
     17140   272.73956      0            
     17160   283.66916      0            
     17180   292.26258      0            
     17200   297.02593      0            
     17220   298.07759      0            
     17240   297.07815      0            
     17260   296.27481      0            
     17280   297.42913      0            
     17300   301.18042      0            
     17320   306.91384      0            
     17340   313.03449      0            
     17360   317.53827      0            
     17380   318.71809      0            
     17400   315.77544      0            
     17420   309.11151      0            
     17440   300.18451      0            
     17460   290.99856      0            
     17480   283.44439      0            
     17500   278.75421      0            
     17520   277.24302      0            
     17540   278.36627      0            
     17560   281.0264       0            
     17580   284.02036      0            
     17600   286.48901      0            
     17620   288.1975       0            
     17640   289.53093      0            
     17660   291.25863      0            
     17680   294.20953      0            
     17700   298.96422      0            
     17720   305.66127      0            
     17740   313.98436      0            
     17760   323.24877      0            
     17780   332.4309       0            
     17800   340.13437      0            
     17820   344.64796      0            
     17840   344.24536      0            
     17860   337.78498      0            
     17880   325.52009      0            
     17900   309.63205      0            
     17920   293.61953      0            
     17940   280.65575      0            
     17960   272.51228      0            
     17980   269.6593       0            
     18000   271.66533      0            
     18020   277.39242      0            
     18040   285.14144      0            
     18060   292.95768      0            
     18080   299.11643      0            
     18100   302.62873      0            
     18120   303.53092      0            
     18140   302.79757      0            
     18160   301.89761      0            
     18180   302.17705      0            
     18200   304.31215      0            
     18220   308.02998      0            
     18240   312.18132      0            
     18260   315.10538      0            
     18280   315.06953      0            
     18300   310.54292      0            
     18320   300.60817      0            
     18340   286.25911      0            
     18360   271.02113      0            
     18380   258.84848      0            
     18400   251.81388      0            
     18420   250.00064      0            
     18440   252.48697      0            
     18460   258.13952      0            
     18480   266.01198      0            
     18500   275.387        0            
     18520   285.54414      0            
     18540   295.58536      0            
     18560   304.6439       0            
     18580   312.207        0            
     18600   318.07264      0            
     18620   322.06253      0            
     18640   323.89908      0            
     18660   323.34749      0            
     18680   320.44886      0            
     18700   315.64502      0            
     18720   309.70577      0            
     18740   303.49836      0            
     18760   297.72046      0            
     18780   292.72366      0            
     18800   288.49535      0            
     18820   284.78193      0            
     18840   281.27114      0            
     18860   277.7354       0            
     18880   274.08059      0            
     18900   270.34517      0            
     18920   266.78293      0            
     18940   263.98169      0            
     18960   262.6961       0            
     18980   263.51028      0            
     19000   266.74575      0            
     19020   272.52648      0            
     19040   280.70824      0            
     19060   290.70478      0            
     19080   301.54286      0            
     19100   312.19248      0            
     19120   321.73058      0            
     19140   329.18751      0            
     19160   333.45389      0            
     19180   333.52529      0            
     19200   328.98496      0            
     19220   320.42483      0            
     19240   309.51821      0            
     19260   298.61562      0            
     19280   289.98219      0            
     19300   285.01624      0            
     19320   283.80552      0            
     19340   285.17669      0            
     19360   287.17953      0            
     19380   287.83056      0            
     19400   285.87131      0            
     19420   281.27263      0            
     19440   275.31021      0            
     19460   270.24059      0            
     19480   268.7422       0            
     19500   273.16847      0            
     19520   284.51459      0            
     19540   301.26811      0            
     19560   319.17974      0            
     19580   333.22486      0            
     19600   340.32264      0            
     19620   340.24864      0            
     19640   334.89884      0            
     19660   327.05515      0            
     19680   319.19741      0            
     19700   312.68596      0            
     19720   307.55487      0            
     19740   302.92693      0            
     19760   297.79026      0            
     19780   291.71753      0            
     19800   285.17174      0            
     19820   279.30612      0            
     19840   275.43709      0            
     19860   274.46873      0            
     19880   276.50456      0            
     19900   280.80811      0            
     19920   286.18959      0            
     19940   291.77672      0            
     19960   297.92736      0            
     19980   306.4921       0            
     20000   318.8594       0            
     20020   332.84899      0            
     20040   344.49154      0            
     20060   352.28302      0            
     20080   356.44411      0            
     20100   356.73675      0            
     20120   352.40297      0            
     20140   343.33521      0            
     20160   330.97745      0            
     20180   318.04021      0            
     20200   307.25023      0            
     20220   300.26529      0            
     20240   297.32607      0            
     20260   297.39133      0            
     20280   298.56107      0            
     20300   298.77794      0            
     20320   296.65266      0            
     20340   292.07153      0            
     20360   286.27408      0            
     20380   281.34338      0            
     20400   279.35309      0            
     20420   281.56141      0            
     20440   287.97892      0            
     20460   297.44267      0            
     20480   308.09852      0            
     20500   318.04688      0            
     20520   325.96516      0            
     20540   331.62576      0            
     20560   336.03222      0            
     20580   340.76781      0            
     20600   346.69358      0            
     20620   352.7471       0            
     20640   355.53122      0            
     20660   350.09633      0            
     20680   333.10895      0            
     20700   309.00451      0            
     20720   288.23376      0            
     20740   275.47154      0            
     20760   270.03054      0            
     20780   270.98642      0            
     20800   277.27332      0            
     20820   286.792        0            
     20840   296.52403      0            
     20860   303.46119      0            
     20880   305.79593      0            
     20900   303.72234      0            
     20920   299.36863      0            
     20940   295.85844      0            
     20960   295.95758      0            
     20980   300.9023       0            
     21000   309.84923      0            
     21020   320.14887      0            
     21040   328.39306      0            
     21060   331.84754      0            
     21080   329.58173      0            
     21100   322.69537      0            
     21120   313.56111      0            
     21140   304.57495      0            
     21160   297.14177      0            
     21180   291.39009      0            
     21200   286.56972      0            
     21220   281.68986      0            
     21240   276.07312      0            
     21260   269.77331      0            
     21280   263.75281      0            
     21300   259.64835      0            
     21320   259.16225      0            
     21340   263.33907      0            
     21360   271.99392      0            
     21380   283.4357       0            
     21400   294.66575      0            
     21420   302.42578      0            
     21440   304.96441      0            
     21460   303.20799      0            
     21480   300.20098      0            
     21500   299.30745      0            
     21520   302.51382      0            
     21540   309.59364      0            
     21560   318.19845      0            
     21580   324.76595      0            
     21600   325.98268      0            
     21620   320.25354      0            
     21640   308.48793      0            
     21660   293.75651      0            
     21680   279.99247      0            
     21700   270.49664      0            
     21720   266.98828      0            
     21740   269.41588      0            
     21760   276.3564       0            
     21780   285.76338      0            
     21800   295.81341      0            
     21820   305.53463      0            
     21840   314.8888       0            
     21860   324.22174      0            
     21880   333.5438       0            
     21900   342.32012      0            
     21920   349.71732      0            
     21940   354.71409      0            
     21960   356.01983      0            
     21980   352.13544      0            
     22000   341.80987      0            
     22020   325.45477      0            
     22040   307.32076      0            
     22060   293.74618      0            
     22080   286.96327      0            
     22100   284.63926      0            
     22120   284.09916      0            
     22140   283.97108      0            
     22160   283.89254      0            
     22180   284.16144      0            
     22200   285.44683      0            
     22220   288.44241      0            
     22240   293.50547      0            
     22260   300.39911      0            
     22280   308.25197      0            
     22300   315.78147      0            
     22320   321.70438      0            
     22340   325.14801      0            
     22360   325.86659      0            
     22380   324.17381      0            
     22400   320.6473       0            
     22420   315.77022      0            
     22440   309.71459      0            
     22460   302.42635      0            
     22480   293.99596      0            
     22500   284.994        0            
     22520   276.36359      0            
     22540   268.97132      0            
     22560   263.35811      0            
     22580   259.85565      0            
     22600   258.78714      0            
     22620   260.53826      0            
     22640   265.46622      0            
     22660   273.62734      0            
     22680   284.2852       0            
     22700   295.48825      0            
     22720   304.5848       0            
     22740   309.87614      0            
     22760   311.71065      0            
     22780   311.69412      0            
     22800   311.35992      0            
     22820   311.66306      0            
     22840   312.88964      0            
     22860   314.59396      0            
     22880   315.65226      0            
     22900   314.5646       0            
     22920   310.00684      0            
     22940   301.4611       0            
     22960   289.62682      0            
     22980   276.38174      0            
     23000   264.3373       0            
     23020   256.251        0            
     23040   254.50352      0            
     23060   260.67138      0            
     23080   275.0687       0            
     23100   296.0071       0            
     23120   319.04472      0            
     23140   337.89987      0            
     23160   347.53868      0            
     23180   346.5282       0            
     23200   336.99901      0            
     23220   323.2508       0            
     23240   309.99317      0            
     23260   300.79952      0            
     23280   297.24384      0            
     23300   298.84115      0            
     23320   303.58041      0            
     23340   308.78304      0            
     23360   312.0414       0            
     23380   311.96639      0            
     23400   308.50139      0            
     23420   302.72035      0            
     23440   296.25583      0            
     23460   290.65089      0            
     23480   286.90875      0            
     23500   285.36522      0            
     23520   285.84484      0            
     23540   287.96695      0            
     23560   291.45615      0            
     23580   296.36703      0            
     23600   303.21819      0            
     23620   313.01717      0            
     23640   326.76129      0            
     23660   343.73349      0            
     23680   360.17537      0            
     23700   371.45321      0            
     23720   375.14621      0            
     23740   371.21442      0            
     23760   360.80121      0            
     23780   345.84333      0            
     23800   329.58694      0            
     23820   315.96944      0            
     23840   306.91485      0            
     23860   301.37274      0            
     23880   297.37529      0            
     23900   293.81975      0            
     23920   290.7354       0            
     23940   288.80641      0            
     23960   288.73579      0            
     23980   290.71961      0            
     24000   294.20733      0            
     24020   298.03373      0            
     24040   300.87634      0            
     24060   301.8528       0            
     24080   300.98703      0            
     24100   299.3095       0            
     24120   298.51997      0            
     24140   300.33995      0            
     24160   305.79762      0            
     24180   314.69034      0            
     24200   325.42748      0            
     24220   335.39819      0            
     24240   341.82267      0            
     24260   342.72318      0            
     24280   337.53178      0            
     24300   327.15394      0            
     24320   313.70608      0            
     24340   300.08051      0            
     24360   289.03153      0            
     24380   281.8956       0            
     24400   278.12532      0            
     24420   276.0834       0            
     24440   274.20235      0            
     24460   271.75741      0            
     24480   269.09471      0            
     24500   267.40505      0            
     24520   268.20306      0            
     24540   272.67625      0            
     24560   281.05303      0            
     24580   292.2294       0            
     24600   304.03778      0            
     24620   314.20395      0            
     24640   321.27609      0            
     24660   324.8354       0            
     24680   325.14044      0            
     24700   322.73469      0            
     24720   318.25201      0            
     24740   312.37253      0            
     24760   305.83543      0            
     24780   299.44072      0            
     24800   293.99417      0            
     24820   290.18178      0            
     24840   288.4023       0            
     24860   288.62232      0            
     24880   290.33306      0            
     24900   292.66886      0            
     24920   294.69354      0            
     24940   295.78786      0            
     24960   296.01307      0            
     24980   296.30016      0            
     25000   298.28382      0            
     25020   303.61957      0            
     25040   312.95695      0            
     25060   325.26002      0            
     25080   338.12147      0            
     25100   348.79429      0            
     25120   355.02749      0            
     25140   355.40563      0            
     25160   349.51087      0            
     25180   338.1782       0            
     25200   323.77437      0            
     25220   309.75125      0            
     25240   298.92909      0            
     25260   292.0645       0            
     25280   288.21871      0            
     25300   285.96406      0            
     25320   284.21254      0            
     25340   282.51311      0            
     25360   281.02388      0            
     25380   280.30661      0            
     25400   281.04837      0            
     25420   283.8023       0            
     25440   288.80791      0            
     25460   295.90832      0            
     25480   304.55826      0            
     25500   313.91305      0            
     25520   322.964        0            
     25540   330.64458      0            
     25560   335.8539       0            
     25580   337.43558      0            
     25600   334.1899       0            
     25620   324.96481      0            
     25640   309.07402      0            
     25660   287.95076      0            
     25680   267.19611      0            
     25700   253.34311      0            
     25720   248.40912      0            
     25740   250.7385       0            
     25760   257.73187      0            
     25780   266.82154      0            
     25800   275.66425      0            
     25820   282.42797      0            
     25840   286.20987      0            
     25860   287.30187      0            
     25880   287.07163      0            
     25900   287.43709      0            
     25920   290.11842      0            
     25940   295.94842      0            
     25960   304.50162      0            
     25980   314.19723      0            
     26000   322.85548      0            
     26020   328.4875       0            
     26040   329.98182      0            
     26060   327.39779      0            
     26080   321.76616      0            
     26100   314.53331      0            
     26120   306.94686      0            
     26140   299.67923      0            
     26160   292.82417      0            
     26180   286.17714      0            
     26200   279.57959      0            
     26220   273.15705      0            
     26240   267.41173      0            
     26260   263.18555      0            
     26280   261.51318      0            
     26300   263.43591      0            
     26320   269.94473      0            
     26340   282.24494      0            
     26360   301.78694      0            
     26380   326.6671       0            
     26400   346.42656      0            
     26420   352.84425      0            
     26440   349.24138      0            
     26460   341.46008      0            
     26480   332.93528      0            
     26500   325.43471      0            
     26520   319.5757       0            
     26540   315.0411       0            
     26560   310.9463       0            
     26580   306.32401      0            
     26600   300.54417      0            
     26620   293.53108      0            
     26640   285.7558       0            
     26660   278.07627      0            
     26680   271.5254       0            
     26700   267.12408      0            
     26720   265.75121      0            
     26740   268.05428      0            
     26760   274.33524      0            
     26780   284.32674      0            
     26800   296.8845       0            
     26820   309.91734      0            
     26840   320.9407       0            
     26860   328.00945      0            
     26880   330.32535      0            
     26900   328.27975      0            
     26920   323.15955      0            
     26940   316.70747      0            
     26960   310.6213       0            
     26980   306.08971      0            
     27000   303.48995      0            
     27020   302.34313      0            
     27040   301.54616      0            
     27060   299.80666      0            
     27080   296.12359      0            
     27100   290.11285      0            
     27120   282.00729      0            
     27140   272.27318      0            
     27160   261.06495      0            
     27180   248.50463      0            
     27200   236.37967      0            
     27220   227.73922      0            
     27240   223.9067       0            
     27260   224.19482      0            
     27280   227.58518      0            
     27300   233.66149      0            
     27320   242.28309      0            
     27340   252.31604      0            
     27360   261.57194      0            
     27380   269.22442      0            
     27400   276.44467      0            
     27420   284.38894      0            
     27440   293.06584      0            
     27460   301.54564      0            
     27480   308.61613      0            
     27500   313.42703      0            
     27520   315.87354      0            
     27540   316.58198      0            
     27560   316.53353      0            
     27580   316.52418      0            
     27600   316.72193      0            
     27620   316.53017      0            
     27640   314.83731      0            
     27660   310.57451      0            
     27680   303.3501       0            
     27700   293.82939      0            
     27720   283.59735      0            
     27740   274.56337      0            
     27760   268.29806      0            
     27780   265.64807      0            
     27800   266.6817       0            
     27820   270.87322      0            
     27840   277.44839      0            
     27860   285.78955      0            
     27880   295.64205      0            
     27900   306.70855      0            
     27920   317.74562      0            
     27940   326.65307      0            
     27960   332.17036      0            
     27980   334.79279      0            
     28000   335.83386      0            
     28020   336.21955      0            
     28040   336.04419      0            
     28060   334.7903       0            
     28080   331.82671      0            
     28100   326.85421      0            
     28120   320.09934      0            
     28140   312.23908      0            
     28160   304.181        0            
     28180   296.8319       0            
     28200   290.91901      0            
     28220   286.88624      0            
     28240   284.87708      0            
     28260   284.79665      0            
     28280   286.4176       0            
     28300   289.47917      0            
     28320   293.73673      0            
     28340   298.9486       0            
     28360   304.82321      0            
     28380   310.97588      0            
     28400   316.94277      0            
     28420   322.26295      0            
     28440   326.5819       0            
     28460   329.70266      0            
     28480   331.567        0            
     28500   332.22131      0            
     28520   331.76455      0            
     28540   330.20752      0            
     28560   327.29947      0            
     28580   322.54019      0            
     28600   315.53097      0            
     28620   306.47621      0            
     28640   296.32683      0            
     28660   286.36694      0            
     28680   277.75183      0            
     28700   271.41047      0            
     28720   268.09549      0            
     28740   268.30196      0            
     28760   272.07679      0            
     28780   278.87349      0            
     28800   287.56566      0            
     28820   296.65686      0            
     28840   304.66571      0            
     28860   310.59375      0            
     28880   314.28485      0            
     28900   316.45531      0            
     28920   318.32095      0            
     28940   320.98393      0            
     28960   324.8691       0            
     28980   329.43152      0            
     29000   333.14401      0            
     29020   333.57325      0            
     29040   327.78295      0            
     29060   314.44489      0            
     29080   296.76786      0            
     29100   280.84548      0            
     29120   270.374        0            
     29140   265.43536      0            
     29160   264.49527      0            
     29180   265.76393      0            
     29200   267.78773      0            
     29220   269.83043      0            
     29240   272.0666       0            
     29260   275.43604      0            
     29280   281.11488      0            
     29300   289.79384      0            
     29320   301.15367      0            
     29340   313.80666      0            
     29360   325.59867      0            
     29380   334.0895       0            
     29400   337.20236      0            
     29420   333.95132      0            
     29440   324.93476      0            
     29460   312.27681      0            
     29480   298.95613      0            
     29500   287.82249      0            
     29520   280.79001      0            
     29540   278.51377      0            
     29560   280.51352      0            
     29580   285.54881      0            
     29600   292.07578      0            
     29620   298.66992      0            
     29640   304.33108      0            
     29660   308.63447      0            
     29680   311.76782      0            
     29700   314.51823      0            
     29720   318.00052      0            
     29740   322.77719      0            
     29760   328.2951       0            
     29780   333.58084      0            
     29800   338.09737      0            
     29820   341.77032      0            
     29840   344.41507      0            
     29860   345.20967      0            
     29880   342.71678      0            
     29900   335.68476      0            
     29920   324.23214      0            
     29940   310.14791      0            
     29960   295.73819      0            
     29980   282.79733      0            
     30000   272.69773      0            
     30020   266.65615      0            
     30040   265.55234      0            
     30060   269.5473       0            
     30080   277.83866      0            
     30100   288.70241      0            
     30120   299.85955      0            
     30140   309.12878      0            
     30160   315.1584       0            
     30180   317.86087      0            
     30200   318.27051      0            
     30220   317.89545      0            
     30240   317.91311      0            
     30260   318.57389      0            
     30280   319.00158      0            
     30300   317.37113      0            
     30320   311.4402       0            
     30340   299.80144      0            
     30360   283.88122      0            
     30380   268.09154      0            
     30400   256.47962      0            
     30420   250.41182      0            
     30440   249.40727      0            
     30460   252.39222      0            
     30480   258.25335      0            
     30500   266.00419      0            
     30520   274.75918      0            
     30540   283.63694      0            
     30560   291.81814      0            
     30580   298.78227      0            
     30600   304.38385      0            
     30620   308.61181      0            
     30640   311.33789      0            
     30660   312.34388      0            
     30680   311.57186      0            
     30700   309.34866      0            
     30720   306.38903      0            
     30740   303.55096      0            
     30760   301.4724       0            
     30780   300.28565      0            
     30800   299.56343      0            
     30820   298.53285      0            
     30840   296.45721      0            
     30860   292.99528      0            
     30880   288.35981      0            
     30900   283.22233      0            
     30920   278.46253      0            
     30940   274.87098      0            
     30960   272.84487      0            
     30980   272.22183      0            
     31000   272.44871      0            
     31020   273.03685      0            
     31040   274.0252       0            
     31060   276.16393      0            
     31080   280.65993      0            
     31100   288.50996      0            
     31120   299.68776      0            
     31140   312.68803      0            
     31160   324.83177      0            
     31180   333.19061      0            
     31200   335.64454      0            
     31220   331.69876      0            
     31240   322.78119      0            
     31260   311.82158      0            
     31280   302.1957       0            
     31300   296.44657      0            
     31320   295.30243      0            
     31340   297.35861      0            
     31360   299.55237      0            
     31380   298.35542      0            
     31400   291.38153      0            
     31420   278.73686      0            
     31440   263.13712      0            
     31460   248.51743      0            
     31480   238.38219      0            
     31500   235.06258      0            
     31520   239.70569      0            
     31540   252.4452       0            
     31560   272.01781      0            
     31580   293.84248      0            
     31600   309.96763      0            
     31620   315.90824      0            
     31640   314.05752      0            
     31660   308.84128      0            
     31680   303.69986      0            
     31700   300.69821      0            
     31720   300.40705      0            
     31740   302.05084      0            
     31760   304.06545      0            
     31780   304.89127      0            
     31800   303.68412      0            
     31820   300.65073      0            
     31840   296.88732      0            
     31860   293.83629      0            
     31880   292.63971      0            
     31900   293.6722       0            
     31920   296.41406      0            
     31940   299.67114      0            
     31960   302.02878      0            
     31980   302.36076      0            
     32000   300.20706      0            
     32020   295.89524      0            
     32040   290.39185      0            
     32060   284.9812       0            
     32080   280.92384      0            
     32100   279.21932      0            
     32120   280.50838      0            
     32140   285.05244      0            
     32160   292.68628      0            
     32180   302.69598      0            
     32200   313.73414      0            
     32220   323.99951      0            
     32240   331.73208      0            
     32260   335.74269      0            
     32280   335.67423      0            
     32300   331.94276      0            
     32320   325.46211      0            
     32340   317.28747      0            
     32360   308.34354      0            
     32380   299.38504      0            
     32400   291.12988      0            
     32420   284.23739      0            
     32440   279.00883      0            
     32460   275.22375      0            
     32480   272.39898      0            
     32500   270.2007       0            
     32520   268.66584      0            
     32540   268.15061      0            
     32560   269.09732      0            
     32580   271.75487      0            
     32600   275.99352      0            
     32620   281.33934      0            
     32640   287.22682      0            
     32660   293.231        0            
     32680   299.02931      0            
     32700   304.18877      0            
     32720   308.05791      0            
     32740   309.88503      0            
     32760   309.11618      0            
     32780   305.74365      0            
     32800   300.53265      0            
     32820   294.97768      0            
     32840   290.94547      0            
     32860   290.09949      0            
     32880   293.29398      0            
     32900   300.14273      0            
     32920   308.92906      0            
     32940   316.94938      0            
     32960   321.2792       0            
     32980   319.81244      0            
     33000   312.23199      0            
     33020   300.39484      0            
     33040   287.73844      0            
     33060   277.88462      0            
     33080   273.20227      0            
     33100   274.05565      0            
     33120   278.92063      0            
     33140   285.15282      0            
     33160   290.09591      0            
     33180   292.16913      0            
     33200   291.52364      0            
     33220   289.96726      0            
     33240   290.16317      0            
     33260   294.42141      0            
     33280   303.53523      0            
     33300   316.1253       0            
     33320   328.9302       0            
     33340   338.1378       0            
     33360   341.11146      0            
     33380   337.51061      0            
     33400   329.24117      0            
     33420   319.34823      0            
     33440   310.46284      0            
     33460   303.63103      0            
     33480   298.19852      0            
     33500   292.76157      0            
     33520   286.24746      0            
     33540   278.24931      0            
     33560   269.03581      0            
     33580   259.79075      0            
     33600   252.65684      0            
     33620   250.1325       0            
     33640   253.99861      0            
     33660   264.30242      0            
     33680   278.94056      0            
     33700   294.17873      0            
     33720   305.989        0            
     33740   311.61075      0            
     33760   310.61659      0            
     33780   304.99903      0            
     33800   298.24914      0            
     33820   293.88254      0            
     33840   294.08262      0            
     33860   298.97682      0            
     33880   306.74096      0            
     33900   314.43958      0            
     33920   319.26958      0            
     33940   319.67789      0            
     33960   315.82756      0            
     33980   309.21933      0            
     34000   301.77236      0            
     34020   294.93678      0            
     34040   289.24737      0            
     34060   284.37714      0            
     34080   279.53941      0            
     34100   274.04728      0            
     34120   267.83734      0            
     34140   261.73983      0            
     34160   257.34791      0            
     34180   256.5365       0            
     34200   260.83094      0            
     34220   270.76166      0            
     34240   285.17058      0            
     34260   300.77471      0            
     34280   313.19032      0            
     34300   319.47529      0            
     34320   319.66484      0            
     34340   316.0924       0            
     34360   311.79129      0            
     34380   309.14628      0            
     34400   309.14304      0            
     34420   311.25321      0            
     34440   313.87671      0            
     34460   315.13357      0            
     34480   313.68313      0            
     34500   309.23561      0            
     34520   302.55979      0            
     34540   295.03843      0            
     34560   288.04118      0            
     34580   282.44171      0            
     34600   278.47986      0            
     34620   275.96907      0            
     34640   274.71369      0            
     34660   274.99916      0            
     34680   278.059        0            
     34700   286.01646      0            
     34720   300.15249      0            
     34740   318.33821      0            
     34760   335.52888      0            
     34780   347.41872      0            
     34800   352.19177      0            
     34820   349.88503      0            
     34840   341.73319      0            
     34860   329.83808      0            
     34880   316.76368      0            
     34900   304.93843      0            
     34920   296.02         0            
     34940   290.54334      0            
     34960   288.05363      0            
     34980   287.57846      0            
     35000   288.12381      0            
     35020   288.97739      0            
     35040   289.76874      0            
     35060   290.35768      0            
     35080   290.68482      0            
     35100   290.7148       0            
     35120   290.53895      0            
     35140   290.6183       0            
     35160   292.07827      0            
     35180   296.83791      0            
     35200   306.95928      0            
     35220   322.61931      0            
     35240   340.4677       0            
     35260   355.46243      0            
     35280   363.92438      0            
     35300   364.21625      0            
     35320   356.41452      0            
     35340   342.38134      0            
     35360   325.73531      0            
     35380   310.88501      0            
     35400   301.1871       0            
     35420   297.58384      0            
     35440   298.63748      0            
     35460   301.47838      0            
     35480   303.01755      0            
     35500   301.12299      0            
     35520   295.45573      0            
     35540   287.62753      0            
     35560   280.57834      0            
     35580   277.43042      0            
     35600   280.26983      0            
     35620   289.26127      0            
     35640   302.37022      0            
     35660   315.86173      0            
     35680   325.57619      0            
     35700   328.59477      0            
     35720   324.50573      0            
     35740   315.57121      0            
     35760   305.73221      0            
     35780   299.00077      0            
     35800   297.90424      0            
     35820   302.49574      0            
     35840   310.31584      0            
     35860   317.39027      0            
     35880   319.92167      0            
     35900   315.9755       0            
     35920   306.33965      0            
     35940   294.06958      0            
     35960   282.96771      0            
     35980   275.90016      0            
     36000   273.81826      0            
     36020   275.74443      0            
     36040   279.50184      0            
     36060   282.8214       0            
     36080   284.41283      0            
     36100   284.58249      0            
     36120   285.12527      0            
     36140   288.49802      0            
     36160   296.54414      0            
     36180   309.25229      0            
     36200   324.28371      0            
     36220   337.83334      0            
     36240   346.33495      0            
     36260   347.87122      0            
     36280   342.70545      0            
     36300   332.9498       0            
     36320   321.62225      0            
     36340   311.50165      0            
     36360   304.21072      0            
     36380   299.83721      0            
     36400   297.21586      0            
     36420   294.73303      0            
     36440   291.30291      0            
     36460   287.07394      0            
     36480   283.45147      0            
     36500   282.37111      0            
     36520   285.22916      0            
     36540   292.01512      0            
     36560   301.04353      0            
     36580   309.44856      0            
     36600   314.30933      0            
     36620   313.94114      0            
     36640   308.7138       0            
     36660   300.95434      0            
     36680   293.98434      0            
     36700   290.78447      0            
     36720   292.88578      0            
     36740   299.869        0            
     36760   309.54157      0            
     36780   318.67311      0            
     36800   324.12369      0            
     36820   324.05818      0            
     36840   318.67844      0            
     36860   310.00832      0            
     36880   300.84101      0            
     36900   293.45415      0            
     36920   288.75045      0            
     36940   286.16531      0            
     36960   284.26181      0            
     36980   281.64549      0            
     37000   277.75684      0            
     37020   273.21443      0            
     37040   269.62237      0            
     37060   269.00077      0            
     37080   273.09582      0            
     37100   282.71355      0            
     37120   297.07193      0            
     37140   313.45911      0            
     37160   328.04868      0            
     37180   337.79132      0            
     37200   341.65308      0            
     37220   340.37191      0            
     37240   335.5121       0            
     37260   328.62008      0            
     37280   320.80092      0            
     37300   312.72827      0            
     37320   304.88947      0            
     37340   297.80012      0            
     37360   292.0502       0            
     37380   288.20568      0            
     37400   286.63671      0            
     37420   287.33711      0            
     37440   289.81377      0            
     37460   293.12788      0            
     37480   296.13382      0            
     37500   297.87109      0            
     37520   297.95308      0            
     37540   296.75275      0            
     37560   295.2656       0            
     37580   294.69375      0            
     37600   295.93547      0            
     37620   299.20683      0            
     37640   303.95799      0            
     37660   309.11724      0            
     37680   313.54933      0            
     37700   316.50199      0            
     37720   317.79713      0            
     37740   317.6503       0            
     37760   316.26342      0            
     37780   313.54431      0            
     37800   309.16416      0            
     37820   302.85383      0            
     37840   294.74128      0            
     37860   285.52826      0            
     37880   276.39537      0            
     37900   268.73111      0            
     37920   263.83725      0            
     37940   262.66497      0            
     37960   265.60404      0            
     37980   272.37509      0            
     38000   282.04657      0            
     38020   293.15875      0            
     38040   304.01036      0            
     38060   313.20821      0            
     38080   320.24833      0            
     38100   325.55949      0            
     38120   329.84475      0            
     38140   333.22895      0            
     38160   334.83511      0            
     38180   333.07857      0            
     38200   326.57046      0            
     38220   315.19611      0            
     38240   300.71519      0            
     38260   286.32469      0            
     38280   275.34066      0            
     38300   269.92133      0            
     38320   270.46086      0            
     38340   275.5877       0            
     38360   282.68762      0            
     38380   288.92772      0            
     38400   292.35179      0            
     38420   292.5297       0            
     38440   290.60297      0            
     38460   288.75236      0            
     38480   289.2589       0            
     38500   293.51248      0            
     38520   301.35558      0            
     38540   311.02934      0            
     38560   319.78828      0            
     38580   324.97754      0            
     38600   325.09631      0            
     38620   320.31335      0            
     38640   312.17772      0            
     38660   302.72477      0            
     38680   293.51085      0            
     38700   285.11268      0            
     38720   277.28174      0            
     38740   269.48798      0            
     38760   261.44853      0            
     38780   253.49047      0            
     38800   246.75594      0            
     38820   243.18469      0            
     38840   245.23785      0            
     38860   255.31209      0            
     38880   274.1023       0            
     38900   297.47365      0            
     38920   317.34828      0            
     38940   328.78226      0            
     38960   331.78912      0            
     38980   328.42763      0            
     39000   321.4299       0            
     39020   313.6464       0            
     39040   307.27641      0            
     39060   303.215        0            
     39080   300.93772      0            
     39100   299.00123      0            
     39120   295.92176      0            
     39140   291.01674      0            
     39160   284.81175      0            
     39180   278.83713      0            
     39200   274.95547      0            
     39220   274.5743       0            
     39240   278.10569      0            
     39260   284.88331      0            
     39280   293.52082      0            
     39300   302.46453      0            
     39320   310.43318      0            
     39340   316.71424      0            
     39360   321.50735      0            
     39380   326.06051      0            
     39400   332.00431      0            
     39420   340.04056      0            
     39440   348.90969      0            
     39460   355.3864       0            
     39480   355.50011      0            
     39500   346.77864      0            
     39520   330.6049       0            
     39540   312.08677      0            
     39560   296.19942      0            
     39580   285.11026      0            
     39600   279.28345      0            
     39620   278.58381      0            
     39640   282.14446      0            
     39660   288.31075      0            
     39680   295.08284      0            
     39700   300.7904       0            
     39720   304.63696      0            
     39740   306.841        0            
     39760   308.30579      0            
     39780   309.99412      0            
     39800   312.32638      0            
     39820   314.88969      0            
     39840   316.58106      0            
     39860   316.10137      0            
     39880   312.56241      0            
     39900   305.933        0            
     39920   297.13965      0            
     39940   287.77699      0            
     39960   279.51956      0            
     39980   273.48013      0            
     40000   269.85523      0            
     40020   268.05308      0            
     40040   267.19758      0            
     40060   266.73116      0            
     40080   266.86425      0            
     40100   268.71836      0            
     40120   274.05111      0            
     40140   284.35817      0            
     40160   299.31728      0            
     40180   315.9556       0            
     40200   330.3718       0            
     40220   340.00721      0            
     40240   343.89421      0            
     40260   342.05879      0            
     40280   335.29726      0            
     40300   325.12565      0            
     40320   313.53802      0            
     40340   302.54566      0            
     40360   293.71633      0            
     40380   287.93708      0            
     40400   285.42681      0            
     40420   285.87197      0            
     40440   288.57357      0            
     40460   292.57833      0            
     40480   296.81927      0            
     40500   300.29205      0            
     40520   302.26107      0            
     40540   302.44857      0            
     40560   301.14192      0            
     40580   299.18184      0            
     40600   297.85732      0            
     40620   298.72066      0            
     40640   303.10583      0            
     40660   311.25498      0            
     40680   321.81943      0            
     40700   332.34029      0            
     40720   340.28412      0            
     40740   343.89313      0            
     40760   342.51591      0            
     40780   336.53492      0            
     40800   327.11472      0            
     40820   315.90473      0            
     40840   304.67768      0            
     40860   294.84956      0            
     40880   287.08902      0            
     40900   281.35397      0            
     40920   277.31137      0            
     40940   274.76842      0            
     40960   273.8541       0            
     40980   274.93222      0            
     41000   278.36074      0            
     41020   284.23883      0            
     41040   292.25058      0            
     41060   301.65679      0            
     41080   311.43754      0            
     41100   320.55546      0            
     41120   328.25574      0            
     41140   334.2408       0            
     41160   338.56707      0            
     41180   341.25739      0            
     41200   341.7511       0            
     41220   338.39504      0            
     41240   328.76343      0            
     41260   312.184        0            
     41280   292.52601      0            
     41300   275.74875      0            
     41320   265.04981      0            
     41340   260.69561      0            
     41360   261.87039      0            
     41380   267.34711      0            
     41400   275.52384      0            
     41420   284.5438       0            
     41440   292.64127      0            
     41460   298.60971      0            
     41480   302.18396      0            
     41500   304.11156      0            
     41520   305.80831      0            
     41540   308.70522      0            
     41560   313.557        0            
     41580   320.00599      0            
     41600   326.59227      0            
     41620   331.21605      0            
     41640   331.8451       0            
     41660   327.12072      0            
     41680   316.63145      0            
     41700   301.15772      0            
     41720   283.46016      0            
     41740   268.26633      0            
     41760   259.38627      0            
     41780   257.29073      0            
     41800   260.02445      0            
     41820   264.98478      0            
     41840   269.99042      0            
     41860   273.81306      0            
     41880   276.34346      0            
     41900   278.38642      0            
     41920   281.1376       0            
     41940   285.5346       0            
     41960   291.75925      0            
     41980   299.11727      0            
     42000   306.32105      0            
     42020   311.98035      0            
     42040   315.06206      0            
     42060   315.18973      0            
     42080   312.73016      0            
     42100   308.64065      0            
     42120   304.1214       0            
     42140   300.20938      0            
     42160   297.47635      0            
     42180   295.93762      0            
     42200   295.18413      0            
     42220   294.6664       0            
     42240   294.01008      0            
     42260   293.24003      0            
     42280   292.83436      0            
     42300   293.60582      0            
     42320   296.45883      0            
     42340   302.02949      0            
     42360   310.18636      0            
     42380   319.64205      0            
     42400   328.13682      0            
     42420   333.23452      0            
     42440   333.26565      0            
     42460   327.9425       0            
     42480   318.45073      0            
     42500   307.04341      0            
     42520   296.29103      0            
     42540   288.25517      0            
     42560   283.90347      0            
     42580   282.96623      0            
     42600   284.22134      0            
     42620   286.04943      0            
     42640   287.05854      0            
     42660   286.57907      0            
     42680   284.87198      0            
     42700   282.99747      0            
     42720   282.42726      0            
     42740   284.5661       0            
     42760   290.3157       0            
     42780   299.70742      0            
     42800   311.63399      0            
     42820   323.96212      0            
     42840   334.33644      0            
     42860   341.22628      0            
     42880   344.28796      0            
     42900   343.86961      0            
     42920   340.24925      0            
     42940   333.22859      0            
     42960   322.47183      0            
     42980   308.54274      0            
     43000   293.60634      0            
     43020   280.51071      0            
     43040   271.25459      0            
     43060   266.70357      0            
     43080   267.05206      0            
     43100   271.93808      0            
     43120   280.22028      0            
     43140   289.90024      0            
     43160   298.49613      0            
     43180   303.82934      0            
     43200   304.88407      0            
     43220   302.28704      0            
     43240   298.11397      0            
     43260   295.07248      0            
     43280   295.41165      0            
     43300   300.00242      0            
     43320   307.93499      0            
     43340   316.79645      0            
     43360   323.56192      0            
     43380   325.75675      0            
     43400   322.36807      0            
     43420   314.15101      0            
     43440   303.36414      0            
     43460   293.00177      0            
     43480   285.55154      0            
     43500   281.85211      0            
     43520   280.82813      0            
     43540   280.23941      0            
     43560   277.95149      0            
     43580   273.0794       0            
     43600   266.51727      0            
     43620   260.68975      0            
     43640   258.70525      0            
     43660   263.23428      0            
     43680   275.28662      0            
     43700   293.04086      0            
     43720   311.76373      0            
     43740   326.04134      0            
     43760   332.67806      0            
     43780   331.73048      0            
     43800   325.80696      0            
     43820   318.64169      0            
     43840   313.50587      0            
     43860   311.94933      0            
     43880   313.30628      0            
     43900   315.1315       0            
     43920   314.40103      0            
     43940   308.99029      0            
     43960   298.73725      0            
     43980   285.54481      0            
     44000   272.55403      0            
     44020   262.97182      0            
     44040   259.11969      0            
     44060   261.87686      0            
     44080   270.45872      0            
     44100   282.53971      0            
     44120   294.93367      0            
     44140   304.88313      0            
     44160   311.1551       0            
     44180   313.9614       0            
     44200   314.09311      0            
     44220   312.24467      0            
     44240   308.78468      0            
     44260   303.87663      0            
     44280   297.81532      0            
     44300   291.36121      0            
     44320   285.83998      0            
     44340   282.89386      0            
     44360   283.9508       0            
     44380   289.60915      0            
     44400   299.17792      0            
     44420   310.58766      0            
     44440   320.81349      0            
     44460   326.79639      0            
     44480   326.58614      0            
     44500   320.19716      0            
     44520   309.71646      0            
     44540   298.55677      0            
     44560   290.1721       0            
     44580   286.80851      0            
     44600   288.80629      0            
     44620   294.65114      0            
     44640   301.6563       0            
     44660   306.994        0            
     44680   308.70915      0            
     44700   306.3253       0            
     44720   300.79797      0            
     44740   293.8817       0            
     44760   287.27096      0            
     44780   281.95543      0            
     44800   278.06224      0            
     44820   275.17371      0            
     44840   272.88755      0            
     44860   271.31912      0            
     44880   271.31372      0            
     44900   274.25869      0            
     44920   281.45752      0            
     44940   293.10418      0            
     44960   307.40244      0            
     44980   321.06065      0            
     45000   331.16553      0            
     45020   336.49087      0            
     45040   337.44053      0            
     45060   335.38396      0            
     45080   331.90728      0            
     45100   328.15187      0            
     45120   324.43722      0            
     45140   320.32158      0            
     45160   315.03524      0            
     45180   308.01615      0            
     45200   299.29005      0            
     45220   289.61973      0            
     45240   280.43637      0            
     45260   273.52528      0            
     45280   270.4896       0            
     45300   272.17118      0            
     45320   278.27336      0            
     45340   287.35923      0            
     45360   297.27442      0            
     45380   305.88209      0            
     45400   311.80861      0            
     45420   314.82483      0            
     45440   315.66884      0            
     45460   315.43848      0            
     45480   314.90043      0            
     45500   314.06324      0            
     45520   312.18857      0            
     45540   308.17891      0            
     45560   301.09499      0            
     45580   290.54569      0            
     45600   276.96517      0            
     45620   262.06091      0            
     45640   248.90177      0            
     45660   240.36435      0            
     45680   237.33931      0            
     45700   238.92415      0            
     45720   243.68269      0            
     45740   250.60326      0            
     45760   259.38786      0            
     45780   269.81565      0            
     45800   280.47946      0            
     45820   289.05395      0            
     45840   294.73404      0            
     45860   298.61209      0            
     45880   301.53082      0            
     45900   303.35176      0            
     45920   303.70486      0            
     45940   302.74146      0            
     45960   301.37514      0            
     45980   300.97103      0            
     46000   302.67392      0            
     46020   306.71084      0            
     46040   312.016        0            
     46060   316.41122      0            
     46080   317.36312      0            
     46100   313.07003      0            
     46120   303.406        0            
     46140   290.21421      0            
     46160   276.71157      0            
     46180   266.29198      0            
     46200   261.39528      0            
     46220   262.93834      0            
     46240   270.35274      0            
     46260   282.02163      0            
     46280   295.84405      0            
     46300   309.66962      0            
     46320   321.57389      0            
     46340   330.22517      0            
     46360   335.31013      0            
     46380   337.48384      0            
     46400   337.67973      0            
     46420   336.3155       0            
     46440   332.93755      0            
     46460   326.43772      0            
     46480   315.77545      0            
     46500   301.19241      0            
     46520   285.3163       0            
     46540   272.20414      0            
     46560   264.48651      0            
     46580   262.22637      0            
     46600   263.93741      0            
     46620   267.71371      0            
     46640   271.90108      0            
     46660   275.51583      0            
     46680   278.4414       0            
     46700   281.31348      0            
     46720   285.09113      0            
     46740   290.46737      0            
     46760   297.37269      0            
     46780   304.80897      0            
     46800   311.12389      0            
     46820   314.64153      0            
     46840   314.38454      0            
     46860   310.55274      0            
     46880   304.52153      0            
     46900   298.35538      0            
     46920   294.0643       0            
     46940   292.92463      0            
     46960   295.11262      0            
     46980   299.7422       0            
     47000   305.23919      0            
     47020   309.84532      0            
     47040   311.99249      0            
     47060   310.54978      0            
     47080   305.2767       0            
     47100   297.16736      0            
     47120   287.97317      0            
     47140   279.23529      0            
     47160   271.68635      0            
     47180   265.37449      0            
     47200   260.21619      0            
     47220   256.51702      0            
     47240   255.18736      0            
     47260   257.55172      0            
     47280   264.70497      0            
     47300   276.53664      0            
     47320   291.17921      0            
     47340   305.79807      0            
     47360   317.95863      0            
     47380   326.16809      0            
     47400   329.81775      0            
     47420   329.13703      0            
     47440   325.10822      0            
     47460   319.1722       0            
     47480   312.77982      0            
     47500   306.97856      0            
     47520   302.20032      0            
     47540   298.30381      0            
     47560   294.8091       0            
     47580   291.19715      0            
     47600   287.14913      0            
     47620   282.6566       0            
     47640   278.00848      0            
     47660   273.72162      0            
     47680   270.5115       0            
     47700   269.41652      0            
     47720   272.19079      0            
     47740   281.65568      0            
     47760   299.64846      0            
     47780   321.41203      0            
     47800   338.52646      0            
     47820   348.4776       0            
     47840   352.62465      0            
     47860   351.91758      0            
     47880   346.57337      0            
     47900   336.99625      0            
     47920   324.45401      0            
     47940   311.0416       0            
     47960   299.00226      0            
     47980   290.02292      0            
     48000   284.93515      0            
     48020   283.70649      0            
     48040   285.53899      0            
     48060   289.07941      0            
     48080   292.77965      0            
     48100   295.34793      0            
     48120   296.13781      0            
     48140   295.31269      0            
     48160   293.71602      0            
     48180   292.52276      0            
     48200   292.85037      0            
     48220   295.49142      0            
     48240   300.78387      0            
     48260   308.48864      0            
     48280   317.66174      0            
     48300   326.87009      0            
     48320   334.94112      0            
     48340   341.55474      0            
     48360   346.92373      0            
     48380   350.85632      0            
     48400   352.04626      0            
     48420   348.2597       0            
     48440   337.83299      0            
     48460   321.92051      0            
     48480   304.52246      0            
     48500   289.13118      0            
     48520   277.14173      0            
     48540   269.37713      0            
     48560   266.91751      0            
     48580   270.50055      0            
     48600   279.75303      0            
     48620   292.8756       0            
     48640   306.90658      0            
     48660   318.5306       0            
     48680   325.15996      0            
     48700   325.78321      0            
     48720   321.15556      0            
     48740   313.27715      0            
     48760   304.46707      0            
     48780   296.4841       0            
     48800   290.05107      0            
     48820   284.91099      0            
     48840   280.30793      0            
     48860   275.62954      0            
     48880   270.90649      0            
     48900   266.94877      0            
     48920   265.09102      0            
     48940   266.7091       0            
     48960   272.7193       0            
     48980   283.15946      0            
     49000   296.8513       0            
     49020   311.32416      0            
     49040   323.47855      0            
     49060   330.96456      0            
     49080   333.22237      0            
     49100   331.39609      0            
     49120   327.42936      0            
     49140   323.01983      0            
     49160   318.90417      0            
     49180   314.69773      0            
     49200   309.30879      0            
     49220   301.75845      0            
     49240   292.03065      0            
     49260   281.39833      0            
     49280   271.88455      0            
     49300   265.2798       0            
     49320   262.49164      0            
     49340   263.44318      0            
     49360   267.29433      0            
     49380   272.83616      0            
     49400   279.00584      0            
     49420   285.40045      0            
     49440   292.53848      0            
     49460   301.50532      0            
     49480   312.75097      0            
     49500   324.85486      0            
     49520   335.11905      0            
     49540   341.68803      0            
     49560   344.41887      0            
     49580   343.46077      0            
     49600   338.2751       0            
     49620   328.68548      0            
     49640   315.88513      0            
     49660   302.35454      0            
     49680   291.00115      0            
     49700   284.12536      0            
     49720   282.68788      0            
     49740   286.05373      0            
     49760   292.20194      0            
     49780   298.33824      0            
     49800   301.78227      0            
     49820   300.87211      0            
     49840   295.5418       0            
     49860   287.31754      0            
     49880   278.74763      0            
     49900   272.55963      0            
     49920   270.92067      0            
     49940   275.00973      0            
     49960   284.81618      0            
     49980   298.91131      0            
     50000   314.32961      0            
     50020   327.40241      0            
     50040   335.54873      0            
     50060   338.33353      0            
     50080   336.99147      0            
     50100   333.2902       0            
     50120   328.59819      0            
     50140   323.47109      0            
     50160   317.77846      0            
     50180   311.20852      0            
     50200   303.81726      0            
     50220   296.25146      0            
     50240   289.52572      0            
     50260   284.59273      0            
     50280   282.00612      0            
     50300   281.78487      0            
     50320   283.46534      0            
     50340   286.27227      0            
     50360   289.32766      0            
     50380   291.88017      0            
     50400   293.53967      0            
     50420   294.42981      0            
     50440   295.15909      0            
     50460   296.58352      0            
     50480   299.43091      0            
     50500   303.92362      0            
     50520   309.55012      0            
     50540   315.09741      0            
     50560   318.96901      0            
     50580   319.69301      0            
     50600   316.42269      0            
     50620   309.23058      0            
     50640   299.13567      0            
     50660   287.94782      0            
     50680   277.90987      0            
     50700   270.99844      0            
     50720   268.13136      0            
     50740   268.84803      0            
     50760   271.64385      0            
     50780   274.68797      0            
     50800   276.59302      0            
     50820   276.99097      0            
     50840   276.74026      0            
     50860   277.68008      0            
     50880   281.94191      0            
     50900   290.90243      0            
     50920   304.11486      0            
     50940   319.06877      0            
     50960   332.29194      0            
     50980   340.83076      0            
     51000   343.07243      0            
     51020   338.99896      0            
     51040   330.10571      0            
     51060   318.9259       0            
     51080   308.19465      0            
     51100   299.95153      0            
     51120   294.98179      0            
     51140   292.81579      0            
     51160   292.21005      0            
     51180   291.85337      0            
     51200   291.0053       0            
     51220   289.82047      0            
     51240   289.2342       0            
     51260   290.46076      0            
     51280   294.31464      0            
     51300   300.63945      0            
     51320   308.10534      0            
     51340   314.51762      0            
     51360   317.57725      0            
     51380   315.80751      0            
     51400   309.23138      0            
     51420   299.46574      0            
     51440   289.18875      0            
     51460   281.25018      0            
     51480   277.80038      0            
     51500   279.6957       0            
     51520   286.28518      0            
     51540   295.61237      0            
     51560   305.02247      0            
     51580   312.04088      0            
     51600   315.20451      0            
     51620   314.47091      0            
     51640   311.02907      0            
     51660   306.65058      0            
     51680   302.92183      0            
     51700   300.69334      0            
     51720   299.92899      0            
     51740   299.94965      0            
     51760   299.91748      0            
     51780   299.32181      0            
     51800   298.24018      0            
     51820   297.2751       0            
     51840   297.22506      0            
     51860   298.6541       0            
     51880   301.55254      0            
     51900   305.23619      0            
     51920   308.53283      0            
     51940   310.18732      0            
     51960   309.31923      0            
     51980   305.73547      0            
     52000   299.96341      0            
     52020   293.00429      0            
     52040   285.93935      0            
     52060   279.57881      0            
     52080   274.2972       0            
     52100   270.08362      0            
     52120   266.73461      0            
     52140   264.09324      0            
     52160   262.26686      0            
     52180   261.77212      0            
     52200   263.53958      0            
     52220   268.65955      0            
     52240   277.71431      0            
     52260   289.88931      0            
     52280   302.94713      0            
     52300   314.62184      0            
     52320   323.7301       0            
     52340   329.93814      0            
     52360   333.18056      0            
     52380   333.44014      0            
     52400   330.79711      0            
     52420   325.54577      0            
     52440   318.27712      0            
     52460   309.86244      0            
     52480   301.28548      0            
     52500   293.3675       0            
     52520   286.56442      0            
     52540   280.99056      0            
     52560   276.63278      0            
     52580   273.59191      0            
     52600   272.20906      0            
     52620   273.01138      0            
     52640   276.47859      0            
     52660   282.69267      0            
     52680   291.01174      0            
     52700   299.98474      0            
     52720   307.68368      0            
     52740   312.38252      0            
     52760   313.22138      0            
     52780   310.48935      0            
     52800   305.47408      0            
     52820   300.06209      0            
     52840   296.21188      0            
     52860   295.36695      0            
     52880   297.95478      0            
     52900   303.15914      0            
     52920   309.09702      0            
     52940   313.40602      0            
     52960   314.07815      0            
     52980   310.22268      0            
     53000   302.41681      0            
     53020   292.46906      0            
     53040   282.69848      0            
     53060   275.05762      0            
     53080   270.47528      0            
     53100   268.66632      0            
     53120   268.44836      0            
     53140   268.41387      0            
     53160   267.68055      0            
     53180   266.4172       0            
     53200   265.93416      0            
     53220   268.2642       0            
     53240   275.23434      0            
     53260   287.20092      0            
     53280   302.30466      0            
     53300   317.29059      0            
     53320   329.08426      0            
     53340   335.61527      0            
     53360   336.05686      0            
     53380   330.96729      0            
     53400   322.17107      0            
     53420   312.20421      0            
     53440   303.47971      0            
     53460   297.52555      0            
     53480   294.60289      0            
     53500   293.81307      0            
     53520   293.59616      0            
     53540   292.40041      0            
     53560   289.26755      0            
     53580   284.12802      0            
     53600   277.73161      0            
     53620   271.30985      0            
     53640   266.19435      0            
     53660   263.63363      0            
     53680   264.87368      0            
     53700   271.12043      0            
     53720   282.79628      0            
     53740   298.30729      0            
     53760   314.02459      0            
     53780   326.57015      0            
     53800   334.61839      0            
     53820   338.3571       0            
     53840   338.35503      0            
     53860   335.03934      0            
     53880   328.71923      0            
     53900   319.87408      0            
     53920   309.4375       0            
     53940   298.8183       0            
     53960   289.56665      0            
     53980   282.89572      0            
     54000   279.36613      0            
     54020   278.83434      0            
     54040   280.5895       0            
     54060   283.6038       0            
     54080   286.85672      0            
     54100   289.67965      0            
     54120   292.04283      0            
     54140   294.72092      0            
     54160   299.29784      0            
     54180   307.82438      0            
     54200   321.54687      0            
     54220   338.82971      0            
     54240   355.11291      0            
     54260   366.0271       0            
     54280   369.38438      0            
     54300   364.80193      0            
     54320   353.262        0            
     54340   337.26717      0            
     54360   320.65264      0            
     54380   307.11925      0            
     54400   298.51268      0            
     54420   294.68518      0            
     54440   294.47149      0            
     54460   296.40038      0            
     54480   298.95934      0            
     54500   300.78799      0            
     54520   300.94005      0            
     54540   299.13145      0            
     54560   295.84272      0            
     54580   292.19452      0            
     54600   289.61153      0            
     54620   289.3781       0            
     54640   292.22606      0            
     54660   298.07708      0            
     54680   306.0086       0            
     54700   314.45166      0            
     54720   321.58462      0            
     54740   325.85174      0            
     54760   326.46242      0            
     54780   323.64042      0            
     54800   318.44964      0            
     54820   312.26188      0            
     54840   306.15103      0            
     54860   300.52607      0            
     54880   295.16439      0            
     54900   289.58836      0            
     54920   283.55956      0            
     54940   277.42931      0            
     54960   272.18513      0            
     54980   269.19136      0            
     55000   269.74254      0            
     55020   274.59441      0            
     55040   283.6158       0            
     55060   295.64004      0            
     55080   308.56047      0            
     55100   319.7835       0            
     55120   327.12818      0            
     55140   329.82909      0            
     55160   328.91367      0            
     55180   326.60719      0            
     55200   325.12876      0            
     55220   325.50814      0            
     55240   326.88906      0            
     55260   326.55904      0            
     55280   320.9738       0            
     55300   308.19393      0            
     55320   290.5664       0            
     55340   273.44238      0            
     55360   260.69232      0            
     55380   253.59581      0            
     55400   252.25706      0            
     55420   256.21603      0            
     55440   264.36169      0            
     55460   274.90908      0            
     55480   285.69589      0            
     55500   294.79139      0            
     55520   301.17147      0            
     55540   305.02072      0            
     55560   307.41659      0            
     55580   309.59787      0            
     55600   312.2507       0            
     55620   315.15721      0            
     55640   317.32851      0            
     55660   317.52243      0            
     55680   314.88651      0            
     55700   309.41676      0            
     55720   302.01606      0            
     55740   294.13959      0            
     55760   287.21627      0            
     55780   282.11726      0            
     55800   278.87239      0            
     55820   276.69657      0            
     55840   274.33691      0            
     55860   270.81504      0            
     55880   266.23771      0            
     55900   261.73675      0            
     55920   258.64518      0            
     55940   257.90451      0            
     55960   259.94745      0            
     55980   264.77416      0            
     56000   272.00663      0            
     56020   280.8572       0            
     56040   290.15789      0            
     56060   298.73264      0            
     56080   305.98124      0            
     56100   312.04355      0            
     56120   317.33596      0            
     56140   321.93509      0            
     56160   325.28434      0            
     56180   326.35301      0            
     56200   324.1226       0            
     56220   318.15171      0            
     56240   308.94932      0            
     56260   297.96942      0            
     56280   287.21075      0            
     56300   278.60324      0            
     56320   273.46724      0            
     56340   272.25509      0            
     56360   274.6028       0            
     56380   279.59638      0            
     56400   286.12505      0            
     56420   293.17853      0            
     56440   299.94207      0            
     56460   305.69325      0            
     56480   309.73384      0            
     56500   311.51065      0            
     56520   310.82488      0            
     56540   307.97752      0            
     56560   303.77879      0            
     56580   299.41115      0            
     56600   296.1736       0            
     56620   295.16841      0            
     56640   297.0119       0            
     56660   301.65017      0            
     56680   308.3439       0            
     56700   315.85367      0            
     56720   322.78915      0            
     56740   327.9912       0            
     56760   330.76474      0            
     56780   330.84799      0            
     56800   328.17825      0            
     56820   322.7078       0            
     56840   314.5884       0            
     56860   304.68846      0            
     56880   294.65386      0            
     56900   285.98376      0            
     56920   279.22695      0            
     56940   274.24508      0            
     56960   270.85399      0            
     56980   269.09002      0            
     57000   269.09578      0            
     57020   270.89033      0            
     57040   274.21696      0            
     57060   278.548        0            
     57080   283.24825      0            
     57100   287.83933      0            
     57120   292.23445      0            
     57140   296.76891      0            
     57160   301.93553      0            
     57180   307.9357       0            
     57200   314.30762      0            
     57220   319.87274      0            
     57240   323.08179      0            
     57260   322.63842      0            
     57280   318.12167      0            
     57300   310.29555      0            
     57320   300.92918      0            
     57340   292.2061       0            
     57360   286.0109       0            
     57380   283.3954       0            
     57400   284.37794      0            
     57420   288.07731      0            
     57440   293.09992      0            
     57460   298.05545      0            
     57480   302.05269      0            
     57500   305.0502       0            
     57520   307.98605      0            
     57540   312.46233      0            
     57560   319.58185      0            
     57580   328.68062      0            
     57600   337.63421      0            
     57620   344.39258      0            
     57640   347.94983      0            
     57660   348.22406      0            
     57680   345.51539      0            
     57700   340.10754      0            
     57720   332.27698      0            
     57740   322.68997      0            
     57760   312.59966      0            
     57780   303.2513       0            
     57800   295.18978      0            
     57820   288.44736      0            
     57840   283.16977      0            
     57860   279.85516      0            
     57880   279.10339      0            
     57900   281.18826      0            
     57920   285.74801      0            
     57940   291.75722      0            
     57960   297.81013      0            
     57980   302.61609      0            
     58000   305.49997      0            
     58020   306.67127      0            
     58040   307.12487      0            
     58060   308.22397      0            
     58080   311.16996      0            
     58100   316.57848      0            
     58120   324.2603       0            
     58140   333.20534      0            
     58160   341.84416      0            
     58180   348.66247      0            
     58200   352.82066      0            
     58220   354.16863      0            
     58240   352.58442      0            
     58260   347.38359      0            
     58280   337.97065      0            
     58300   325.72461      0            
     58320   313.70417      0            
     58340   303.25121      0            
     58360   293.47477      0            
     58380   283.7102       0            
     58400   274.71159      0            
     58420   268.2009       0            
     58440   265.9289       0            
     58460   268.8751       0            
     58480   276.79457      0            
     58500   288.15471      0            
     58520   300.49623      0            
     58540   311.23553      0            
     58560   318.64308      0            
     58580   322.41073      0            
     58600   323.43287      0            
     58620   323.00696      0            
     58640   321.97911      0            
     58660   320.28283      0            
     58680   317.04847      0            
     58700   311.17618      0            
     58720   302.08149      0            
     58740   290.29579      0            
     58760   277.63987      0            
     58780   266.6833       0            
     58800   259.54198      0            
     58820   256.84256      0            
     58840   257.6344       0            
     58860   260.11712      0            
     58880   262.69734      0            
     58900   265.07821      0            
     58920   269.14871      0            
     58940   278.65209      0            
     58960   294.65236      0            
     58980   311.08961      0            
     59000   323.44521      0            
     59020   332.86408      0            
     59040   339.81891      0            
     59060   342.60114      0            
     59080   339.29206      0            
     59100   329.594        0            
     59120   315.52745      0            
     59140   300.71776      0            
     59160   288.7732       0            
     59180   281.84681      0            
     59200   280.06637      0            
     59220   281.78347      0            
     59240   284.37871      0            
     59260   285.37547      0            
     59280   283.51794      0            
     59300   279.39542      0            
     59320   275.33943      0            
     59340   274.63492      0            
     59360   280.30226      0            
     59380   293.66215      0            
     59400   313.00979      0            
     59420   333.53875      0            
     59440   349.43387      0            
     59460   356.56507      0            
     59480   353.84948      0            
     59500   343.26387      0            
     59520   328.92214      0            
     59540   315.42216      0            
     59560   306.05263      0            
     59580   301.78074      0            
     59600   301.41835      0            
     59620   302.58007      0            
     59640   302.85128      0            
     59660   300.75046      0            
     59680   296.20999      0            
     59700   290.45079      0            
     59720   285.36266      0            
     59740   282.70402      0            
     59760   283.46653      0            
     59780   287.62106      0            
     59800   294.28035      0            
     59820   302.16464      0            
     59840   310.16098      0            
     59860   317.73489      0            
     59880   325.00241      0            
     59900   332.40709      0            
     59920   340.11922      0            
     59940   347.40414      0            
     59960   352.26849      0            
     59980   351.72908      0            
     60000   343.06303      0            
     60020   326.11664      0            
     60040   305.04431      0            
     60060   285.99167      0            
     60080   272.67518      0            
     60100   265.78261      0            
     60120   264.62322      0            
     60140   267.96292      0            
     60160   274.23682      0            
     60180   281.7609       0            
     60200   289.04715      0            
     60220   295.11522      0            
     60240   299.67023      0            
     60260   303.06281      0            
     60280   306.0336       0            
     60300   309.34151      0            
     60320   313.42581      0            
     60340   318.22623      0            
     60360   323.20137      0            
     60380   327.48944      0            
     60400   330.08423      0            
     60420   329.87596      0            
     60440   325.4993       0            
     60460   315.44789      0            
     60480   299.84551      0            
     60500   282.96454      0            
     60520   270.3548       0            
     60540   263.60877      0            
     60560   261.26406      0            
     60580   261.57507      0            
     60600   263.43755      0            
     60620   266.35778      0            
     60640   270.24012      0            
     60660   275.13867      0            
     60680   281.01202      0            
     60700   287.57305      0            
     60720   294.31429      0            
     60740   300.65831      0            
     60760   306.08982      0            
     60780   310.20884      0            
     60800   312.76147      0            
     60820   313.69978      0            
     60840   313.24606      0            
     60860   311.89625      0            
     60880   310.31582      0            
     60900   309.13277      0            
     60920   308.68336      0            
     60940   308.79539      0            
     60960   308.69285      0            
     60980   307.08003      0            
     61000   302.44022      0            
     61020   293.60347      0            
     61040   280.61114      0            
     61060   265.38518      0            
     61080   251.04801      0            
     61100   240.18108      0            
     61120   234.0601       0            
     61140   233.10511      0            
     61160   237.30468      0            
     61180   246.00966      0            
     61200   257.22133      0            
     61220   267.82029      0            
     61240   276.05546      0            
     61260   282.65938      0            
     61280   288.88019      0            
     61300   295.28538      0            
     61320   301.71         0            
     61340   307.42566      0            
     61360   311.43372      0            
     61380   312.88326      0            
     61400   311.49189      0            
     61420   307.78849      0            
     61440   303.04566      0            
     61460   298.90101      0            
     61480   296.80339      0            
     61500   297.49029      0            
     61520   300.68353      0            
     61540   305.11903      0            
     61560   308.93333      0            
     61580   310.31649      0            
     61600   308.2177       0            
     61620   302.81954      0            
     61640   295.55527      0            
     61660   288.63193      0            
     61680   284.24748      0            
     61700   283.8164       0            
     61720   287.47371      0            
     61740   293.98361      0            
     61760   301.05987      0            
     61780   306.03384      0            
     61800   306.71599      0            
     61820   302.17725      0            
     61840   293.12535      0            
     61860   281.68079      0            
     61880   270.65396      0            
     61900   262.70433      0            
     61920   259.77023      0            
     61940   262.87363      0            
     61960   272.07214      0            
     61980   286.20652      0            
     62000   302.57945      0            
     62020   317.61103      0            
     62040   328.61219      0            
     62060   334.79082      0            
     62080   336.73274      0            
     62100   335.44519      0            
     62120   331.75297      0            
     62140   326.15066      0            
     62160   318.98399      0            
     62180   310.74497      0            
     62200   302.23301      0            
     62220   294.45773      0            
     62240   288.38297      0            
     62260   284.69317      0            
     62280   283.65421      0            
     62300   285.05104      0            
     62320   288.20136      0            
     62340   292.07702      0            
     62360   295.54154      0            
     62380   297.65043      0            
     62400   297.91043      0            
     62420   296.3987       0            
     62440   293.70302      0            
     62460   290.72149      0            
     62480   288.4073       0            
     62500   287.54374      0            
     62520   288.59909      0            
     62540   291.67005      0            
     62560   296.49431      0            
     62580   302.50539      0            
     62600   308.90886      0            
     62620   314.77338      0            
     62640   319.14559      0            
     62660   321.20399      0            
     62680   320.44821      0            
     62700   316.87626      0            
     62720   311.06124      0            
     62740   304.05049      0            
     62760   297.09546      0            
     62780   291.32019      0            
     62800   287.45765      0            
     62820   285.72318      0            
     62840   285.83219      0            
     62860   287.14809      0            
     62880   288.9323       0            
     62900   290.63375      0            
     62920   292.11578      0            
     62940   293.71506      0            
     62960   296.08067      0            
     62980   299.83267      0            
     63000   305.16577      0            
     63020   311.56548      0            
     63040   317.78205      0            
     63060   322.11472      0            
     63080   322.91695      0            
     63100   319.10189      0            
     63120   310.40429      0            
     63140   297.35029      0            
     63160   281.31131      0            
     63180   264.98028      0            
     63200   252.00858      0            
     63220   244.77         0            
     63240   243.09006      0            
     63260   245.28869      0            
     63280   249.52369      0            
     63300   254.43375      0            
     63320   259.22335      0            
     63340   263.50826      0            
     63360   267.30677      0            
     63380   271.18995      0            
     63400   276.00087      0            
     63420   282.13059      0            
     63440   289.16094      0            
     63460   296.13485      0            
     63480   302.11195      0            
     63500   306.64375      0            
     63520   309.92947      0            
     63540   312.58469      0            
     63560   315.15278      0            
     63580   317.6244       0            
     63600   319.23447      0            
     63620   318.68107      0            
     63640   314.71348      0            
     63660   306.84598      0            
     63680   295.84748      0            
     63700   283.69514      0            
     63720   272.92137      0            
     63740   265.67451      0            
     63760   263.01439      0            
     63780   264.7429       0            
     63800   269.735        0            
     63820   276.58923      0            
     63840   284.34692      0            
     63860   292.8973       0            
     63880   302.64621      0            
     63900   313.53866      0            
     63920   324.52142      0            
     63940   334.18925      0            
     63960   341.45464      0            
     63980   345.37216      0            
     64000   344.93986      0            
     64020   339.49945      0            
     64040   329.43196      0            
     64060   316.53828      0            
     64080   303.66151      0            
     64100   293.61436      0            
     64120   288.07288      0            
     64140   287.08965      0            
     64160   289.30219      0            
     64180   292.58498      0            
     64200   294.89947      0            
     64220   295.07581      0            
     64240   293.23063      0            
     64260   290.64364      0            
     64280   289.15095      0            
     64300   290.31502      0            
     64320   294.70262      0            
     64340   301.54788      0            
     64360   308.94696      0            
     64380   314.54593      0            
     64400   316.46538      0            
     64420   314.05228      0            
     64440   308.09453      0            
     64460   300.39043      0            
     64480   292.88116      0            
     64500   286.73622      0            
     64520   281.79299      0            
     64540   276.74023      0            
     64560   270.23262      0            
     64580   262.09544      0            
     64600   253.34401      0            
     64620   245.42952      0            
     64640   239.85643      0            
     64660   238.18857      0            
     64680   241.93956      0            
     64700   252.00675      0            
     64720   267.47347      0            
     64740   284.91307      0            
     64760   300.32447      0            
     64780   311.66149      0            
     64800   318.74696      0            
     64820   322.12695      0            
     64840   322.47262      0            
     64860   320.37095      0            
     64880   316.26424      0            
     64900   310.52387      0            
     64920   303.62557      0            
     64940   296.30525      0            
     64960   289.56147      0            
     64980   284.45498      0            
     65000   281.77555      0            
     65020   281.72077      0            
     65040   283.73809      0            
     65060   286.63685      0            
     65080   288.99373      0            
     65100   289.75642      0            
     65120   288.82616      0            
     65140   287.33531      0            
     65160   287.40322      0            
     65180   291.34826      0            
     65200   300.57776      0            
     65220   314.68773      0            
     65240   331.41077      0            
     65260   347.34265      0            
     65280   358.78139      0            
     65300   362.53397      0            
     65320   356.90499      0            
     65340   342.74537      0            
     65360   323.82648      0            
     65380   305.36193      0            
     65400   291.25484      0            
     65420   282.84948      0            
     65440   279.66559      0            
     65460   280.38058      0            
     65480   283.40421      0            
     65500   287.2729       0            
     65520   290.9696       0            
     65540   294.09043      0            
     65560   296.78574      0            
     65580   299.50445      0            
     65600   302.66443      0            
     65620   306.40101      0            
     65640   310.49866      0            
     65660   314.51636      0            
     65680   318.0191       0            
     65700   320.76846      0            
     65720   322.73812      0            
     65740   323.92123      0            
     65760   324.06551      0            
     65780   322.57674      0            
     65800   318.72504      0            
     65820   312.08696      0            
     65840   302.98714      0            
     65860   292.56361      0            
     65880   282.29833      0            
     65900   273.44425      0            
     65920   266.82601      0            
     65940   262.93926      0            
     65960   262.07048      0            
     65980   264.35064      0            
     66000   269.76385      0            
     66020   278.08462      0            
     66040   288.6943       0            
     66060   300.41458      0            
     66080   311.71732      0            
     66100   321.3084       0            
     66120   328.46579      0            
     66140   332.83148      0            
     66160   334.07208      0            
     66180   331.83511      0            
     66200   326.02674      0            
     66220   317.15563      0            
     66240   306.44971      0            
     66260   295.63909      0            
     66280   286.55153      0            
     66300   280.72489      0            
     66320   279.11033      0            
     66340   281.86146      0            
     66360   288.24465      0            
     66380   296.74427      0            
     66400   305.4008       0            
     66420   312.3186       0            
     66440   316.17262      0            
     66460   316.5166       0            
     66480   313.78029      0            
     66500   308.98783      0            
     66520   303.34268      0            
     66540   297.85611      0            
     66560   293.14368      0            
     66580   289.41785      0            
     66600   286.618        0            
     66620   284.58012      0            
     66640   283.17855      0            
     66660   282.46779      0            
     66680   282.82046      0            
     66700   284.7073       0            
     66720   288.18705      0            
     66740   292.78953      0            
     66760   297.78125      0            
     66780   302.50236      0            
     66800   306.62528      0            
     66820   310.23778      0            
     66840   313.70161      0            
     66860   317.34358      0            
     66880   321.13161      0            
     66900   324.50768      0            
     66920   326.485        0            
     66940   326.00002      0            
     66960   322.39073      0            
     66980   315.79894      0            
     67000   307.28808      0            
     67020   298.54013      0            
     67040   291.19312      0            
     67060   286.1561       0            
     67080   283.3052       0            
     67100   281.69009      0            
     67120   280.08154      0            
     67140   277.59849      0            
     67160   274.18479      0            
     67180   270.78366      0            
     67200   269.18077      0            
     67220   271.59701      0            
     67240   280.03131      0            
     67260   294.95212      0            
     67280   313.3417       0            
     67300   329.11177      0            
     67320   337.57792      0            
     67340   338.16405      0            
     67360   333.02142      0            
     67380   325.12956      0            
     67400   317.34795      0            
     67420   311.82044      0            
     67440   309.47366      0            
     67460   309.81207      0            
     67480   311.17468      0            
     67500   311.41863      0            
     67520   308.80242      0            
     67540   302.7117       0            
     67560   293.89353      0            
     67580   284.10478      0            
     67600   275.40855      0            
     67620   269.49919      0            
     67640   267.3143       0            
     67660   268.99642      0            
     67680   274.15089      0            
     67700   282.26233      0            
     67720   292.98508      0            
     67740   305.86452      0            
     67760   319.46965      0            
     67780   331.30254      0            
     67800   339.39198      0            
     67820   343.47358      0            
     67840   344.42119      0            
     67860   343.20554      0            
     67880   340.35867      0            
     67900   336.00241      0            
     67920   330.19164      0            
     67940   323.21182      0            
     67960   315.60722      0            
     67980   307.98527      0            
     68000   300.78783      0            
     68020   294.19914      0            
     68040   288.24392      0            
     68060   283.00698      0            
     68080   278.839        0            
     68100   276.42194      0            
     68120   276.63718      0            
     68140   280.26836      0            
     68160   287.63581      0            
     68180   298.28087      0            
     68200   310.82011      0            
     68220   323.11092      0            
     68240   332.83709      0            
     68260   338.36342      0            
     68280   339.3657       0            
     68300   336.78025      0            
     68320   332.05258      0            
     68340   326.08871      0            
     68360   318.62417      0            
     68380   308.86034      0            
     68400   297.19386      0            
     68420   285.64091      0            
     68440   275.87935      0            
     68460   268.21027      0            
     68480   262.58102      0            
     68500   259.46701      0            
     68520   259.79327      0            
     68540   264.36718      0            
     68560   273.25908      0            
     68580   285.36899      0            
     68600   298.42157      0            
     68620   309.61634      0            
     68640   316.73392      0            
     68660   319.00285      0            
     68680   317.22019      0            
     68700   313.20506      0            
     68720   308.96604      0            
     68740   305.95725      0            
     68760   304.67471      0            
     68780   304.6791       0            
     68800   304.97009      0            
     68820   304.51903      0            
     68840   302.71849      0            
     68860   299.54509      0            
     68880   295.34384      0            
     68900   290.28301      0            
     68920   283.79726      0            
     68940   275.05139      0            
     68960   264.88807      0            
     68980   255.97691      0            
     69000   250.12912      0            
     69020   247.30473      0            
     69040   246.78919      0            
     69060   248.14494      0            
     69080   251.39528      0            
     69100   256.72878      0            
     69120   263.89514      0            
     69140   271.74354      0            
     69160   278.78546      0            
     69180   284.49         0            
     69200   289.58734      0            
     69220   295.18061      0            
     69240   301.8828       0            
     69260   309.46501      0            
     69280   316.88789      0            
     69300   322.60806      0            
     69320   325.08657      0            
     69340   323.35697      0            
     69360   317.44799      0            
     69380   308.47674      0            
     69400   298.33921      0            
     69420   289.0926       0            
     69440   282.28172      0            
     69460   278.50006      0            
     69480   277.34196      0            
     69500   277.71022      0            
     69520   278.33417      0            
     69540   278.33182      0            
     69560   277.67002      0            
     69580   277.40846      0            
     69600   279.56993      0            
     69620   286.3106       0            
     69640   298.22981      0            
     69660   313.08753      0            
     69680   327.20356      0            
     69700   338.04741      0            
     69720   344.66969      0            
     69740   346.86033      0            
     69760   344.71251      0            
     69780   338.63476      0            
     69800   329.48671      0            
     69820   318.61628      0            
     69840   307.58779      0            
     69860   297.66708      0            
     69880   289.5349       0            
     69900   283.47437      0            
     69920   279.71935      0            
     69940   278.59557      0            
     69960   280.38448      0            
     69980   285.04076      0            
     70000   291.94013      0            
     70020   299.81087      0            
     70040   306.94099      0            
     70060   311.64014      0            
     70080   312.79723      0            
     70100   310.29205      0            
     70120   305.06866      0            
     70140   298.84581      0            
     70160   293.62744      0            
     70180   291.24792      0            
     70200   293.00029      0            
     70220   299.17475      0            
     70240   308.70229      0            
     70260   319.39031      0            
     70280   328.75355      0            
     70300   334.95556      0            
     70320   337.31132      0            
     70340   336.17159      0            
     70360   332.41953      0            
     70380   326.94512      0            
     70400   320.38253      0            
     70420   313.1765       0            
     70440   305.75695      0            
     70460   298.53438      0            
     70480   291.76114      0            
     70500   285.53774      0            
     70520   279.99058      0            
     70540   275.40707      0            
     70560   272.21315      0            
     70580   270.85117      0            
     70600   271.66065      0            
     70620   274.81076      0            
     70640   280.25923      0            
     70660   287.68075      0            
     70680   296.37353      0            
     70700   305.27994      0            
     70720   313.23302      0            
     70740   319.28831      0            
     70760   322.89789      0            
     70780   323.90213      0            
     70800   322.47155      0            
     70820   319.07116      0            
     70840   314.43642      0            
     70860   309.51591      0            
     70880   305.32221      0            
     70900   302.67507      0            
     70920   301.91158      0            
     70940   302.69862      0            
     70960   304.06743      0            
     70980   304.70972      0            
     71000   303.45963      0            
     71020   299.78025      0            
     71040   294.03912      0            
     71060   287.43579      0            
     71080   281.60787      0            
     71100   278.09651      0            
     71120   277.91406      0            
     71140   281.39639      0            
     71160   288.31574      0            
     71180   297.94079      0            
     71200   308.84693      0            
     71220   318.95292      0            
     71240   326.32761      0            
     71260   330.2535       0            
     71280   331.44898      0            
     71300   331.29143      0            
     71320   330.79214      0            
     71340   329.98013      0            
     71360   327.92649      0            
     71380   323.34266      0            
     71400   315.49472      0            
     71420   304.9889       0            
     71440   293.83816      0            
     71460   284.55406      0            
     71480   278.92919      0            
     71500   277.42495      0            
     71520   279.26634      0            
     71540   282.87975      0            
     71560   286.46948      0            
     71580   288.63181      0            
     71600   288.83714      0            
     71620   287.58321      0            
     71640   286.13318      0            
     71660   285.93817      0            
     71680   287.98044      0            
     71700   292.29952      0            
     71720   297.90183      0            
     71740   303.13521      0            
     71760   306.42478      0            
     71780   307.04248      0            
     71800   305.46308      0            
     71820   303.04213      0            
     71840   301.25596      0            
     71860   301.02684      0            
     71880   302.38824      0            
     71900   304.52456      0            
     71920   306.17151      0            
     71940   306.23376      0            
     71960   304.34307      0            
     71980   301.07557      0            
     72000   297.70295      0            
     72020   295.58728      0            
     72040   295.50183      0            
     72060   297.18606      0            
     72080   299.33652      0            
     72100   300.06601      0            
     72120   297.68515      0            
     72140   291.51081      0            
     72160   282.32751      0            
     72180   272.20467      0            
     72200   263.70193      0            
     72220   258.91477      0            
     72240   258.87948      0            
     72260   263.50907      0            
     72280   271.87536      0            
     72300   282.49889      0            
     72320   293.4514       0            
     72340   302.64035      0            
     72360   308.77001      0            
     72380   312.2099       0            
     72400   314.58999      0            
     72420   317.52124      0            
     72440   321.58395      0            
     72460   326.09569      0            
     72480   329.55918      0            
     72500   330.44697      0            
     72520   327.93338      0            
     72540   322.27168      0            
     72560   314.68991      0            
     72580   306.85406      0            
     72600   300.12086      0            
     72620   294.97756      0            
     72640   291.01395      0            
     72660   287.40374      0            
     72680   283.55424      0            
     72700   279.54661      0            
     72720   276.15085      0            
     72740   274.44335      0            
     72760   275.25145      0            
     72780   278.70644      0            
     72800   284.11872      0            
     72820   290.25098      0            
     72840   295.88868      0            
     72860   300.43331      0            
     72880   304.17929      0            
     72900   308.07501      0            
     72920   313.05313      0            
     72940   319.26531      0            
     72960   325.63379      0            
     72980   330.01285      0            
     73000   329.98476      0            
     73020   323.99731      0            
     73040   312.32792      0            
     73060   297.33771      0            
     73080   282.70745      0            
     73100   271.92673      0            
     73120   266.93584      0            
     73140   267.63273      0            
     73160   272.18566      0            
     73180   277.79961      0            
     73200   281.72862      0            
     73220   282.38895      0            
     73240   280.19131      0            
     73260   277.3626       0            
     73280   276.68666      0            
     73300   280.08949      0            
     73320   287.7123       0            
     73340   297.72303      0            
     73360   306.98124      0            
     73380   312.39776      0            
     73400   312.43527      0            
     73420   307.98054      0            
     73440   302.08163      0            
     73460   298.65621      0            
     73480   300.7831       0            
     73500   309.28437      0            
     73520   322.10367      0            
     73540   334.74182      0            
     73560   341.73619      0            
     73580   338.78666      0            
     73600   324.87548      0            
     73620   303.54042      0            
     73640   281.70774      0            
     73660   265.67051      0            
     73680   258.08782      0            
     73700   258.28844      0            
     73720   263.70534      0            
     73740   271.10816      0            
     73760   277.70636      0            
     73780   282.05313      0            
     73800   284.41158      0            
     73820   286.35697      0            
     73840   289.75943      0            
     73860   295.63709      0            
     73880   303.46216      0            
     73900   311.29549      0            
     73920   316.70481      0            
     73940   317.99199      0            
     73960   315.07527      0            
     73980   309.56015      0            
     74000   303.97571      0            
     74020   300.58479      0            
     74040   300.35169      0            
     74060   302.5296       0            
     74080   305.04803      0            
     74100   305.55093      0            
     74120   302.62618      0            
     74140   296.61808      0            
     74160   289.59074      0            
     74180   284.46297      0            
     74200   283.76165      0            
     74220   288.57871      0            
     74240   298.19037      0            
     74260   310.53876      0            
     74280   323.28013      0            
     74300   334.39638      0            
     74320   342.07444      0            
     74340   345.39007      0            
     74360   345.40457      0            
     74380   344.55347      0            
     74400   344.65766      0            
     74420   345.35641      0            
     74440   344.07275      0            
     74460   337.71352      0            
     74480   325.25523      0            
     74500   308.88141      0            
     74520   292.23809      0            
     74540   278.37578      0            
     74560   269.39706      0            
     74580   266.49947      0            
     74600   269.66474      0            
     74620   277.48821      0            
     74640   287.51996      0            
     74660   297.07454      0            
     74680   304.20028      0            
     74700   308.35685      0            
     74720   310.42082      0            
     74740   311.98734      0            
     74760   314.3487       0            
     74780   317.70083      0            
     74800   320.97399      0            
     74820   322.33739      0            
     74840   320.07883      0            
     74860   313.42504      0            
     74880   303.05087      0            
     74900   291.15898      0            
     74920   280.77672      0            
     74940   274.25256      0            
     74960   272.00351      0            
     74980   272.51325      0            
     75000   273.38705      0            
     75020   272.68261      0            
     75040   269.90037      0            
     75060   266.28974      0            
     75080   264.41054      0            
     75100   267.13808      0            
     75120   276.32554      0            
     75140   291.30644      0            
     75160   308.20805      0            
     75180   321.73518      0            
     75200   328.3325       0            
     75220   327.63571      0            
     75240   321.92189      0            
     75260   314.78785      0            
     75280   309.64563      0            
     75300   308.40517      0            
     75320   310.77255      0            
     75340   314.44089      0            
     75360   316.14759      0            
     75380   313.21658      0            
     75400   304.90058      0            
     75420   292.82535      0            
     75440   280.29453      0            
     75460   270.90291      0            
     75480   267.22659      0            
     75500   270.10057      0            
     75520   278.61604      0            
     75540   290.80134      0            
     75560   304.81491      0            
     75580   319.99071      0            
     75600   336.16095      0            
     75620   351.13372      0            
     75640   361.28829      0            
     75660   365.40616      0            
     75680   364.68008      0            
     75700   360.25869      0            
     75720   352.45847      0            
     75740   341.68485      0            
     75760   329.42081      0            
     75780   317.88839      0            
     75800   308.82044      0            
     75820   302.94991      0            
     75840   300.24928      0            
     75860   300.03042      0            
     75880   300.95454      0            
     75900   301.36701      0            
     75920   299.95968      0            
     75940   296.4227       0            
     75960   291.70002      0            
     75980   287.66586      0            
     76000   286.34695      0            
     76020   289.03062      0            
     76040   295.62192      0            
     76060   304.49828      0            
     76080   312.94625      0            
     76100   318.07815      0            
     76120   317.92299      0            
     76140   312.24564      0            
     76160   302.69613      0            
     76180   292.16497      0            
     76200   283.6181       0            
     76220   278.98544      0            
     76240   278.62311      0            
     76260   281.49589      0            
     76280   285.87096      0            
     76300   290.16915      0            
     76320   293.62505      0            
     76340   296.50165      0            
     76360   299.78798      0            
     76380   304.53455      0            
     76400   311.14875      0            
     76420   318.99982      0            
     76440   326.54904      0            
     76460   331.95902      0            
     76480   333.86507      0            
     76500   331.88988      0            
     76520   326.63409      0            
     76540   319.20408      0            
     76560   310.66709      0            
     76580   301.88606      0            
     76600   293.70458      0            
     76620   286.84805      0            
     76640   281.45108      0            
     76660   277.05567      0            
     76680   273.23178      0            
     76700   270.08196      0            
     76720   268.2077       0            
     76740   268.27467      0            
     76760   270.50833      0            
     76780   274.40719      0            
     76800   278.83967      0            
     76820   282.53003      0            
     76840   284.73161      0            
     76860   285.71168      0            
     76880   286.71956      0            
     76900   289.40625      0            
     76920   294.97264      0            
     76940   303.44053      0            
     76960   313.37783      0            
     76980   322.24483      0            
     77000   327.29216      0            
     77020   326.67585      0            
     77040   320.29074      0            
     77060   309.89871      0            
     77080   298.4553       0            
     77100   288.95902      0            
     77120   283.3862       0            
     77140   282.15233      0            
     77160   284.20719      0            
     77180   287.6197       0            
     77200   290.40262      0            
     77220   291.28812      0            
     77240   290.20058      0            
     77260   288.29861      0            
     77280   287.50046      0            
     77300   289.51418      0            
     77320   294.93193      0            
     77340   302.93359      0            
     77360   311.62531      0            
     77380   318.84999      0            
     77400   323.11739      0            
     77420   324.17681      0            
     77440   322.97021      0            
     77460   321.05317      0            
     77480   319.79322      0            
     77500   319.70225      0            
     77520   320.17527      0            
     77540   319.75176      0            
     77560   316.8372       0            
     77580   310.61013      0            
     77600   301.59908      0            
     77620   291.43278      0            
     77640   281.93271      0            
     77660   274.36747      0            
     77680   269.30347      0            
     77700   266.80325      0            
     77720   266.66832      0            
     77740   268.62828      0            
     77760   272.44263      0            
     77780   277.876        0            
     77800   284.55811      0            
     77820   291.85601      0            
     77840   298.93551      0            
     77860   305.02428      0            
     77880   309.65853      0            
     77900   312.716        0            
     77920   314.28732      0            
     77940   314.56293      0            
     77960   313.78488      0            
     77980   312.19376      0            
     78000   309.94387      0            
     78020   307.04051      0            
     78040   303.36734      0            
     78060   298.82192      0            
     78080   293.50719      0            
     78100   287.88268      0            
     78120   282.789        0            
     78140   279.31838      0            
     78160   278.58118      0            
     78180   281.47662      0            
     78200   288.56857      0            
     78220   299.99452      0            
     78240   315.01714      0            
     78260   331.16772      0            
     78280   344.42547      0            
     78300   351.39864      0            
     78320   351.26365      0            
     78340   345.60424      0            
     78360   337.07332      0            
     78380   328.09071      0            
     78400   320.06684      0            
     78420   313.32032      0            
     78440   307.57665      0            
     78460   302.52513      0            
     78480   297.90858      0            
     78500   293.34256      0            
     78520   288.41939      0            
     78540   283.09423      0            
     78560   277.93387      0            
     78580   273.995        0            
     78600   272.43682      0            
     78620   274.09846      0            
     78640   279.19834      0            
     78660   287.21352      0            
     78680   296.955        0            
     78700   306.83238      0            
     78720   315.24084      0            
     78740   320.93068      0            
     78760   323.22965      0            
     78780   322.08077      0            
     78800   317.94036      0            
     78820   311.60282      0            
     78840   304.0007       0            
     78860   296.0047       0            
     78880   288.23511      0            
     78900   280.90817      0            
     78920   273.79979      0            
     78940   266.49871      0            
     78960   258.97039      0            
     78980   251.85175      0            
     79000   245.96156      0            
     79020   241.73504      0            
     79040   239.35676      0            
     79060   239.2934       0            
     79080   242.66518      0            
     79100   250.93272      0            
     79120   264.04267      0            
     79140   278.41761      0            
     79160   290.05117      0            
     79180   298.52919      0            
     79200   305.05853      0            
     79220   310.19009      0            
     79240   313.82022      0            
     79260   315.73602      0            
     79280   315.94967      0            
     79300   314.75066      0            
     79320   312.54421      0            
     79340   309.61051      0            
     79360   305.94337      0            
     79380   301.28082      0            
     79400   295.33248      0            
     79420   288.0928       0            
     79440   280.07537      0            
     79460   272.35172      0            
     79480   266.38757      0            
     79500   263.75538      0            
     79520   265.8239       0            
     79540   273.47489      0            
     79560   286.74338      0            
     79580   304.16177      0            
     79600   322.2167       0            
     79620   336.39728      0            
     79640   343.68916      0            
     79660   343.87878      0            
     79680   338.88863      0            
     79700   331.43912      0            
     79720   323.91382      0            
     79740   317.68803      0            
     79760   312.98562      0            
     79780   309.19094      0            
     79800   305.40578      0            
     79820   300.99236      0            
     79840   295.91019      0            
     79860   290.78182      0            
     79880   286.70397      0            
     79900   284.85048      0            
     79920   285.98406      0            
     79940   290.07468      0            
     79960   296.2002       0            
     79980   302.78942      0            
     80000   308.13006      0            
     80020   310.94868      0            
     80040   310.82332      0            
     80060   308.25663      0            
     80080   304.39525      0            
     80100   300.5381       0            
     80120   297.64332      0            
     80140   296.00342      0            
     80160   295.17053      0            
     80180   294.15687      0            
     80200   291.89214      0            
     80220   287.76305      0            
     80240   281.89633      0            
     80260   275.01391      0            
     80280   268.06123      0            
     80300   261.93906      0            
     80320   257.46875      0            
     80340   255.49065      0            
     80360   256.92211      0            
     80380   262.58034      0            
     80400   272.56342      0            
     80420   285.42641      0            
     80440   298.40096      0            
     80460   309.08138      0            
     80480   316.53433      0            
     80500   320.92993      0            
     80520   322.89984      0            
     80540   323.21692      0            
     80560   322.59303      0            
     80580   321.44777      0            
     80600   319.71855      0            
     80620   316.86108      0            
     80640   312.12431      0            
     80660   305.01817      0            
     80680   295.72154      0            
     80700   285.18662      0            
     80720   274.93378      0            
     80740   266.72311      0            
     80760   262.21691      0            
     80780   262.61936      0            
     80800   268.28934      0            
     80820   278.40129      0            
     80840   290.82682      0            
     80860   302.52322      0            
     80880   310.57638      0            
     80900   313.44233      0            
     80920   311.50562      0            
     80940   306.57744      0            
     80960   300.89727      0            
     80980   296.34773      0            
     81000   294.03616      0            
     81020   294.17501      0            
     81040   296.23708      0            
     81060   299.31407      0            
     81080   302.52496      0            
     81100   305.30148      0            
     81120   307.439        0            
     81140   308.91864      0            
     81160   309.62333      0            
     81180   309.12585      0            
     81200   306.69631      0            
     81220   301.58428      0            
     81240   293.50901      0            
     81260   283.12927      0            
     81280   272.12513      0            
     81300   262.69277      0            
     81320   256.76888      0            
     81340   255.51475      0            
     81360   259.23256      0            
     81380   267.54115      0            
     81400   279.56702      0            
     81420   293.92949      0            
     81440   308.55488      0            
     81460   320.90634      0            
     81480   328.98988      0            
     81500   332.22021      0            
     81520   331.27565      0            
     81540   327.37865      0            
     81560   321.72707      0            
     81580   315.28434      0            
     81600   308.79331      0            
     81620   302.81647      0            
     81640   297.6767       0            
     81660   293.28991      0            
     81680   288.99146      0            
     81700   283.54578      0            
     81720   275.60033      0            
     81740   264.70666      0            
     81760   252.17418      0            
     81780   240.47475      0            
     81800   231.85906      0            
     81820   227.94595      0            
     81840   230.06731      0            
     81860   239.39145      0            
     81880   256.13476      0            
     81900   277.08529      0            
     81920   294.89635      0            
     81940   304.4763       0            
     81960   306.45732      0            
     81980   303.57572      0            
     82000   298.77525      0            
     82020   294.92175      0            
     82040   294.21476      0            
     82060   297.50699      0            
     82080   303.97717      0            
     82100   311.37133      0            
     82120   316.81027      0            
     82140   317.92127      0            
     82160   313.83815      0            
     82180   305.59777      0            
     82200   295.72955      0            
     82220   287.24596      0            
     82240   282.52687      0            
     82260   282.56974      0            
     82280   286.82277      0            
     82300   293.55653      0            
     82320   300.58192      0            
     82340   306.05664      0            
     82360   309.09574      0            
     82380   309.94926      0            
     82400   309.67514      0            
     82420   309.47156      0            
     82440   309.99928      0            
     82460   311.01869      0            
     82480   311.50707      0            
     82500   310.19793      0            
     82520   306.28489      0            
     82540   299.93823      0            
     82560   292.35625      0            
     82580   285.31164      0            
     82600   280.43202      0            
     82620   278.58121      0            
     82640   279.60482      0            
     82660   282.49513      0            
     82680   285.86703      0            
     82700   288.55102      0            
     82720   290.08017      0            
     82740   290.88392      0            
     82760   292.11031      0            
     82780   295.13655      0            
     82800   300.93252      0            
     82820   309.50964      0            
     82840   319.74016      0            
     82860   329.7328       0            
     82880   337.56278      0            
     82900   341.8615       0            
     82920   341.9782       0            
     82940   337.80295      0            
     82960   329.52978      0            
     82980   317.68452      0            
     83000   303.56319      0            
     83020   289.52511      0            
     83040   278.20446      0            
     83060   271.22762      0            
     83080   268.92674      0            
     83100   270.83551      0            
     83120   276.03685      0            
     83140   283.21982      0            
     83160   290.73012      0            
     83180   296.82024      0            
     83200   300.10609      0            
     83220   300.06262      0            
     83240   297.3087       0            
     83260   293.49116      0            
     83280   290.75672      0            
     83300   290.98895      0            
     83320   295.08282      0            
     83340   302.51651      0            
     83360   311.40415      0            
     83380   319.0836       0            
     83400   323.07903      0            
     83420   322.03956      0            
     83440   316.18881      0            
     83460   307.095        0            
     83480   297.06052      0            
     83500   288.49673      0            
     83520   283.16948      0            
     83540   281.45817      0            
     83560   282.24405      0            
     83580   283.55977      0            
     83600   283.58574      0            
     83620   281.50078      0            
     83640   277.84494      0            
     83660   274.29193      0            
     83680   272.98223      0            
     83700   275.70872      0            
     83720   283.21435      0            
     83740   294.74891      0            
     83760   308.01995      0            
     83780   319.76683      0            
     83800   326.98631      0            
     83820   328.2172       0            
     83840   324.08941      0            
     83860   316.91576      0            
     83880   309.68577      0            
     83900   304.97184      0            
     83920   304.12819      0            
     83940   306.9349       0            
     83960   311.64975      0            
     83980   315.41476      0            
     84000   315.16376      0            
     84020   309.1583       0            
     84040   298.34966      0            
     84060   285.83431      0            
     84080   274.51631      0            
     84100   265.76088      0            
     84120   259.87084      0            
     84140   256.86881      0            
     84160   256.84368      0            
     84180   259.9677       0            
     84200   266.30007      0            
     84220   275.41839      0            
     84240   286.11443      0            
     84260   296.62489      0            
     84280   305.4129       0            
     84300   311.74251      0            
     84320   315.60578      0            
     84340   317.35222      0            
     84360   317.39605      0            
     84380   316.06343      0            
     84400   313.53958      0            
     84420   309.9043       0            
     84440   305.24742      0            
     84460   299.81953      0            
     84480   294.13895      0            
     84500   288.98171      0            
     84520   285.22895      0            
     84540   283.61145      0            
     84560   284.44239      0            
     84580   287.45035      0            
     84600   291.79943      0            
     84620   296.29672      0            
     84640   299.70421      0            
     84660   301.11662      0            
     84680   300.35915      0            
     84700   298.18804      0            
     84720   296.10317      0            
     84740   295.81804      0            
     84760   298.60112      0            
     84780   304.73094      0            
     84800   313.25979      0            
     84820   322.20202      0            
     84840   329.12835      0            
     84860   331.96536      0            
     84880   329.68187      0            
     84900   322.59626      0            
     84920   312.21879      0            
     84940   300.71809      0            
     84960   290.19702      0            
     84980   282.03277      0            
     85000   276.57008      0            
     85020   273.30201      0            
     85040   271.39037      0            
     85060   270.23966      0            
     85080   269.90263      0            
     85100   271.22957      0            
     85120   275.77064      0            
     85140   285.37156      0            
     85160   301.05337      0            
     85180   321.03788      0            
     85200   340.35665      0            
     85220   354.10487      0            
     85240   360.0857       0            
     85260   358.43299      0            
     85280   350.64281      0            
     85300   339.02674      0            
     85320   326.12252      0            
     85340   313.97329      0            
     85360   303.72334      0            
     85380   295.74262      0            
     85400   289.99234      0            
     85420   286.32172      0            
     85440   284.61386      0            
     85460   284.81036      0            
     85480   286.85707      0            
     85500   290.6135       0            
     85520   295.77119      0            
     85540   301.82105      0            
     85560   308.09268      0            
     85580   313.85998      0            
     85600   318.47663      0            
     85620   321.48326      0            
     85640   322.63432      0            
     85660   321.83948      0            
     85680   319.0943       0            
     85700   314.50599      0            
     85720   308.41114      0            
     85740   301.44341      0            
     85760   294.42235      0            
     85780   288.06846      0            
     85800   282.71075      0            
     85820   278.20635      0            
     85840   274.13822      0            
     85860   270.16235      0            
     85880   266.33112      0            
     85900   263.28143      0            
     85920   262.23599      0            
     85940   264.76561      0            
     85960   272.17859      0            
     85980   284.45903      0            
     86000   299.50127      0            
     86020   314.0551       0            
     86040   325.58669      0            
     86060   332.82337      0            
     86080   335.29882      0            
     86100   333.14669      0            
     86120   327.18224      0            
     86140   318.85639      0            
     86160   309.9278       0            
     86180   301.97207      0            
     86200   295.95881      0            
     86220   292.07654      0            
     86240   289.8451       0            
     86260   288.43675      0            
     86280   287.07622      0            
     86300   285.38715      0            
     86320   283.58188      0            
     86340   282.45576      0            
     86360   283.2346       0            
     86380   287.39369      0            
     86400   296.50881      0            
     86420   311.74988      0            
     86440   332.11513      0            
     86460   352.70369      0            
     86480   367.19309      0            
     86500   372.08172      0            
     86520   367.28076      0            
     86540   354.84678      0            
     86560   338.18777      0            
     86580   321.40772      0            
     86600   308.08072      0            
     86620   299.997        0            
     86640   297.03368      0            
     86660   297.97126      0            
     86680   301.25577      0            
     86700   305.35011      0            
     86720   308.87604      0            
     86740   310.72534      0            
     86760   310.17557      0            
     86780   306.98393      0            
     86800   301.42022      0            
     86820   294.2093       0            
     86840   286.38352      0            
     86860   279.08683      0            
     86880   273.40017      0            
     86900   270.25448      0            
     86920   270.47122      0            
     86940   274.91013      0            
     86960   284.48503      0            
     86980   299.35935      0            
     87000   317.15281      0            
     87020   332.98318      0            
     87040   343.00848      0            
     87060   346.48273      0            
     87080   344.58139      0            
     87100   339.01884      0            
     87120   331.50303      0            
     87140   323.58295      0            
     87160   316.54661      0            
     87180   311.27988      0            
     87200   308.1318       0            
     87220   306.86957      0            
     87240   306.76184      0            
     87260   306.7746       0            
     87280   305.84158      0            
     87300   303.15936      0            
     87320   298.43828      0            
     87340   292.03346      0            
     87360   284.90618      0            
     87380   278.41908      0            
     87400   274.01956      0            
     87420   272.88783      0            
     87440   275.62002      0            
     87460   282.00143      0            
     87480   290.93269      0            
     87500   300.60907      0            
     87520   309.02642      0            
     87540   314.68245      0            
     87560   317.11262      0            
     87580   316.9579       0            
     87600   315.55639      0            
     87620   314.28927      0            
     87640   313.99451      0            
     87660   314.69918      0            
     87680   315.72995      0            
     87700   316.08211      0            
     87720   314.86887      0            
     87740   311.68316      0            
     87760   306.74325      0            
     87780   300.78074      0            
     87800   294.74219      0            
     87820   289.45389      0            
     87840   285.39645      0            
     87860   282.66635      0            
     87880   281.11561      0            
     87900   280.602        0            
     87920   281.2655       0            
     87940   283.75777      0            
     87960   289.31577      0            
     87980   299.32788      0            
     88000   313.84757      0            
     88020   330.02211      0            
     88040   343.50365      0            
     88060   351.66934      0            
     88080   354.24434      0            
     88100   352.11534      0            
     88120   346.56559      0            
     88140   339.07392      0            
     88160   331.17118      0            
     88180   324.08214      0            
     88200   318.30309      0            
     88220   313.52404      0            
     88240   309.0131       0            
     88260   304.14526      0            
     88280   298.74741      0            
     88300   293.16651      0            
     88320   288.11804      0            
     88340   284.41814      0            
     88360   282.71011      0            
     88380   283.27763      0            
     88400   285.99759      0            
     88420   290.43609      0            
     88440   296.0439       0            
     88460   302.37014      0            
     88480   309.19903      0            
     88500   316.53602      0            
     88520   324.43027      0            
     88540   332.70015      0            
     88560   340.68322      0            
     88580   347.12044      0            
     88600   350.21608      0            
     88620   347.88205      0            
     88640   338.33755      0            
     88660   321.52711      0            
     88680   300.93616      0            
     88700   282.6358       0            
     88720   270.96934      0            
     88740   266.7881       0            
     88760   268.94491      0            
     88780   275.4767       0            
     88800   283.98398      0            
     88820   291.94872      0            
     88840   297.24552      0            
     88860   298.71868      0            
     88880   296.56797      0            
     88900   292.34214      0            
     88920   288.52069      0            
     88940   287.83305      0            
     88960   292.48893      0            
     88980   303.38406      0            
     89000   319.37064      0            
     89020   337.12638      0            
     89040   352.25128      0            
     89060   360.99556      0            
     89080   361.34853      0            
     89100   353.26815      0            
     89120   338.60877      0            
     89140   321.06235      0            
     89160   305.42686      0            
     89180   295.30922      0            
     89200   291.07188      0            
     89220   290.63199      0            
     89240   291.74485      0            
     89260   293.02379      0            
     89280   293.92818      0            
     89300   294.57611      0            
     89320   295.46715      0            
     89340   297.11952      0            
     89360   299.73301      0            
     89380   303.01024      0            
     89400   306.21304      0            
     89420   308.43654      0            
     89440   308.98973      0            
     89460   307.71621      0            
     89480   305.10784      0            
     89500   302.15446      0            
     89520   299.98991      0            
     89540   299.47438      0            
     89560   300.86405      0            
     89580   303.67335      0            
     89600   306.77036      0            
     89620   308.68608      0            
     89640   308.06253      0            
     89660   304.11334      0            
     89680   296.93492      0            
     89700   287.51795      0            
     89720   277.42335      0            
     89740   268.29915      0            
     89760   261.52668      0            
     89780   258.1351       0            
     89800   258.89385      0            
     89820   264.39516      0            
     89840   274.90149      0            
     89860   289.72768      0            
     89880   306.45802      0            
     89900   321.34422      0            
     89920   331.22531      0            
     89940   334.88364      0            
     89960   332.88058      0            
     89980   326.87147      0            
     90000   319.01022      0            
     90020   311.42093      0            
     90040   305.71406      0            
     90060   302.64617      0            
     90080   302.02452      0            
     90100   302.88375      0            
     90120   303.88186      0            
     90140   303.79521      0            
     90160   301.94661      0            
     90180   298.40897      0            
     90200   293.91155      0            
     90220   289.5073       0            
     90240   286.1625       0            
     90260   284.45009      0            
     90280   284.47335      0            
     90300   286.07747      0            
     90320   289.40142      0            
     90340   295.91606      0            
     90360   309.2273       0            
     90380   330.79052      0            
     90400   353.02846      0            
     90420   367.84537      0            
     90440   374.30447      0            
     90460   373.77076      0            
     90480   367.05633      0            
     90500   355.05636      0            
     90520   339.8168       0            
     90540   324.25233      0            
     90560   310.68701      0            
     90580   300.18701      0            
     90600   293.01688      0            
     90620   289.04075      0            
     90640   287.74297      0            
     90660   288.20672      0            
     90680   289.27574      0            
     90700   289.89352      0            
     90720   289.4809       0            
     90740   288.17684      0            
     90760   286.82201      0            
     90780   286.67893      0            
     90800   288.99093      0            
     90820   294.52218      0            
     90840   303.195        0            
     90860   313.92818      0            
     90880   324.8262       0            
     90900   333.8047       0            
     90920   339.38596      0            
     90940   341.13087      0            
     90960   339.42619      0            
     90980   334.80715      0            
     91000   327.27854      0            
     91020   316.33251      0            
     91040   302.34762      0            
     91060   288.07         0            
     91080   276.83805      0            
     91100   269.70606      0            
     91120   265.95695      0            
     91140   264.84971      0            
     91160   266.17102      0            
     91180   269.92223      0            
     91200   275.85965      0            
     91220   283.22137      0            
     91240   290.76129      0            
     91260   297.09068      0            
     91280   301.18337      0            
     91300   302.78809      0            
     91320   302.52725      0            
     91340   301.6361       0            
     91360   301.47473      0            
     91380   303.02424      0            
     91400   306.5511       0            
     91420   311.53498      0            
     91440   316.85148      0            
     91460   321.10593      0            
     91480   322.94874      0            
     91500   321.18601      0            
     91520   314.5898       0            
     91540   301.83655      0            
     91560   283.31202      0            
     91580   264.14613      0            
     91600   250.53226      0            
     91620   243.81119      0            
     91640   242.40038      0            
     91660   244.82283      0            
     91680   250.23942      0            
     91700   258.0347       0            
     91720   267.3845       0            
     91740   277.10491      0            
     91760   285.87165      0            
     91780   292.63938      0            
     91800   296.98481      0            
     91820   299.24286      0            
     91840   300.42082      0            
     91860   301.8908       0            
     91880   304.90452      0            
     91900   310.06093      0            
     91920   316.91675      0            
     91940   323.91978      0            
     91960   328.7581       0            
     91980   329.06821      0            
     92000   323.29736      0            
     92020   311.45467      0            
     92040   295.47683      0            
     92060   278.83903      0            
     92080   265.23475      0            
     92100   257.11035      0            
     92120   255.14827      0            
     92140   258.65084      0            
     92160   266.17759      0            
     92180   276.1358       0            
     92200   287.25983      0            
     92220   298.87963      0            
     92240   310.84098      0            
     92260   323.05193      0            
     92280   334.93379      0            
     92300   345.27318      0            
     92320   352.60334      0            
     92340   355.64598      0            
     92360   353.31223      0            
     92380   343.74432      0            
     92400   322.78354      0            
     92420   291.91346      0            
     92440   267.7334       0            
     92460   257.11543      0            
     92480   255.59946      0            
     92500   259.25333      0            
     92520   265.47919      0            
     92540   272.32652      0            
     92560   278.49023      0            
     92580   283.48636      0            
     92600   287.68554      0            
     92620   292.09292      0            
     92640   297.8979       0            
     92660   305.91875      0            
     92680   316.12656      0            
     92700   327.4294       0            
     92720   337.82048      0            
     92740   344.867        0            
     92760   346.40332      0            
     92780   341.26864      0            
     92800   329.95404      0            
     92820   314.82511      0            
     92840   299.27312      0            
     92860   286.00801      0            
     92880   276.13017      0            
     92900   269.6021       0            
     92920   266.08749      0            
     92940   265.4144       0            
     92960   267.64065      0            
     92980   272.86735      0            
     93000   280.92471      0            
     93020   291.08677      0            
     93040   302.00593      0            
     93060   311.96586      0            
     93080   319.34815      0            
     93100   323.09308      0            
     93120   322.98051      0            
     93140   319.6471       0            
     93160   314.33409      0            
     93180   308.45278      0            
     93200   303.13547      0            
     93220   298.94915      0            
     93240   295.87272      0            
     93260   293.52001      0            
     93280   291.49014      0            
     93300   289.67999      0            
     93320   288.41465      0            
     93340   288.33052      0            
     93360   290.05134      0            
     93380   293.78737      0            
     93400   299.03429      0            
     93420   304.53989      0            
     93440   308.63293      0            
     93460   309.86253      0            
     93480   307.69758      0            
     93500   302.85206      0            
     93520   296.94387      0            
     93540   291.89978      0            
     93560   289.49609      0            
     93580   290.83043      0            
     93600   295.85221      0            
     93620   303.23747      0            
     93640   310.71533      0            
     93660   315.78676      0            
     93680   316.60927      0            
     93700   312.69598      0            
     93720   305.1107       0            
     93740   296.0589       0            
     93760   288.06257      0            
     93780   283.09072      0            
     93800   281.98827      0            
     93820   284.35729      0            
     93840   288.85332      0            
     93860   293.75087      0            
     93880   297.58476      0            
     93900   299.65859      0            
     93920   300.24444      0            
     93940   300.40189      0            
     93960   301.49024      0            
     93980   304.56518      0            
     94000   309.88499      0            
     94020   316.70893      0            
     94040   323.48171      0            
     94060   328.35967      0            
     94080   329.87281      0            
     94100   327.43786      0            
     94120   321.51996      0            
     94140   313.42015      0            
     94160   304.82074      0            
     94180   297.27483      0            
     94200   291.79006      0            
     94220   288.59716      0            
     94240   287.15232      0            
     94260   286.37331      0            
     94280   285.03437      0            
     94300   282.18873      0            
     94320   277.49003      0            
     94340   271.33804      0            
     94360   264.85275      0            
     94380   259.75456      0            
     94400   258.26283      0            
     94420   262.9731       0            
     94440   275.83635      0            
     94460   294.78122      0            
     94480   312.74851      0            
     94500   324.92182      0            
     94520   331.43776      0            
     94540   333.46662      0            
     94560   331.71572      0            
     94580   326.88595      0            
     94600   320.00389      0            
     94620   312.34563      0            
     94640   305.12717      0            
     94660   299.16502      0            
     94680   294.68514      0            
     94700   291.37115      0            
     94720   288.62084      0            
     94740   285.89134      0            
     94760   282.98938      0            
     94780   280.19664      0            
     94800   278.19369      0            
     94820   277.83227      0            
     94840   279.86857      0            
     94860   284.77409      0            
     94880   292.64962      0            
     94900   303.08438      0            
     94920   314.77644      0            
     94940   325.36885      0            
     94960   332.47501      0            
     94980   335.29239      0            
     95000   334.92128      0            
     95020   333.28139      0            
     95040   331.87005      0            
     95060   331.10495      0            
     95080   330.3676       0            
     95100   328.60241      0            
     95120   325.15797      0            
     95140   320.37331      0            
     95160   315.40958      0            
     95180   311.36735      0            
     95200   308.53491      0            
     95220   306.44946      0            
     95240   304.33206      0            
     95260   301.38464      0            
     95280   297.06659      0            
     95300   291.41563      0            
     95320   285.24437      0            
     95340   280.05181      0            
     95360   277.63411      0            
     95380   279.51413      0            
     95400   286.35984      0            
     95420   297.55074      0            
     95440   311.06672      0            
     95460   323.9119       0            
     95480   333.11222      0            
     95500   336.85193      0            
     95520   335.06698      0            
     95540   329.16113      0            
     95560   321.0526       0            
     95580   312.09944      0            
     95600   302.59678      0            
     95620   292.39564      0            
     95640   282.12392      0            
     95660   273.19047      0            
     95680   266.53739      0            
     95700   262.34606      0            
     95720   260.74276      0            
     95740   262.11146      0            
     95760   266.73159      0            
     95780   274.19201      0            
     95800   283.04597      0            
     95820   291.01446      0            
     95840   295.7787       0            
     95860   296.01616      0            
     95880   292.108        0            
     95900   286.12411      0            
     95920   281.10324      0            
     95940   279.95554      0            
     95960   284.39316      0            
     95980   294.23077      0            
     96000   307.30431      0            
     96020   320.11511      0            
     96040   329.04251      0            
     96060   331.67042      0            
     96080   327.66014      0            
     96100   318.77748      0            
     96120   308.07091      0            
     96140   298.61134      0            
     96160   292.40139      0            
     96180   289.89486      0            
     96200   290.19023      0            
     96220   291.67908      0            
     96240   292.83318      0            
     96260   292.8212       0            
     96280   291.72856      0            
     96300   290.32677      0            
     96320   289.54208      0            
     96340   289.90085      0            
     96360   291.22228      0            
     96380   292.71517      0            
     96400   293.45098      0            
     96420   292.96188      0            
     96440   291.59139      0            
     96460   290.40468      0            
     96480   290.75097      0            
     96500   293.66951      0            
     96520   299.35399      0            
     96540   306.89653      0            
     96560   314.45462      0            
     96580   319.82747      0            
     96600   321.2372       0            
     96620   317.98255      0            
     96640   310.66905      0            
     96660   300.92185      0            
     96680   290.73336      0            
     96700   281.74897      0            
     96720   274.79531      0            
     96740   269.82649      0            
     96760   266.26772      0            
     96780   263.57235      0            
     96800   261.75996      0            
     96820   261.76082      0            
     96840   265.43155      0            
     96860   274.90853      0            
     96880   290.71708      0            
     96900   309.65402      0            
     96920   326.35886      0            
     96940   337.31525      0            
     96960   341.584        0            
     96980   339.6182       0            
     97000   332.70843      0            
     97020   322.78479      0            
     97040   312.05728      0            
     97060   302.5012       0            
     97080   295.41073      0            
     97100   291.21042      0            
     97120   289.55978      0            
     97140   289.64278      0            
     97160   290.49086      0            
     97180   291.2308       0            
     97200   291.21843      0            
     97220   290.07978      0            
     97240   287.71687      0            
     97260   284.34244      0            
     97280   280.5908       0            
     97300   277.66799      0            
     97320   277.29567      0            
     97340   281.17142      0            
     97360   290.10535      0            
     97380   303.29372      0            
     97400   318.32044      0            
     97420   332.11654      0            
     97440   342.02593      0            
     97460   346.28946      0            
     97480   344.22164      0            
     97500   336.34037      0            
     97520   324.34422      0            
     97540   310.77048      0            
     97560   298.28573      0            
     97580   288.82541      0            
     97600   283.05958      0            
     97620   280.48254      0            
     97640   279.95701      0            
     97660   280.35835      0            
     97680   281.06377      0            
     97700   282.15428      0            
     97720   284.29934      0            
     97740   288.40331      0            
     97760   295.18275      0            
     97780   304.86153      0            
     97800   317.07425      0            
     97820   330.85378      0            
     97840   344.48635      0            
     97860   355.54797      0            
     97880   361.86829      0            
     97900   362.82069      0            
     97920   359.3604       0            
     97940   352.74936      0            
     97960   343.20874      0            
     97980   330.04813      0            
     98000   314.4474       0            
     98020   300.98716      0            
     98040   292.62193      0            
     98060   287.98749      0            
     98080   284.81692      0            
     98100   282.18147      0            
     98120   280.36101      0            
     98140   280.09658      0            
     98160   281.94966      0            
     98180   285.93283      0            
     98200   291.44756      0            
     98220   297.49438      0            
     98240   303.05541      0            
     98260   307.49251      0            
     98280   310.78324      0            
     98300   313.47257      0            
     98320   316.34946      0            
     98340   319.99107      0            
     98360   324.3686       0            
     98380   328.6584       0            
     98400   331.29355      0            
     98420   330.2201       0            
     98440   323.46299      0            
     98460   310.4314       0            
     98480   293.62731      0            
     98500   277.9069       0            
     98520   266.74839      0            
     98540   260.72485      0            
     98560   258.95291      0            
     98580   260.34921      0            
     98600   264.01284      0            
     98620   269.26044      0            
     98640   275.56265      0            
     98660   282.44682      0            
     98680   289.44304      0            
     98700   296.13785      0            
     98720   302.28006      0            
     98740   307.80498      0            
     98760   312.73197      0            
     98780   317.01439      0            
     98800   320.43712      0            
     98820   322.60301      0            
     98840   323.01068      0            
     98860   321.20924      0            
     98880   316.99566      0            
     98900   310.58536      0            
     98920   302.66733      0            
     98940   294.29398      0            
     98960   286.6479       0            
     98980   280.78819      0            
     99000   277.45079      0            
     99020   276.91789      0            
     99040   278.95652      0            
     99060   282.85213      0            
     99080   287.5801       0            
     99100   292.11869      0            
     99120   295.79778      0            
     99140   298.48878      0            
     99160   300.52035      0            
     99180   302.39979      0            
     99200   304.50882      0            
     99220   306.89513      0            
     99240   309.21887      0            
     99260   310.86395      0            
     99280   311.16886      0            
     99300   309.68204      0            
     99320   306.33379      0            
     99340   301.45263      0            
     99360   295.62669      0            
     99380   289.48199      0            
     99400   283.48371      0            
     99420   277.85098      0            
     99440   272.62573      0            
     99460   267.87545      0            
     99480   263.9428       0            
     99500   261.59036      0            
     99520   261.91603      0            
     99540   266.05059      0            
     99560   274.66039      0            
     99580   287.23751      0            
     99600   301.66759      0            
     99620   315.03114      0            
     99640   325.14396      0            
     99660   331.18555      0            
     99680   333.33012      0            
     99700   332.23471      0            
     99720   328.69951      0            
     99740   323.46969      0            
     99760   317.15793      0            
     99780   310.2801       0            
     99800   303.34148      0            
     99820   296.86716      0            
     99840   291.32138      0            
     99860   286.97714      0            
     99880   283.84313      0            
     99900   281.69247      0            
     99920   280.17236      0            
     99940   278.96187      0            
     99960   277.94768      0            
     99980   277.37749      0            
    100000   277.94061      0            
    100020   280.73314      0            
    100040   287.07548      0            
    100060   298.09395      0            
    100080   313.84436      0            
    100100   332.08257      0            
    100120   348.21485      0            
    100140   357.69307      0            
    100160   358.65939      0            
    100180   352.60664      0            
    100200   342.92804      0            
    100220   332.5146       0            
    100240   323.07783      0            
    100260   315.67735      0            
    100266   313.94107      0            
Loop time of 7.30856 on 1 procs for 100000 steps with 100 atoms

Performance: 1182.175 ns/day, 0.020 hours/ns, 13682.577 timesteps/s, 1.368 Matom-step/s
74.1% CPU use with 1 MPI tasks x no OpenMP threads

MPI task timing breakdown:
Section |  min time  |  avg time  |  max time  |%varavg| %total
---------------------------------------------------------------
Pair    | 0.28404    | 0.28404    | 0.28404    |   0.0 |  3.89
Bond    | 0.15434    | 0.15434    | 0.15434    |   0.0 |  2.11
Neigh   | 3.3551     | 3.3551     | 3.3551     |   0.0 | 45.91
Comm    | 0.15571    | 0.15571    | 0.15571    |   0.0 |  2.13
Output  | 0.3008     | 0.3008     | 0.3008     |   0.0 |  4.12
Modify  | 2.9645     | 2.9645     | 2.9645     |   0.0 | 40.56
Other   |            | 0.09408    |            |       |  1.29

Nlocal:            100 ave         100 max         100 min
Histogram: 1 0 0 0 0 0 0 0 0 0
Nghost:              0 ave           0 max           0 min
Histogram: 1 0 0 0 0 0 0 0 0 0
Neighs:            198 ave         198 max         198 min
Histogram: 1 0 0 0 0 0 0 0 0 0
FullNghs:            0 ave           0 max           0 min
Histogram: 1 0 0 0 0 0 0 0 0 0

Total # of neighbors = 198
Ave neighs/atom = 1.98
Ave special neighs/atom = 5.88
Neighbor list builds = 5281
Dangerous builds = 0
#####################################################
print "All done"
All done
Total wall time: 0:00:09
