read_data	InitialFile.txt
Reading data file ...
  orthogonal box = (0 0 0) to (158.5 158.5 158.5)
  1 by 1 by 1 MPI processor grid
WARNING: Atom style in data file atomic differs from currently defined atom style molecular (src/read_data.cpp:621)
  reading atoms ...
  6 atoms
  scanning bonds ...
  1 = max bonds/atom
  scanning angles ...
  1 = max angles/atom
  scanning dihedrals ...
  1 = max dihedrals/atom
  reading bonds ...
  5 bonds
  reading angles ...
  4 angles
  reading dihedrals ...
  3 dihedrals
Finding 1-2 1-3 1-4 neighbors ...
  special bond factors lj:    0        0        0       
  special bond factors coul:  0        0        0       
     2 = max # of 1-2 neighbors
     2 = max # of 1-3 neighbors
     3 = max # of 1-4 neighbors
     5 = max # of special neighbors
  special bonds CPU = 0.000 seconds
  read_data CPU = 0.004 seconds

# Dreiding potential information
neighbor	2.0 bin
neigh_modify every 1 delay 0 check yes

bond_style      harmonic
bond_coeff	1 350 1.53
bond_coeff	2 700 1.53
special_bonds lj/coul 0.0 0.0 0.5
Finding 1-2 1-3 1-4 neighbors ...
  special bond factors lj:    0        0        0.5     
  special bond factors coul:  0        0        0.5     
     2 = max # of 1-2 neighbors
     2 = max # of 1-3 neighbors
     3 = max # of 1-4 neighbors
     5 = max # of special neighbors
  special bonds CPU = 0.000 seconds


angle_style     harmonic
angle_coeff	1 60 109.5
angle_coeff	2 120 109.5

dihedral_style	multi/harmonic
dihedral_coeff	1 1.73 -4.49 0.776 6.99 0.0
dihedral_coeff	2 1.73 -4.49 0.776 6.99 0.0

pair_style	lj/cut 10.5
pair_coeff	* * 1.0 1.0 10.5
pair_coeff	3 3 2.0 0.5 10.5

compute csym all centro/atom fcc
compute peratom all pe/atom


#####################################################
# Equilibration (Brownian dynamics at 300 K)

velocity 	all create 300.0 1231
fix		1 all nve/limit 0.05
fix 2 all brownian 30.0 12908410 gamma_t 3.0 rng gaussian # Compute a correct 300K simulation, check the value for gamma_t
thermo_style	custom step temp
thermo          10000
timestep	1
run		100000
Generated 0 of 3 mixed pair_coeff terms from geometric mixing rule
WARNING: One or more atoms are time integrated more than once (src/modify.cpp:289)
Neighbor list info ...
  update: every = 1 steps, delay = 0 steps, check = yes
  max neighbors/atom: 2000, page size: 100000
  master list distance cutoff = 12.5
  ghost atom cutoff = 12.5
  binsize = 6.25, bins = 26 26 26
  2 neighbor lists, perpetual/occasional/extra = 1 1 0
  (1) pair lj/cut, perpetual
      attributes: half, newton on
      pair build: half/bin/newton
      stencil: half/bin/3d
      bin: standard
  (2) compute centro/atom, occasional
      attributes: full, newton on
      pair build: full/bin
      stencil: full/bin/3d
      bin: standard
Per MPI rank memory allocation (min/avg/max) = 8.056 | 8.056 | 8.056 Mbytes
   Step          Temp     
         0   300          
     10000   686.92156    
     20000   215.78862    
     30000   485.01606    
     40000   262.39192    
     50000   567.83933    
     60000   227.65087    
     70000   367.61886    
     80000   259.73612    
     90000   357.55037    
    100000   320.01623    
Loop time of 0.521468 on 1 procs for 100000 steps with 6 atoms

Performance: 16568.621 ns/day, 0.001 hours/ns, 191766.443 timesteps/s, 1.151 Matom-step/s
56.5% CPU use with 1 MPI tasks x 1 OpenMP threads

MPI task timing breakdown:
Section |  min time  |  avg time  |  max time  |%varavg| %total
---------------------------------------------------------------
Pair    | 0.16401    | 0.16401    | 0.16401    |   0.0 | 31.45
Bond    | 0.10886    | 0.10886    | 0.10886    |   0.0 | 20.88
Neigh   | 0.00078982 | 0.00078982 | 0.00078982 |   0.0 |  0.15
Comm    | 0.060828   | 0.060828   | 0.060828   |   0.0 | 11.66
Output  | 0.00034161 | 0.00034161 | 0.00034161 |   0.0 |  0.07
Modify  | 0.13352    | 0.13352    | 0.13352    |   0.0 | 25.60
Other   |            | 0.05311    |            |       | 10.19

Nlocal:              6 ave           6 max           6 min
Histogram: 1 0 0 0 0 0 0 0 0 0
Nghost:             42 ave          42 max          42 min
Histogram: 1 0 0 0 0 0 0 0 0 0
Neighs:              6 ave           6 max           6 min
Histogram: 1 0 0 0 0 0 0 0 0 0
FullNghs:            0 ave           0 max           0 min
Histogram: 1 0 0 0 0 0 0 0 0 0

Total # of neighbors = 6
Ave neighs/atom = 1
Ave special neighs/atom = 4
Neighbor list builds = 17
Dangerous builds = 0
unfix 1
unfix 2
write_restart 	restart.${simname}.dreiding1
write_restart 	restart.InitialFile.dreiding1
System init for write_restart ...
Generated 0 of 3 mixed pair_coeff terms from geometric mixing rule

#####################################################
# Define Settings
compute eng all pe/atom
compute eatoms all reduce sum c_eng

#####################################################
# Minimization

dump mydmp all atom 100 dump.lammpstrj

reset_timestep 0
fix 1 all nvt temp 300.0 300.0 100.0
thermo 20
thermo_style custom step pe lx ly lz press pxx pyy pzz c_eatoms
min_style cg
minimize 1e-25 1e-25 500000 1000000
Generated 0 of 3 mixed pair_coeff terms from geometric mixing rule
Per MPI rank memory allocation (min/avg/max) = 9.181 | 9.181 | 9.181 Mbytes
   Step         PotEng           Lx             Ly             Lz           Press           Pxx            Pyy            Pzz          c_eatoms   
         0   0.45232849     158.5          158.5          158.5          0.3316037      0.1183421      0.40309777     0.47337123     0.45232849   
        20   0.01932818     158.5          158.5          158.5          0.050955627    0.041237158    0.078665165    0.032964559    0.01932818   
        38   0.017998139    158.5          158.5          158.5          0.048575637    0.041186491    0.075266866    0.029273555    0.017998139  
Loop time of 0.000930588 on 1 procs for 38 steps with 6 atoms

58.4% CPU use with 1 MPI tasks x 1 OpenMP threads

Minimization stats:
  Stopping criterion = energy tolerance
  Energy initial, next-to-last, final = 
     0.452328486887988 0.0179981387997973 0.0179981387997973
  Force two-norm initial, final = 32.843423 0.95851035
  Force max component initial, final = 14.430339 0.45023444
  Final line search alpha, max atom move = 0.055526627 0.025
  Iterations, force evaluations = 38 164

MPI task timing breakdown:
Section |  min time  |  avg time  |  max time  |%varavg| %total
---------------------------------------------------------------
Pair    | 0.00040297 | 0.00040297 | 0.00040297 |   0.0 | 43.30
Bond    | 0.00018991 | 0.00018991 | 0.00018991 |   0.0 | 20.41
Neigh   | 0          | 0          | 0          |   0.0 |  0.00
Comm    | 9.5589e-05 | 9.5589e-05 | 9.5589e-05 |   0.0 | 10.27
Output  | 2.4824e-05 | 2.4824e-05 | 2.4824e-05 |   0.0 |  2.67
Modify  | 0          | 0          | 0          |   0.0 |  0.00
Other   |            | 0.0002173  |            |       | 23.35

Nlocal:              6 ave           6 max           6 min
Histogram: 1 0 0 0 0 0 0 0 0 0
Nghost:             42 ave          42 max          42 min
Histogram: 1 0 0 0 0 0 0 0 0 0
Neighs:              6 ave           6 max           6 min
Histogram: 1 0 0 0 0 0 0 0 0 0
FullNghs:            0 ave           0 max           0 min
Histogram: 1 0 0 0 0 0 0 0 0 0

Total # of neighbors = 6
Ave neighs/atom = 1
Ave special neighs/atom = 4
Neighbor list builds = 0
Dangerous builds = 0

group type1_atoms type 1
2 atoms in group type1_atoms
group type2_atoms type 2
2 atoms in group type2_atoms
group type3_atoms type 3
2 atoms in group type3_atoms

molecule mol1closeTo3PRE mol1closeTo3PRE.txt
Read molecule template mol1closeTo3PRE:
  1 molecules
  0 fragments
  4 atoms with max type 3
  3 bonds with max type 1
  0 angles with max type 0
  0 dihedrals with max type 0
  0 impropers with max type 0
molecule mol1closeTo3POST mol1closeTo3POST.txt
Read molecule template mol1closeTo3POST:
  1 molecules
  0 fragments
  4 atoms with max type 2
  3 bonds with max type 1
  0 angles with max type 0
  0 dihedrals with max type 0
  0 impropers with max type 0
molecule mol3closeTo1POST mol3closeTo1POST.txt
Read molecule template mol3closeTo1POST:
  1 molecules
  0 fragments
  4 atoms with max type 3
  3 bonds with max type 1
  0 angles with max type 0
  0 dihedrals with max type 0
  0 impropers with max type 0
molecule mol2closeTo3PRE mol2closeTo3PRE.txt
Read molecule template mol2closeTo3PRE:
  1 molecules
  0 fragments
  4 atoms with max type 3
  3 bonds with max type 1
  0 angles with max type 0
  0 dihedrals with max type 0
  0 impropers with max type 0
molecule mol2closeTo3POST mol2closeTo3POST.txt
Read molecule template mol2closeTo3POST:
  1 molecules
  0 fragments
  4 atoms with max type 3
  3 bonds with max type 1
  0 angles with max type 0
  0 dihedrals with max type 0
  0 impropers with max type 0
molecule mol3closeTo2POST mol3closeTo2POST.txt
Read molecule template mol3closeTo2POST:
  1 molecules
  0 fragments
  4 atoms with max type 3
  3 bonds with max type 1
  0 angles with max type 0
  0 dihedrals with max type 0
  0 impropers with max type 0
molecule mol2closeTo1PRE mol2closeTo1PRE.txt
Read molecule template mol2closeTo1PRE:
  1 molecules
  0 fragments
  4 atoms with max type 2
  3 bonds with max type 1
  0 angles with max type 0
  0 dihedrals with max type 0
  0 impropers with max type 0
molecule mol2closeTo1POST mol2closeTo1POST.txt
Read molecule template mol2closeTo1POST:
  1 molecules
  0 fragments
  4 atoms with max type 2
  3 bonds with max type 1
  0 angles with max type 0
  0 dihedrals with max type 0
  0 impropers with max type 0


#####################################################
# Do the reactions
fix 3 all bond/react   react reac1to2 all 1 0 10 mol1closeTo3PRE mol1closeTo3POST map_1to2.txt   react reac2to3 all 1 0 10 mol2closeTo3PRE mol2closeTo3POST map_2to3.txt    react reac3to2 all 1 0 10 mol2closeTo3PRE mol3closeTo2POST map_3to2.txt    react reac2to1 all 1 0 10 mol2closeTo1PRE mol2closeTo1POST map_2to1.txt
dynamic group bond_react_MASTER_group defined


thermo_style custom step temp f_3[*]

run 100000

CITE-CITE-CITE-CITE-CITE-CITE-CITE-CITE-CITE-CITE-CITE-CITE-CITE

Your simulation uses code contributions which should be cited:

- fix bond/react: reacter.org doi:10.1016/j.polymer.2017.09.038, doi:10.1021/acs.macromol.0c02012

@Article{Gissinger17,
 author = {J. R. Gissinger and B. D. Jensen and K. E. Wise},
 title = {Modeling Chemical Reactions in Classical Molecular Dynamics Simulations},
 journal = {Polymer},
 year =    2017,
 volume =  128,
 pages =   {211--217}
}

@Article{Gissinger20,
 author = {J. R. Gissinger, B. D. Jensen, K. E. Wise},
 title = {{REACTER}: A Heuristic Method for Reactive Molecular Dynamics},
 journal = {Macromolecules},
 year =    2020,
 volume =  53,
 number =  22,
 pages =   {9953--9961}
}

CITE-CITE-CITE-CITE-CITE-CITE-CITE-CITE-CITE-CITE-CITE-CITE-CITE

Generated 0 of 3 mixed pair_coeff terms from geometric mixing rule
Neighbor list info ...
  update: every = 1 steps, delay = 0 steps, check = yes
  max neighbors/atom: 2000, page size: 100000
  master list distance cutoff = 12.5
  ghost atom cutoff = 12.5
  binsize = 6.25, bins = 26 26 26
  3 neighbor lists, perpetual/occasional/extra = 1 2 0
  (1) pair lj/cut, perpetual
      attributes: half, newton on
      pair build: half/bin/newton
      stencil: half/bin/3d
      bin: standard
  (2) compute centro/atom, occasional
      attributes: full, newton on
      pair build: full/bin
      stencil: full/bin/3d
      bin: standard
  (3) fix bond/react, occasional, copy from (1)
      attributes: half, newton on
      pair build: copy
      stencil: none
      bin: none
Per MPI rank memory allocation (min/avg/max) = 9.493 | 9.493 | 9.493 Mbytes
   Step          Temp          f_3[1]         f_3[2]         f_3[3]         f_3[4]    
        38   320.01623      0              0              0              0            
        40   303.19392      0              0              0              0            
        60   158.35638      0              0              0              0            
        80   262.9622       0              0              0              0            
       100   203.36939      0              0              0              0            
       120   266.76393      0              0              0              0            
       140   256.41516      0              0              0              0            
       160   333.53493      0              0              0              0            
       180   360.64049      0              0              0              0            
       200   339.24673      0              0              0              0            
       220   481.61721      0              0              0              0            
       240   526.50793      0              0              0              0            
       260   488.9893       0              0              0              0            
       280   553.38834      0              0              0              0            
       300   489.83735      0              0              0              0            
       320   466.90729      0              0              0              0            
       340   404.455        0              0              0              0            
       360   249.52669      0              0              0              0            
       380   290.61546      0              0              0              0            
       400   158.6299       0              0              0              0            
       420   238.29279      0              0              0              0            
       440   151.94797      0              0              0              0            
       460   213.90898      0              0              0              0            
       480   168.72444      0              0              0              0            
       500   199.15353      0              0              0              0            
       520   224.00206      0              0              0              0            
       540   236.48905      0              0              0              0            
       560   227.48446      0              0              0              0            
       580   307.27372      0              0              0              0            
       600   246.7311       0              0              0              0            
       620   421.4657       0              0              0              0            
       640   320.86389      0              0              0              0            
       660   441.48322      0              0              0              0            
       680   345.84594      0              0              0              0            
       700   419.8655       0              0              0              0            
       720   429.12634      0              0              0              0            
       740   392.21818      0              0              0              0            
       760   421.38128      0              0              0              0            
       780   313.88943      0              0              0              0            
       800   307.21233      0              0              0              0            
       820   274.30866      0              0              0              0            
       840   249.41636      0              0              0              0            
       860   204.9561       0              0              0              0            
       880   181.65672      0              0              0              0            
       900   159.83292      0              0              0              0            
       920   174.97672      0              0              0              0            
       940   127.39248      0              0              0              0            
       960   217.10342      0              0              0              0            
       980   120.90041      0              0              0              0            
      1000   221.50417      0              0              0              0            
      1020   152.49287      0              0              0              0            
      1040   208.65692      0              0              0              0            
      1060   199.44193      0              0              0              0            
      1080   247.7123       0              0              0              0            
      1100   225.10488      0              0              0              0            
      1120   243.69067      0              0              0              0            
      1140   242.29022      0              0              0              0            
      1160   304.6744       0              0              0              0            
      1180   225.09542      0              0              0              0            
      1200   378.73735      0              0              0              0            
      1220   266.9338       0              0              0              0            
      1240   334.01543      0              0              0              0            
      1260   331.47279      0              0              0              0            
      1280   365.69556      0              0              0              0            
      1300   397.56029      0              0              0              0            
      1320   351.01024      0              0              0              0            
      1340   410.68611      0              0              0              0            
      1360   320.63501      0              0              0              0            
      1380   375.52668      0              0              0              0            
      1400   323.25406      0              0              0              0            
      1420   309.40019      0              0              0              0            
      1440   274.63452      0              0              0              0            
      1460   224.36503      0              0              0              0            
      1480   186.64097      0              0              0              0            
      1500   219.73084      0              0              0              0            
      1520   121.1703       0              0              0              0            
      1540   209.45135      0              0              0              0            
      1560   122.11191      0              0              0              0            
      1580   172.13592      0              0              0              0            
      1600   119.69777      0              0              0              0            
      1620   201.50239      0              0              0              0            
      1640   174.00852      0              0              0              0            
      1660   206.18633      0              0              0              0            
      1680   271.98728      0              0              0              0            
      1700   287.22394      0              0              0              0            
      1720   297.17053      0              0              0              0            
      1740   445.40414      0              0              0              0            
      1760   359.66347      0              0              0              0            
      1780   409.64919      0              0              0              0            
      1800   348.37796      0              0              0              0            
      1820   397.82861      0              0              0              0            
      1840   352.07553      0              0              0              0            
      1860   349.32246      0              0              0              0            
      1880   383.16503      0              0              0              0            
      1900   247.61331      0              0              0              0            
      1920   325.22805      0              0              0              0            
      1940   242.25624      0              0              0              0            
      1960   288.08293      0              0              0              0            
      1980   236.66331      0              0              0              0            
      2000   238.16969      0              0              0              0            
      2020   219.05796      0              0              0              0            
      2040   212.62603      0              0              0              0            
      2060   191.94271      0              0              0              0            
      2080   276.12106      0              0              0              0            
      2100   181.4823       0              0              0              0            
      2120   290.47597      0              0              0              0            
      2140   196.53017      0              0              0              0            
      2160   344.91941      0              0              0              0            
      2180   300.56321      0              0              0              0            
      2200   419.69891      0              0              0              0            
      2220   498.75578      0              0              0              0            
      2240   480.43839      0              0              0              0            
      2260   519.008        0              0              0              0            
      2280   501.76752      0              0              0              0            
      2300   480.91457      0              0              0              0            
      2320   469.29698      0              0              0              0            
      2340   378.57077      0              0              0              0            
      2360   362.06635      0              0              0              0            
      2380   240.1852       0              0              0              0            
      2400   274.79141      0              0              0              0            
      2420   299.68528      0              0              0              0            
      2440   226.86507      0              0              0              0            
      2460   274.26723      0              0              0              0            
      2480   167.28282      0              0              0              0            
      2500   263.2874       0              0              0              0            
      2520   223.47147      0              0              0              0            
      2540   294.97709      0              0              0              0            
      2560   225.95362      0              0              0              0            
      2580   259.37505      0              0              0              0            
      2600   280.33879      0              0              0              0            
      2620   311.21734      0              0              0              0            
      2640   282.42711      0              0              0              0            
      2660   388.16052      0              0              0              0            
      2680   273.26858      0              0              0              0            
      2700   397.23231      0              0              0              0            
      2720   310.14319      0              0              0              0            
      2740   425.78795      0              0              0              0            
      2760   364.12084      0              0              0              0            
      2780   408.18567      0              0              0              0            
      2800   423.83469      0              0              0              0            
      2820   367.45533      0              0              0              0            
      2840   404.91503      0              0              0              0            
      2860   338.87496      0              0              0              0            
      2880   321.80157      0              0              0              0            
      2900   306.55839      0              0              0              0            
      2920   242.90191      0              0              0              0            
      2940   249.78287      0              0              0              0            
      2960   219.07976      0              0              0              0            
      2980   190.46545      0              0              0              0            
      3000   225.39936      0              0              0              0            
      3020   162.19836      0              0              0              0            
      3040   241.21091      0              0              0              0            
      3060   142.77525      0              0              0              0            
      3080   244.28277      0              0              0              0            
      3100   167.86285      0              0              0              0            
      3120   278.72177      0              0              0              0            
      3140   278.71193      0              0              0              0            
      3160   305.3132       0              0              0              0            
      3180   318.39416      0              0              0              0            
      3200   435.06723      0              0              0              0            
      3220   406.96025      0              0              0              0            
      3240   478.89326      0              0              0              0            
      3260   400.39928      0              0              0              0            
      3280   500.20974      0              0              0              0            
      3300   322.53017      0              0              0              0            
      3320   438.17013      0              0              0              0            
      3340   369.23275      0              0              0              0            
      3360   316.57563      0              0              0              0            
      3380   332.32751      0              0              0              0            
      3400   258.80603      0              0              0              0            
      3420   273.86663      0              0              0              0            
      3440   250.13442      0              0              0              0            
      3460   283.06274      0              0              0              0            
      3480   282.0196       0              0              0              0            
      3500   235.20703      0              0              0              0            
      3520   260.45916      0              0              0              0            
      3540   273.93661      0              0              0              0            
      3560   272.8008       0              0              0              0            
      3580   343.16767      0              0              0              0            
      3600   204.82615      0              0              0              0            
      3620   353.36919      0              0              0              0            
      3640   233.3113       0              0              0              0            
      3660   387.83121      0              0              0              0            
      3680   281.84612      0              0              0              0            
      3700   331.71081      0              0              0              0            
      3720   332.07738      0              0              0              0            
      3740   366.61982      0              0              0              0            
      3760   348.56655      0              0              0              0            
      3780   372.28971      0              0              0              0            
      3800   332.26841      0              0              0              0            
      3820   409.70283      0              0              0              0            
      3840   294.75385      0              0              0              0            
      3860   394.8839       0              0              0              0            
      3880   278.6151       0              0              0              0            
      3900   283.35527      0              0              0              0            
      3920   288.54881      0              0              0              0            
      3940   244.7223       0              0              0              0            
      3960   267.15301      0              0              0              0            
      3980   162.76288      0              0              0              0            
      4000   223.06691      0              0              0              0            
      4020   183.89167      0              0              0              0            
      4040   201.16524      0              0              0              0            
      4060   205.67503      0              0              0              0            
      4080   189.90137      0              0              0              0            
      4100   197.78414      0              0              0              0            
      4120   242.62508      0              0              0              0            
      4140   229.20814      0              0              0              0            
      4160   387.86202      0              0              0              0            
      4180   265.86518      0              0              0              0            
      4200   465.92793      0              0              0              0            
      4220   314.80304      0              0              0              0            
      4240   527.17601      0              0              0              0            
      4260   474.76492      0              0              0              0            
      4280   458.24285      0              0              0              0            
      4300   456.63993      0              0              0              0            
      4320   374.27843      0              0              0              0            
      4340   374.17823      0              0              0              0            
      4360   370.38757      0              0              0              0            
      4380   302.13241      0              0              0              0            
      4400   344.41935      0              0              0              0            
      4420   221.4981       0              0              0              0            
      4440   321.6015       0              0              0              0            
      4460   255.72668      0              0              0              0            
      4480   263.04834      0              0              0              0            
      4500   315.36391      0              0              0              0            
      4520   238.68752      0              0              0              0            
      4540   327.12386      0              0              0              0            
      4560   205.10234      0              0              0              0            
      4580   318.82232      0              0              0              0            
      4600   276.90554      0              0              0              0            
      4620   315.96377      0              0              0              0            
      4640   299.34279      0              0              0              0            
      4660   301.84152      0              0              0              0            
      4680   301.84139      0              0              0              0            
      4700   376.23349      0              0              0              0            
      4720   322.02196      0              0              0              0            
      4740   439.29893      0              0              0              0            
      4760   264.80297      0              0              0              0            
      4780   513.99159      0              0              0              0            
      4800   371.04227      0              0              0              0            
      4820   506.56228      0              0              0              0            
      4840   498.03936      0              0              0              0            
      4860   434.62982      0              0              0              0            
      4880   425.92729      0              0              0              0            
      4900   368.8352       0              0              0              0            
      4920   361.93046      0              0              0              0            
      4940   299.76561      0              0              0              0            
      4960   254.24698      0              0              0              0            
      4980   274.84258      0              0              0              0            
      5000   165.97561      0              0              0              0            
      5020   212.34185      0              0              0              0            
      5040   216.8302       0              0              0              0            
      5060   178.78287      0              0              0              0            
      5080   239.73658      0              0              0              0            
      5100   148.44262      0              0              0              0            
      5120   267.12454      0              0              0              0            
      5140   170.88128      0              0              0              0            
      5160   308.62701      0              0              0              0            
      5180   276.72907      0              0              0              0            
      5200   339.29473      0              0              0              0            
      5220   363.25357      0              0              0              0            
      5240   424.84822      0              0              0              0            
      5260   462.95087      0              0              0              0            
      5280   520.86254      0              0              0              0            
      5300   409.8699       0              0              0              0            
      5320   536.61849      0              0              0              0            
      5340   313.24972      0              0              0              0            
      5360   471.35254      0              0              0              0            
      5380   344.61199      0              0              0              0            
      5400   393.92881      0              0              0              0            
      5420   331.04078      0              0              0              0            
      5440   298.30876      0              0              0              0            
      5460   324.05228      0              0              0              0            
      5480   282.83441      0              0              0              0            
      5500   339.60513      0              0              0              0            
      5520   285.38472      0              0              0              0            
      5540   254.99984      0              0              0              0            
      5560   286.40416      0              0              0              0            
      5580   277.2123       0              0              0              0            
      5600   250.09805      0              0              0              0            
      5620   307.42147      0              0              0              0            
      5640   244.05828      0              0              0              0            
      5660   317.83662      0              0              0              0            
      5680   185.258        0              0              0              0            
      5700   357.70055      0              0              0              0            
      5720   240.73287      0              0              0              0            
      5740   355.0705       0              0              0              0            
      5760   325.99437      0              0              0              0            
      5780   360.37093      0              0              0              0            
      5800   351.46953      0              0              0              0            
      5820   443.72663      0              0              0              0            
      5840   463.35653      0              0              0              0            
      5860   534.97256      0              0              0              0            
      5880   380.30332      0              0              0              0            
      5900   513.12762      0              0              0              0            
      5920   342.77476      0              0              0              0            
      5940   445.83451      0              0              0              0            
      5960   323.09909      0              0              0              0            
      5980   262.35777      0              0              0              0            
      6000   239.18258      0              0              0              0            
      6020   188.97935      0              0              0              0            
      6040   249.8113       0              0              0              0            
      6060   172.05903      0              0              0              0            
      6080   212.71631      0              0              0              0            
      6100   176.56957      0              0              0              0            
      6120   183.43955      0              0              0              0            
      6140   215.52719      0              0              0              0            
      6160   246.30678      0              0              0              0            
      6180   218.72458      0              0              0              0            
      6200   284.33593      0              0              0              0            
      6220   229.22286      0              0              0              0            
      6240   378.57885      0              0              0              0            
      6260   238.27671      0              0              0              0            
      6280   412.11983      0              0              0              0            
      6300   328.59823      0              0              0              0            
      6320   385.73316      0              0              0              0            
      6340   341.02698      0              0              0              0            
      6360   367.99872      0              0              0              0            
      6380   354.75602      0              0              0              0            
      6400   357.64434      0              0              0              0            
      6420   311.44799      0              0              0              0            
      6440   390.03993      0              0              0              0            
      6460   243.24901      0              0              0              0            
      6480   364.29588      0              0              0              0            
      6500   265.53623      0              0              0              0            
      6520   309.2508       0              0              0              0            
      6540   297.27496      0              0              0              0            
      6560   272.70664      0              0              0              0            
      6580   307.85967      0              0              0              0            
      6600   198.72739      0              0              0              0            
      6620   337.04945      0              0              0              0            
      6640   223.43108      0              0              0              0            
      6660   273.21521      0              0              0              0            
      6680   266.38401      0              0              0              0            
      6700   248.88536      0              0              0              0            
      6720   264.63407      0              0              0              0            
      6740   327.27406      0              0              0              0            
      6760   284.05792      0              0              0              0            
      6780   379.2058       0              0              0              0            
      6800   262.19026      0              0              0              0            
      6820   473.58027      0              0              0              0            
      6840   340.07671      0              0              0              0            
      6860   509.42568      0              0              0              0            
      6880   412.01048      0              0              0              0            
      6900   454.40209      0              0              0              0            
      6920   394.06705      0              0              0              0            
      6940   369.78022      0              0              0              0            
      6960   358.57091      0              0              0              0            
      6980   344.33599      0              0              0              0            
      7000   250.78412      0              0              0              0            
      7020   268.4933       0              0              0              0            
      7040   165.08977      0              0              0              0            
      7060   234.36979      0              0              0              0            
      7080   195.19202      0              0              0              0            
      7100   197.92805      0              0              0              0            
      7120   190.03055      0              0              0              0            
      7140   154.86841      0              0              0              0            
      7160   252.90203      0              0              0              0            
      7180   173.68004      0              0              0              0            
      7200   294.62601      0              0              0              0            
      7220   224.92867      0              0              0              0            
      7240   306.41366      0              0              0              0            
      7260   334.78647      0              0              0              0            
      7280   408.47341      0              0              0              0            
      7300   424.96448      0              0              0              0            
      7320   461.49953      0              0              0              0            
      7340   422.09484      0              0              0              0            
      7360   541.20354      0              0              0              0            
      7380   327.29723      0              0              0              0            
      7400   489.92543      0              0              0              0            
      7420   327.76986      0              0              0              0            
      7440   423.08994      0              0              0              0            
      7460   334.70145      0              0              0              0            
      7480   350.74859      0              0              0              0            
      7500   316.45505      0              0              0              0            
      7520   257.64214      0              0              0              0            
      7540   297.19994      0              0              0              0            
      7560   277.20659      0              0              0              0            
      7580   243.38936      0              0              0              0            
      7600   256.0059       0              0              0              0            
      7620   204.25702      0              0              0              0            
      7640   223.56331      0              0              0              0            
      7660   239.11819      0              0              0              0            
      7680   234.02854      0              0              0              0            
      7700   278.89503      0              0              0              0            
      7720   176.61711      0              0              0              0            
      7740   315.40498      0              0              0              0            
      7760   240.19442      0              0              0              0            
      7780   415.56981      0              0              0              0            
      7800   380.75548      0              0              0              0            
      7820   470.88611      0              0              0              0            
      7840   445.41448      0              0              0              0            
      7860   514.88142      0              0              0              0            
      7880   558.95672      0              0              0              0            
      7900   523.4194       0              0              0              0            
      7920   393.84121      0              0              0              0            
      7940   456.55588      0              0              0              0            
      7960   266.52214      0              0              0              0            
      7980   327.27185      0              0              0              0            
      8000   221.99582      0              0              0              0            
      8020   287.39347      0              0              0              0            
      8040   220.69059      0              0              0              0            
      8060   216.40049      0              0              0              0            
      8080   250.95214      0              0              0              0            
      8100   202.85011      0              0              0              0            
      8120   257.10576      0              0              0              0            
      8140   274.5411       0              0              0              0            
      8160   246.27684      0              0              0              0            
      8180   253.43113      0              0              0              0            
      8200   276.5123       0              0              0              0            
      8220   332.62219      0              0              0              0            
      8240   350.3177       0              0              0              0            
      8260   307.23159      0              0              0              0            
      8280   416.43373      0              0              0              0            
      8300   283.02631      0              0              0              0            
      8320   483.88765      0              0              0              0            
      8340   335.03495      0              0              0              0            
      8360   470.79         0              0              0              0            
      8380   349.81773      0              0              0              0            
      8400   388.87567      0              0              0              0            
      8420   308.30049      0              0              0              0            
      8440   284.42169      0              0              0              0            
      8460   260.2465       0              0              0              0            
      8480   235.69219      0              0              0              0            
      8500   157.65768      0              0              0              0            
      8520   193.23739      0              0              0              0            
      8540   120.98356      0              0              0              0            
      8560   196.96395      0              0              0              0            
      8580   138.18679      0              0              0              0            
      8600   198.15134      0              0              0              0            
      8620   168.30387      0              0              0              0            
      8640   164.89174      0              0              0              0            
      8660   252.97896      0              0              0              0            
      8680   245.6359       0              0              0              0            
      8700   296.73212      0              0              0              0            
      8720   309.52548      0              0              0              0            
      8740   353.18002      0              0              0              0            
      8760   351.38748      0              0              0              0            
      8780   365.45967      0              0              0              0            
      8800   401.39245      0              0              0              0            
      8820   425.83077      0              0              0              0            
      8840   292.75316      0              0              0              0            
      8860   413.98629      0              0              0              0            
      8880   249.94403      0              0              0              0            
      8900   408.6748       0              0              0              0            
      8920   276.07365      0              0              0              0            
      8940   350.47176      0              0              0              0            
      8960   223.61852      0              0              0              0            
      8980   276.41261      0              0              0              0            
      9000   274.439        0              0              0              0            
      9020   259.69861      0              0              0              0            
      9040   255.10063      0              0              0              0            
      9060   264.82777      0              0              0              0            
      9080   193.26149      0              0              0              0            
      9100   266.4197       0              0              0              0            
      9120   208.9202       0              0              0              0            
      9140   279.86007      0              0              0              0            
      9160   223.03432      0              0              0              0            
      9180   286.53897      0              0              0              0            
      9200   317.33821      0              0              0              0            
      9220   256.39598      0              0              0              0            
      9240   377.75727      0              0              0              0            
      9260   410.70214      0              0              0              0            
      9280   465.83396      0              0              0              0            
      9300   374.90607      0              0              0              0            
      9320   426.75699      0              0              0              0            
      9340   438.78338      0              0              0              0            
      9360   455.41515      0              0              0              0            
      9380   390.58793      0              0              0              0            
      9400   413.84407      0              0              0              0            
      9420   218.50812      0              0              0              0            
      9440   344.6054       0              0              0              0            
      9460   198.29587      0              0              0              0            
      9480   294.93687      0              0              0              0            
      9500   161.24919      0              0              0              0            
      9520   207.15187      0              0              0              0            
      9540   182.93112      0              0              0              0            
      9560   191.38735      0              0              0              0            
      9580   222.10567      0              0              0              0            
      9600   214.26915      0              0              0              0            
      9620   196.29925      0              0              0              0            
      9640   244.30664      0              0              0              0            
      9660   245.16268      0              0              0              0            
      9680   338.47297      0              0              0              0            
      9700   299.84651      0              0              0              0            
      9720   435.33352      0              0              0              0            
      9740   431.72605      0              0              0              0            
      9760   405.0177       0              0              0              0            
      9780   580.07924      0              0              0              0            
      9800   420.62201      0              0              0              0            
      9820   535.86426      0              0              0              0            
      9840   373.39505      0              0              0              0            
      9860   472.35784      0              0              0              0            
      9880   362.41175      0              0              0              0            
      9900   374.95186      0              0              0              0            
      9920   377.73777      0              0              0              0            
      9940   339.18723      0              0              0              0            
      9960   311.16208      0              0              0              0            
      9980   347.45964      0              0              0              0            
     10000   214.00346      0              0              0              0            
     10020   337.87826      0              0              0              0            
     10040   191.20231      0              0              0              0            
     10060   297.08896      0              0              0              0            
     10080   204.33807      0              0              0              0            
     10100   230.93347      0              0              0              0            
     10120   237.46955      0              0              0              0            
     10140   205.93315      0              0              0              0            
     10160   262.47607      0              0              0              0            
     10180   227.66916      0              0              0              0            
     10200   253.10124      0              0              0              0            
     10220   284.00764      0              0              0              0            
     10240   287.87139      0              0              0              0            
     10260   385.24611      0              0              0              0            
     10280   361.2623       0              0              0              0            
     10300   459.74423      0              0              0              0            
     10320   521.12984      0              0              0              0            
     10340   419.82762      0              0              0              0            
     10360   560.83664      0              0              0              0            
     10380   410.75434      0              0              0              0            
     10400   540.3367       0              0              0              0            
     10420   318.32237      0              0              0              0            
     10440   317.87788      0              0              0              0            
     10460   239.81279      0              0              0              0            
     10480   224.58869      0              0              0              0            
     10500   244.62497      0              0              0              0            
     10520   233.35292      0              0              0              0            
     10540   164.82283      0              0              0              0            
     10560   207.2616       0              0              0              0            
     10580   188.51831      0              0              0              0            
     10600   281.63266      0              0              0              0            
     10620   192.65934      0              0              0              0            
     10640   255.6681       0              0              0              0            
     10660   218.08609      0              0              0              0            
     10680   236.2165       0              0              0              0            
     10700   365.15336      0              0              0              0            
     10720   327.87215      0              0              0              0            
     10740   343.29724      0              0              0              0            
     10760   314.24474      0              0              0              0            
     10780   389.84433      0              0              0              0            
     10800   416.9036       0              0              0              0            
     10820   377.58134      0              0              0              0            
     10840   404.40732      0              0              0              0            
     10860   379.21488      0              0              0              0            
     10880   290.34208      0              0              0              0            
     10900   370.04026      0              0              0              0            
     10920   244.33158      0              0              0              0            
     10940   256.97727      0              0              0              0            
     10960   152.77261      0              0              0              0            
     10980   185.36081      0              0              0              0            
     11000   134.03934      0              0              0              0            
     11020   135.00121      0              0              0              0            
     11040   147.86533      0              0              0              0            
     11060   149.485        0              0              0              0            
     11080   127.0673       0              0              0              0            
     11100   190.9922       0              0              0              0            
     11120   162.60551      0              0              0              0            
     11140   222.54858      0              0              0              0            
     11160   182.81671      0              0              0              0            
     11180   279.4729       0              0              0              0            
     11200   248.66268      0              0              0              0            
     11220   281.31999      0              0              0              0            
     11240   339.06192      0              0              0              0            
     11260   273.95701      0              0              0              0            
     11280   348.06352      0              0              0              0            
     11300   303.8538       0              0              0              0            
     11320   393.16252      0              0              0              0            
     11340   322.0382       0              0              0              0            
     11360   339.40075      0              0              0              0            
     11380   320.72659      0              0              0              0            
     11400   318.51836      0              0              0              0            
     11420   302.52579      0              0              0              0            
     11440   353.20216      0              0              0              0            
     11460   263.7233       0              0              0              0            
     11480   294.28532      0              0              0              0            
     11500   200.31655      0              0              0              0            
     11520   285.05522      0              0              0              0            
     11540   187.83486      0              0              0              0            
     11560   227.4712       0              0              0              0            
     11580   133.75098      0              0              0              0            
     11600   118.85819      0              0              0              0            
     11620   139.35121      0              0              0              0            
     11640   151.22519      0              0              0              0            
     11660   139.44014      0              0              0              0            
     11680   119.51773      0              0              0              0            
     11700   108.35693      0              0              0              0            
     11720   161.33224      0              0              0              0            
     11740   169.58338      0              0              0              0            
     11760   248.62438      0              0              0              0            
     11780   226.77817      0              0              0              0            
     11800   238.90888      0              0              0              0            
     11820   324.49839      0              0              0              0            
     11840   320.33013      0              0              0              0            
     11860   432.08176      0              0              0              0            
     11880   282.70175      0              0              0              0            
     11900   417.44908      0              0              0              0            
     11920   305.48475      0              0              0              0            
     11940   376.53539      0              0              0              0            
     11960   358.22617      0              0              0              0            
     11980   299.14195      0              0              0              0            
     12000   307.48963      0              0              0              0            
     12020   297.30655      0              0              0              0            
     12040   265.08839      0              0              0              0            
     12060   271.97807      0              0              0              0            
     12080   219.48001      0              0              0              0            
     12100   297.81127      0              0              0              0            
     12120   153.70541      0              0              0              0            
     12140   237.6087       0              0              0              0            
     12160   177.61634      0              0              0              0            
     12180   193.47896      0              0              0              0            
     12200   198.64776      0              0              0              0            
     12220   191.75607      0              0              0              0            
     12240   225.50569      0              0              0              0            
     12260   179.4158       0              0              0              0            
     12280   246.50637      0              0              0              0            
     12300   307.34783      0              0              0              0            
     12320   312.48123      0              0              0              0            
     12340   389.24314      0              0              0              0            
     12360   419.73427      0              0              0              0            
     12380   435.30147      0              0              0              0            
     12400   471.71559      0              0              0              0            
     12420   416.81011      0              0              0              0            
     12440   549.55355      0              0              0              0            
     12460   348.16532      0              0              0              0            
     12480   453.10878      0              0              0              0            
     12500   298.58149      0              0              0              0            
     12520   294.1595       0              0              0              0            
     12540   283.90885      0              0              0              0            
     12560   239.91077      0              0              0              0            
     12580   253.49163      0              0              0              0            
     12600   214.75645      0              0              0              0            
     12620   203.7272       0              0              0              0            
     12640   251.56481      0              0              0              0            
     12660   191.23852      0              0              0              0            
     12680   313.3446       0              0              0              0            
     12700   206.77259      0              0              0              0            
     12720   230.58203      0              0              0              0            
     12740   233.32223      0              0              0              0            
     12760   269.95136      0              0              0              0            
     12780   326.88361      0              0              0              0            
     12800   274.06694      0              0              0              0            
     12820   312.95804      0              0              0              0            
     12840   271.54684      0              0              0              0            
     12860   304.56326      0              0              0              0            
     12880   372.6761       0              0              0              0            
     12900   344.57085      0              0              0              0            
     12920   272.73778      0              0              0              0            
     12940   296.42948      0              0              0              0            
     12960   286.69401      0              0              0              0            
     12980   393.81767      0              0              0              0            
     13000   262.6498       0              0              0              0            
     13020   366.20606      0              0              0              0            
     13040   249.8986       0              0              0              0            
     13060   315.65985      0              0              0              0            
     13080   308.64891      0              0              0              0            
     13100   276.74257      0              0              0              0            
     13120   285.33593      0              0              0              0            
     13140   270.90473      0              0              0              0            
     13160   244.975        0              0              0              0            
     13180   238.88116      0              0              0              0            
     13200   188.36181      0              0              0              0            
     13220   241.44752      0              0              0              0            
     13240   145.79063      0              0              0              0            
     13260   191.61037      0              0              0              0            
     13280   148.66971      0              0              0              0            
     13300   127.32356      0              0              0              0            
     13320   181.02455      0              0              0              0            
     13340   143.74705      0              0              0              0            
     13360   217.63697      0              0              0              0            
     13380   149.16586      0              0              0              0            
     13400   225.14377      0              0              0              0            
     13420   266.31935      0              0              0              0            
     13440   289.6057       0              0              0              0            
     13460   366.00394      0              0              0              0            
     13480   342.43498      0              0              0              0            
     13500   331.9861       0              0              0              0            
     13520   445.46671      0              0              0              0            
     13540   345.56187      0              0              0              0            
     13560   513.93377      0              0              0              0            
     13580   304.63459      0              0              0              0            
     13600   444.35757      0              0              0              0            
     13620   283.65123      0              0              0              0            
     13640   340.08074      0              0              0              0            
     13660   311.69587      0              0              0              0            
     13680   262.43575      0              0              0              0            
     13700   255.88951      0              0              0              0            
     13720   195.09169      0              0              0              0            
     13740   202.65613      0              0              0              0            
     13760   219.60269      0              0              0              0            
     13780   151.64447      0              0              0              0            
     13800   226.29985      0              0              0              0            
     13820   141.11536      0              0              0              0            
     13840   174.14311      0              0              0              0            
     13860   168.1265       0              0              0              0            
     13880   148.46337      0              0              0              0            
     13900   230.00381      0              0              0              0            
     13920   151.16794      0              0              0              0            
     13940   300.88262      0              0              0              0            
     13960   229.10697      0              0              0              0            
     13980   339.25971      0              0              0              0            
     14000   405.41902      0              0              0              0            
     14020   399.68328      0              0              0              0            
     14040   450.83374      0              0              0              0            
     14060   402.56441      0              0              0              0            
     14080   418.99454      0              0              0              0            
     14100   507.64962      0              0              0              0            
     14120   329.74701      0              0              0              0            
     14140   495.63792      0              0              0              0            
     14160   230.22999      0              0              0              0            
     14180   335.36539      0              0              0              0            
     14200   236.65055      0              0              0              0            
     14220   276.77382      0              0              0              0            
     14240   234.37166      0              0              0              0            
     14260   184.90698      0              0              0              0            
     14280   220.72988      0              0              0              0            
     14300   170.6607       0              0              0              0            
     14320   215.18953      0              0              0              0            
     14340   229.763        0              0              0              0            
     14360   192.15792      0              0              0              0            
     14380   272.65104      0              0              0              0            
     14400   212.31815      0              0              0              0            
     14420   306.29129      0              0              0              0            
     14440   390.01129      0              0              0              0            
     14460   383.71193      0              0              0              0            
     14480   612.69617      0              0              0              0            
     14500   436.40166      0              0              0              0            
     14520   632.65435      0              0              0              0            
     14540   492.55793      0              0              0              0            
     14560   552.40891      0              0              0              0            
     14580   501.7415       0              0              0              0            
     14600   407.36953      0              0              0              0            
     14620   397.38176      0              0              0              0            
     14640   345.18307      0              0              0              0            
     14660   323.4203       0              0              0              0            
     14680   417.3314       0              0              0              0            
     14700   222.96327      0              0              0              0            
     14720   348.10132      0              0              0              0            
     14740   186.49081      0              0              0              0            
     14760   302.17047      0              0              0              0            
     14780   235.42353      0              0              0              0            
     14800   243.52458      0              0              0              0            
     14820   251.06527      0              0              0              0            
     14840   191.50805      0              0              0              0            
     14860   258.15496      0              0              0              0            
     14880   235.44106      0              0              0              0            
     14900   273.5647       0              0              0              0            
     14920   294.82799      0              0              0              0            
     14940   271.67272      0              0              0              0            
     14960   372.95176      0              0              0              0            
     14980   370.63635      0              0              0              0            
     15000   465.52405      0              0              0              0            
     15020   517.02845      0              0              0              0            
     15040   486.60809      0              0              0              0            
     15060   662.18378      0              0              0              0            
     15080   423.87155      0              0              0              0            
     15100   494.48895      0              0              0              0            
     15120   374.30309      0              0              0              0            
     15140   380.42188      0              0              0              0            
     15160   292.1971       0              0              0              0            
     15180   276.54581      0              0              0              0            
     15200   220.9561       0              0              0              0            
     15220   230.66526      0              0              0              0            
     15240   181.7181       0              0              0              0            
     15260   311.81669      0              0              0              0            
     15280   205.70367      0              0              0              0            
     15300   255.05706      0              0              0              0            
     15320   197.51572      0              0              0              0            
     15340   261.39932      0              0              0              0            
     15360   305.99609      0              0              0              0            
     15380   274.81264      0              0              0              0            
     15400   338.37758      0              0              0              0            
     15420   275.54071      0              0              0              0            
     15440   351.78977      0              0              0              0            
     15460   409.63372      0              0              0              0            
     15480   389.21284      0              0              0              0            
     15500   416.4396       0              0              0              0            
     15520   377.32135      0              0              0              0            
     15540   397.70411      0              0              0              0            
     15560   396.56265      0              0              0              0            
     15580   336.9558       0              0              0              0            
     15600   383.82094      0              0              0              0            
     15620   217.10996      0              0              0              0            
     15640   263.67666      0              0              0              0            
     15660   154.20462      0              0              0              0            
     15680   201.72635      0              0              0              0            
     15700   143.18261      0              0              0              0            
     15720   198.14702      0              0              0              0            
     15740   154.74613      0              0              0              0            
     15760   149.73009      0              0              0              0            
     15780   139.41858      0              0              0              0            
     15800   237.7901       0              0              0              0            
     15820   173.41621      0              0              0              0            
     15840   269.98282      0              0              0              0            
     15860   224.67572      0              0              0              0            
     15880   312.87825      0              0              0              0            
     15900   303.80137      0              0              0              0            
     15920   338.8          0              0              0              0            
     15940   406.23573      0              0              0              0            
     15960   321.52975      0              0              0              0            
     15980   392.03437      0              0              0              0            
     16000   329.84731      0              0              0              0            
     16020   354.21851      0              0              0              0            
     16040   365.48925      0              0              0              0            
     16060   333.98682      0              0              0              0            
     16080   323.61133      0              0              0              0            
     16100   279.78901      0              0              0              0            
     16120   272.62449      0              0              0              0            
     16140   317.05771      0              0              0              0            
     16160   239.43225      0              0              0              0            
     16180   330.55967      0              0              0              0            
     16200   184.39227      0              0              0              0            
     16220   280.36172      0              0              0              0            
     16240   197.61638      0              0              0              0            
     16260   284.34182      0              0              0              0            
     16280   208.49561      0              0              0              0            
     16300   238.5563       0              0              0              0            
     16320   216.47167      0              0              0              0            
     16340   229.71445      0              0              0              0            
     16360   198.16243      0              0              0              0            
     16380   294.71483      0              0              0              0            
     16400   252.20902      0              0              0              0            
     16420   327.39715      0              0              0              0            
     16440   252.333        0              0              0              0            
     16460   346.76275      0              0              0              0            
     16480   394.29256      0              0              0              0            
     16500   410.22551      0              0              0              0            
     16520   497.41659      0              0              0              0            
     16540   342.80346      0              0              0              0            
     16560   460.51747      0              0              0              0            
     16580   404.91404      0              0              0              0            
     16600   409.81547      0              0              0              0            
     16620   372.16755      0              0              0              0            
     16640   297.83971      0              0              0              0            
     16660   256.4659       0              0              0              0            
     16680   242.60712      0              0              0              0            
     16700   205.87492      0              0              0              0            
     16720   251.41901      0              0              0              0            
     16740   142.93824      0              0              0              0            
     16760   243.70593      0              0              0              0            
     16780   131.83867      0              0              0              0            
     16800   227.34794      0              0              0              0            
     16820   160.23725      0              0              0              0            
     16840   251.89114      0              0              0              0            
     16860   234.04938      0              0              0              0            
     16880   221.82115      0              0              0              0            
     16900   263.81289      0              0              0              0            
     16920   307.77872      0              0              0              0            
     16940   290.39622      0              0              0              0            
     16960   396.08042      0              0              0              0            
     16980   290.3671       0              0              0              0            
     17000   340.09507      0              0              0              0            
     17020   299.31147      0              0              0              0            
     17040   361.03966      0              0              0              0            
     17060   359.43696      0              0              0              0            
     17080   286.71717      0              0              0              0            
     17100   359.70081      0              0              0              0            
     17120   229.60557      0              0              0              0            
     17140   341.7899       0              0              0              0            
     17160   285.60911      0              0              0              0            
     17180   321.97738      0              0              0              0            
     17200   265.71148      0              0              0              0            
     17220   229.74353      0              0              0              0            
     17240   254.55986      0              0              0              0            
     17260   285.35483      0              0              0              0            
     17280   235.53541      0              0              0              0            
     17300   300.72206      0              0              0              0            
     17320   178.87501      0              0              0              0            
     17340   288.20373      0              0              0              0            
     17360   219.05964      0              0              0              0            
     17380   333.33376      0              0              0              0            
     17400   253.89964      0              0              0              0            
     17420   300.17774      0              0              0              0            
     17440   350.20045      0              0              0              0            
     17460   344.95518      0              0              0              0            
     17480   422.60286      0              0              0              0            
     17500   461.04896      0              0              0              0            
     17520   447.06198      0              0              0              0            
     17540   495.89083      0              0              0              0            
     17560   418.66467      0              0              0              0            
     17580   462.06242      0              0              0              0            
     17600   363.10959      0              0              0              0            
     17620   341.40644      0              0              0              0            
     17640   339.37288      0              0              0              0            
     17660   207.20537      0              0              0              0            
     17680   248.3272       0              0              0              0            
     17700   150.28056      0              0              0              0            
     17720   244.34497      0              0              0              0            
     17740   174.5108       0              0              0              0            
     17760   211.82161      0              0              0              0            
     17780   185.94183      0              0              0              0            
     17800   183.65209      0              0              0              0            
     17820   206.46701      0              0              0              0            
     17840   258.61932      0              0              0              0            
     17860   227.11364      0              0              0              0            
     17880   295.41545      0              0              0              0            
     17900   202.64864      0              0              0              0            
     17920   330.0305       0              0              0              0            
     17940   281.29486      0              0              0              0            
     17960   365.77538      0              0              0              0            
     17980   319.61717      0              0              0              0            
     18000   312.66292      0              0              0              0            
     18020   322.38493      0              0              0              0            
     18040   314.28222      0              0              0              0            
     18060   350.67593      0              0              0              0            
     18080   339.90643      0              0              0              0            
     18100   331.73175      0              0              0              0            
     18120   308.80651      0              0              0              0            
     18140   261.0446       0              0              0              0            
     18160   331.99436      0              0              0              0            
     18180   325.1859       0              0              0              0            
     18200   275.90357      0              0              0              0            
     18220   318.32988      0              0              0              0            
     18240   221.18912      0              0              0              0            
     18260   326.86602      0              0              0              0            
     18280   229.15588      0              0              0              0            
     18300   333.82874      0              0              0              0            
     18320   258.83801      0              0              0              0            
     18340   259.10556      0              0              0              0            
     18360   266.19181      0              0              0              0            
     18380   278.10222      0              0              0              0            
     18400   277.60863      0              0              0              0            
     18420   324.75081      0              0              0              0            
     18440   236.68751      0              0              0              0            
     18460   346.42457      0              0              0              0            
     18480   244.95499      0              0              0              0            
     18500   401.99947      0              0              0              0            
     18520   290.7832       0              0              0              0            
     18540   350.58543      0              0              0              0            
     18560   361.98534      0              0              0              0            
     18580   310.63735      0              0              0              0            
     18600   395.0208       0              0              0              0            
     18620   333.55804      0              0              0              0            
     18640   341.6487       0              0              0              0            
     18660   319.63034      0              0              0              0            
     18680   322.00531      0              0              0              0            
     18700   325.62506      0              0              0              0            
     18720   255.12421      0              0              0              0            
     18740   230.38435      0              0              0              0            
     18760   281.51474      0              0              0              0            
     18780   201.45016      0              0              0              0            
     18800   274.93516      0              0              0              0            
     18820   136.37456      0              0              0              0            
     18840   234.97567      0              0              0              0            
     18860   151.22192      0              0              0              0            
     18880   224.46089      0              0              0              0            
     18900   222.19048      0              0              0              0            
     18920   196.30207      0              0              0              0            
     18940   208.37419      0              0              0              0            
     18960   258.15299      0              0              0              0            
     18980   320.72157      0              0              0              0            
     19000   415.29672      0              0              0              0            
     19020   342.22971      0              0              0              0            
     19040   532.49511      0              0              0              0            
     19060   356.60605      0              0              0              0            
     19080   557.06242      0              0              0              0            
     19100   480.59591      0              0              0              0            
     19120   419.49481      0              0              0              0            
     19140   442.9438       0              0              0              0            
     19160   300.06387      0              0              0              0            
     19180   346.77434      0              0              0              0            
     19200   265.82706      0              0              0              0            
     19220   317.64407      0              0              0              0            
     19240   275.42471      0              0              0              0            
     19260   209.07992      0              0              0              0            
     19280   252.00488      0              0              0              0            
     19300   248.53493      0              0              0              0            
     19320   235.75607      0              0              0              0            
     19340   301.5231       0              0              0              0            
     19360   200.61099      0              0              0              0            
     19380   314.31614      0              0              0              0            
     19400   178.91384      0              0              0              0            
     19420   341.89241      0              0              0              0            
     19440   282.05702      0              0              0              0            
     19460   310.10109      0              0              0              0            
     19480   298.84297      0              0              0              0            
     19500   290.3603       0              0              0              0            
     19520   317.3717       0              0              0              0            
     19540   339.55639      0              0              0              0            
     19560   331.65726      0              0              0              0            
     19580   382.33201      0              0              0              0            
     19600   254.57604      0              0              0              0            
     19620   382.19131      0              0              0              0            
     19640   252.10131      0              0              0              0            
     19660   345.73597      0              0              0              0            
     19680   297.82026      0              0              0              0            
     19700   212.02271      0              0              0              0            
     19720   250.94615      0              0              0              0            
     19740   147.74379      0              0              0              0            
     19760   203.55092      0              0              0              0            
     19780   148.17366      0              0              0              0            
     19800   166.13749      0              0              0              0            
     19820   166.71426      0              0              0              0            
     19840   141.55015      0              0              0              0            
     19860   151.7626       0              0              0              0            
     19880   182.431        0              0              0              0            
     19900   189.77846      0              0              0              0            
     19920   277.41804      0              0              0              0            
     19940   194.72039      0              0              0              0            
     19960   345.24438      0              0              0              0            
     19980   229.11792      0              0              0              0            
     20000   421.68349      0              0              0              0            
     20020   402.94901      0              0              0              0            
     20040   402.59616      0              0              0              0            
     20060   362.36745      0              0              0              0            
     20080   360.02794      0              0              0              0            
     20100   395.33781      0              0              0              0            
     20120   407.74262      0              0              0              0            
     20140   339.27969      0              0              0              0            
     20160   320.38611      0              0              0              0            
     20180   222.17138      0              0              0              0            
     20200   328.68465      0              0              0              0            
     20220   248.78058      0              0              0              0            
     20240   230.13643      0              0              0              0            
     20260   246.55287      0              0              0              0            
     20280   165.41538      0              0              0              0            
     20300   228.68556      0              0              0              0            
     20320   149.44108      0              0              0              0            
     20340   211.5173       0              0              0              0            
     20360   146.31358      0              0              0              0            
     20380   164.43905      0              0              0              0            
     20400   138.99511      0              0              0              0            
     20420   132.72946      0              0              0              0            
     20440   133.28872      0              0              0              0            
     20460   166.51863      0              0              0              0            
     20480   130.27398      0              0              0              0            
     20500   201.37386      0              0              0              0            
     20520   119.28063      0              0              0              0            
     20540   267.1258       0              0              0              0            
     20560   225.14579      0              0              0              0            
     20580   322.95472      0              0              0              0            
     20600   330.12374      0              0              0              0            
     20620   334.28673      0              0              0              0            
     20640   364.0119       0              0              0              0            
     20660   374.10925      0              0              0              0            
     20680   453.14345      0              0              0              0            
     20700   424.16678      0              0              0              0            
     20720   349.81712      0              0              0              0            
     20740   391.95098      0              0              0              0            
     20760   301.49339      0              0              0              0            
     20780   340.31779      0              0              0              0            
     20800   328.68002      0              0              0              0            
     20820   240.61152      0              0              0              0            
     20840   260.62643      0              0              0              0            
     20860   151.27026      0              0              0              0            
     20880   269.04682      0              0              0              0            
     20900   158.80222      0              0              0              0            
     20920   218.97311      0              0              0              0            
     20940   157.42774      0              0              0              0            
     20960   168.07642      0              0              0              0            
     20980   186.6996       0              0              0              0            
     21000   204.85186      0              0              0              0            
     21020   214.08769      0              0              0              0            
     21040   323.50757      0              0              0              0            
     21060   293.36119      0              0              0              0            
     21080   501.62666      0              0              0              0            
     21100   353.57134      0              0              0              0            
     21120   555.85457      0              0              0              0            
     21140   500.27554      0              0              0              0            
     21160   491.08709      0              0              0              0            
     21180   470.5491       0              0              0              0            
     21200   336.85774      0              0              0              0            
     21220   398.97536      0              0              0              0            
     21240   307.40034      0              0              0              0            
     21260   308.10474      0              0              0              0            
     21280   280.34619      0              0              0              0            
     21300   193.11729      0              0              0              0            
     21320   249.36048      0              0              0              0            
     21340   209.38304      0              0              0              0            
     21360   235.43061      0              0              0              0            
     21380   243.61493      0              0              0              0            
     21400   171.78081      0              0              0              0            
     21420   284.75092      0              0              0              0            
     21440   170.61007      0              0              0              0            
     21460   332.50229      0              0              0              0            
     21480   241.12541      0              0              0              0            
     21500   367.40408      0              0              0              0            
     21520   354.18391      0              0              0              0            
     21540   375.8993       0              0              0              0            
     21560   498.60941      0              0              0              0            
     21580   573.64353      0              0              0              0            
     21600   572.85556      0              0              0              0            
     21620   684.72647      0              0              0              0            
     21640   453.49161      0              0              0              0            
     21660   571.89595      0              0              0              0            
     21680   318.9185       0              0              0              0            
     21700   319.34354      0              0              0              0            
     21720   248.26266      0              0              0              0            
     21740   192.24558      0              0              0              0            
     21760   218.57733      0              0              0              0            
     21780   159.43914      0              0              0              0            
     21800   235.87346      0              0              0              0            
     21820   204.26258      0              0              0              0            
     21840   203.07861      0              0              0              0            
     21860   246.08924      0              0              0              0            
     21880   189.69439      0              0              0              0            
     21900   308.27282      0              0              0              0            
     21920   304.06808      0              0              0              0            
     21940   329.89401      0              0              0              0            
     21960   396.12106      0              0              0              0            
     21980   290.92284      0              0              0              0            
     22000   492.76898      0              0              0              0            
     22020   363.83781      0              0              0              0            
     22040   519.49363      0              0              0              0            
     22060   340.44342      0              0              0              0            
     22080   401.10935      0              0              0              0            
     22100   355.7503       0              0              0              0            
     22120   329.09809      0              0              0              0            
     22140   311.90457      0              0              0              0            
     22160   230.86948      0              0              0              0            
     22180   218.65226      0              0              0              0            
     22200   237.68934      0              0              0              0            
     22220   142.59866      0              0              0              0            
     22240   192.57325      0              0              0              0            
     22260   149.15967      0              0              0              0            
     22280   194.51625      0              0              0              0            
     22300   175.84637      0              0              0              0            
     22320   186.76441      0              0              0              0            
     22340   208.81242      0              0              0              0            
     22360   159.4902       0              0              0              0            
     22380   258.94503      0              0              0              0            
     22400   270.79904      0              0              0              0            
     22420   264.5973       0              0              0              0            
     22440   240.33967      0              0              0              0            
     22460   243.9421       0              0              0              0            
     22480   297.81629      0              0              0              0            
     22500   323.15311      0              0              0              0            
     22520   283.36862      0              0              0              0            
     22540   332.97881      0              0              0              0            
     22560   231.59276      0              0              0              0            
     22580   370.99608      0              0              0              0            
     22600   291.85234      0              0              0              0            
     22620   380.31073      0              0              0              0            
     22640   311.41119      0              0              0              0            
     22660   329.58752      0              0              0              0            
     22680   302.5344       0              0              0              0            
     22700   330.33949      0              0              0              0            
     22720   350.78877      0              0              0              0            
     22740   325.10933      0              0              0              0            
     22760   283.77988      0              0              0              0            
     22780   291.22888      0              0              0              0            
     22800   223.82082      0              0              0              0            
     22820   262.03625      0              0              0              0            
     22840   231.47341      0              0              0              0            
     22860   243.87564      0              0              0              0            
     22880   188.73271      0              0              0              0            
     22900   159.17102      0              0              0              0            
     22920   195.53765      0              0              0              0            
     22940   176.04967      0              0              0              0            
     22960   204.01732      0              0              0              0            
     22980   180.7323       0              0              0              0            
     23000   202.68631      0              0              0              0            
     23020   203.56555      0              0              0              0            
     23040   257.83723      0              0              0              0            
     23060   296.09831      0              0              0              0            
     23080   426.3368       0              0              0              0            
     23100   333.72749      0              0              0              0            
     23120   472.14014      0              0              0              0            
     23140   368.95621      0              0              0              0            
     23160   516.63612      0              0              0              0            
     23180   428.42201      0              0              0              0            
     23200   448.36968      0              0              0              0            
     23220   361.10136      0              0              0              0            
     23240   348.90936      0              0              0              0            
     23260   344.62868      0              0              0              0            
     23280   313.82541      0              0              0              0            
     23300   278.59424      0              0              0              0            
     23320   284.83983      0              0              0              0            
     23340   201.7769       0              0              0              0            
     23360   274.86545      0              0              0              0            
     23380   244.29581      0              0              0              0            
     23400   264.66472      0              0              0              0            
     23420   250.69         0              0              0              0            
     23440   241.51671      0              0              0              0            
     23460   284.46429      0              0              0              0            
     23480   213.85909      0              0              0              0            
     23500   323.56367      0              0              0              0            
     23520   270.34471      0              0              0              0            
     23540   307.92384      0              0              0              0            
     23560   272.11405      0              0              0              0            
     23580   283.75448      0              0              0              0            
     23600   284.12685      0              0              0              0            
     23620   355.0365       0              0              0              0            
     23640   321.46731      0              0              0              0            
     23660   339.73726      0              0              0              0            
     23680   223.33044      0              0              0              0            
     23700   381.45323      0              0              0              0            
     23720   267.29015      0              0              0              0            
     23740   356.4474       0              0              0              0            
     23760   293.81896      0              0              0              0            
     23780   294.31806      0              0              0              0            
     23800   294.09023      0              0              0              0            
     23820   304.13165      0              0              0              0            
     23840   324.68229      0              0              0              0            
     23860   284.54678      0              0              0              0            
     23880   246.59863      0              0              0              0            
     23900   295.15401      0              0              0              0            
     23920   211.60353      0              0              0              0            
     23940   239.75736      0              0              0              0            
     23960   198.1994       0              0              0              0            
     23980   197.08092      0              0              0              0            
     24000   180.17027      0              0              0              0            
     24020   127.57552      0              0              0              0            
     24040   213.23946      0              0              0              0            
     24060   113.89007      0              0              0              0            
     24080   217.37073      0              0              0              0            
     24100   169.17913      0              0              0              0            
     24120   209.51759      0              0              0              0            
     24140   210.3348       0              0              0              0            
     24160   247.92531      0              0              0              0            
     24180   333.02692      0              0              0              0            
     24200   348.90918      0              0              0              0            
     24220   357.74987      0              0              0              0            
     24240   429.41949      0              0              0              0            
     24260   301.2895       0              0              0              0            
     24280   487.15783      0              0              0              0            
     24300   380.49402      0              0              0              0            
     24320   490.32601      0              0              0              0            
     24340   314.27968      0              0              0              0            
     24360   318.28292      0              0              0              0            
     24380   329.13121      0              0              0              0            
     24400   283.42942      0              0              0              0            
     24420   309.82027      0              0              0              0            
     24440   209.24525      0              0              0              0            
     24460   194.73031      0              0              0              0            
     24480   196.75817      0              0              0              0            
     24500   195.43529      0              0              0              0            
     24520   203.20065      0              0              0              0            
     24540   179.32787      0              0              0              0            
     24560   173.50976      0              0              0              0            
     24580   202.73066      0              0              0              0            
     24600   171.14405      0              0              0              0            
     24620   313.09951      0              0              0              0            
     24640   260.37557      0              0              0              0            
     24660   466.05173      0              0              0              0            
     24680   400.31642      0              0              0              0            
     24700   512.43342      0              0              0              0            
     24720   512.6725       0              0              0              0            
     24740   492.51199      0              0              0              0            
     24760   541.36493      0              0              0              0            
     24780   426.53131      0              0              0              0            
     24800   320.08348      0              0              0              0            
     24820   333.13293      0              0              0              0            
     24840   256.20486      0              0              0              0            
     24860   356.36425      0              0              0              0            
     24880   218.61904      0              0              0              0            
     24900   233.33245      0              0              0              0            
     24920   173.84627      0              0              0              0            
     24940   225.21911      0              0              0              0            
     24960   251.17918      0              0              0              0            
     24980   200.28327      0              0              0              0            
     25000   244.37203      0              0              0              0            
     25020   193.10598      0              0              0              0            
     25040   230.87001      0              0              0              0            
     25060   293.66615      0              0              0              0            
     25080   342.84149      0              0              0              0            
     25100   346.81801      0              0              0              0            
     25120   399.70253      0              0              0              0            
     25140   428.05107      0              0              0              0            
     25160   553.42385      0              0              0              0            
     25180   447.55487      0              0              0              0            
     25200   594.8635       0              0              0              0            
     25220   469.44634      0              0              0              0            
     25240   446.63658      0              0              0              0            
     25260   334.22765      0              0              0              0            
     25280   309.36667      0              0              0              0            
     25300   265.29014      0              0              0              0            
     25320   211.6685       0              0              0              0            
     25340   183.11539      0              0              0              0            
     25360   208.26607      0              0              0              0            
     25380   146.68895      0              0              0              0            
     25400   247.1728       0              0              0              0            
     25420   179.17186      0              0              0              0            
     25440   266.4587       0              0              0              0            
     25460   195.98918      0              0              0              0            
     25480   244.05144      0              0              0              0            
     25500   278.66574      0              0              0              0            
     25520   280.43624      0              0              0              0            
     25540   426.56406      0              0              0              0            
     25560   324.15413      0              0              0              0            
     25580   353.29096      0              0              0              0            
     25600   386.56476      0              0              0              0            
     25620   418.75188      0              0              0              0            
     25640   460.51761      0              0              0              0            
     25660   413.89677      0              0              0              0            
     25680   387.12897      0              0              0              0            
     25700   372.01518      0              0              0              0            
     25720   242.97387      0              0              0              0            
     25740   351.76565      0              0              0              0            
     25760   235.23132      0              0              0              0            
     25780   232.08918      0              0              0              0            
     25800   161.09224      0              0              0              0            
     25820   200.6419       0              0              0              0            
     25840   173.4963       0              0              0              0            
     25860   150.66049      0              0              0              0            
     25880   177.60124      0              0              0              0            
     25900   202.73608      0              0              0              0            
     25920   145.96263      0              0              0              0            
     25940   228.33378      0              0              0              0            
     25960   162.03265      0              0              0              0            
     25980   295.76252      0              0              0              0            
     26000   219.6193       0              0              0              0            
     26020   298.03289      0              0              0              0            
     26040   263.4346       0              0              0              0            
     26060   246.8821       0              0              0              0            
     26080   345.35788      0              0              0              0            
     26100   268.1128       0              0              0              0            
     26120   357.37648      0              0              0              0            
     26140   257.77666      0              0              0              0            
     26160   302.5447       0              0              0              0            
     26180   334.70504      0              0              0              0            
     26200   291.68476      0              0              0              0            
     26220   370.38418      0              0              0              0            
     26240   307.56422      0              0              0              0            
     26260   265.91962      0              0              0              0            
     26280   350.9045       0              0              0              0            
     26300   268.25682      0              0              0              0            
     26320   361.16356      0              0              0              0            
     26340   252.29432      0              0              0              0            
     26360   343.4511       0              0              0              0            
     26380   234.59254      0              0              0              0            
     26400   268.08347      0              0              0              0            
     26420   275.83914      0              0              0              0            
     26440   258.4389       0              0              0              0            
     26460   238.52566      0              0              0              0            
     26480   228.50684      0              0              0              0            
     26500   187.31319      0              0              0              0            
     26520   264.27192      0              0              0              0            
     26540   183.9012       0              0              0              0            
     26560   266.32214      0              0              0              0            
     26580   206.97882      0              0              0              0            
     26600   252.1826       0              0              0              0            
     26620   262.72106      0              0              0              0            
     26640   251.27154      0              0              0              0            
     26660   416.27956      0              0              0              0            
     26680   313.44211      0              0              0              0            
     26700   438.55674      0              0              0              0            
     26720   405.28545      0              0              0              0            
     26740   465.98737      0              0              0              0            
     26760   484.65395      0              0              0              0            
     26780   482.6316       0              0              0              0            
     26800   473.86394      0              0              0              0            
     26820   345.28653      0              0              0              0            
     26840   299.90231      0              0              0              0            
     26860   356.0613       0              0              0              0            
     26880   217.41356      0              0              0              0            
     26900   276.53989      0              0              0              0            
     26920   148.60857      0              0              0              0            
     26940   216.01439      0              0              0              0            
     26960   159.04556      0              0              0              0            
     26980   222.26929      0              0              0              0            
     27000   209.14462      0              0              0              0            
     27020   197.00807      0              0              0              0            
     27040   201.09731      0              0              0              0            
     27060   235.5679       0              0              0              0            
     27080   227.37395      0              0              0              0            
     27100   265.6322       0              0              0              0            
     27120   270.76768      0              0              0              0            
     27140   342.62123      0              0              0              0            
     27160   256.36523      0              0              0              0            
     27180   309.23325      0              0              0              0            
     27200   371.48321      0              0              0              0            
     27220   318.23759      0              0              0              0            
     27240   437.5434       0              0              0              0            
     27260   334.04702      0              0              0              0            
     27280   393.84796      0              0              0              0            
     27300   283.34255      0              0              0              0            
     27320   378.62793      0              0              0              0            
     27340   371.58114      0              0              0              0            
     27360   277.82083      0              0              0              0            
     27380   208.16002      0              0              0              0            
     27400   214.70041      0              0              0              0            
     27420   145.57847      0              0              0              0            
     27440   182.68704      0              0              0              0            
     27460   132.14945      0              0              0              0            
     27480   165.87777      0              0              0              0            
     27500   72.623647      0              0              0              0            
     27520   159.2957       0              0              0              0            
     27540   145.99282      0              0              0              0            
     27560   159.3341       0              0              0              0            
     27580   182.58719      0              0              0              0            
     27600   201.31537      0              0              0              0            
     27620   199.47436      0              0              0              0            
     27640   232.6528       0              0              0              0            
     27660   283.23749      0              0              0              0            
     27680   323.36726      0              0              0              0            
     27700   274.39182      0              0              0              0            
     27720   316.63081      0              0              0              0            
     27740   312.27486      0              0              0              0            
     27760   326.10971      0              0              0              0            
     27780   348.10381      0              0              0              0            
     27800   338.81379      0              0              0              0            
     27820   384.66385      0              0              0              0            
     27840   252.25639      0              0              0              0            
     27860   343.09794      0              0              0              0            
     27880   308.73237      0              0              0              0            
     27900   338.71483      0              0              0              0            
     27920   292.33168      0              0              0              0            
     27940   291.38838      0              0              0              0            
     27960   196.3734       0              0              0              0            
     27980   251.01954      0              0              0              0            
     28000   203.60688      0              0              0              0            
     28020   247.74572      0              0              0              0            
     28040   140.36799      0              0              0              0            
     28060   171.58458      0              0              0              0            
     28080   109.8766       0              0              0              0            
     28100   157.95387      0              0              0              0            
     28120   164.08375      0              0              0              0            
     28140   138.15026      0              0              0              0            
     28160   130.79113      0              0              0              0            
     28180   144.94791      0              0              0              0            
     28200   175.89681      0              0              0              0            
     28220   253.43353      0              0              0              0            
     28240   246.17415      0              0              0              0            
     28260   344.43288      0              0              0              0            
     28280   302.63458      0              0              0              0            
     28300   382.19427      0              0              0              0            
     28320   376.39323      0              0              0              0            
     28340   367.04177      0              0              0              0            
     28360   458.6058       0              0              0              0            
     28380   331.87777      0              0              0              0            
     28400   395.78073      0              0              0              0            
     28420   277.93595      0              0              0              0            
     28440   367.88366      0              0              0              0            
     28460   283.61113      0              0              0              0            
     28480   314.61372      0              0              0              0            
     28500   252.43378      0              0              0              0            
     28520   238.24647      0              0              0              0            
     28540   179.50288      0              0              0              0            
     28560   256.61875      0              0              0              0            
     28580   201.32366      0              0              0              0            
     28600   225.35006      0              0              0              0            
     28620   141.83621      0              0              0              0            
     28640   224.23446      0              0              0              0            
     28660   177.69076      0              0              0              0            
     28680   189.46932      0              0              0              0            
     28700   271.41332      0              0              0              0            
     28720   275.19701      0              0              0              0            
     28740   286.25994      0              0              0              0            
     28760   331.17398      0              0              0              0            
     28780   391.6376       0              0              0              0            
     28800   518.18356      0              0              0              0            
     28820   430.99282      0              0              0              0            
     28840   526.99975      0              0              0              0            
     28860   437.19547      0              0              0              0            
     28880   386.49959      0              0              0              0            
     28900   439.06855      0              0              0              0            
     28920   342.97507      0              0              0              0            
     28940   371.69174      0              0              0              0            
     28960   197.26533      0              0              0              0            
     28980   315.95586      0              0              0              0            
     29000   182.72611      0              0              0              0            
     29020   244.61832      0              0              0              0            
     29040   244.68921      0              0              0              0            
     29060   233.39699      0              0              0              0            
     29080   174.42915      0              0              0              0            
     29100   236.28216      0              0              0              0            
     29120   223.392        0              0              0              0            
     29140   277.96505      0              0              0              0            
     29160   238.23315      0              0              0              0            
     29180   329.66079      0              0              0              0            
     29200   207.35138      0              0              0              0            
     29220   314.11028      0              0              0              0            
     29240   346.69211      0              0              0              0            
     29260   371.34065      0              0              0              0            
     29280   322.38188      0              0              0              0            
     29300   282.43952      0              0              0              0            
     29320   375.23389      0              0              0              0            
     29340   357.31129      0              0              0              0            
     29360   331.4036       0              0              0              0            
     29380   336.93033      0              0              0              0            
     29400   316.43032      0              0              0              0            
     29420   302.97952      0              0              0              0            
     29440   347.28252      0              0              0              0            
     29460   288.51238      0              0              0              0            
     29480   338.82231      0              0              0              0            
     29500   220.09814      0              0              0              0            
     29520   369.28736      0              0              0              0            
     29540   232.49378      0              0              0              0            
     29560   303.26586      0              0              0              0            
     29580   248.71372      0              0              0              0            
     29600   294.23952      0              0              0              0            
     29620   258.97292      0              0              0              0            
     29640   275.10899      0              0              0              0            
     29660   252.70938      0              0              0              0            
     29680   269.67374      0              0              0              0            
     29700   265.05373      0              0              0              0            
     29720   320.65941      0              0              0              0            
     29740   262.51041      0              0              0              0            
     29760   338.62443      0              0              0              0            
     29780   316.49774      0              0              0              0            
     29800   364.11773      0              0              0              0            
     29820   387.8485       0              0              0              0            
     29840   433.49036      0              0              0              0            
     29860   462.48786      0              0              0              0            
     29880   392.85373      0              0              0              0            
     29900   424.84875      0              0              0              0            
     29920   363.36697      0              0              0              0            
     29940   440.39539      0              0              0              0            
     29960   324.02777      0              0              0              0            
     29980   299.69406      0              0              0              0            
     30000   215.30648      0              0              0              0            
     30020   262.20044      0              0              0              0            
     30040   173.02768      0              0              0              0            
     30060   249.37666      0              0              0              0            
     30080   156.36406      0              0              0              0            
     30100   211.4244       0              0              0              0            
     30120   130.56052      0              0              0              0            
     30140   212.73039      0              0              0              0            
     30160   212.91967      0              0              0              0            
     30180   235.92082      0              0              0              0            
     30200   227.72041      0              0              0              0            
     30220   262.60931      0              0              0              0            
     30240   282.19406      0              0              0              0            
     30260   337.23353      0              0              0              0            
     30280   394.3166       0              0              0              0            
     30300   474.0477       0              0              0              0            
     30320   348.97886      0              0              0              0            
     30340   393.92355      0              0              0              0            
     30360   430.90757      0              0              0              0            
     30380   397.71439      0              0              0              0            
     30400   419.65995      0              0              0              0            
     30420   315.37248      0              0              0              0            
     30440   377.6335       0              0              0              0            
     30460   255.15587      0              0              0              0            
     30480   360.52617      0              0              0              0            
     30500   288.07681      0              0              0              0            
     30520   291.87248      0              0              0              0            
     30540   224.1165       0              0              0              0            
     30560   279.97847      0              0              0              0            
     30580   227.24068      0              0              0              0            
     30600   240.80437      0              0              0              0            
     30620   210.66714      0              0              0              0            
     30640   295.23034      0              0              0              0            
     30660   162.51357      0              0              0              0            
     30680   267.94048      0              0              0              0            
     30700   233.3205       0              0              0              0            
     30720   278.10218      0              0              0              0            
     30740   292.67221      0              0              0              0            
     30760   403.01019      0              0              0              0            
     30780   389.36978      0              0              0              0            
     30800   393.18888      0              0              0              0            
     30820   527.17221      0              0              0              0            
     30840   585.12908      0              0              0              0            
     30860   506.92271      0              0              0              0            
     30880   500.39916      0              0              0              0            
     30900   432.38643      0              0              0              0            
     30920   365.83374      0              0              0              0            
     30940   362.40593      0              0              0              0            
     30960   301.188        0              0              0              0            
     30980   315.91003      0              0              0              0            
     31000   167.01426      0              0              0              0            
     31020   267.65205      0              0              0              0            
     31040   211.67018      0              0              0              0            
     31060   265.50231      0              0              0              0            
     31080   223.41862      0              0              0              0            
     31100   268.93534      0              0              0              0            
     31120   210.2992       0              0              0              0            
     31140   228.9473       0              0              0              0            
     31160   287.42319      0              0              0              0            
     31180   343.83114      0              0              0              0            
     31200   256.72147      0              0              0              0            
     31220   355.66242      0              0              0              0            
     31240   264.77246      0              0              0              0            
     31260   379.36494      0              0              0              0            
     31280   342.62975      0              0              0              0            
     31300   473.08255      0              0              0              0            
     31320   403.91075      0              0              0              0            
     31340   344.71626      0              0              0              0            
     31360   386.69266      0              0              0              0            
     31380   404.88288      0              0              0              0            
     31400   397.60819      0              0              0              0            
     31420   326.34959      0              0              0              0            
     31440   273.53196      0              0              0              0            
     31460   219.589        0              0              0              0            
     31480   199.67835      0              0              0              0            
     31500   187.263        0              0              0              0            
     31520   227.37472      0              0              0              0            
     31540   157.76167      0              0              0              0            
     31560   183.95394      0              0              0              0            
     31580   118.13747      0              0              0              0            
     31600   193.66341      0              0              0              0            
     31620   189.10471      0              0              0              0            
     31640   253.07925      0              0              0              0            
     31660   223.09519      0              0              0              0            
     31680   260.80114      0              0              0              0            
     31700   257.14827      0              0              0              0            
     31720   374.66653      0              0              0              0            
     31740   381.85066      0              0              0              0            
     31760   477.5964       0              0              0              0            
     31780   326.77709      0              0              0              0            
     31800   445.12207      0              0              0              0            
     31820   323.70617      0              0              0              0            
     31840   438.6384       0              0              0              0            
     31860   372.52168      0              0              0              0            
     31880   355.94876      0              0              0              0            
     31900   318.01138      0              0              0              0            
     31920   274.09076      0              0              0              0            
     31940   321.09317      0              0              0              0            
     31960   268.60455      0              0              0              0            
     31980   306.42405      0              0              0              0            
     32000   282.7164       0              0              0              0            
     32020   227.25689      0              0              0              0            
     32040   222.52302      0              0              0              0            
     32060   294.50142      0              0              0              0            
     32080   274.74922      0              0              0              0            
     32100   295.95391      0              0              0              0            
     32120   207.05695      0              0              0              0            
     32140   333.95317      0              0              0              0            
     32160   253.30214      0              0              0              0            
     32180   399.35782      0              0              0              0            
     32200   437.09738      0              0              0              0            
     32220   584.11787      0              0              0              0            
     32240   505.85953      0              0              0              0            
     32260   667.73607      0              0              0              0            
     32280   682.88212      0              0              0              0            
     32300   654.76583      0              0              0              0            
     32320   458.589        0              0              0              0            
     32340   516.14055      0              0              0              0            
     32360   311.72831      0              0              0              0            
     32380   346.79807      0              0              0              0            
     32400   283.88456      0              0              0              0            
     32420   298.45596      0              0              0              0            
     32440   271.25505      0              0              0              0            
     32460   220.75947      0              0              0              0            
     32480   284.74239      0              0              0              0            
     32500   203.57986      0              0              0              0            
     32520   276.84924      0              0              0              0            
     32540   247.36329      0              0              0              0            
     32560   264.17856      0              0              0              0            
     32580   225.72313      0              0              0              0            
     32600   281.79499      0              0              0              0            
     32620   294.73146      0              0              0              0            
     32640   338.74267      0              0              0              0            
     32660   309.72797      0              0              0              0            
     32680   468.7918       0              0              0              0            
     32700   323.84265      0              0              0              0            
     32720   463.75687      0              0              0              0            
     32740   443.66641      0              0              0              0            
     32760   627.94972      0              0              0              0            
     32780   449.77651      0              0              0              0            
     32800   430.75346      0              0              0              0            
     32820   388.97169      0              0              0              0            
     32840   359.96509      0              0              0              0            
     32860   255.88789      0              0              0              0            
     32880   296.45993      0              0              0              0            
     32900   186.13129      0              0              0              0            
     32920   178.28259      0              0              0              0            
     32940   163.93615      0              0              0              0            
     32960   216.05397      0              0              0              0            
     32980   204.74388      0              0              0              0            
     33000   157.83038      0              0              0              0            
     33020   228.68249      0              0              0              0            
     33040   176.62299      0              0              0              0            
     33060   273.53696      0              0              0              0            
     33080   236.42154      0              0              0              0            
     33100   334.19682      0              0              0              0            
     33120   300.62413      0              0              0              0            
     33140   333.30656      0              0              0              0            
     33160   365.00568      0              0              0              0            
     33180   394.10489      0              0              0              0            
     33200   363.14982      0              0              0              0            
     33220   465.92488      0              0              0              0            
     33240   309.35696      0              0              0              0            
     33260   410.50083      0              0              0              0            
     33280   289.66329      0              0              0              0            
     33300   417.05755      0              0              0              0            
     33320   288.13773      0              0              0              0            
     33340   312.75351      0              0              0              0            
     33360   282.90376      0              0              0              0            
     33380   277.13742      0              0              0              0            
     33400   264.3568       0              0              0              0            
     33420   283.25589      0              0              0              0            
     33440   267.82389      0              0              0              0            
     33460   298.18583      0              0              0              0            
     33480   237.08437      0              0              0              0            
     33500   303.33472      0              0              0              0            
     33520   287.01823      0              0              0              0            
     33540   253.39155      0              0              0              0            
     33560   322.19473      0              0              0              0            
     33580   288.31828      0              0              0              0            
     33600   333.23243      0              0              0              0            
     33620   230.43375      0              0              0              0            
     33640   366.74522      0              0              0              0            
     33660   300.55321      0              0              0              0            
     33680   355.59303      0              0              0              0            
     33700   317.46226      0              0              0              0            
     33720   362.22704      0              0              0              0            
     33740   307.88317      0              0              0              0            
     33760   350.84025      0              0              0              0            
     33780   303.5375       0              0              0              0            
     33800   422.1344       0              0              0              0            
     33820   251.78781      0              0              0              0            
     33840   333.65257      0              0              0              0            
     33860   255.79742      0              0              0              0            
     33880   307.03393      0              0              0              0            
     33900   239.96243      0              0              0              0            
     33920   260.28024      0              0              0              0            
     33940   209.72739      0              0              0              0            
     33960   156.07208      0              0              0              0            
     33980   227.00434      0              0              0              0            
     34000   233.86286      0              0              0              0            
     34020   193.29032      0              0              0              0            
     34040   184.92541      0              0              0              0            
     34060   205.30368      0              0              0              0            
     34080   224.5868       0              0              0              0            
     34100   269.73359      0              0              0              0            
     34120   302.96588      0              0              0              0            
     34140   383.95222      0              0              0              0            
     34160   278.21817      0              0              0              0            
     34180   463.57866      0              0              0              0            
     34200   460.20585      0              0              0              0            
     34220   519.26039      0              0              0              0            
     34240   432.53394      0              0              0              0            
     34260   514.51005      0              0              0              0            
     34280   383.50189      0              0              0              0            
     34300   375.29579      0              0              0              0            
     34320   328.42286      0              0              0              0            
     34340   382.0289       0              0              0              0            
     34360   246.99654      0              0              0              0            
     34380   284.87999      0              0              0              0            
     34400   241.50582      0              0              0              0            
     34420   293.49939      0              0              0              0            
     34440   240.70058      0              0              0              0            
     34460   280.98303      0              0              0              0            
     34480   270.03705      0              0              0              0            
     34500   225.57941      0              0              0              0            
     34520   267.02963      0              0              0              0            
     34540   285.43202      0              0              0              0            
     34560   295.00894      0              0              0              0            
     34580   280.26721      0              0              0              0            
     34600   316.54684      0              0              0              0            
     34620   307.20988      0              0              0              0            
     34640   311.348        0              0              0              0            
     34660   327.47267      0              0              0              0            
     34680   401.29689      0              0              0              0            
     34700   299.77659      0              0              0              0            
     34720   404.62141      0              0              0              0            
     34740   327.20786      0              0              0              0            
     34760   434.07191      0              0              0              0            
     34780   313.48602      0              0              0              0            
     34800   451.12673      0              0              0              0            
     34820   378.27064      0              0              0              0            
     34840   354.43105      0              0              0              0            
     34860   280.4206       0              0              0              0            
     34880   312.51749      0              0              0              0            
     34900   257.63653      0              0              0              0            
     34920   264.10313      0              0              0              0            
     34940   225.44282      0              0              0              0            
     34960   234.33995      0              0              0              0            
     34980   156.38085      0              0              0              0            
     35000   187.4657       0              0              0              0            
     35020   218.95555      0              0              0              0            
     35040   222.71559      0              0              0              0            
     35060   185.31855      0              0              0              0            
     35080   174.77885      0              0              0              0            
     35100   251.06281      0              0              0              0            
     35120   237.07246      0              0              0              0            
     35140   335.17745      0              0              0              0            
     35160   394.48452      0              0              0              0            
     35180   403.97278      0              0              0              0            
     35200   373.472        0              0              0              0            
     35220   496.90409      0              0              0              0            
     35240   482.62712      0              0              0              0            
     35260   505.99763      0              0              0              0            
     35280   353.98923      0              0              0              0            
     35300   447.42874      0              0              0              0            
     35320   296.79607      0              0              0              0            
     35340   406.22395      0              0              0              0            
     35360   302.16062      0              0              0              0            
     35380   353.48007      0              0              0              0            
     35400   241.09279      0              0              0              0            
     35420   278.16828      0              0              0              0            
     35440   294.7596       0              0              0              0            
     35460   273.58802      0              0              0              0            
     35480   266.34396      0              0              0              0            
     35500   314.2545       0              0              0              0            
     35520   248.71819      0              0              0              0            
     35540   250.09779      0              0              0              0            
     35560   289.64099      0              0              0              0            
     35580   334.51999      0              0              0              0            
     35600   285.41657      0              0              0              0            
     35620   276.39722      0              0              0              0            
     35640   345.46379      0              0              0              0            
     35660   266.69331      0              0              0              0            
     35680   350.02152      0              0              0              0            
     35700   388.17426      0              0              0              0            
     35720   473.82715      0              0              0              0            
     35740   352.41628      0              0              0              0            
     35760   480.54424      0              0              0              0            
     35780   506.29803      0              0              0              0            
     35800   571.6499       0              0              0              0            
     35820   440.49106      0              0              0              0            
     35840   534.78103      0              0              0              0            
     35860   362.55493      0              0              0              0            
     35880   413.25979      0              0              0              0            
     35900   259.97284      0              0              0              0            
     35920   333.90002      0              0              0              0            
     35940   201.06757      0              0              0              0            
     35960   216.74524      0              0              0              0            
     35980   214.18081      0              0              0              0            
     36000   199.69466      0              0              0              0            
     36020   198.66782      0              0              0              0            
     36040   232.55957      0              0              0              0            
     36060   226.35882      0              0              0              0            
     36080   198.01944      0              0              0              0            
     36100   225.25347      0              0              0              0            
     36120   295.13631      0              0              0              0            
     36140   303.13149      0              0              0              0            
     36160   317.41146      0              0              0              0            
     36180   389.76515      0              0              0              0            
     36200   342.07532      0              0              0              0            
     36220   429.63242      0              0              0              0            
     36240   431.6772       0              0              0              0            
     36260   575.08357      0              0              0              0            
     36280   380.93463      0              0              0              0            
     36300   406.5231       0              0              0              0            
     36320   355.6477       0              0              0              0            
     36340   351.72407      0              0              0              0            
     36360   195.43976      0              0              0              0            
     36380   230.49803      0              0              0              0            
     36400   151.94067      0              0              0              0            
     36420   152.89922      0              0              0              0            
     36440   110.30977      0              0              0              0            
     36460   194.98766      0              0              0              0            
     36480   153.84326      0              0              0              0            
     36500   168.15346      0              0              0              0            
     36520   156.28856      0              0              0              0            
     36540   193.00019      0              0              0              0            
     36560   218.0294       0              0              0              0            
     36580   243.8753       0              0              0              0            
     36600   302.17597      0              0              0              0            
     36620   318.09612      0              0              0              0            
     36640   292.00818      0              0              0              0            
     36660   391.02062      0              0              0              0            
     36680   417.57004      0              0              0              0            
     36700   361.16462      0              0              0              0            
     36720   410.01438      0              0              0              0            
     36740   382.99664      0              0              0              0            
     36760   374.32327      0              0              0              0            
     36780   304.68602      0              0              0              0            
     36800   413.34296      0              0              0              0            
     36820   295.43405      0              0              0              0            
     36840   298.54893      0              0              0              0            
     36860   205.95694      0              0              0              0            
     36880   230.99873      0              0              0              0            
     36900   168.39183      0              0              0              0            
     36920   202.5396       0              0              0              0            
     36940   176.08391      0              0              0              0            
     36960   169.5288       0              0              0              0            
     36980   89.434472      0              0              0              0            
     37000   174.38574      0              0              0              0            
     37020   181.47884      0              0              0              0            
     37040   187.02586      0              0              0              0            
     37060   166.71679      0              0              0              0            
     37080   262.25186      0              0              0              0            
     37100   281.16583      0              0              0              0            
     37120   341.39436      0              0              0              0            
     37140   449.12562      0              0              0              0            
     37160   487.79607      0              0              0              0            
     37180   423.25825      0              0              0              0            
     37200   429.75578      0              0              0              0            
     37220   471.3858       0              0              0              0            
     37240   418.2298       0              0              0              0            
     37260   335.74603      0              0              0              0            
     37280   334.25041      0              0              0              0            
     37300   312.47047      0              0              0              0            
     37320   191.10881      0              0              0              0            
     37340   285.01295      0              0              0              0            
     37360   236.02136      0              0              0              0            
     37380   244.25036      0              0              0              0            
     37400   151.55499      0              0              0              0            
     37420   232.81032      0              0              0              0            
     37440   182.16471      0              0              0              0            
     37460   210.55365      0              0              0              0            
     37480   227.85914      0              0              0              0            
     37500   272.64234      0              0              0              0            
     37520   221.28256      0              0              0              0            
     37540   307.15681      0              0              0              0            
     37560   364.70981      0              0              0              0            
     37580   475.07649      0              0              0              0            
     37600   422.93784      0              0              0              0            
     37620   570.87494      0              0              0              0            
     37640   529.49336      0              0              0              0            
     37660   450.70433      0              0              0              0            
     37680   465.03125      0              0              0              0            
     37700   465.6757       0              0              0              0            
     37720   415.61982      0              0              0              0            
     37740   311.45267      0              0              0              0            
     37760   398.70462      0              0              0              0            
     37780   337.13906      0              0              0              0            
     37800   289.99511      0              0              0              0            
     37820   296.80326      0              0              0              0            
     37840   340.29407      0              0              0              0            
     37860   225.7059       0              0              0              0            
     37880   273.90338      0              0              0              0            
     37900   260.88509      0              0              0              0            
     37920   313.10803      0              0              0              0            
     37940   217.33329      0              0              0              0            
     37960   333.6511       0              0              0              0            
     37980   255.44545      0              0              0              0            
     38000   264.90875      0              0              0              0            
     38020   254.82391      0              0              0              0            
     38040   339.86504      0              0              0              0            
     38060   304.1418       0              0              0              0            
     38080   327.00439      0              0              0              0            
     38100   351.7878       0              0              0              0            
     38120   425.09604      0              0              0              0            
     38140   428.63912      0              0              0              0            
     38160   557.31817      0              0              0              0            
     38180   547.68402      0              0              0              0            
     38200   458.30525      0              0              0              0            
     38220   415.19693      0              0              0              0            
     38240   421.86149      0              0              0              0            
     38260   428.83585      0              0              0              0            
     38280   268.33509      0              0              0              0            
     38300   294.78197      0              0              0              0            
     38320   206.20983      0              0              0              0            
     38340   244.33408      0              0              0              0            
     38360   192.32983      0              0              0              0            
     38380   248.10919      0              0              0              0            
     38400   184.8021       0              0              0              0            
     38420   187.98336      0              0              0              0            
     38440   169.67452      0              0              0              0            
     38460   273.76514      0              0              0              0            
     38480   215.98668      0              0              0              0            
     38500   263.80743      0              0              0              0            
     38520   255.61025      0              0              0              0            
     38540   345.76528      0              0              0              0            
     38560   296.30828      0              0              0              0            
     38580   346.73101      0              0              0              0            
     38600   402.06363      0              0              0              0            
     38620   347.59041      0              0              0              0            
     38640   335.40467      0              0              0              0            
     38660   391.69288      0              0              0              0            
     38680   392.09356      0              0              0              0            
     38700   350.77151      0              0              0              0            
     38720   359.66878      0              0              0              0            
     38740   342.08432      0              0              0              0            
     38760   295.93565      0              0              0              0            
     38780   269.82079      0              0              0              0            
     38800   346.89531      0              0              0              0            
     38820   253.88241      0              0              0              0            
     38840   258.96405      0              0              0              0            
     38860   224.38446      0              0              0              0            
     38880   335.31995      0              0              0              0            
     38900   237.25847      0              0              0              0            
     38920   327.16989      0              0              0              0            
     38940   264.45486      0              0              0              0            
     38960   289.70053      0              0              0              0            
     38980   259.24621      0              0              0              0            
     39000   349.45904      0              0              0              0            
     39020   296.14078      0              0              0              0            
     39040   274.47303      0              0              0              0            
     39060   266.07022      0              0              0              0            
     39080   383.37315      0              0              0              0            
     39100   313.40996      0              0              0              0            
     39120   350.07037      0              0              0              0            
     39140   368.24104      0              0              0              0            
     39160   355.90053      0              0              0              0            
     39180   287.40296      0              0              0              0            
     39200   328.11245      0              0              0              0            
     39220   377.58146      0              0              0              0            
     39240   261.62262      0              0              0              0            
     39260   286.25276      0              0              0              0            
     39280   273.36448      0              0              0              0            
     39300   284.12338      0              0              0              0            
     39320   218.01644      0              0              0              0            
     39340   251.00336      0              0              0              0            
     39360   198.2439       0              0              0              0            
     39380   186.68963      0              0              0              0            
     39400   148.67659      0              0              0              0            
     39420   236.35576      0              0              0              0            
     39440   140.46203      0              0              0              0            
     39460   186.89008      0              0              0              0            
     39480   160.89425      0              0              0              0            
     39500   268.78898      0              0              0              0            
     39520   213.92774      0              0              0              0            
     39540   304.5406       0              0              0              0            
     39560   348.12158      0              0              0              0            
     39580   360.14548      0              0              0              0            
     39600   406.34613      0              0              0              0            
     39620   480.134        0              0              0              0            
     39640   461.86638      0              0              0              0            
     39660   442.28629      0              0              0              0            
     39680   411.23848      0              0              0              0            
     39700   455.23176      0              0              0              0            
     39720   371.27204      0              0              0              0            
     39740   323.7119       0              0              0              0            
     39760   376.1177       0              0              0              0            
     39780   236.17699      0              0              0              0            
     39800   257.38657      0              0              0              0            
     39820   224.06529      0              0              0              0            
     39840   316.46964      0              0              0              0            
     39860   214.75287      0              0              0              0            
     39880   250.48851      0              0              0              0            
     39900   230.68606      0              0              0              0            
     39920   281.18292      0              0              0              0            
     39940   244.74292      0              0              0              0            
     39960   318.22235      0              0              0              0            
     39980   240.79127      0              0              0              0            
     40000   276.28195      0              0              0              0            
     40020   210.67567      0              0              0              0            
     40040   379.54595      0              0              0              0            
     40060   306.04049      0              0              0              0            
     40080   295.38229      0              0              0              0            
     40100   298.48694      0              0              0              0            
     40120   336.18638      0              0              0              0            
     40140   333.72629      0              0              0              0            
     40160   306.25988      0              0              0              0            
     40180   341.05805      0              0              0              0            
     40200   287.35307      0              0              0              0            
     40220   267.74582      0              0              0              0            
     40240   323.03163      0              0              0              0            
     40260   349.31694      0              0              0              0            
     40280   282.23744      0              0              0              0            
     40300   317.28603      0              0              0              0            
     40320   286.33788      0              0              0              0            
     40340   349.01958      0              0              0              0            
     40360   224.23743      0              0              0              0            
     40380   361.00646      0              0              0              0            
     40400   265.73519      0              0              0              0            
     40420   273.35375      0              0              0              0            
     40440   256.74674      0              0              0              0            
     40460   358.38257      0              0              0              0            
     40480   287.34699      0              0              0              0            
     40500   306.28496      0              0              0              0            
     40520   286.95511      0              0              0              0            
     40540   328.37298      0              0              0              0            
     40560   249.12251      0              0              0              0            
     40580   345.23012      0              0              0              0            
     40600   314.63491      0              0              0              0            
     40620   299.99586      0              0              0              0            
     40640   279.17999      0              0              0              0            
     40660   368.8512       0              0              0              0            
     40680   388.28277      0              0              0              0            
     40700   327.25627      0              0              0              0            
     40720   379.49245      0              0              0              0            
     40740   318.38936      0              0              0              0            
     40760   328.90359      0              0              0              0            
     40780   310.86953      0              0              0              0            
     40800   366.60037      0              0              0              0            
     40820   276.44379      0              0              0              0            
     40840   257.43689      0              0              0              0            
     40860   249.67712      0              0              0              0            
     40880   321.3754       0              0              0              0            
     40900   226.57931      0              0              0              0            
     40920   273.86997      0              0              0              0            
     40940   190.19944      0              0              0              0            
     40960   240.39994      0              0              0              0            
     40980   169.90621      0              0              0              0            
     41000   268.52339      0              0              0              0            
     41020   226.37558      0              0              0              0            
     41040   219.86504      0              0              0              0            
     41060   232.31         0              0              0              0            
     41080   326.09212      0              0              0              0            
     41100   349.95566      0              0              0              0            
     41120   390.23376      0              0              0              0            
     41140   412.18231      0              0              0              0            
     41160   456.14602      0              0              0              0            
     41180   429.83938      0              0              0              0            
     41200   515.84621      0              0              0              0            
     41220   524.98866      0              0              0              0            
     41240   426.56725      0              0              0              0            
     41260   401.8952       0              0              0              0            
     41280   317.94395      0              0              0              0            
     41300   382.62857      0              0              0              0            
     41320   210.40861      0              0              0              0            
     41340   267.23548      0              0              0              0            
     41360   187.30701      0              0              0              0            
     41380   209.42648      0              0              0              0            
     41400   173.91075      0              0              0              0            
     41420   240.80807      0              0              0              0            
     41440   215.217        0              0              0              0            
     41460   229.78538      0              0              0              0            
     41480   195.62217      0              0              0              0            
     41500   314.74543      0              0              0              0            
     41520   217.79656      0              0              0              0            
     41540   315.76664      0              0              0              0            
     41560   290.32076      0              0              0              0            
     41580   325.37189      0              0              0              0            
     41600   273.37028      0              0              0              0            
     41620   364.81237      0              0              0              0            
     41640   454.20679      0              0              0              0            
     41660   364.41781      0              0              0              0            
     41680   375.34158      0              0              0              0            
     41700   400.58189      0              0              0              0            
     41720   405.96965      0              0              0              0            
     41740   338.42727      0              0              0              0            
     41760   343.56216      0              0              0              0            
     41780   247.87584      0              0              0              0            
     41800   198.06972      0              0              0              0            
     41820   157.52761      0              0              0              0            
     41840   239.45608      0              0              0              0            
     41860   132.64327      0              0              0              0            
     41880   156.03888      0              0              0              0            
     41900   121.97457      0              0              0              0            
     41920   194.82399      0              0              0              0            
     41940   130.78128      0              0              0              0            
     41960   188.33284      0              0              0              0            
     41980   180.94856      0              0              0              0            
     42000   195.23577      0              0              0              0            
     42020   190.61139      0              0              0              0            
     42040   318.56734      0              0              0              0            
     42060   282.10852      0              0              0              0            
     42080   320.89431      0              0              0              0            
     42100   291.38063      0              0              0              0            
     42120   372.02537      0              0              0              0            
     42140   313.02962      0              0              0              0            
     42160   319.90487      0              0              0              0            
     42180   378.96617      0              0              0              0            
     42200   311.73903      0              0              0              0            
     42220   297.31962      0              0              0              0            
     42240   317.69679      0              0              0              0            
     42260   379.74943      0              0              0              0            
     42280   283.33788      0              0              0              0            
     42300   312.97258      0              0              0              0            
     42320   270.37348      0              0              0              0            
     42340   282.52767      0              0              0              0            
     42360   210.98858      0              0              0              0            
     42380   272.45134      0              0              0              0            
     42400   190.20315      0              0              0              0            
     42420   189.19302      0              0              0              0            
     42440   150.90472      0              0              0              0            
     42460   212.93114      0              0              0              0            
     42480   133.38981      0              0              0              0            
     42500   144.8972       0              0              0              0            
     42520   115.75638      0              0              0              0            
     42540   149.37465      0              0              0              0            
     42560   103.82394      0              0              0              0            
     42580   153.76578      0              0              0              0            
     42600   166.68934      0              0              0              0            
     42620   185.37781      0              0              0              0            
     42640   190.02341      0              0              0              0            
     42660   300.70796      0              0              0              0            
     42680   328.16915      0              0              0              0            
     42700   338.77558      0              0              0              0            
     42720   337.26482      0              0              0              0            
     42740   347.94891      0              0              0              0            
     42760   377.08015      0              0              0              0            
     42780   332.27751      0              0              0              0            
     42800   454.61393      0              0              0              0            
     42820   315.45957      0              0              0              0            
     42840   334.76121      0              0              0              0            
     42860   303.77783      0              0              0              0            
     42880   400.41468      0              0              0              0            
     42900   266.24558      0              0              0              0            
     42920   261.67322      0              0              0              0            
     42940   216.01318      0              0              0              0            
     42960   236.02125      0              0              0              0            
     42980   178.52599      0              0              0              0            
     43000   239.60146      0              0              0              0            
     43020   173.87778      0              0              0              0            
     43040   190.41875      0              0              0              0            
     43060   139.74461      0              0              0              0            
     43080   231.60985      0              0              0              0            
     43100   188.29548      0              0              0              0            
     43120   162.44324      0              0              0              0            
     43140   215.71334      0              0              0              0            
     43160   240.25145      0              0              0              0            
     43180   280.88448      0              0              0              0            
     43200   328.52644      0              0              0              0            
     43220   437.56254      0              0              0              0            
     43240   422.35448      0              0              0              0            
     43260   410.1886       0              0              0              0            
     43280   494.02699      0              0              0              0            
     43300   510.01528      0              0              0              0            
     43320   358.69253      0              0              0              0            
     43340   428.62137      0              0              0              0            
     43360   305.80762      0              0              0              0            
     43380   357.72386      0              0              0              0            
     43400   217.92506      0              0              0              0            
     43420   334.2792       0              0              0              0            
     43440   249.31566      0              0              0              0            
     43460   207.8081       0              0              0              0            
     43480   212.08562      0              0              0              0            
     43500   240.561        0              0              0              0            
     43520   186.03349      0              0              0              0            
     43540   230.87053      0              0              0              0            
     43560   195.06022      0              0              0              0            
     43580   244.86366      0              0              0              0            
     43600   191.11443      0              0              0              0            
     43620   337.66773      0              0              0              0            
     43640   322.60354      0              0              0              0            
     43660   344.31208      0              0              0              0            
     43680   390.52477      0              0              0              0            
     43700   487.14014      0              0              0              0            
     43720   626.91427      0              0              0              0            
     43740   604.51181      0              0              0              0            
     43760   772.79918      0              0              0              0            
     43780   626.48883      0              0              0              0            
     43800   591.40597      0              0              0              0            
     43820   457.26904      0              0              0              0            
     43840   393.32377      0              0              0              0            
     43860   245.47417      0              0              0              0            
     43880   231.36585      0              0              0              0            
     43900   191.93781      0              0              0              0            
     43920   253.50251      0              0              0              0            
     43940   165.48668      0              0              0              0            
     43960   239.97319      0              0              0              0            
     43980   201.03805      0              0              0              0            
     44000   260.10243      0              0              0              0            
     44020   205.4201       0              0              0              0            
     44040   295.78264      0              0              0              0            
     44060   298.41718      0              0              0              0            
     44080   317.64107      0              0              0              0            
     44100   328.5081       0              0              0              0            
     44120   417.02151      0              0              0              0            
     44140   367.4938       0              0              0              0            
     44160   404.54628      0              0              0              0            
     44180   409.66297      0              0              0              0            
     44200   442.54855      0              0              0              0            
     44220   417.95693      0              0              0              0            
     44240   377.38499      0              0              0              0            
     44260   392.073        0              0              0              0            
     44280   255.55662      0              0              0              0            
     44300   289.87401      0              0              0              0            
     44320   227.88767      0              0              0              0            
     44340   253.31392      0              0              0              0            
     44360   157.5775       0              0              0              0            
     44380   214.55516      0              0              0              0            
     44400   185.7934       0              0              0              0            
     44420   211.31736      0              0              0              0            
     44440   165.94088      0              0              0              0            
     44460   237.62577      0              0              0              0            
     44480   180.35137      0              0              0              0            
     44500   242.81497      0              0              0              0            
     44520   249.19375      0              0              0              0            
     44540   397.31565      0              0              0              0            
     44560   339.58948      0              0              0              0            
     44580   475.81372      0              0              0              0            
     44600   547.53052      0              0              0              0            
     44620   542.82203      0              0              0              0            
     44640   472.49042      0              0              0              0            
     44660   528.58273      0              0              0              0            
     44680   481.9268       0              0              0              0            
     44700   344.00684      0              0              0              0            
     44720   345.29884      0              0              0              0            
     44740   378.87209      0              0              0              0            
     44760   360.52951      0              0              0              0            
     44780   258.14174      0              0              0              0            
     44800   307.77737      0              0              0              0            
     44820   225.91995      0              0              0              0            
     44840   270.12715      0              0              0              0            
     44860   210.62392      0              0              0              0            
     44880   281.27944      0              0              0              0            
     44900   159.31801      0              0              0              0            
     44920   214.17189      0              0              0              0            
     44940   229.23276      0              0              0              0            
     44960   283.13583      0              0              0              0            
     44980   241.85319      0              0              0              0            
     45000   301.46821      0              0              0              0            
     45020   303.46783      0              0              0              0            
     45040   383.02875      0              0              0              0            
     45060   404.25616      0              0              0              0            
     45080   566.69441      0              0              0              0            
     45100   475.05869      0              0              0              0            
     45120   542.20132      0              0              0              0            
     45140   526.67532      0              0              0              0            
     45160   549.62815      0              0              0              0            
     45180   439.86788      0              0              0              0            
     45200   357.55528      0              0              0              0            
     45220   370.46815      0              0              0              0            
     45240   243.281        0              0              0              0            
     45260   242.76332      0              0              0              0            
     45280   246.28622      0              0              0              0            
     45300   270.42338      0              0              0              0            
     45320   206.33043      0              0              0              0            
     45340   263.80168      0              0              0              0            
     45360   247.76789      0              0              0              0            
     45380   277.2827       0              0              0              0            
     45400   208.26798      0              0              0              0            
     45420   343.84912      0              0              0              0            
     45440   265.88277      0              0              0              0            
     45460   337.29462      0              0              0              0            
     45480   260.05892      0              0              0              0            
     45500   386.16347      0              0              0              0            
     45520   350.15921      0              0              0              0            
     45540   403.78634      0              0              0              0            
     45560   416.19901      0              0              0              0            
     45580   432.21808      0              0              0              0            
     45600   346.79265      0              0              0              0            
     45620   406.84588      0              0              0              0            
     45640   380.1629       0              0              0              0            
     45660   327.93512      0              0              0              0            
     45680   242.5157       0              0              0              0            
     45700   263.58011      0              0              0              0            
     45720   211.33845      0              0              0              0            
     45740   187.90391      0              0              0              0            
     45760   191.83438      0              0              0              0            
     45780   163.46493      0              0              0              0            
     45800   156.75337      0              0              0              0            
     45820   121.60869      0              0              0              0            
     45840   206.20541      0              0              0              0            
     45860   165.69355      0              0              0              0            
     45880   196.14476      0              0              0              0            
     45900   206.56615      0              0              0              0            
     45920   278.78655      0              0              0              0            
     45940   226.99841      0              0              0              0            
     45960   362.50025      0              0              0              0            
     45980   348.34161      0              0              0              0            
     46000   397.00612      0              0              0              0            
     46020   265.42566      0              0              0              0            
     46040   421.75553      0              0              0              0            
     46060   342.68464      0              0              0              0            
     46080   375.76018      0              0              0              0            
     46100   325.4941       0              0              0              0            
     46120   381.2307       0              0              0              0            
     46140   299.80401      0              0              0              0            
     46160   290.74079      0              0              0              0            
     46180   319.48896      0              0              0              0            
     46200   301.19684      0              0              0              0            
     46220   215.30495      0              0              0              0            
     46240   245.57818      0              0              0              0            
     46260   268.34216      0              0              0              0            
     46280   223.25626      0              0              0              0            
     46300   244.94386      0              0              0              0            
     46320   240.05431      0              0              0              0            
     46340   247.2862       0              0              0              0            
     46360   165.11853      0              0              0              0            
     46380   285.65243      0              0              0              0            
     46400   230.99135      0              0              0              0            
     46420   265.91438      0              0              0              0            
     46440   269.89381      0              0              0              0            
     46460   401.30951      0              0              0              0            
     46480   341.34771      0              0              0              0            
     46500   430.99681      0              0              0              0            
     46520   438.75908      0              0              0              0            
     46540   555.79914      0              0              0              0            
     46560   390.02114      0              0              0              0            
     46580   488.59231      0              0              0              0            
     46600   397.56952      0              0              0              0            
     46620   377.3017       0              0              0              0            
     46640   289.04915      0              0              0              0            
     46660   354.71558      0              0              0              0            
     46680   261.77845      0              0              0              0            
     46700   188.15746      0              0              0              0            
     46720   217.76909      0              0              0              0            
     46740   231.70972      0              0              0              0            
     46760   196.60771      0              0              0              0            
     46780   188.59692      0              0              0              0            
     46800   218.86317      0              0              0              0            
     46820   190.14455      0              0              0              0            
     46840   225.70009      0              0              0              0            
     46860   245.98177      0              0              0              0            
     46880   305.83385      0              0              0              0            
     46900   211.661        0              0              0              0            
     46920   308.23739      0              0              0              0            
     46940   257.205        0              0              0              0            
     46960   345.844        0              0              0              0            
     46980   265.84255      0              0              0              0            
     47000   346.79216      0              0              0              0            
     47020   296.31613      0              0              0              0            
     47040   317.23167      0              0              0              0            
     47060   312.69951      0              0              0              0            
     47080   371.01026      0              0              0              0            
     47100   312.63373      0              0              0              0            
     47120   301.87771      0              0              0              0            
     47140   271.49968      0              0              0              0            
     47160   358.84278      0              0              0              0            
     47180   256.79351      0              0              0              0            
     47200   311.26296      0              0              0              0            
     47220   306.09367      0              0              0              0            
     47240   261.66682      0              0              0              0            
     47260   271.70766      0              0              0              0            
     47280   297.73963      0              0              0              0            
     47300   296.24356      0              0              0              0            
     47320   206.87452      0              0              0              0            
     47340   257.69219      0              0              0              0            
     47360   232.90639      0              0              0              0            
     47380   208.00854      0              0              0              0            
     47400   170.71017      0              0              0              0            
     47420   249.27244      0              0              0              0            
     47440   181.4247       0              0              0              0            
     47460   201.74171      0              0              0              0            
     47480   185.18832      0              0              0              0            
     47500   280.46149      0              0              0              0            
     47520   187.29784      0              0              0              0            
     47540   265.41714      0              0              0              0            
     47560   271.13513      0              0              0              0            
     47580   355.42107      0              0              0              0            
     47600   314.53625      0              0              0              0            
     47620   442.88564      0              0              0              0            
     47640   438.82526      0              0              0              0            
     47660   420.46745      0              0              0              0            
     47680   392.08552      0              0              0              0            
     47700   499.99764      0              0              0              0            
     47720   370.73765      0              0              0              0            
     47740   323.12095      0              0              0              0            
     47760   351.26203      0              0              0              0            
     47780   322.13408      0              0              0              0            
     47800   231.70276      0              0              0              0            
     47820   212.89984      0              0              0              0            
     47840   235.68332      0              0              0              0            
     47860   151.941        0              0              0              0            
     47880   206.03034      0              0              0              0            
     47900   186.83211      0              0              0              0            
     47920   196.18791      0              0              0              0            
     47940   127.78839      0              0              0              0            
     47960   218.28029      0              0              0              0            
     47980   217.56647      0              0              0              0            
     48000   231.56036      0              0              0              0            
     48020   188.93466      0              0              0              0            
     48040   282.13458      0              0              0              0            
     48060   209.39464      0              0              0              0            
     48080   254.2474       0              0              0              0            
     48100   266.16517      0              0              0              0            
     48120   349.01012      0              0              0              0            
     48140   222.07176      0              0              0              0            
     48160   292.4832       0              0              0              0            
     48180   350.21525      0              0              0              0            
     48200   361.85555      0              0              0              0            
     48220   320.6901       0              0              0              0            
     48240   402.39963      0              0              0              0            
     48260   355.85466      0              0              0              0            
     48280   313.65729      0              0              0              0            
     48300   375.97619      0              0              0              0            
     48320   399.45417      0              0              0              0            
     48340   323.45167      0              0              0              0            
     48360   249.98368      0              0              0              0            
     48380   321.1554       0              0              0              0            
     48400   229.38876      0              0              0              0            
     48420   233.10139      0              0              0              0            
     48440   164.11899      0              0              0              0            
     48460   204.84432      0              0              0              0            
     48480   116.22646      0              0              0              0            
     48500   171.00432      0              0              0              0            
     48520   142.75437      0              0              0              0            
     48540   182.88318      0              0              0              0            
     48560   126.27345      0              0              0              0            
     48580   191.39971      0              0              0              0            
     48600   198.96643      0              0              0              0            
     48620   264.69606      0              0              0              0            
     48640   242.78791      0              0              0              0            
     48660   380.81513      0              0              0              0            
     48680   320.14516      0              0              0              0            
     48700   359.3468       0              0              0              0            
     48720   399.89145      0              0              0              0            
     48740   447.77001      0              0              0              0            
     48760   345.14092      0              0              0              0            
     48780   326.87872      0              0              0              0            
     48800   409.25173      0              0              0              0            
     48820   339.02585      0              0              0              0            
     48840   318.04445      0              0              0              0            
     48860   292.69063      0              0              0              0            
     48880   292.58316      0              0              0              0            
     48900   211.97039      0              0              0              0            
     48920   273.10591      0              0              0              0            
     48940   254.02641      0              0              0              0            
     48960   260.24063      0              0              0              0            
     48980   155.8692       0              0              0              0            
     49000   265.70839      0              0              0              0            
     49020   219.21313      0              0              0              0            
     49040   229.74592      0              0              0              0            
     49060   197.65079      0              0              0              0            
     49080   301.91431      0              0              0              0            
     49100   220.83582      0              0              0              0            
     49120   330.25059      0              0              0              0            
     49140   407.83738      0              0              0              0            
     49160   495.93237      0              0              0              0            
     49180   403.01492      0              0              0              0            
     49200   516.27004      0              0              0              0            
     49220   527.70539      0              0              0              0            
     49240   507.74273      0              0              0              0            
     49260   414.82419      0              0              0              0            
     49280   435.45038      0              0              0              0            
     49300   337.93098      0              0              0              0            
     49320   248.18056      0              0              0              0            
     49340   329.23029      0              0              0              0            
     49360   264.32776      0              0              0              0            
     49380   237.90523      0              0              0              0            
     49400   177.66641      0              0              0              0            
     49420   274.28106      0              0              0              0            
     49440   195.27478      0              0              0              0            
     49460   240.37278      0              0              0              0            
     49480   232.62594      0              0              0              0            
     49500   267.21459      0              0              0              0            
     49520   193.71569      0              0              0              0            
     49540   298.58719      0              0              0              0            
     49560   289.00684      0              0              0              0            
     49580   350.56651      0              0              0              0            
     49600   233.29921      0              0              0              0            
     49620   365.34335      0              0              0              0            
     49640   328.39471      0              0              0              0            
     49660   337.96999      0              0              0              0            
     49680   349.55505      0              0              0              0            
     49700   414.76608      0              0              0              0            
     49720   308.0486       0              0              0              0            
     49740   315.37743      0              0              0              0            
     49760   380.57762      0              0              0              0            
     49780   320.86491      0              0              0              0            
     49800   228.61026      0              0              0              0            
     49820   200.77155      0              0              0              0            
     49840   197.0938       0              0              0              0            
     49860   135.14339      0              0              0              0            
     49880   153.27299      0              0              0              0            
     49900   134.01917      0              0              0              0            
     49920   146.63383      0              0              0              0            
     49940   104.26958      0              0              0              0            
     49960   183.22009      0              0              0              0            
     49980   154.26377      0              0              0              0            
     50000   189.63306      0              0              0              0            
     50020   158.37862      0              0              0              0            
     50040   259.26653      0              0              0              0            
     50060   252.48281      0              0              0              0            
     50080   319.89232      0              0              0              0            
     50100   304.29882      0              0              0              0            
     50120   398.82944      0              0              0              0            
     50140   297.31209      0              0              0              0            
     50160   407.9957       0              0              0              0            
     50180   388.6991       0              0              0              0            
     50200   414.09546      0              0              0              0            
     50220   283.63578      0              0              0              0            
     50240   351.95465      0              0              0              0            
     50260   352.1447       0              0              0              0            
     50280   292.34941      0              0              0              0            
     50300   310.65141      0              0              0              0            
     50320   276.20484      0              0              0              0            
     50340   228.5035       0              0              0              0            
     50360   190.68334      0              0              0              0            
     50380   241.00036      0              0              0              0            
     50400   185.02414      0              0              0              0            
     50420   162.56451      0              0              0              0            
     50440   117.09557      0              0              0              0            
     50460   173.0398       0              0              0              0            
     50480   113.36015      0              0              0              0            
     50500   136.56317      0              0              0              0            
     50520   110.1432       0              0              0              0            
     50540   142.29602      0              0              0              0            
     50560   72.245291      0              0              0              0            
     50580   142.75856      0              0              0              0            
     50600   157.16235      0              0              0              0            
     50620   182.1425       0              0              0              0            
     50640   150.70753      0              0              0              0            
     50660   274.64202      0              0              0              0            
     50680   258.86493      0              0              0              0            
     50700   310.18128      0              0              0              0            
     50720   347.30474      0              0              0              0            
     50740   417.66403      0              0              0              0            
     50760   297.39663      0              0              0              0            
     50780   378.9012       0              0              0              0            
     50800   436.6698       0              0              0              0            
     50820   368.70478      0              0              0              0            
     50840   343.70902      0              0              0              0            
     50860   333.73685      0              0              0              0            
     50880   376.79045      0              0              0              0            
     50900   250.80941      0              0              0              0            
     50920   328.79528      0              0              0              0            
     50940   252.01073      0              0              0              0            
     50960   224.82927      0              0              0              0            
     50980   171.49915      0              0              0              0            
     51000   241.74206      0              0              0              0            
     51020   178.35827      0              0              0              0            
     51040   190.32121      0              0              0              0            
     51060   157.47202      0              0              0              0            
     51080   228.84794      0              0              0              0            
     51100   147.26503      0              0              0              0            
     51120   227.72094      0              0              0              0            
     51140   242.64235      0              0              0              0            
     51160   316.22774      0              0              0              0            
     51180   264.85091      0              0              0              0            
     51200   460.84901      0              0              0              0            
     51220   488.44612      0              0              0              0            
     51240   467.19446      0              0              0              0            
     51260   443.1915       0              0              0              0            
     51280   519.86602      0              0              0              0            
     51300   448.99388      0              0              0              0            
     51320   387.31198      0              0              0              0            
     51340   381.65086      0              0              0              0            
     51360   316.55192      0              0              0              0            
     51380   273.70889      0              0              0              0            
     51400   236.56584      0              0              0              0            
     51420   318.81778      0              0              0              0            
     51440   203.33856      0              0              0              0            
     51460   239.95682      0              0              0              0            
     51480   202.44052      0              0              0              0            
     51500   283.50827      0              0              0              0            
     51520   200.8047       0              0              0              0            
     51540   259.58782      0              0              0              0            
     51560   237.25953      0              0              0              0            
     51580   274.91432      0              0              0              0            
     51600   232.89406      0              0              0              0            
     51620   365.21126      0              0              0              0            
     51640   327.79819      0              0              0              0            
     51660   408.79502      0              0              0              0            
     51680   357.89851      0              0              0              0            
     51700   579.21358      0              0              0              0            
     51720   561.87145      0              0              0              0            
     51740   673.40937      0              0              0              0            
     51760   793.98948      0              0              0              0            
     51780   709.3543       0              0              0              0            
     51800   559.8626       0              0              0              0            
     51820   507.34051      0              0              0              0            
     51840   446.67894      0              0              0              0            
     51860   297.68449      0              0              0              0            
     51880   258.83592      0              0              0              0            
     51900   254.47422      0              0              0              0            
     51920   257.05365      0              0              0              0            
     51940   191.29717      0              0              0              0            
     51960   269.02039      0              0              0              0            
     51980   218.95962      0              0              0              0            
     52000   246.91566      0              0              0              0            
     52020   180.25562      0              0              0              0            
     52040   312.86668      0              0              0              0            
     52060   253.2526       0              0              0              0            
     52080   290.65075      0              0              0              0            
     52100   285.18384      0              0              0              0            
     52120   406.75068      0              0              0              0            
     52140   277.10433      0              0              0              0            
     52160   407.16406      0              0              0              0            
     52180   426.29879      0              0              0              0            
     52200   458.49907      0              0              0              0            
     52220   345.89943      0              0              0              0            
     52240   491.27453      0              0              0              0            
     52260   391.91662      0              0              0              0            
     52280   342.25994      0              0              0              0            
     52300   305.57129      0              0              0              0            
     52320   300.41944      0              0              0              0            
     52340   229.20794      0              0              0              0            
     52360   169.14765      0              0              0              0            
     52380   220.56593      0              0              0              0            
     52400   167.08523      0              0              0              0            
     52420   160.88677      0              0              0              0            
     52440   171.60573      0              0              0              0            
     52460   205.91733      0              0              0              0            
     52480   127.11828      0              0              0              0            
     52500   187.0694       0              0              0              0            
     52520   219.01032      0              0              0              0            
     52540   263.16874      0              0              0              0            
     52560   172.08315      0              0              0              0            
     52580   289.84565      0              0              0              0            
     52600   242.05529      0              0              0              0            
     52620   301.21146      0              0              0              0            
     52640   271.94843      0              0              0              0            
     52660   371.58025      0              0              0              0            
     52680   267.00796      0              0              0              0            
     52700   283.01384      0              0              0              0            
     52720   300.05612      0              0              0              0            
     52740   389.432        0              0              0              0            
     52760   262.3814       0              0              0              0            
     52780   342.93194      0              0              0              0            
     52800   335.21485      0              0              0              0            
     52820   310.66031      0              0              0              0            
     52840   295.36751      0              0              0              0            
     52860   332.53311      0              0              0              0            
     52880   309.76489      0              0              0              0            
     52900   222.99703      0              0              0              0            
     52920   269.91322      0              0              0              0            
     52940   253.41717      0              0              0              0            
     52960   237.87036      0              0              0              0            
     52980   190.30794      0              0              0              0            
     53000   220.35369      0              0              0              0            
     53020   150.70803      0              0              0              0            
     53040   164.53913      0              0              0              0            
     53060   139.79455      0              0              0              0            
     53080   200.72854      0              0              0              0            
     53100   119.87634      0              0              0              0            
     53120   186.43484      0              0              0              0            
     53140   169.32204      0              0              0              0            
     53160   247.32208      0              0              0              0            
     53180   207.17489      0              0              0              0            
     53200   342.95993      0              0              0              0            
     53220   352.01677      0              0              0              0            
     53240   360.02895      0              0              0              0            
     53260   325.07828      0              0              0              0            
     53280   482.86595      0              0              0              0            
     53300   392.37033      0              0              0              0            
     53320   403.01729      0              0              0              0            
     53340   408.52427      0              0              0              0            
     53360   392.3164       0              0              0              0            
     53380   308.52361      0              0              0              0            
     53400   316.74385      0              0              0              0            
     53420   347.18648      0              0              0              0            
     53440   245.45247      0              0              0              0            
     53460   249.16021      0              0              0              0            
     53480   227.65218      0              0              0              0            
     53500   272.78759      0              0              0              0            
     53520   193.37545      0              0              0              0            
     53540   247.86035      0              0              0              0            
     53560   240.1523       0              0              0              0            
     53580   250.01031      0              0              0              0            
     53600   178.58197      0              0              0              0            
     53620   317.34342      0              0              0              0            
     53640   295.5295       0              0              0              0            
     53660   396.57737      0              0              0              0            
     53680   422.17097      0              0              0              0            
     53700   654.95054      0              0              0              0            
     53720   509.82469      0              0              0              0            
     53740   625.77121      0              0              0              0            
     53760   600.92151      0              0              0              0            
     53780   537.35175      0              0              0              0            
     53800   329.10352      0              0              0              0            
     53820   398.82692      0              0              0              0            
     53840   353.33215      0              0              0              0            
     53860   283.57474      0              0              0              0            
     53880   263.39603      0              0              0              0            
     53900   277.89226      0              0              0              0            
     53920   222.69604      0              0              0              0            
     53940   191.35976      0              0              0              0            
     53960   290.41724      0              0              0              0            
     53980   248.99649      0              0              0              0            
     54000   215.51641      0              0              0              0            
     54020   205.13825      0              0              0              0            
     54040   303.56593      0              0              0              0            
     54060   227.79699      0              0              0              0            
     54080   319.66311      0              0              0              0            
     54100   322.70242      0              0              0              0            
     54120   413.15825      0              0              0              0            
     54140   317.51578      0              0              0              0            
     54160   517.04699      0              0              0              0            
     54180   499.38815      0              0              0              0            
     54200   540.65504      0              0              0              0            
     54220   420.00333      0              0              0              0            
     54240   611.82998      0              0              0              0            
     54260   447.75215      0              0              0              0            
     54280   379.55759      0              0              0              0            
     54300   299.07107      0              0              0              0            
     54320   298.71057      0              0              0              0            
     54340   170.92298      0              0              0              0            
     54360   196.36366      0              0              0              0            
     54380   196.31429      0              0              0              0            
     54400   178.41508      0              0              0              0            
     54420   170.48386      0              0              0              0            
     54440   209.14427      0              0              0              0            
     54460   231.04155      0              0              0              0            
     54480   173.07376      0              0              0              0            
     54500   252.49988      0              0              0              0            
     54520   281.06209      0              0              0              0            
     54540   329.77164      0              0              0              0            
     54560   262.8478       0              0              0              0            
     54580   403.73208      0              0              0              0            
     54600   364.69566      0              0              0              0            
     54620   391.38909      0              0              0              0            
     54640   403.0673       0              0              0              0            
     54660   517.1273       0              0              0              0            
     54680   324.51087      0              0              0              0            
     54700   395.05253      0              0              0              0            
     54720   323.44309      0              0              0              0            
     54740   380.30439      0              0              0              0            
     54760   228.21112      0              0              0              0            
     54780   286.23305      0              0              0              0            
     54800   226.15173      0              0              0              0            
     54820   183.27278      0              0              0              0            
     54840   149.79061      0              0              0              0            
     54860   197.27003      0              0              0              0            
     54880   139.44221      0              0              0              0            
     54900   117.01501      0              0              0              0            
     54920   112.04872      0              0              0              0            
     54940   128.31444      0              0              0              0            
     54960   90.596803      0              0              0              0            
     54980   84.060318      0              0              0              0            
     55000   108.28658      0              0              0              0            
     55020   70.296855      0              0              0              0            
     55040   77.898082      0              0              0              0            
     55060   74.810874      0              0              0              0            
     55080   116.51214      0              0              0              0            
     55100   67.747213      0              0              0              0            
     55120   115.79878      0              0              0              0            
     55140   129.22717      0              0              0              0            
     55160   159.88397      0              0              0              0            
     55180   125.46708      0              0              0              0            
     55200   267.73339      0              0              0              0            
     55220   221.8695       0              0              0              0            
     55240   252.91602      0              0              0              0            
     55260   242.88232      0              0              0              0            
     55280   415.60965      0              0              0              0            
     55300   277.8346       0              0              0              0            
     55320   368.83041      0              0              0              0            
     55340   382.45367      0              0              0              0            
     55360   431.57548      0              0              0              0            
     55380   344.66635      0              0              0              0            
     55400   443.39068      0              0              0              0            
     55420   402.99676      0              0              0              0            
     55440   339.1154       0              0              0              0            
     55460   320.71299      0              0              0              0            
     55480   369.80489      0              0              0              0            
     55500   280.43019      0              0              0              0            
     55520   182.27714      0              0              0              0            
     55540   242.11963      0              0              0              0            
     55560   221.58747      0              0              0              0            
     55580   195.93872      0              0              0              0            
     55600   164.42208      0              0              0              0            
     55620   232.81835      0              0              0              0            
     55640   145.37895      0              0              0              0            
     55660   202.34542      0              0              0              0            
     55680   211.99681      0              0              0              0            
     55700   276.21286      0              0              0              0            
     55720   178.37769      0              0              0              0            
     55740   363.59962      0              0              0              0            
     55760   405.26949      0              0              0              0            
     55780   542.93179      0              0              0              0            
     55800   432.33491      0              0              0              0            
     55820   602.94519      0              0              0              0            
     55840   458.72606      0              0              0              0            
     55860   445.94804      0              0              0              0            
     55880   419.48983      0              0              0              0            
     55900   445.89851      0              0              0              0            
     55920   291.48416      0              0              0              0            
     55940   286.07276      0              0              0              0            
     55960   302.26753      0              0              0              0            
     55980   279.19616      0              0              0              0            
     56000   229.94433      0              0              0              0            
     56020   246.27833      0              0              0              0            
     56040   266.02231      0              0              0              0            
     56060   195.13742      0              0              0              0            
     56080   246.42497      0              0              0              0            
     56100   230.01642      0              0              0              0            
     56120   280.58489      0              0              0              0            
     56140   186.82679      0              0              0              0            
     56160   332.90426      0              0              0              0            
     56180   304.77536      0              0              0              0            
     56200   360.69832      0              0              0              0            
     56220   362.26755      0              0              0              0            
     56240   585.90666      0              0              0              0            
     56260   491.62096      0              0              0              0            
     56280   614.51662      0              0              0              0            
     56300   570.45036      0              0              0              0            
     56320   698.80044      0              0              0              0            
     56340   429.93269      0              0              0              0            
     56360   463.03003      0              0              0              0            
     56380   343.16874      0              0              0              0            
     56400   303.97328      0              0              0              0            
     56420   218.61533      0              0              0              0            
     56440   266.57475      0              0              0              0            
     56460   239.229        0              0              0              0            
     56480   210.35511      0              0              0              0            
     56500   228.94321      0              0              0              0            
     56520   272.05301      0              0              0              0            
     56540   239.73936      0              0              0              0            
     56560   215.78758      0              0              0              0            
     56580   320.83434      0              0              0              0            
     56600   304.68139      0              0              0              0            
     56620   314.27976      0              0              0              0            
     56640   284.8475       0              0              0              0            
     56660   439.77488      0              0              0              0            
     56680   303.84793      0              0              0              0            
     56700   426.05679      0              0              0              0            
     56720   411.35733      0              0              0              0            
     56740   466.88005      0              0              0              0            
     56760   283.46978      0              0              0              0            
     56780   451.00733      0              0              0              0            
     56800   372.04936      0              0              0              0            
     56820   328.36526      0              0              0              0            
     56840   213.05815      0              0              0              0            
     56860   278.26167      0              0              0              0            
     56880   169.50741      0              0              0              0            
     56900   179.88982      0              0              0              0            
     56920   181.07071      0              0              0              0            
     56940   196.89421      0              0              0              0            
     56960   119.65135      0              0              0              0            
     56980   159.67184      0              0              0              0            
     57000   214.45928      0              0              0              0            
     57020   185.64033      0              0              0              0            
     57040   173.25992      0              0              0              0            
     57060   226.54937      0              0              0              0            
     57080   273.21076      0              0              0              0            
     57100   219.91289      0              0              0              0            
     57120   345.60333      0              0              0              0            
     57140   318.78782      0              0              0              0            
     57160   333.88876      0              0              0              0            
     57180   261.42773      0              0              0              0            
     57200   415.10448      0              0              0              0            
     57220   293.95138      0              0              0              0            
     57240   323.26542      0              0              0              0            
     57260   292.72219      0              0              0              0            
     57280   402.28994      0              0              0              0            
     57300   244.32105      0              0              0              0            
     57320   320.6386       0              0              0              0            
     57340   286.71864      0              0              0              0            
     57360   334.66988      0              0              0              0            
     57380   223.7617       0              0              0              0            
     57400   324.89245      0              0              0              0            
     57420   246.58901      0              0              0              0            
     57440   233.11297      0              0              0              0            
     57460   218.89233      0              0              0              0            
     57480   278.39322      0              0              0              0            
     57500   225.79887      0              0              0              0            
     57520   196.20883      0              0              0              0            
     57540   242.81456      0              0              0              0            
     57560   229.49843      0              0              0              0            
     57580   217.61286      0              0              0              0            
     57600   221.01285      0              0              0              0            
     57620   296.16336      0              0              0              0            
     57640   233.36792      0              0              0              0            
     57660   285.50676      0              0              0              0            
     57680   349.81586      0              0              0              0            
     57700   453.1823       0              0              0              0            
     57720   323.4076       0              0              0              0            
     57740   504.48962      0              0              0              0            
     57760   423.05398      0              0              0              0            
     57780   483.20114      0              0              0              0            
     57800   381.61232      0              0              0              0            
     57820   484.91842      0              0              0              0            
     57840   341.37921      0              0              0              0            
     57860   311.77204      0              0              0              0            
     57880   245.62911      0              0              0              0            
     57900   296.58452      0              0              0              0            
     57920   177.63252      0              0              0              0            
     57940   216.5053       0              0              0              0            
     57960   189.4968       0              0              0              0            
     57980   211.67538      0              0              0              0            
     58000   141.50699      0              0              0              0            
     58020   211.33836      0              0              0              0            
     58040   227.38931      0              0              0              0            
     58060   196.23114      0              0              0              0            
     58080   212.13051      0              0              0              0            
     58100   256.13575      0              0              0              0            
     58120   262.80568      0              0              0              0            
     58140   220.87835      0              0              0              0            
     58160   329.81602      0              0              0              0            
     58180   285.69498      0              0              0              0            
     58200   279.18241      0              0              0              0            
     58220   270.30357      0              0              0              0            
     58240   409.70492      0              0              0              0            
     58260   279.48195      0              0              0              0            
     58280   357.40038      0              0              0              0            
     58300   326.43323      0              0              0              0            
     58320   398.58724      0              0              0              0            
     58340   230.9199       0              0              0              0            
     58360   383.82229      0              0              0              0            
     58380   323.32625      0              0              0              0            
     58400   307.53306      0              0              0              0            
     58420   225.64096      0              0              0              0            
     58440   300.33419      0              0              0              0            
     58460   194.36553      0              0              0              0            
     58480   184.3696       0              0              0              0            
     58500   158.20034      0              0              0              0            
     58520   180.23671      0              0              0              0            
     58540   91.439022      0              0              0              0            
     58560   122.83357      0              0              0              0            
     58580   150.80573      0              0              0              0            
     58600   135.40922      0              0              0              0            
     58620   126.06992      0              0              0              0            
     58640   168.1169       0              0              0              0            
     58660   209.97825      0              0              0              0            
     58680   156.72622      0              0              0              0            
     58700   281.72034      0              0              0              0            
     58720   297.79873      0              0              0              0            
     58740   313.70216      0              0              0              0            
     58760   246.79315      0              0              0              0            
     58780   397.33857      0              0              0              0            
     58800   305.57841      0              0              0              0            
     58820   376.00162      0              0              0              0            
     58840   316.01198      0              0              0              0            
     58860   425.12406      0              0              0              0            
     58880   255.53899      0              0              0              0            
     58900   355.11063      0              0              0              0            
     58920   312.15286      0              0              0              0            
     58940   342.19217      0              0              0              0            
     58960   210.70767      0              0              0              0            
     58980   313.30987      0              0              0              0            
     59000   259.48356      0              0              0              0            
     59020   243.91307      0              0              0              0            
     59040   192.07418      0              0              0              0            
     59060   245.24985      0              0              0              0            
     59080   182.61747      0              0              0              0            
     59100   164.239        0              0              0              0            
     59120   181.58787      0              0              0              0            
     59140   164.35684      0              0              0              0            
     59160   140.7962       0              0              0              0            
     59180   147.08838      0              0              0              0            
     59200   203.36298      0              0              0              0            
     59220   144.3916       0              0              0              0            
     59240   184.30195      0              0              0              0            
     59260   204.11517      0              0              0              0            
     59280   319.83411      0              0              0              0            
     59300   245.51612      0              0              0              0            
     59320   397.74565      0              0              0              0            
     59340   349.49633      0              0              0              0            
     59360   441.88477      0              0              0              0            
     59380   345.08966      0              0              0              0            
     59400   519.06042      0              0              0              0            
     59420   383.44617      0              0              0              0            
     59440   403.61177      0              0              0              0            
     59460   313.22853      0              0              0              0            
     59480   403.6126       0              0              0              0            
     59500   267.64374      0              0              0              0            
     59520   292.14812      0              0              0              0            
     59540   238.73129      0              0              0              0            
     59560   264.37461      0              0              0              0            
     59580   184.58144      0              0              0              0            
     59600   242.04385      0              0              0              0            
     59620   235.15003      0              0              0              0            
     59640   188.07233      0              0              0              0            
     59660   183.96397      0              0              0              0            
     59680   232.82015      0              0              0              0            
     59700   268.19379      0              0              0              0            
     59720   205.55022      0              0              0              0            
     59740   377.9519       0              0              0              0            
     59760   431.96041      0              0              0              0            
     59780   513.78327      0              0              0              0            
     59800   514.32627      0              0              0              0            
     59820   697.74766      0              0              0              0            
     59840   511.96514      0              0              0              0            
     59860   520.22079      0              0              0              0            
     59880   431.88035      0              0              0              0            
     59900   473.16638      0              0              0              0            
     59920   243.6125       0              0              0              0            
     59940   347.86597      0              0              0              0            
     59960   280.32062      0              0              0              0            
     59980   292.13639      0              0              0              0            
     60000   191.62275      0              0              0              0            
     60020   277.72169      0              0              0              0            
     60040   230.86835      0              0              0              0            
     60060   219.51126      0              0              0              0            
     60080   209.01857      0              0              0              0            
     60100   291.97742      0              0              0              0            
     60120   216.38192      0              0              0              0            
     60140   244.65253      0              0              0              0            
     60160   309.43168      0              0              0              0            
     60180   322.58491      0              0              0              0            
     60200   320.18486      0              0              0              0            
     60220   393.9007       0              0              0              0            
     60240   517.11414      0              0              0              0            
     60260   382.49954      0              0              0              0            
     60280   567.17406      0              0              0              0            
     60300   570.02729      0              0              0              0            
     60320   628.25703      0              0              0              0            
     60340   417.59858      0              0              0              0            
     60360   490.53837      0              0              0              0            
     60380   321.89755      0              0              0              0            
     60400   273.85999      0              0              0              0            
     60420   193.84933      0              0              0              0            
     60440   267.35792      0              0              0              0            
     60460   146.86934      0              0              0              0            
     60480   197.86036      0              0              0              0            
     60500   182.5664       0              0              0              0            
     60520   254.86214      0              0              0              0            
     60540   164.1592       0              0              0              0            
     60560   242.99053      0              0              0              0            
     60580   242.15814      0              0              0              0            
     60600   262.98529      0              0              0              0            
     60620   256.74384      0              0              0              0            
     60640   381.15067      0              0              0              0            
     60660   367.69904      0              0              0              0            
     60680   344.75383      0              0              0              0            
     60700   402.94627      0              0              0              0            
     60720   461.37851      0              0              0              0            
     60740   440.03625      0              0              0              0            
     60760   348.98072      0              0              0              0            
     60780   452.97662      0              0              0              0            
     60800   327.12098      0              0              0              0            
     60820   325.71136      0              0              0              0            
     60840   260.39739      0              0              0              0            
     60860   281.40432      0              0              0              0            
     60880   155.78012      0              0              0              0            
     60900   199.14715      0              0              0              0            
     60920   158.29801      0              0              0              0            
     60940   177.53508      0              0              0              0            
     60960   101.53029      0              0              0              0            
     60980   179.82719      0              0              0              0            
     61000   148.40972      0              0              0              0            
     61020   183.16054      0              0              0              0            
     61040   128.8052       0              0              0              0            
     61060   219.72927      0              0              0              0            
     61080   174.61329      0              0              0              0            
     61100   208.87919      0              0              0              0            
     61120   232.62198      0              0              0              0            
     61140   273.88349      0              0              0              0            
     61160   219.09141      0              0              0              0            
     61180   274.87753      0              0              0              0            
     61200   359.3634       0              0              0              0            
     61220   323.09676      0              0              0              0            
     61240   328.29175      0              0              0              0            
     61260   374.82528      0              0              0              0            
     61280   425.32945      0              0              0              0            
     61300   318.79585      0              0              0              0            
     61320   447.43732      0              0              0              0            
     61340   380.67985      0              0              0              0            
     61360   374.84797      0              0              0              0            
     61380   239.94221      0              0              0              0            
     61400   368.96417      0              0              0              0            
     61420   242.72969      0              0              0              0            
     61440   220.06977      0              0              0              0            
     61460   175.1053       0              0              0              0            
     61480   205.14567      0              0              0              0            
     61500   109.50421      0              0              0              0            
     61520   158.74351      0              0              0              0            
     61540   133.34479      0              0              0              0            
     61560   167.93391      0              0              0              0            
     61580   92.701964      0              0              0              0            
     61600   184.55124      0              0              0              0            
     61620   168.9036       0              0              0              0            
     61640   172.99511      0              0              0              0            
     61660   189.80269      0              0              0              0            
     61680   260.18235      0              0              0              0            
     61700   231.87489      0              0              0              0            
     61720   200.84348      0              0              0              0            
     61740   291.10205      0              0              0              0            
     61760   284.44282      0              0              0              0            
     61780   251.9021       0              0              0              0            
     61800   291.14737      0              0              0              0            
     61820   354.74505      0              0              0              0            
     61840   252.47874      0              0              0              0            
     61860   348.60726      0              0              0              0            
     61880   352.21015      0              0              0              0            
     61900   409.6696       0              0              0              0            
     61920   255.80776      0              0              0              0            
     61940   415.08234      0              0              0              0            
     61960   319.93086      0              0              0              0            
     61980   361.30641      0              0              0              0            
     62000   292.53829      0              0              0              0            
     62020   381.94431      0              0              0              0            
     62040   258.70485      0              0              0              0            
     62060   261.03701      0              0              0              0            
     62080   207.71987      0              0              0              0            
     62100   272.49549      0              0              0              0            
     62120   147.87253      0              0              0              0            
     62140   194.55087      0              0              0              0            
     62160   155.05373      0              0              0              0            
     62180   162.06159      0              0              0              0            
     62200   128.52789      0              0              0              0            
     62220   174.5559       0              0              0              0            
     62240   185.08043      0              0              0              0            
     62260   157.96995      0              0              0              0            
     62280   211.32508      0              0              0              0            
     62300   268.66526      0              0              0              0            
     62320   309.08335      0              0              0              0            
     62340   322.68008      0              0              0              0            
     62360   446.67517      0              0              0              0            
     62380   410.84667      0              0              0              0            
     62400   412.21434      0              0              0              0            
     62420   381.99441      0              0              0              0            
     62440   502.44184      0              0              0              0            
     62460   318.36884      0              0              0              0            
     62480   397.15973      0              0              0              0            
     62500   287.64177      0              0              0              0            
     62520   357.57146      0              0              0              0            
     62540   224.27394      0              0              0              0            
     62560   310.40973      0              0              0              0            
     62580   248.34872      0              0              0              0            
     62600   243.66566      0              0              0              0            
     62620   177.67257      0              0              0              0            
     62640   276.53864      0              0              0              0            
     62660   199.12752      0              0              0              0            
     62680   224.62979      0              0              0              0            
     62700   209.42695      0              0              0              0            
     62720   298.71196      0              0              0              0            
     62740   228.73863      0              0              0              0            
     62760   302.09935      0              0              0              0            
     62780   425.68747      0              0              0              0            
     62800   490.47864      0              0              0              0            
     62820   502.1479       0              0              0              0            
     62840   569.67828      0              0              0              0            
     62860   645.74594      0              0              0              0            
     62880   457.1126       0              0              0              0            
     62900   511.14751      0              0              0              0            
     62920   456.80347      0              0              0              0            
     62940   388.72578      0              0              0              0            
     62960   233.45544      0              0              0              0            
     62980   362.63862      0              0              0              0            
     63000   269.04273      0              0              0              0            
     63020   282.19705      0              0              0              0            
     63040   217.64107      0              0              0              0            
     63060   309.10254      0              0              0              0            
     63080   180.70238      0              0              0              0            
     63100   269.33903      0              0              0              0            
     63120   257.94146      0              0              0              0            
     63140   307.36449      0              0              0              0            
     63160   193.74737      0              0              0              0            
     63180   296.44401      0              0              0              0            
     63200   318.95519      0              0              0              0            
     63220   333.85826      0              0              0              0            
     63240   307.76054      0              0              0              0            
     63260   428.50919      0              0              0              0            
     63280   393.67155      0              0              0              0            
     63300   394.37022      0              0              0              0            
     63320   567.29104      0              0              0              0            
     63340   593.53634      0              0              0              0            
     63360   540.98289      0              0              0              0            
     63380   501.70411      0              0              0              0            
     63400   605.42595      0              0              0              0            
     63420   392.69078      0              0              0              0            
     63440   334.70934      0              0              0              0            
     63460   277.25575      0              0              0              0            
     63480   296.70791      0              0              0              0            
     63500   167.6948       0              0              0              0            
     63520   243.62022      0              0              0              0            
     63540   185.98711      0              0              0              0            
     63560   232.68367      0              0              0              0            
     63580   151.99528      0              0              0              0            
     63600   274.28869      0              0              0              0            
     63620   214.68259      0              0              0              0            
     63640   224.99268      0              0              0              0            
     63660   228.84545      0              0              0              0            
     63680   343.64064      0              0              0              0            
     63700   282.0914       0              0              0              0            
     63720   362.13886      0              0              0              0            
     63740   385.40548      0              0              0              0            
     63760   454.87684      0              0              0              0            
     63780   373.59488      0              0              0              0            
     63800   459.00599      0              0              0              0            
     63820   465.75221      0              0              0              0            
     63840   375.94275      0              0              0              0            
     63860   359.65206      0              0              0              0            
     63880   328.35463      0              0              0              0            
     63900   318.93075      0              0              0              0            
     63920   169.12597      0              0              0              0            
     63940   219.76223      0              0              0              0            
     63960   156.47166      0              0              0              0            
     63980   136.43987      0              0              0              0            
     64000   129.81784      0              0              0              0            
     64020   186.36021      0              0              0              0            
     64040   138.25644      0              0              0              0            
     64060   161.30294      0              0              0              0            
     64080   144.72911      0              0              0              0            
     64100   239.91813      0              0              0              0            
     64120   150.67213      0              0              0              0            
     64140   261.95416      0              0              0              0            
     64160   254.05191      0              0              0              0            
     64180   310.82454      0              0              0              0            
     64200   243.54667      0              0              0              0            
     64220   368.68881      0              0              0              0            
     64240   366.49499      0              0              0              0            
     64260   343.15582      0              0              0              0            
     64280   345.20645      0              0              0              0            
     64300   435.9432       0              0              0              0            
     64320   334.48027      0              0              0              0            
     64340   361.05194      0              0              0              0            
     64360   393.81874      0              0              0              0            
     64380   333.02409      0              0              0              0            
     64400   263.05566      0              0              0              0            
     64420   253.52855      0              0              0              0            
     64440   318.14868      0              0              0              0            
     64460   172.39042      0              0              0              0            
     64480   192.70547      0              0              0              0            
     64500   154.08216      0              0              0              0            
     64520   170.14412      0              0              0              0            
     64540   88.752653      0              0              0              0            
     64560   146.95114      0              0              0              0            
     64580   107.3562       0              0              0              0            
     64600   107.54598      0              0              0              0            
     64620   97.496712      0              0              0              0            
     64640   179.68178      0              0              0              0            
     64660   117.04365      0              0              0              0            
     64680   181.14926      0              0              0              0            
     64700   231.14827      0              0              0              0            
     64720   361.41911      0              0              0              0            
     64740   266.59043      0              0              0              0            
     64760   347.38309      0              0              0              0            
     64780   352.23851      0              0              0              0            
     64800   354.46342      0              0              0              0            
     64820   318.401        0              0              0              0            
     64840   409.77189      0              0              0              0            
     64860   361.81107      0              0              0              0            
     64880   263.43082      0              0              0              0            
     64900   343.06141      0              0              0              0            
     64920   339.84361      0              0              0              0            
     64940   300.90038      0              0              0              0            
     64960   228.45513      0              0              0              0            
     64980   302.6535       0              0              0              0            
     65000   209.33744      0              0              0              0            
     65020   236.3826       0              0              0              0            
     65040   227.78946      0              0              0              0            
     65060   275.40059      0              0              0              0            
     65080   170.05386      0              0              0              0            
     65100   236.92653      0              0              0              0            
     65120   227.37581      0              0              0              0            
     65140   287.97703      0              0              0              0            
     65160   195.8354       0              0              0              0            
     65180   336.78301      0              0              0              0            
     65200   300.97112      0              0              0              0            
     65220   383.14801      0              0              0              0            
     65240   382.3559       0              0              0              0            
     65260   538.60525      0              0              0              0            
     65280   466.50884      0              0              0              0            
     65300   489.61839      0              0              0              0            
     65320   516.31111      0              0              0              0            
     65340   453.78937      0              0              0              0            
     65360   366.49897      0              0              0              0            
     65380   342.36165      0              0              0              0            
     65400   337.78454      0              0              0              0            
     65420   237.73753      0              0              0              0            
     65440   197.77858      0              0              0              0            
     65460   215.20507      0              0              0              0            
     65480   250.75896      0              0              0              0            
     65500   168.62721      0              0              0              0            
     65520   248.12774      0              0              0              0            
     65540   194.86692      0              0              0              0            
     65560   242.72323      0              0              0              0            
     65580   180.7947       0              0              0              0            
     65600   311.25102      0              0              0              0            
     65620   258.59256      0              0              0              0            
     65640   276.21586      0              0              0              0            
     65660   285.70757      0              0              0              0            
     65680   390.08699      0              0              0              0            
     65700   292.87867      0              0              0              0            
     65720   375.46565      0              0              0              0            
     65740   359.03435      0              0              0              0            
     65760   450.43594      0              0              0              0            
     65780   294.23133      0              0              0              0            
     65800   443.10959      0              0              0              0            
     65820   382.35187      0              0              0              0            
     65840   334.37896      0              0              0              0            
     65860   278.78901      0              0              0              0            
     65880   269.54571      0              0              0              0            
     65900   217.36235      0              0              0              0            
     65920   138.17924      0              0              0              0            
     65940   192.2397       0              0              0              0            
     65960   157.56637      0              0              0              0            
     65980   126.13118      0              0              0              0            
     66000   132.44425      0              0              0              0            
     66020   182.78761      0              0              0              0            
     66040   147.08126      0              0              0              0            
     66060   168.14997      0              0              0              0            
     66080   196.23551      0              0              0              0            
     66100   261.67868      0              0              0              0            
     66120   153.31284      0              0              0              0            
     66140   320.92915      0              0              0              0            
     66160   306.26436      0              0              0              0            
     66180   338.58994      0              0              0              0            
     66200   275.10796      0              0              0              0            
     66220   395.66755      0              0              0              0            
     66240   333.07667      0              0              0              0            
     66260   335.46942      0              0              0              0            
     66280   335.78687      0              0              0              0            
     66300   395.14696      0              0              0              0            
     66320   245.22578      0              0              0              0            
     66340   321.80836      0              0              0              0            
     66360   339.87578      0              0              0              0            
     66380   311.37228      0              0              0              0            
     66400   227.05573      0              0              0              0            
     66420   299.75602      0              0              0              0            
     66440   283.87859      0              0              0              0            
     66460   187.23824      0              0              0              0            
     66480   241.65348      0              0              0              0            
     66500   213.27817      0              0              0              0            
     66520   206.92182      0              0              0              0            
     66540   143.06845      0              0              0              0            
     66560   199.51694      0              0              0              0            
     66580   140.48348      0              0              0              0            
     66600   141.87668      0              0              0              0            
     66620   141.21823      0              0              0              0            
     66640   188.82644      0              0              0              0            
     66660   116.13112      0              0              0              0            
     66680   163.79777      0              0              0              0            
     66700   178.0455       0              0              0              0            
     66720   281.39046      0              0              0              0            
     66740   203.22159      0              0              0              0            
     66760   365.84959      0              0              0              0            
     66780   329.84567      0              0              0              0            
     66800   367.63205      0              0              0              0            
     66820   348.60245      0              0              0              0            
     66840   478.77687      0              0              0              0            
     66860   385.35845      0              0              0              0            
     66880   349.969        0              0              0              0            
     66900   376.48631      0              0              0              0            
     66920   384.16483      0              0              0              0            
     66940   321.566        0              0              0              0            
     66960   288.91083      0              0              0              0            
     66980   320.4333       0              0              0              0            
     67000   240.81957      0              0              0              0            
     67020   214.8391       0              0              0              0            
     67040   230.30072      0              0              0              0            
     67060   237.72444      0              0              0              0            
     67080   150.08882      0              0              0              0            
     67100   214.04456      0              0              0              0            
     67120   190.43548      0              0              0              0            
     67140   204.83455      0              0              0              0            
     67160   145.63242      0              0              0              0            
     67180   254.74126      0              0              0              0            
     67200   223.90288      0              0              0              0            
     67220   281.29593      0              0              0              0            
     67240   271.1142       0              0              0              0            
     67260   432.50033      0              0              0              0            
     67280   381.89823      0              0              0              0            
     67300   473.30377      0              0              0              0            
     67320   497.24658      0              0              0              0            
     67340   515.01408      0              0              0              0            
     67360   358.73236      0              0              0              0            
     67380   467.12945      0              0              0              0            
     67400   438.54088      0              0              0              0            
     67420   314.65932      0              0              0              0            
     67440   249.67349      0              0              0              0            
     67460   290.96015      0              0              0              0            
     67480   253.29341      0              0              0              0            
     67500   187.69665      0              0              0              0            
     67520   257.56929      0              0              0              0            
     67540   213.77665      0              0              0              0            
     67560   202.70094      0              0              0              0            
     67580   179.04242      0              0              0              0            
     67600   283.04452      0              0              0              0            
     67620   201.17339      0              0              0              0            
     67640   233.75212      0              0              0              0            
     67660   275.61517      0              0              0              0            
     67680   341.87297      0              0              0              0            
     67700   255.28938      0              0              0              0            
     67720   424.62553      0              0              0              0            
     67740   445.02156      0              0              0              0            
     67760   517.38116      0              0              0              0            
     67780   427.2642       0              0              0              0            
     67800   657.23792      0              0              0              0            
     67820   530.13022      0              0              0              0            
     67840   554.60786      0              0              0              0            
     67860   468.11935      0              0              0              0            
     67880   428.69616      0              0              0              0            
     67900   249.12471      0              0              0              0            
     67920   205.49777      0              0              0              0            
     67940   252.60031      0              0              0              0            
     67960   198.03993      0              0              0              0            
     67980   163.48603      0              0              0              0            
     68000   180.83093      0              0              0              0            
     68020   193.93347      0              0              0              0            
     68040   147.47307      0              0              0              0            
     68060   204.75567      0              0              0              0            
     68080   245.33861      0              0              0              0            
     68100   243.99058      0              0              0              0            
     68120   195.90841      0              0              0              0            
     68140   355.10787      0              0              0              0            
     68160   318.89852      0              0              0              0            
     68180   391.15509      0              0              0              0            
     68200   335.77269      0              0              0              0            
     68220   495.97415      0              0              0              0            
     68240   363.09193      0              0              0              0            
     68260   442.35641      0              0              0              0            
     68280   406.55688      0              0              0              0            
     68300   433.59222      0              0              0              0            
     68320   289.38679      0              0              0              0            
     68340   354.38296      0              0              0              0            
     68360   295.95805      0              0              0              0            
     68380   230.10394      0              0              0              0            
     68400   185.81845      0              0              0              0            
     68420   240.96212      0              0              0              0            
     68440   192.47655      0              0              0              0            
     68460   167.13079      0              0              0              0            
     68480   172.72427      0              0              0              0            
     68500   194.36161      0              0              0              0            
     68520   190.87609      0              0              0              0            
     68540   178.73903      0              0              0              0            
     68560   257.21726      0              0              0              0            
     68580   203.21319      0              0              0              0            
     68600   275.96855      0              0              0              0            
     68620   334.294        0              0              0              0            
     68640   515.89361      0              0              0              0            
     68660   445.11641      0              0              0              0            
     68680   564.84694      0              0              0              0            
     68700   543.5531       0              0              0              0            
     68720   595.70705      0              0              0              0            
     68740   414.1008       0              0              0              0            
     68760   525.79654      0              0              0              0            
     68780   390.14964      0              0              0              0            
     68800   387.16002      0              0              0              0            
     68820   269.72224      0              0              0              0            
     68840   363.39839      0              0              0              0            
     68860   229.65942      0              0              0              0            
     68880   241.73946      0              0              0              0            
     68900   226.13112      0              0              0              0            
     68920   240.19713      0              0              0              0            
     68940   170.15133      0              0              0              0            
     68960   189.0293       0              0              0              0            
     68980   239.82986      0              0              0              0            
     69000   192.76312      0              0              0              0            
     69020   205.27872      0              0              0              0            
     69040   250.08038      0              0              0              0            
     69060   279.67299      0              0              0              0            
     69080   249.42909      0              0              0              0            
     69100   353.18569      0              0              0              0            
     69120   384.27653      0              0              0              0            
     69140   398.3005       0              0              0              0            
     69160   331.77302      0              0              0              0            
     69180   565.9076       0              0              0              0            
     69200   426.13822      0              0              0              0            
     69220   456.28852      0              0              0              0            
     69240   365.16322      0              0              0              0            
     69260   457.71136      0              0              0              0            
     69280   258.36504      0              0              0              0            
     69300   316.9012       0              0              0              0            
     69320   256.73863      0              0              0              0            
     69340   233.37453      0              0              0              0            
     69360   137.08652      0              0              0              0            
     69380   217.86026      0              0              0              0            
     69400   190.50519      0              0              0              0            
     69420   171.94189      0              0              0              0            
     69440   165.93793      0              0              0              0            
     69460   240.99506      0              0              0              0            
     69480   171.0842       0              0              0              0            
     69500   182.14573      0              0              0              0            
     69520   257.96828      0              0              0              0            
     69540   246.07777      0              0              0              0            
     69560   240.74731      0              0              0              0            
     69580   267.63123      0              0              0              0            
     69600   353.69369      0              0              0              0            
     69620   263.45712      0              0              0              0            
     69640   366.85062      0              0              0              0            
     69660   393.49067      0              0              0              0            
     69680   420.84294      0              0              0              0            
     69700   308.01992      0              0              0              0            
     69720   433.54192      0              0              0              0            
     69740   376.30056      0              0              0              0            
     69760   407.13081      0              0              0              0            
     69780   292.17326      0              0              0              0            
     69800   390.50342      0              0              0              0            
     69820   210.38651      0              0              0              0            
     69840   229.00921      0              0              0              0            
     69860   192.06409      0              0              0              0            
     69880   210.63221      0              0              0              0            
     69900   109.00482      0              0              0              0            
     69920   149.40513      0              0              0              0            
     69940   149.64399      0              0              0              0            
     69960   151.53197      0              0              0              0            
     69980   138.41176      0              0              0              0            
     70000   181.70927      0              0              0              0            
     70020   180.22109      0              0              0              0            
     70040   166.21178      0              0              0              0            
     70060   210.1637       0              0              0              0            
     70080   250.06488      0              0              0              0            
     70100   235.42003      0              0              0              0            
     70120   218.09639      0              0              0              0            
     70140   322.65553      0              0              0              0            
     70160   270.56063      0              0              0              0            
     70180   282.60256      0              0              0              0            
     70200   268.13235      0              0              0              0            
     70220   388.56157      0              0              0              0            
     70240   271.33722      0              0              0              0            
     70260   358.80869      0              0              0              0            
     70280   307.8316       0              0              0              0            
     70300   373.21121      0              0              0              0            
     70320   273.90915      0              0              0              0            
     70340   394.04901      0              0              0              0            
     70360   328.55571      0              0              0              0            
     70380   329.05447      0              0              0              0            
     70400   245.48031      0              0              0              0            
     70420   353.61826      0              0              0              0            
     70440   250.56976      0              0              0              0            
     70460   220.78702      0              0              0              0            
     70480   200.33089      0              0              0              0            
     70500   217.52545      0              0              0              0            
     70520   141.24567      0              0              0              0            
     70540   165.99073      0              0              0              0            
     70560   188.9778       0              0              0              0            
     70580   136.12262      0              0              0              0            
     70600   133.53372      0              0              0              0            
     70620   159.96383      0              0              0              0            
     70640   201.92056      0              0              0              0            
     70660   158.50732      0              0              0              0            
     70680   254.72254      0              0              0              0            
     70700   291.90577      0              0              0              0            
     70720   335.56405      0              0              0              0            
     70740   294.40713      0              0              0              0            
     70760   492.56781      0              0              0              0            
     70780   379.99827      0              0              0              0            
     70800   407.56577      0              0              0              0            
     70820   356.10394      0              0              0              0            
     70840   486.18466      0              0              0              0            
     70860   265.75892      0              0              0              0            
     70880   373.21511      0              0              0              0            
     70900   326.84203      0              0              0              0            
     70920   338.04868      0              0              0              0            
     70940   212.17337      0              0              0              0            
     70960   291.95869      0              0              0              0            
     70980   250.7791       0              0              0              0            
     71000   218.39445      0              0              0              0            
     71020   208.02116      0              0              0              0            
     71040   260.14132      0              0              0              0            
     71060   185.57022      0              0              0              0            
     71080   190.53152      0              0              0              0            
     71100   259.90717      0              0              0              0            
     71120   260.82959      0              0              0              0            
     71140   253.05987      0              0              0              0            
     71160   305.86474      0              0              0              0            
     71180   465.63048      0              0              0              0            
     71200   381.96979      0              0              0              0            
     71220   541.0168       0              0              0              0            
     71240   550.66047      0              0              0              0            
     71260   598.36068      0              0              0              0            
     71280   411.34018      0              0              0              0            
     71300   522.26222      0              0              0              0            
     71320   385.41482      0              0              0              0            
     71340   380.57753      0              0              0              0            
     71360   248.89639      0              0              0              0            
     71380   351.99075      0              0              0              0            
     71400   200.77463      0              0              0              0            
     71420   247.53566      0              0              0              0            
     71440   212.34644      0              0              0              0            
     71460   296.48254      0              0              0              0            
     71480   184.8445       0              0              0              0            
     71500   246.30265      0              0              0              0            
     71520   251.81526      0              0              0              0            
     71540   252.29413      0              0              0              0            
     71560   243.61308      0              0              0              0            
     71580   299.82113      0              0              0              0            
     71600   327.27454      0              0              0              0            
     71620   289.15403      0              0              0              0            
     71640   343.62263      0              0              0              0            
     71660   410.22073      0              0              0              0            
     71680   447.0931       0              0              0              0            
     71700   429.20729      0              0              0              0            
     71720   589.79979      0              0              0              0            
     71740   513.7993       0              0              0              0            
     71760   590.54283      0              0              0              0            
     71780   493.32925      0              0              0              0            
     71800   634.07953      0              0              0              0            
     71820   355.68171      0              0              0              0            
     71840   373.45851      0              0              0              0            
     71860   274.51411      0              0              0              0            
     71880   308.49168      0              0              0              0            
     71900   166.7102       0              0              0              0            
     71920   241.00117      0              0              0              0            
     71940   185.96447      0              0              0              0            
     71960   214.85273      0              0              0              0            
     71980   147.4814       0              0              0              0            
     72000   255.75923      0              0              0              0            
     72020   190.42784      0              0              0              0            
     72040   224.33781      0              0              0              0            
     72060   238.30154      0              0              0              0            
     72080   315.9605       0              0              0              0            
     72100   279.02263      0              0              0              0            
     72120   316.81113      0              0              0              0            
     72140   440.73508      0              0              0              0            
     72160   399.49678      0              0              0              0            
     72180   395.34986      0              0              0              0            
     72200   428.0808       0              0              0              0            
     72220   492.50299      0              0              0              0            
     72240   374.08282      0              0              0              0            
     72260   396.23637      0              0              0              0            
     72280   365.83131      0              0              0              0            
     72300   330.69338      0              0              0              0            
     72320   190.92573      0              0              0              0            
     72340   286.17633      0              0              0              0            
     72360   173.36629      0              0              0              0            
     72380   187.91068      0              0              0              0            
     72400   131.79286      0              0              0              0            
     72420   222.78581      0              0              0              0            
     72440   126.22099      0              0              0              0            
     72460   177.4242       0              0              0              0            
     72480   176.53664      0              0              0              0            
     72500   212.70976      0              0              0              0            
     72520   127.31456      0              0              0              0            
     72540   225.62363      0              0              0              0            
     72560   225.71789      0              0              0              0            
     72580   237.98278      0              0              0              0            
     72600   210.59673      0              0              0              0            
     72620   333.46731      0              0              0              0            
     72640   293.56629      0              0              0              0            
     72660   292.82789      0              0              0              0            
     72680   397.03917      0              0              0              0            
     72700   385.35311      0              0              0              0            
     72720   372.51444      0              0              0              0            
     72740   365.15497      0              0              0              0            
     72760   468.95469      0              0              0              0            
     72780   351.77713      0              0              0              0            
     72800   358.10625      0              0              0              0            
     72820   366.26256      0              0              0              0            
     72840   381.65537      0              0              0              0            
     72860   211.39791      0              0              0              0            
     72880   257.69518      0              0              0              0            
     72900   193.55308      0              0              0              0            
     72920   215.85291      0              0              0              0            
     72940   114.27707      0              0              0              0            
     72960   206.59788      0              0              0              0            
     72980   125.17581      0              0              0              0            
     73000   160.40184      0              0              0              0            
     73020   144.1857       0              0              0              0            
     73040   219.13484      0              0              0              0            
     73060   149.67323      0              0              0              0            
     73080   198.09117      0              0              0              0            
     73100   228.2102       0              0              0              0            
     73120   266.85229      0              0              0              0            
     73140   221.829        0              0              0              0            
     73160   301.41849      0              0              0              0            
     73180   304.21394      0              0              0              0            
     73200   286.78359      0              0              0              0            
     73220   281.61657      0              0              0              0            
     73240   333.2972       0              0              0              0            
     73260   326.0587       0              0              0              0            
     73280   248.99563      0              0              0              0            
     73300   359.97203      0              0              0              0            
     73320   299.06862      0              0              0              0            
     73340   321.72921      0              0              0              0            
     73360   286.54296      0              0              0              0            
     73380   391.56175      0              0              0              0            
     73400   273.94547      0              0              0              0            
     73420   316.91671      0              0              0              0            
     73440   277.93125      0              0              0              0            
     73460   355.549        0              0              0              0            
     73480   215.75455      0              0              0              0            
     73500   317.13411      0              0              0              0            
     73520   255.79857      0              0              0              0            
     73540   285.85212      0              0              0              0            
     73560   176.98245      0              0              0              0            
     73580   292.49259      0              0              0              0            
     73600   233.15137      0              0              0              0            
     73620   222.95801      0              0              0              0            
     73640   196.648        0              0              0              0            
     73660   250.905        0              0              0              0            
     73680   204.39478      0              0              0              0            
     73700   226.79963      0              0              0              0            
     73720   290.80292      0              0              0              0            
     73740   279.00552      0              0              0              0            
     73760   276.63353      0              0              0              0            
     73780   351.76493      0              0              0              0            
     73800   476.04277      0              0              0              0            
     73820   382.03105      0              0              0              0            
     73840   447.6456       0              0              0              0            
     73860   462.34676      0              0              0              0            
     73880   530.63299      0              0              0              0            
     73900   343.4384       0              0              0              0            
     73920   491.55844      0              0              0              0            
     73940   342.90894      0              0              0              0            
     73960   318.35697      0              0              0              0            
     73980   207.9234       0              0              0              0            
     74000   304.01536      0              0              0              0            
     74020   157.33605      0              0              0              0            
     74040   198.41261      0              0              0              0            
     74060   182.54779      0              0              0              0            
     74080   232.98462      0              0              0              0            
     74100   134.4993       0              0              0              0            
     74120   212.66735      0              0              0              0            
     74140   230.07149      0              0              0              0            
     74160   231.63785      0              0              0              0            
     74180   204.75555      0              0              0              0            
     74200   284.05822      0              0              0              0            
     74220   260.96635      0              0              0              0            
     74240   243.38574      0              0              0              0            
     74260   314.67493      0              0              0              0            
     74280   363.44464      0              0              0              0            
     74300   326.09124      0              0              0              0            
     74320   294.65097      0              0              0              0            
     74340   433.96127      0              0              0              0            
     74360   323.74853      0              0              0              0            
     74380   382.05581      0              0              0              0            
     74400   326.2194       0              0              0              0            
     74420   403.97203      0              0              0              0            
     74440   236.96415      0              0              0              0            
     74460   332.64747      0              0              0              0            
     74480   265.74885      0              0              0              0            
     74500   257.30879      0              0              0              0            
     74520   129.1791       0              0              0              0            
     74540   192.54189      0              0              0              0            
     74560   121.68783      0              0              0              0            
     74580   131.22506      0              0              0              0            
     74600   95.013462      0              0              0              0            
     74620   156.87188      0              0              0              0            
     74640   94.847036      0              0              0              0            
     74660   135.49165      0              0              0              0            
     74680   155.43068      0              0              0              0            
     74700   179.83228      0              0              0              0            
     74720   169.90739      0              0              0              0            
     74740   216.40741      0              0              0              0            
     74760   267.22142      0              0              0              0            
     74780   233.0627       0              0              0              0            
     74800   250.67047      0              0              0              0            
     74820   303.20449      0              0              0              0            
     74840   334.19162      0              0              0              0            
     74860   269.46472      0              0              0              0            
     74880   359.16243      0              0              0              0            
     74900   325.1898       0              0              0              0            
     74920   376.18293      0              0              0              0            
     74940   271.72188      0              0              0              0            
     74960   433.97061      0              0              0              0            
     74980   285.38602      0              0              0              0            
     75000   348.29851      0              0              0              0            
     75020   271.28821      0              0              0              0            
     75040   373.50389      0              0              0              0            
     75060   230.79978      0              0              0              0            
     75080   281.84157      0              0              0              0            
     75100   231.08055      0              0              0              0            
     75120   245.27789      0              0              0              0            
     75140   135.46892      0              0              0              0            
     75160   206.4587       0              0              0              0            
     75180   147.15503      0              0              0              0            
     75200   145.1319       0              0              0              0            
     75220   113.70862      0              0              0              0            
     75240   171.14655      0              0              0              0            
     75260   140.49041      0              0              0              0            
     75280   130.98489      0              0              0              0            
     75300   197.66603      0              0              0              0            
     75320   212.26279      0              0              0              0            
     75340   227.62558      0              0              0              0            
     75360   280.24047      0              0              0              0            
     75380   402.74708      0              0              0              0            
     75400   341.1259       0              0              0              0            
     75420   386.47259      0              0              0              0            
     75440   403.25617      0              0              0              0            
     75460   460.37595      0              0              0              0            
     75480   283.68664      0              0              0              0            
     75500   438.96941      0              0              0              0            
     75520   338.99628      0              0              0              0            
     75540   351.46316      0              0              0              0            
     75560   214.8929       0              0              0              0            
     75580   357.18135      0              0              0              0            
     75600   223.63107      0              0              0              0            
     75620   247.97204      0              0              0              0            
     75640   210.30518      0              0              0              0            
     75660   277.48535      0              0              0              0            
     75680   156.54345      0              0              0              0            
     75700   223.65373      0              0              0              0            
     75720   215.44418      0              0              0              0            
     75740   224.06161      0              0              0              0            
     75760   160.44196      0              0              0              0            
     75780   276.74446      0              0              0              0            
     75800   287.59998      0              0              0              0            
     75820   292.03242      0              0              0              0            
     75840   411.88803      0              0              0              0            
     75860   498.90627      0              0              0              0            
     75880   515.44838      0              0              0              0            
     75900   439.53419      0              0              0              0            
     75920   589.2333       0              0              0              0            
     75940   457.70905      0              0              0              0            
     75960   434.43979      0              0              0              0            
     75980   358.06413      0              0              0              0            
     76000   427.14929      0              0              0              0            
     76020   228.45312      0              0              0              0            
     76040   297.63464      0              0              0              0            
     76060   243.88052      0              0              0              0            
     76080   303.33014      0              0              0              0            
     76100   158.51219      0              0              0              0            
     76120   285.21806      0              0              0              0            
     76140   206.59602      0              0              0              0            
     76160   250.92095      0              0              0              0            
     76180   196.55869      0              0              0              0            
     76200   327.9514       0              0              0              0            
     76220   229.84522      0              0              0              0            
     76240   280.6572       0              0              0              0            
     76260   285.00982      0              0              0              0            
     76280   360.89371      0              0              0              0            
     76300   290.78691      0              0              0              0            
     76320   340.88623      0              0              0              0            
     76340   388.05156      0              0              0              0            
     76360   380.65835      0              0              0              0            
     76380   379.18499      0              0              0              0            
     76400   441.26608      0              0              0              0            
     76420   516.28967      0              0              0              0            
     76440   404.61769      0              0              0              0            
     76460   532.65195      0              0              0              0            
     76480   469.52409      0              0              0              0            
     76500   486.29451      0              0              0              0            
     76520   315.81632      0              0              0              0            
     76540   424.89703      0              0              0              0            
     76560   280.97063      0              0              0              0            
     76580   289.01269      0              0              0              0            
     76600   189.31236      0              0              0              0            
     76620   293.76269      0              0              0              0            
     76640   161.27702      0              0              0              0            
     76660   209.66887      0              0              0              0            
     76680   172.82655      0              0              0              0            
     76700   233.35272      0              0              0              0            
     76720   131.93205      0              0              0              0            
     76740   246.18294      0              0              0              0            
     76760   235.86993      0              0              0              0            
     76780   248.4271       0              0              0              0            
     76800   232.86311      0              0              0              0            
     76820   371.82691      0              0              0              0            
     76840   362.71362      0              0              0              0            
     76860   374.25415      0              0              0              0            
     76880   456.36744      0              0              0              0            
     76900   452.31226      0              0              0              0            
     76920   420.00982      0              0              0              0            
     76940   383.87522      0              0              0              0            
     76960   517.45079      0              0              0              0            
     76980   352.65025      0              0              0              0            
     77000   343.02426      0              0              0              0            
     77020   297.91747      0              0              0              0            
     77040   377.19262      0              0              0              0            
     77060   200.9869       0              0              0              0            
     77080   312.04453      0              0              0              0            
     77100   251.26935      0              0              0              0            
     77120   288.94326      0              0              0              0            
     77140   188.02241      0              0              0              0            
     77160   354.03853      0              0              0              0            
     77180   247.8493       0              0              0              0            
     77200   278.36612      0              0              0              0            
     77220   246.42043      0              0              0              0            
     77240   360.1563       0              0              0              0            
     77260   236.39135      0              0              0              0            
     77280   291.08409      0              0              0              0            
     77300   326.42518      0              0              0              0            
     77320   354.30417      0              0              0              0            
     77340   282.457        0              0              0              0            
     77360   366.67271      0              0              0              0            
     77380   382.96253      0              0              0              0            
     77400   314.41245      0              0              0              0            
     77420   375.84545      0              0              0              0            
     77440   399.48188      0              0              0              0            
     77460   377.79894      0              0              0              0            
     77480   270.64545      0              0              0              0            
     77500   393.99529      0              0              0              0            
     77520   288.68628      0              0              0              0            
     77540   305.50547      0              0              0              0            
     77560   217.10215      0              0              0              0            
     77580   301.5521       0              0              0              0            
     77600   166.43867      0              0              0              0            
     77620   211.83227      0              0              0              0            
     77640   169.85936      0              0              0              0            
     77660   228.46747      0              0              0              0            
     77680   119.4137       0              0              0              0            
     77700   216.55415      0              0              0              0            
     77720   180.40769      0              0              0              0            
     77740   237.38684      0              0              0              0            
     77760   188.8631       0              0              0              0            
     77780   327.09629      0              0              0              0            
     77800   294.07811      0              0              0              0            
     77820   365.51581      0              0              0              0            
     77840   410.78125      0              0              0              0            
     77860   478.75992      0              0              0              0            
     77880   445.96384      0              0              0              0            
     77900   424.57649      0              0              0              0            
     77920   484.80186      0              0              0              0            
     77940   429.51241      0              0              0              0            
     77960   364.59442      0              0              0              0            
     77980   332.84394      0              0              0              0            
     78000   391.48486      0              0              0              0            
     78020   258.63131      0              0              0              0            
     78040   307.70765      0              0              0              0            
     78060   256.85878      0              0              0              0            
     78080   324.73016      0              0              0              0            
     78100   196.4921       0              0              0              0            
     78120   327.33032      0              0              0              0            
     78140   247.73513      0              0              0              0            
     78160   286.7322       0              0              0              0            
     78180   207.69749      0              0              0              0            
     78200   348.48366      0              0              0              0            
     78220   237.95177      0              0              0              0            
     78240   283.11114      0              0              0              0            
     78260   266.78689      0              0              0              0            
     78280   383.98226      0              0              0              0            
     78300   252.83197      0              0              0              0            
     78320   377.46336      0              0              0              0            
     78340   387.65361      0              0              0              0            
     78360   445.60349      0              0              0              0            
     78380   424.87882      0              0              0              0            
     78400   598.33203      0              0              0              0            
     78420   658.25483      0              0              0              0            
     78440   560.53085      0              0              0              0            
     78460   641.0271       0              0              0              0            
     78480   567.70535      0              0              0              0            
     78500   474.06811      0              0              0              0            
     78520   309.10068      0              0              0              0            
     78540   384.16972      0              0              0              0            
     78560   265.877        0              0              0              0            
     78580   239.46208      0              0              0              0            
     78600   201.64995      0              0              0              0            
     78620   305.9054       0              0              0              0            
     78640   162.20056      0              0              0              0            
     78660   253.3444       0              0              0              0            
     78680   216.14879      0              0              0              0            
     78700   283.73041      0              0              0              0            
     78720   163.10235      0              0              0              0            
     78740   317.57613      0              0              0              0            
     78760   273.43872      0              0              0              0            
     78780   314.86639      0              0              0              0            
     78800   282.60412      0              0              0              0            
     78820   453.296        0              0              0              0            
     78840   357.83032      0              0              0              0            
     78860   425.10052      0              0              0              0            
     78880   493.25582      0              0              0              0            
     78900   526.36186      0              0              0              0            
     78920   396.7666       0              0              0              0            
     78940   424.95288      0              0              0              0            
     78960   424.6187       0              0              0              0            
     78980   276.02854      0              0              0              0            
     79000   247.46639      0              0              0              0            
     79020   203.12756      0              0              0              0            
     79040   221.95366      0              0              0              0            
     79060   125.77534      0              0              0              0            
     79080   200.84147      0              0              0              0            
     79100   161.11187      0              0              0              0            
     79120   184.64214      0              0              0              0            
     79140   135.97832      0              0              0              0            
     79160   250.15783      0              0              0              0            
     79180   172.26861      0              0              0              0            
     79200   242.13016      0              0              0              0            
     79220   224.24177      0              0              0              0            
     79240   380.87784      0              0              0              0            
     79260   241.22471      0              0              0              0            
     79280   381.82577      0              0              0              0            
     79300   338.35038      0              0              0              0            
     79320   420.27431      0              0              0              0            
     79340   308.23859      0              0              0              0            
     79360   414.50735      0              0              0              0            
     79380   366.91852      0              0              0              0            
     79400   345.64562      0              0              0              0            
     79420   316.47632      0              0              0              0            
     79440   377.63792      0              0              0              0            
     79460   317.17106      0              0              0              0            
     79480   253.19365      0              0              0              0            
     79500   302.2819       0              0              0              0            
     79520   274.35928      0              0              0              0            
     79540   246.32471      0              0              0              0            
     79560   213.37082      0              0              0              0            
     79580   300.70903      0              0              0              0            
     79600   190.60734      0              0              0              0            
     79620   240.89306      0              0              0              0            
     79640   201.05894      0              0              0              0            
     79660   268.48068      0              0              0              0            
     79680   143.83077      0              0              0              0            
     79700   227.45702      0              0              0              0            
     79720   186.29866      0              0              0              0            
     79740   230.33821      0              0              0              0            
     79760   148.27541      0              0              0              0            
     79780   293.38653      0              0              0              0            
     79800   219.67939      0              0              0              0            
     79820   283.4215       0              0              0              0            
     79840   275.32534      0              0              0              0            
     79860   423.11319      0              0              0              0            
     79880   296.0188       0              0              0              0            
     79900   407.74487      0              0              0              0            
     79920   444.45925      0              0              0              0            
     79940   448.47576      0              0              0              0            
     79960   377.45616      0              0              0              0            
     79980   428.92247      0              0              0              0            
     80000   453.95053      0              0              0              0            
     80020   321.58258      0              0              0              0            
     80040   313.43334      0              0              0              0            
     80060   288.05962      0              0              0              0            
     80080   265.47717      0              0              0              0            
     80100   168.72217      0              0              0              0            
     80120   267.0122       0              0              0              0            
     80140   184.55444      0              0              0              0            
     80160   183.17392      0              0              0              0            
     80180   148.53544      0              0              0              0            
     80200   268.47112      0              0              0              0            
     80220   152.71928      0              0              0              0            
     80240   231.38257      0              0              0              0            
     80260   217.77292      0              0              0              0            
     80280   314.75208      0              0              0              0            
     80300   219.18107      0              0              0              0            
     80320   435.25527      0              0              0              0            
     80340   429.64206      0              0              0              0            
     80360   538.95338      0              0              0              0            
     80380   466.11018      0              0              0              0            
     80400   629.19209      0              0              0              0            
     80420   495.36491      0              0              0              0            
     80440   450.43034      0              0              0              0            
     80460   456.5019       0              0              0              0            
     80480   454.81357      0              0              0              0            
     80500   344.66876      0              0              0              0            
     80520   325.87683      0              0              0              0            
     80540   367.24147      0              0              0              0            
     80560   272.85801      0              0              0              0            
     80580   273.06762      0              0              0              0            
     80600   250.15071      0              0              0              0            
     80620   286.66637      0              0              0              0            
     80640   171.79542      0              0              0              0            
     80660   246.02218      0              0              0              0            
     80680   209.31377      0              0              0              0            
     80700   261.27003      0              0              0              0            
     80720   159.09006      0              0              0              0            
     80740   287.6367       0              0              0              0            
     80760   220.18907      0              0              0              0            
     80780   301.96745      0              0              0              0            
     80800   265.53857      0              0              0              0            
     80820   434.05746      0              0              0              0            
     80840   336.19021      0              0              0              0            
     80860   478.08214      0              0              0              0            
     80880   487.92515      0              0              0              0            
     80900   594.9663       0              0              0              0            
     80920   445.31229      0              0              0              0            
     80940   511.25908      0              0              0              0            
     80960   453.94198      0              0              0              0            
     80980   392.32866      0              0              0              0            
     81000   295.87637      0              0              0              0            
     81020   266.65129      0              0              0              0            
     81040   265.14724      0              0              0              0            
     81060   178.79054      0              0              0              0            
     81080   238.99281      0              0              0              0            
     81100   221.26009      0              0              0              0            
     81120   225.137        0              0              0              0            
     81140   185.86813      0              0              0              0            
     81160   283.28496      0              0              0              0            
     81180   225.81209      0              0              0              0            
     81200   262.76276      0              0              0              0            
     81220   236.70434      0              0              0              0            
     81240   376.29223      0              0              0              0            
     81260   234.31965      0              0              0              0            
     81280   374.43788      0              0              0              0            
     81300   340.91044      0              0              0              0            
     81320   457.08965      0              0              0              0            
     81340   306.13624      0              0              0              0            
     81360   479.34606      0              0              0              0            
     81380   397.11693      0              0              0              0            
     81400   379.56618      0              0              0              0            
     81420   321.07368      0              0              0              0            
     81440   392.82597      0              0              0              0            
     81460   261.66618      0              0              0              0            
     81480   223.9587       0              0              0              0            
     81500   209.00746      0              0              0              0            
     81520   203.81738      0              0              0              0            
     81540   131.03757      0              0              0              0            
     81560   145.6349       0              0              0              0            
     81580   192.61918      0              0              0              0            
     81600   126.6644       0              0              0              0            
     81620   151.99071      0              0              0              0            
     81640   162.89111      0              0              0              0            
     81660   216.98586      0              0              0              0            
     81680   150.86849      0              0              0              0            
     81700   256.05645      0              0              0              0            
     81720   265.36218      0              0              0              0            
     81740   272.1008       0              0              0              0            
     81760   236.50713      0              0              0              0            
     81780   382.03613      0              0              0              0            
     81800   266.7989       0              0              0              0            
     81820   341.5496       0              0              0              0            
     81840   279.08123      0              0              0              0            
     81860   414.61012      0              0              0              0            
     81880   239.97957      0              0              0              0            
     81900   359.69808      0              0              0              0            
     81920   340.09944      0              0              0              0            
     81940   334.51224      0              0              0              0            
     81960   251.43516      0              0              0              0            
     81980   332.0369       0              0              0              0            
     82000   298.36148      0              0              0              0            
     82020   262.795        0              0              0              0            
     82040   259.78895      0              0              0              0            
     82060   285.60391      0              0              0              0            
     82080   218.30934      0              0              0              0            
     82100   198.80985      0              0              0              0            
     82120   234.67199      0              0              0              0            
     82140   181.96213      0              0              0              0            
     82160   167.40778      0              0              0              0            
     82180   138.12629      0              0              0              0            
     82200   203.91846      0              0              0              0            
     82220   120.70776      0              0              0              0            
     82240   163.57878      0              0              0              0            
     82260   160.52032      0              0              0              0            
     82280   217.68787      0              0              0              0            
     82300   163.93862      0              0              0              0            
     82320   293.97913      0              0              0              0            
     82340   267.98341      0              0              0              0            
     82360   353.38151      0              0              0              0            
     82380   294.52348      0              0              0              0            
     82400   494.51219      0              0              0              0            
     82420   368.93574      0              0              0              0            
     82440   430.35051      0              0              0              0            
     82460   363.65274      0              0              0              0            
     82480   467.52304      0              0              0              0            
     82500   341.20989      0              0              0              0            
     82520   344.91046      0              0              0              0            
     82540   331.56993      0              0              0              0            
     82560   289.49531      0              0              0              0            
     82580   242.02099      0              0              0              0            
     82600   275.35621      0              0              0              0            
     82620   269.57978      0              0              0              0            
     82640   186.0583       0              0              0              0            
     82660   218.31583      0              0              0              0            
     82680   238.32136      0              0              0              0            
     82700   243.05511      0              0              0              0            
     82720   180.15975      0              0              0              0            
     82740   267.87306      0              0              0              0            
     82760   233.84176      0              0              0              0            
     82780   319.54534      0              0              0              0            
     82800   338.9562       0              0              0              0            
     82820   588.69517      0              0              0              0            
     82840   461.02949      0              0              0              0            
     82860   580.79935      0              0              0              0            
     82880   554.92347      0              0              0              0            
     82900   642.60873      0              0              0              0            
     82920   368.7442       0              0              0              0            
     82940   468.06501      0              0              0              0            
     82960   364.62583      0              0              0              0            
     82980   310.5685       0              0              0              0            
     83000   234.22541      0              0              0              0            
     83020   303.31193      0              0              0              0            
     83040   250.86423      0              0              0              0            
     83060   210.72472      0              0              0              0            
     83080   239.2557       0              0              0              0            
     83100   251.65354      0              0              0              0            
     83120   202.13438      0              0              0              0            
     83140   209.51466      0              0              0              0            
     83160   289.25025      0              0              0              0            
     83180   250.33125      0              0              0              0            
     83200   253.97482      0              0              0              0            
     83220   297.00099      0              0              0              0            
     83240   402.9088       0              0              0              0            
     83260   293.85407      0              0              0              0            
     83280   489.12452      0              0              0              0            
     83300   457.1114       0              0              0              0            
     83320   529.51233      0              0              0              0            
     83340   422.88576      0              0              0              0            
     83360   654.51349      0              0              0              0            
     83380   480.91591      0              0              0              0            
     83400   438.07707      0              0              0              0            
     83420   313.02251      0              0              0              0            
     83440   324.59819      0              0              0              0            
     83460   192.17541      0              0              0              0            
     83480   210.39286      0              0              0              0            
     83500   190.98953      0              0              0              0            
     83520   206.86333      0              0              0              0            
     83540   131.85556      0              0              0              0            
     83560   205.19761      0              0              0              0            
     83580   216.16001      0              0              0              0            
     83600   186.49868      0              0              0              0            
     83620   234.51454      0              0              0              0            
     83640   266.91014      0              0              0              0            
     83660   295.87693      0              0              0              0            
     83680   261.43543      0              0              0              0            
     83700   368.338        0              0              0              0            
     83720   397.16408      0              0              0              0            
     83740   395.63835      0              0              0              0            
     83760   373.13807      0              0              0              0            
     83780   478.79266      0              0              0              0            
     83800   369.55665      0              0              0              0            
     83820   428.32231      0              0              0              0            
     83840   329.48477      0              0              0              0            
     83860   409.59701      0              0              0              0            
     83880   208.41807      0              0              0              0            
     83900   309.1513       0              0              0              0            
     83920   224.00631      0              0              0              0            
     83940   239.85791      0              0              0              0            
     83960   145.24144      0              0              0              0            
     83980   195.11118      0              0              0              0            
     84000   150.44029      0              0              0              0            
     84020   138.3409       0              0              0              0            
     84040   127.7262       0              0              0              0            
     84060   153.15606      0              0              0              0            
     84080   98.310159      0              0              0              0            
     84100   103.52376      0              0              0              0            
     84120   104.58083      0              0              0              0            
     84140   116.20375      0              0              0              0            
     84160   91.524226      0              0              0              0            
     84180   106.65625      0              0              0              0            
     84200   146.5708       0              0              0              0            
     84220   106.92466      0              0              0              0            
     84240   164.58497      0              0              0              0            
     84260   196.38993      0              0              0              0            
     84280   252.90073      0              0              0              0            
     84300   204.44001      0              0              0              0            
     84320   324.12941      0              0              0              0            
     84340   325.8874       0              0              0              0            
     84360   361.66243      0              0              0              0            
     84380   309.17712      0              0              0              0            
     84400   505.82442      0              0              0              0            
     84420   344.13687      0              0              0              0            
     84440   413.78922      0              0              0              0            
     84460   338.6251       0              0              0              0            
     84480   468.30194      0              0              0              0            
     84500   283.04543      0              0              0              0            
     84520   357.57932      0              0              0              0            
     84540   305.54222      0              0              0              0            
     84560   262.81974      0              0              0              0            
     84580   203.6374       0              0              0              0            
     84600   256.22881      0              0              0              0            
     84620   219.65822      0              0              0              0            
     84640   164.3025       0              0              0              0            
     84660   171.39139      0              0              0              0            
     84680   220.49553      0              0              0              0            
     84700   168.56837      0              0              0              0            
     84720   184.22104      0              0              0              0            
     84740   254.76795      0              0              0              0            
     84760   233.66431      0              0              0              0            
     84780   280.02474      0              0              0              0            
     84800   343.57917      0              0              0              0            
     84820   537.33555      0              0              0              0            
     84840   402.18901      0              0              0              0            
     84860   567.91141      0              0              0              0            
     84880   504.38233      0              0              0              0            
     84900   533.40467      0              0              0              0            
     84920   354.56406      0              0              0              0            
     84940   493.66117      0              0              0              0            
     84960   358.29256      0              0              0              0            
     84980   343.16442      0              0              0              0            
     85000   238.17992      0              0              0              0            
     85020   356.36538      0              0              0              0            
     85040   203.94146      0              0              0              0            
     85060   256.97734      0              0              0              0            
     85080   237.6431       0              0              0              0            
     85100   279.87398      0              0              0              0            
     85120   191.1827       0              0              0              0            
     85140   249.72133      0              0              0              0            
     85160   277.36922      0              0              0              0            
     85180   242.17525      0              0              0              0            
     85200   253.03056      0              0              0              0            
     85220   307.05934      0              0              0              0            
     85240   322.7846       0              0              0              0            
     85260   316.19013      0              0              0              0            
     85280   445.90432      0              0              0              0            
     85300   514.85112      0              0              0              0            
     85320   568.93317      0              0              0              0            
     85340   524.84555      0              0              0              0            
     85360   768.12806      0              0              0              0            
     85380   558.5103       0              0              0              0            
     85400   568.61435      0              0              0              0            
     85420   372.31937      0              0              0              0            
     85440   423.96877      0              0              0              0            
     85460   210.49227      0              0              0              0            
     85480   296.04476      0              0              0              0            
     85500   221.89736      0              0              0              0            
     85520   276.27228      0              0              0              0            
     85540   175.1357       0              0              0              0            
     85560   274.92417      0              0              0              0            
     85580   221.9008       0              0              0              0            
     85600   248.82678      0              0              0              0            
     85620   213.81233      0              0              0              0            
     85640   338.29613      0              0              0              0            
     85660   262.87361      0              0              0              0            
     85680   283.83074      0              0              0              0            
     85700   347.88125      0              0              0              0            
     85720   398.11315      0              0              0              0            
     85740   363.65228      0              0              0              0            
     85760   379.48391      0              0              0              0            
     85780   468.85911      0              0              0              0            
     85800   365.33487      0              0              0              0            
     85820   412.08154      0              0              0              0            
     85840   402.22569      0              0              0              0            
     85860   421.75277      0              0              0              0            
     85880   233.37191      0              0              0              0            
     85900   299.44213      0              0              0              0            
     85920   223.13851      0              0              0              0            
     85940   226.85563      0              0              0              0            
     85960   118.97179      0              0              0              0            
     85980   223.38716      0              0              0              0            
     86000   127.05835      0              0              0              0            
     86020   162.31054      0              0              0              0            
     86040   145.89683      0              0              0              0            
     86060   238.58433      0              0              0              0            
     86080   134.28942      0              0              0              0            
     86100   214.37254      0              0              0              0            
     86120   226.30006      0              0              0              0            
     86140   268.68325      0              0              0              0            
     86160   213.58437      0              0              0              0            
     86180   315.74091      0              0              0              0            
     86200   309.13463      0              0              0              0            
     86220   288.74532      0              0              0              0            
     86240   313.11906      0              0              0              0            
     86260   361.18007      0              0              0              0            
     86280   311.5156       0              0              0              0            
     86300   272.32644      0              0              0              0            
     86320   391.47801      0              0              0              0            
     86340   319.01212      0              0              0              0            
     86360   293.95766      0              0              0              0            
     86380   263.1838       0              0              0              0            
     86400   389.36639      0              0              0              0            
     86420   236.75775      0              0              0              0            
     86440   324.55508      0              0              0              0            
     86460   264.23559      0              0              0              0            
     86480   308.93279      0              0              0              0            
     86500   179.25998      0              0              0              0            
     86520   299.73278      0              0              0              0            
     86540   207.48672      0              0              0              0            
     86560   215.93379      0              0              0              0            
     86580   140.76423      0              0              0              0            
     86600   236.96243      0              0              0              0            
     86620   153.87455      0              0              0              0            
     86640   168.91281      0              0              0              0            
     86660   158.96405      0              0              0              0            
     86680   204.7775       0              0              0              0            
     86700   137.23333      0              0              0              0            
     86720   205.77085      0              0              0              0            
     86740   248.65597      0              0              0              0            
     86760   257.6431       0              0              0              0            
     86780   285.64948      0              0              0              0            
     86800   359.8095       0              0              0              0            
     86820   420.2962       0              0              0              0            
     86840   368.45462      0              0              0              0            
     86860   456.43704      0              0              0              0            
     86880   427.24049      0              0              0              0            
     86900   440.59573      0              0              0              0            
     86920   320.33802      0              0              0              0            
     86940   440.53942      0              0              0              0            
     86960   302.51974      0              0              0              0            
     86980   336.30895      0              0              0              0            
     87000   238.65809      0              0              0              0            
     87020   351.39936      0              0              0              0            
     87040   192.42041      0              0              0              0            
     87060   261.18976      0              0              0              0            
     87080   207.07039      0              0              0              0            
     87100   264.30571      0              0              0              0            
     87120   168.36286      0              0              0              0            
     87140   253.57871      0              0              0              0            
     87160   220.02534      0              0              0              0            
     87180   263.00768      0              0              0              0            
     87200   230.52053      0              0              0              0            
     87220   389.50231      0              0              0              0            
     87240   401.0052       0              0              0              0            
     87260   524.43633      0              0              0              0            
     87280   649.58798      0              0              0              0            
     87300   755.82864      0              0              0              0            
     87320   647.66885      0              0              0              0            
     87340   541.38989      0              0              0              0            
     87360   604.52342      0              0              0              0            
     87380   421.00653      0              0              0              0            
     87400   380.48473      0              0              0              0            
     87420   328.70757      0              0              0              0            
     87440   373.98866      0              0              0              0            
     87460   221.89202      0              0              0              0            
     87480   275.99283      0              0              0              0            
     87500   234.2523       0              0              0              0            
     87520   273.19377      0              0              0              0            
     87540   164.3846       0              0              0              0            
     87560   295.52837      0              0              0              0            
     87580   208.20777      0              0              0              0            
     87600   244.92362      0              0              0              0            
     87620   196.11997      0              0              0              0            
     87640   335.04628      0              0              0              0            
     87660   227.57706      0              0              0              0            
     87680   310.11576      0              0              0              0            
     87700   327.87765      0              0              0              0            
     87720   418.47092      0              0              0              0            
     87740   343.6135       0              0              0              0            
     87760   507.43062      0              0              0              0            
     87780   530.43815      0              0              0              0            
     87800   487.85375      0              0              0              0            
     87820   448.22243      0              0              0              0            
     87840   498.45084      0              0              0              0            
     87860   412.1146       0              0              0              0            
     87880   262.9423       0              0              0              0            
     87900   307.54374      0              0              0              0            
     87920   216.70108      0              0              0              0            
     87940   199.28142      0              0              0              0            
     87960   148.93745      0              0              0              0            
     87980   244.41028      0              0              0              0            
     88000   150.19785      0              0              0              0            
     88020   189.81434      0              0              0              0            
     88040   176.29887      0              0              0              0            
     88060   259.11987      0              0              0              0            
     88080   150.10512      0              0              0              0            
     88100   285.19391      0              0              0              0            
     88120   265.84546      0              0              0              0            
     88140   338.80177      0              0              0              0            
     88160   244.41506      0              0              0              0            
     88180   423.11242      0              0              0              0            
     88200   339.24668      0              0              0              0            
     88220   390.74364      0              0              0              0            
     88240   363.88689      0              0              0              0            
     88260   450.90479      0              0              0              0            
     88280   322.91525      0              0              0              0            
     88300   354.00385      0              0              0              0            
     88320   377.28689      0              0              0              0            
     88340   337.35228      0              0              0              0            
     88360   273.53548      0              0              0              0            
     88380   241.7494       0              0              0              0            
     88400   248.94545      0              0              0              0            
     88420   150.5895       0              0              0              0            
     88440   160.00477      0              0              0              0            
     88460   122.83867      0              0              0              0            
     88480   137.87635      0              0              0              0            
     88500   76.377223      0              0              0              0            
     88520   146.51361      0              0              0              0            
     88540   109.3302       0              0              0              0            
     88560   137.02706      0              0              0              0            
     88580   94.01217       0              0              0              0            
     88600   183.57237      0              0              0              0            
     88620   113.9496       0              0              0              0            
     88640   177.8281       0              0              0              0            
     88660   153.07651      0              0              0              0            
     88680   249.96762      0              0              0              0            
     88700   161.85195      0              0              0              0            
     88720   269.47602      0              0              0              0            
     88740   274.01122      0              0              0              0            
     88760   314.95244      0              0              0              0            
     88780   254.48191      0              0              0              0            
     88800   387.06668      0              0              0              0            
     88820   371.54339      0              0              0              0            
     88840   342.19932      0              0              0              0            
     88860   367.64834      0              0              0              0            
     88880   431.94237      0              0              0              0            
     88900   386.37597      0              0              0              0            
     88920   339.43286      0              0              0              0            
     88940   412.50387      0              0              0              0            
     88960   294.24161      0              0              0              0            
     88980   294.13377      0              0              0              0            
     89000   223.88266      0              0              0              0            
     89020   292.38835      0              0              0              0            
     89040   145.06682      0              0              0              0            
     89060   181.12111      0              0              0              0            
     89080   155.42067      0              0              0              0            
     89100   191.97696      0              0              0              0            
     89120   99.467844      0              0              0              0            
     89140   182.61351      0              0              0              0            
     89160   130.05246      0              0              0              0            
     89180   165.27278      0              0              0              0            
     89200   132.61658      0              0              0              0            
     89220   298.10948      0              0              0              0            
     89240   240.32019      0              0              0              0            
     89260   374.49296      0              0              0              0            
     89280   403.8201       0              0              0              0            
     89300   501.24609      0              0              0              0            
     89320   393.51031      0              0              0              0            
     89340   426.88277      0              0              0              0            
     89360   450.60477      0              0              0              0            
     89380   361.94666      0              0              0              0            
     89400   318.04932      0              0              0              0            
     89420   342.60121      0              0              0              0            
     89440   316.31675      0              0              0              0            
     89460   218.37529      0              0              0              0            
     89480   275.54597      0              0              0              0            
     89500   242.6107       0              0              0              0            
     89520   227.33427      0              0              0              0            
     89540   151.53934      0              0              0              0            
     89560   266.31259      0              0              0              0            
     89580   166.23958      0              0              0              0            
     89600   230.81258      0              0              0              0            
     89620   188.95083      0              0              0              0            
     89640   294.06288      0              0              0              0            
     89660   201.50638      0              0              0              0            
     89680   343.4158       0              0              0              0            
     89700   356.11716      0              0              0              0            
     89720   476.59879      0              0              0              0            
     89740   364.34179      0              0              0              0            
     89760   579.43282      0              0              0              0            
     89780   482.34166      0              0              0              0            
     89800   520.23465      0              0              0              0            
     89820   418.38335      0              0              0              0            
     89840   489.19106      0              0              0              0            
     89860   372.85842      0              0              0              0            
     89880   335.68306      0              0              0              0            
     89900   352.8176       0              0              0              0            
     89920   291.40189      0              0              0              0            
     89940   286.91596      0              0              0              0            
     89960   248.14655      0              0              0              0            
     89980   322.7389       0              0              0              0            
     90000   253.52044      0              0              0              0            
     90020   276.25235      0              0              0              0            
     90040   269.76825      0              0              0              0            
     90060   332.4023       0              0              0              0            
     90080   213.46909      0              0              0              0            
     90100   329.98237      0              0              0              0            
     90120   273.73133      0              0              0              0            
     90140   350.42616      0              0              0              0            
     90160   215.16479      0              0              0              0            
     90180   403.0716       0              0              0              0            
     90200   286.07912      0              0              0              0            
     90220   381.63412      0              0              0              0            
     90240   316.25683      0              0              0              0            
     90260   471.5589       0              0              0              0            
     90280   342.45528      0              0              0              0            
     90300   410.93761      0              0              0              0            
     90320   401.80159      0              0              0              0            
     90340   458.07703      0              0              0              0            
     90360   320.92981      0              0              0              0            
     90380   388.09484      0              0              0              0            
     90400   350.26289      0              0              0              0            
     90420   278.8793       0              0              0              0            
     90440   246.15354      0              0              0              0            
     90460   249.69834      0              0              0              0            
     90480   238.24405      0              0              0              0            
     90500   139.89668      0              0              0              0            
     90520   214.7605       0              0              0              0            
     90540   174.36645      0              0              0              0            
     90560   187.82657      0              0              0              0            
     90580   155.32081      0              0              0              0            
     90600   252.44521      0              0              0              0            
     90620   186.0407       0              0              0              0            
     90640   252.96596      0              0              0              0            
     90660   262.57611      0              0              0              0            
     90680   418.47849      0              0              0              0            
     90700   276.44349      0              0              0              0            
     90720   510.6142       0              0              0              0            
     90740   440.33343      0              0              0              0            
     90760   509.99419      0              0              0              0            
     90780   357.89628      0              0              0              0            
     90800   548.49408      0              0              0              0            
     90820   405.92758      0              0              0              0            
     90840   375.5369       0              0              0              0            
     90860   336.45471      0              0              0              0            
     90880   381.56976      0              0              0              0            
     90900   281.20578      0              0              0              0            
     90920   287.20337      0              0              0              0            
     90940   321.38296      0              0              0              0            
     90960   271.06431      0              0              0              0            
     90980   231.01661      0              0              0              0            
     91000   267.67746      0              0              0              0            
     91020   307.91866      0              0              0              0            
     91040   203.60704      0              0              0              0            
     91060   275.24293      0              0              0              0            
     91080   250.03815      0              0              0              0            
     91100   299.43047      0              0              0              0            
     91120   203.0174       0              0              0              0            
     91140   359.81834      0              0              0              0            
     91160   320.85248      0              0              0              0            
     91180   409.40702      0              0              0              0            
     91200   397.59912      0              0              0              0            
     91220   633.8208       0              0              0              0            
     91240   486.92486      0              0              0              0            
     91260   636.16274      0              0              0              0            
     91280   513.85319      0              0              0              0            
     91300   614.05668      0              0              0              0            
     91320   352.33886      0              0              0              0            
     91340   425.76573      0              0              0              0            
     91360   319.90482      0              0              0              0            
     91380   293.62202      0              0              0              0            
     91400   222.8204       0              0              0              0            
     91420   270.22698      0              0              0              0            
     91440   243.10961      0              0              0              0            
     91460   207.19711      0              0              0              0            
     91480   237.8948       0              0              0              0            
     91500   265.0272       0              0              0              0            
     91520   241.71833      0              0              0              0            
     91540   215.64426      0              0              0              0            
     91560   314.76616      0              0              0              0            
     91580   288.78367      0              0              0              0            
     91600   318.4234       0              0              0              0            
     91620   303.76074      0              0              0              0            
     91640   421.04298      0              0              0              0            
     91660   290.12044      0              0              0              0            
     91680   441.67626      0              0              0              0            
     91700   421.50485      0              0              0              0            
     91720   516.54791      0              0              0              0            
     91740   349.75252      0              0              0              0            
     91760   510.09882      0              0              0              0            
     91780   402.84426      0              0              0              0            
     91800   402.60001      0              0              0              0            
     91820   237.30259      0              0              0              0            
     91840   309.97493      0              0              0              0            
     91860   187.58388      0              0              0              0            
     91880   194.41564      0              0              0              0            
     91900   179.60835      0              0              0              0            
     91920   210.29681      0              0              0              0            
     91940   143.03493      0              0              0              0            
     91960   177.66603      0              0              0              0            
     91980   210.96141      0              0              0              0            
     92000   179.53912      0              0              0              0            
     92020   188.75916      0              0              0              0            
     92040   244.34532      0              0              0              0            
     92060   299.5735       0              0              0              0            
     92080   244.57054      0              0              0              0            
     92100   361.52967      0              0              0              0            
     92120   385.99347      0              0              0              0            
     92140   425.03959      0              0              0              0            
     92160   317.31703      0              0              0              0            
     92180   503.62415      0              0              0              0            
     92200   343.90695      0              0              0              0            
     92220   369.14756      0              0              0              0            
     92240   325.37406      0              0              0              0            
     92260   445.60286      0              0              0              0            
     92280   249.82804      0              0              0              0            
     92300   345.35851      0              0              0              0            
     92320   298.7469       0              0              0              0            
     92340   331.53567      0              0              0              0            
     92360   222.63501      0              0              0              0            
     92380   337.33551      0              0              0              0            
     92400   261.08481      0              0              0              0            
     92420   250.73396      0              0              0              0            
     92440   233.35282      0              0              0              0            
     92460   320.16897      0              0              0              0            
     92480   275.88385      0              0              0              0            
     92500   245.77656      0              0              0              0            
     92520   318.16018      0              0              0              0            
     92540   297.08943      0              0              0              0            
     92560   293.23168      0              0              0              0            
     92580   298.224        0              0              0              0            
     92600   385.00644      0              0              0              0            
     92620   311.33176      0              0              0              0            
     92640   439.19919      0              0              0              0            
     92660   515.50334      0              0              0              0            
     92680   686.03246      0              0              0              0            
     92700   552.09109      0              0              0              0            
     92720   753.34027      0              0              0              0            
     92740   566.16837      0              0              0              0            
     92760   589.69923      0              0              0              0            
     92780   328.15432      0              0              0              0            
     92800   447.9145       0              0              0              0            
     92820   279.06177      0              0              0              0            
     92840   286.46808      0              0              0              0            
     92860   240.88178      0              0              0              0            
     92880   290.87197      0              0              0              0            
     92900   204.59675      0              0              0              0            
     92920   235.8803       0              0              0              0            
     92940   239.35581      0              0              0              0            
     92960   242.18339      0              0              0              0            
     92980   184.91135      0              0              0              0            
     93000   253.14453      0              0              0              0            
     93020   272.82964      0              0              0              0            
     93040   258.48651      0              0              0              0            
     93060   310.98041      0              0              0              0            
     93080   342.35693      0              0              0              0            
     93100   421.08587      0              0              0              0            
     93120   326.08184      0              0              0              0            
     93140   501.84822      0              0              0              0            
     93160   464.77736      0              0              0              0            
     93180   476.69392      0              0              0              0            
     93200   401.3071       0              0              0              0            
     93220   538.70951      0              0              0              0            
     93240   351.5382       0              0              0              0            
     93260   352.93527      0              0              0              0            
     93280   236.97337      0              0              0              0            
     93300   278.43037      0              0              0              0            
     93320   120.39417      0              0              0              0            
     93340   202.18322      0              0              0              0            
     93360   159.83953      0              0              0              0            
     93380   192.70757      0              0              0              0            
     93400   126.36552      0              0              0              0            
     93420   218.81326      0              0              0              0            
     93440   200.52941      0              0              0              0            
     93460   191.19528      0              0              0              0            
     93480   232.60636      0              0              0              0            
     93500   310.44103      0              0              0              0            
     93520   254.37533      0              0              0              0            
     93540   285.23273      0              0              0              0            
     93560   372.29262      0              0              0              0            
     93580   378.78324      0              0              0              0            
     93600   353.489        0              0              0              0            
     93620   380.08918      0              0              0              0            
     93640   458.55732      0              0              0              0            
     93660   304.71852      0              0              0              0            
     93680   392.65922      0              0              0              0            
     93700   351.39287      0              0              0              0            
     93720   365.63203      0              0              0              0            
     93740   209.83203      0              0              0              0            
     93760   352.58315      0              0              0              0            
     93780   276.51248      0              0              0              0            
     93800   277.70547      0              0              0              0            
     93820   206.65436      0              0              0              0            
     93840   327.42687      0              0              0              0            
     93860   197.23427      0              0              0              0            
     93880   254.61384      0              0              0              0            
     93900   228.23472      0              0              0              0            
     93920   276.59255      0              0              0              0            
     93940   171.62731      0              0              0              0            
     93960   279.36921      0              0              0              0            
     93980   307.31596      0              0              0              0            
     94000   317.54903      0              0              0              0            
     94020   301.84422      0              0              0              0            
     94040   417.76269      0              0              0              0            
     94060   432.0195       0              0              0              0            
     94080   391.14957      0              0              0              0            
     94100   476.5714       0              0              0              0            
     94120   436.04957      0              0              0              0            
     94140   410.70744      0              0              0              0            
     94160   344.26956      0              0              0              0            
     94180   457.61304      0              0              0              0            
     94200   302.04285      0              0              0              0            
     94220   290.63498      0              0              0              0            
     94240   223.84092      0              0              0              0            
     94260   306.15918      0              0              0              0            
     94280   172.49993      0              0              0              0            
     94300   228.18659      0              0              0              0            
     94320   177.4726       0              0              0              0            
     94340   223.85348      0              0              0              0            
     94360   138.27424      0              0              0              0            
     94380   264.61333      0              0              0              0            
     94400   210.14064      0              0              0              0            
     94420   241.53992      0              0              0              0            
     94440   221.97458      0              0              0              0            
     94460   370.83746      0              0              0              0            
     94480   337.15645      0              0              0              0            
     94500   383.18216      0              0              0              0            
     94520   457.9684       0              0              0              0            
     94540   523.34284      0              0              0              0            
     94560   470.57415      0              0              0              0            
     94580   478.51789      0              0              0              0            
     94600   531.42653      0              0              0              0            
     94620   405.23883      0              0              0              0            
     94640   365.44779      0              0              0              0            
     94660   350.9436       0              0              0              0            
     94680   393.03598      0              0              0              0            
     94700   239.65396      0              0              0              0            
     94720   362.04644      0              0              0              0            
     94740   289.34448      0              0              0              0            
     94760   325.70825      0              0              0              0            
     94780   211.07114      0              0              0              0            
     94800   362.29571      0              0              0              0            
     94820   255.26803      0              0              0              0            
     94840   284.10311      0              0              0              0            
     94860   232.92692      0              0              0              0            
     94880   349.86825      0              0              0              0            
     94900   209.53992      0              0              0              0            
     94920   290.70733      0              0              0              0            
     94940   285.77929      0              0              0              0            
     94960   347.51603      0              0              0              0            
     94980   244.09813      0              0              0              0            
     95000   375.54118      0              0              0              0            
     95020   375.59826      0              0              0              0            
     95040   337.35741      0              0              0              0            
     95060   406.08862      0              0              0              0            
     95080   488.7451       0              0              0              0            
     95100   470.39341      0              0              0              0            
     95120   406.3747       0              0              0              0            
     95140   523.28466      0              0              0              0            
     95160   448.60176      0              0              0              0            
     95180   388.48445      0              0              0              0            
     95200   307.45173      0              0              0              0            
     95220   366.63297      0              0              0              0            
     95240   190.54514      0              0              0              0            
     95260   225.16329      0              0              0              0            
     95280   195.24582      0              0              0              0            
     95300   256.13441      0              0              0              0            
     95320   130.46826      0              0              0              0            
     95340   234.91415      0              0              0              0            
     95360   185.66945      0              0              0              0            
     95380   220.24081      0              0              0              0            
     95400   177.80263      0              0              0              0            
     95420   308.79698      0              0              0              0            
     95440   217.31213      0              0              0              0            
     95460   268.47087      0              0              0              0            
     95480   297.25462      0              0              0              0            
     95500   422.1496       0              0              0              0            
     95520   340.48714      0              0              0              0            
     95540   390.57617      0              0              0              0            
     95560   429.14643      0              0              0              0            
     95580   406.94558      0              0              0              0            
     95600   367.99279      0              0              0              0            
     95620   395.93425      0              0              0              0            
     95640   414.53981      0              0              0              0            
     95660   287.32424      0              0              0              0            
     95680   373.14931      0              0              0              0            
     95700   343.05151      0              0              0              0            
     95720   349.20095      0              0              0              0            
     95740   251.55011      0              0              0              0            
     95760   370.05815      0              0              0              0            
     95780   272.92133      0              0              0              0            
     95800   305.18057      0              0              0              0            
     95820   218.0672       0              0              0              0            
     95840   337.26584      0              0              0              0            
     95860   209.03619      0              0              0              0            
     95880   283.73798      0              0              0              0            
     95900   247.66262      0              0              0              0            
     95920   312.55892      0              0              0              0            
     95940   192.46175      0              0              0              0            
     95960   304.3474       0              0              0              0            
     95980   278.80588      0              0              0              0            
     96000   301.5644       0              0              0              0            
     96020   259.71657      0              0              0              0            
     96040   383.86222      0              0              0              0            
     96060   381.69476      0              0              0              0            
     96080   414.17781      0              0              0              0            
     96100   476.61777      0              0              0              0            
     96120   505.4951       0              0              0              0            
     96140   471.97314      0              0              0              0            
     96160   414.1425       0              0              0              0            
     96180   518.47764      0              0              0              0            
     96200   384.95582      0              0              0              0            
     96220   313.81695      0              0              0              0            
     96240   241.18404      0              0              0              0            
     96260   308.87154      0              0              0              0            
     96280   178.10443      0              0              0              0            
     96300   242.21061      0              0              0              0            
     96320   191.4382       0              0              0              0            
     96340   233.93473      0              0              0              0            
     96360   128.22937      0              0              0              0            
     96380   260.80276      0              0              0              0            
     96400   192.96264      0              0              0              0            
     96420   237.32807      0              0              0              0            
     96440   193.43701      0              0              0              0            
     96460   323.86059      0              0              0              0            
     96480   240.23031      0              0              0              0            
     96500   291.94331      0              0              0              0            
     96520   331.68844      0              0              0              0            
     96540   380.16047      0              0              0              0            
     96560   275.55504      0              0              0              0            
     96580   350.76059      0              0              0              0            
     96600   374.49525      0              0              0              0            
     96620   335.89972      0              0              0              0            
     96640   325.9959       0              0              0              0            
     96660   368.70274      0              0              0              0            
     96680   360.90045      0              0              0              0            
     96700   248.07561      0              0              0              0            
     96720   356.72174      0              0              0              0            
     96740   321.104        0              0              0              0            
     96760   313.49019      0              0              0              0            
     96780   241.25143      0              0              0              0            
     96800   360.76625      0              0              0              0            
     96820   250.83417      0              0              0              0            
     96840   296.14862      0              0              0              0            
     96860   264.8397       0              0              0              0            
     96880   374.43205      0              0              0              0            
     96900   201.44954      0              0              0              0            
     96920   313.804        0              0              0              0            
     96940   269.00666      0              0              0              0            
     96960   330.03862      0              0              0              0            
     96980   226.54315      0              0              0              0            
     97000   355.2051       0              0              0              0            
     97020   308.08844      0              0              0              0            
     97040   315.9295       0              0              0              0            
     97060   365.72894      0              0              0              0            
     97080   452.21689      0              0              0              0            
     97100   389.30811      0              0              0              0            
     97120   390.10256      0              0              0              0            
     97140   460.32152      0              0              0              0            
     97160   433.31761      0              0              0              0            
     97180   362.68531      0              0              0              0            
     97200   378.28831      0              0              0              0            
     97220   399.69404      0              0              0              0            
     97240   249.56213      0              0              0              0            
     97260   287.70271      0              0              0              0            
     97280   235.26526      0              0              0              0            
     97300   261.92968      0              0              0              0            
     97320   147.40701      0              0              0              0            
     97340   230.07301      0              0              0              0            
     97360   173.25985      0              0              0              0            
     97380   200.3801       0              0              0              0            
     97400   162.61957      0              0              0              0            
     97420   274.41107      0              0              0              0            
     97440   186.31358      0              0              0              0            
     97460   254.58876      0              0              0              0            
     97480   255.42591      0              0              0              0            
     97500   420.25939      0              0              0              0            
     97520   327.64447      0              0              0              0            
     97540   493.8962       0              0              0              0            
     97560   494.40342      0              0              0              0            
     97580   520.31978      0              0              0              0            
     97600   457.68834      0              0              0              0            
     97620   491.5857       0              0              0              0            
     97640   489.42441      0              0              0              0            
     97660   359.5794       0              0              0              0            
     97680   370.54091      0              0              0              0            
     97700   377.70645      0              0              0              0            
     97720   318.58513      0              0              0              0            
     97740   263.28935      0              0              0              0            
     97760   340.10762      0              0              0              0            
     97780   281.14821      0              0              0              0            
     97800   266.94122      0              0              0              0            
     97820   229.70606      0              0              0              0            
     97840   325.12364      0              0              0              0            
     97860   193.59754      0              0              0              0            
     97880   277.47719      0              0              0              0            
     97900   237.63199      0              0              0              0            
     97920   293.39893      0              0              0              0            
     97940   176.00603      0              0              0              0            
     97960   319.89646      0              0              0              0            
     97980   319.09265      0              0              0              0            
     98000   365.96196      0              0              0              0            
     98020   320.46544      0              0              0              0            
     98040   505.50669      0              0              0              0            
     98060   459.01465      0              0              0              0            
     98080   533.0427       0              0              0              0            
     98100   591.91159      0              0              0              0            
     98120   591.61645      0              0              0              0            
     98140   417.40071      0              0              0              0            
     98160   421.15036      0              0              0              0            
     98180   435.86997      0              0              0              0            
     98200   306.01494      0              0              0              0            
     98220   249.75088      0              0              0              0            
     98240   237.1917       0              0              0              0            
     98260   269.81663      0              0              0              0            
     98280   174.89021      0              0              0              0            
     98300   244.63052      0              0              0              0            
     98320   219.85846      0              0              0              0            
     98340   241.05495      0              0              0              0            
     98360   180.07027      0              0              0              0            
     98380   332.90713      0              0              0              0            
     98400   244.36338      0              0              0              0            
     98420   282.78808      0              0              0              0            
     98440   266.51424      0              0              0              0            
     98460   402.33515      0              0              0              0            
     98480   288.32049      0              0              0              0            
     98500   387.94718      0              0              0              0            
     98520   384.73256      0              0              0              0            
     98540   446.30091      0              0              0              0            
     98560   356.44396      0              0              0              0            
     98580   488.21518      0              0              0              0            
     98600   420.72082      0              0              0              0            
     98620   367.25967      0              0              0              0            
     98640   310.77232      0              0              0              0            
     98660   302.34859      0              0              0              0            
     98680   243.56364      0              0              0              0            
     98700   160.7546       0              0              0              0            
     98720   200.81427      0              0              0              0            
     98740   166.20911      0              0              0              0            
     98760   157.3763       0              0              0              0            
     98780   156.08701      0              0              0              0            
     98800   199.71122      0              0              0              0            
     98820   145.7501       0              0              0              0            
     98840   184.70887      0              0              0              0            
     98860   186.2819       0              0              0              0            
     98880   289.42267      0              0              0              0            
     98900   195.70021      0              0              0              0            
     98920   348.51393      0              0              0              0            
     98940   306.10818      0              0              0              0            
     98960   409.11762      0              0              0              0            
     98980   299.24278      0              0              0              0            
     99000   450.24324      0              0              0              0            
     99020   368.2641       0              0              0              0            
     99040   371.6691       0              0              0              0            
     99060   329.76682      0              0              0              0            
     99080   399.2714       0              0              0              0            
     99100   301.66254      0              0              0              0            
     99120   327.36406      0              0              0              0            
     99140   316.87118      0              0              0              0            
     99160   319.2589       0              0              0              0            
     99180   240.92426      0              0              0              0            
     99200   272.57754      0              0              0              0            
     99220   294.14577      0              0              0              0            
     99240   217.85493      0              0              0              0            
     99260   238.67391      0              0              0              0            
     99280   241.12337      0              0              0              0            
     99300   292.81596      0              0              0              0            
     99320   199.06951      0              0              0              0            
     99340   311.27079      0              0              0              0            
     99360   289.31501      0              0              0              0            
     99380   331.6584       0              0              0              0            
     99400   312.50129      0              0              0              0            
     99420   526.18369      0              0              0              0            
     99440   398.05902      0              0              0              0            
     99460   524.51202      0              0              0              0            
     99480   472.12002      0              0              0              0            
     99500   614.43481      0              0              0              0            
     99520   364.36226      0              0              0              0            
     99540   443.80135      0              0              0              0            
     99560   364.94961      0              0              0              0            
     99580   336.02666      0              0              0              0            
     99600   213.6189       0              0              0              0            
     99620   284.73912      0              0              0              0            
     99640   228.22492      0              0              0              0            
     99660   182.47321      0              0              0              0            
     99680   210.66838      0              0              0              0            
     99700   254.36552      0              0              0              0            
     99720   208.02273      0              0              0              0            
     99740   183.46622      0              0              0              0            
     99760   263.08893      0              0              0              0            
     99780   242.03267      0              0              0              0            
     99800   261.91884      0              0              0              0            
     99820   278.35619      0              0              0              0            
     99840   391.4157       0              0              0              0            
     99860   281.65542      0              0              0              0            
     99880   451.88618      0              0              0              0            
     99900   476.81957      0              0              0              0            
     99920   570.68072      0              0              0              0            
     99940   370.9793       0              0              0              0            
     99960   577.34829      0              0              0              0            
     99980   438.81642      0              0              0              0            
    100000   407.68627      0              0              0              0            
    100020   242.55131      0              0              0              0            
    100038   277.4862       0              0              0              0            
Loop time of 3.68318 on 1 procs for 100000 steps with 6 atoms

Performance: 2345.802 ns/day, 0.010 hours/ns, 27150.485 timesteps/s, 162.903 katom-step/s
49.1% CPU use with 1 MPI tasks x 1 OpenMP threads

MPI task timing breakdown:
Section |  min time  |  avg time  |  max time  |%varavg| %total
---------------------------------------------------------------
Pair    | 0.053559   | 0.053559   | 0.053559   |   0.0 |  1.45
Bond    | 0.13122    | 0.13122    | 0.13122    |   0.0 |  3.56
Neigh   | 0.06168    | 0.06168    | 0.06168    |   0.0 |  1.67
Comm    | 0.055385   | 0.055385   | 0.055385   |   0.0 |  1.50
Output  | 0.39557    | 0.39557    | 0.39557    |   0.0 | 10.74
Modify  | 2.8839     | 2.8839     | 2.8839     |   0.0 | 78.30
Other   |            | 0.1019     |            |       |  2.77

Nlocal:              6 ave           6 max           6 min
Histogram: 1 0 0 0 0 0 0 0 0 0
Nghost:              1 ave           1 max           1 min
Histogram: 1 0 0 0 0 0 0 0 0 0
Neighs:              6 ave           6 max           6 min
Histogram: 1 0 0 0 0 0 0 0 0 0
FullNghs:            0 ave           0 max           0 min
Histogram: 1 0 0 0 0 0 0 0 0 0

Total # of neighbors = 6
Ave neighs/atom = 1
Ave special neighs/atom = 4
Neighbor list builds = 806
Dangerous builds = 0

#####################################################
print "All done"
All done
Total wall time: 0:00:04
