read_data	InitialFile.txt
Reading data file ...
  orthogonal box = (0 0 0) to (158.5 158.5 158.5)
  1 by 1 by 1 MPI processor grid
  reading atoms ...
  10 atoms
  scanning bonds ...
  1 = max bonds/atom
  reading bonds ...
  9 bonds
Finding 1-2 1-3 1-4 neighbors ...
  special bond factors lj:    0        0        0       
  special bond factors coul:  0        0        0       
     2 = max # of 1-2 neighbors
     2 = max # of 1-3 neighbors
     4 = max # of 1-4 neighbors
     6 = max # of special neighbors
  special bonds CPU = 0.019 seconds
  read_data CPU = 0.045 seconds

# Dreiding potential information
neighbor	2.0 bin
neigh_modify every 1 delay 0 check yes

bond_style      harmonic
bond_coeff	1 350 1.53
bond_coeff	2 700 1.53
special_bonds lj/coul 0.0 0.0 0.5
Finding 1-2 1-3 1-4 neighbors ...
  special bond factors lj:    0        0        0.5     
  special bond factors coul:  0        0        0.5     
     2 = max # of 1-2 neighbors
     2 = max # of 1-3 neighbors
     4 = max # of 1-4 neighbors
     6 = max # of special neighbors
  special bonds CPU = 0.005 seconds


pair_style	lj/cut 10.5
pair_coeff	* * 1.0 1.0 10.5
pair_coeff	3 3 2.0 0.5 10.5

compute csym all centro/atom fcc
compute peratom all pe/atom


#####################################################
# Equilibration (Brownian dynamics at 300 K)

velocity 	all create 300.0 1231
fix		1 all nve/limit 0.05
fix 2 all brownian 30.0 12908410 gamma_t 3.0 rng gaussian # Compute a correct 300K simulation, check the value for gamma_t
thermo_style	custom step temp
thermo          10000
timestep	1
run		100000
Generated 0 of 3 mixed pair_coeff terms from geometric mixing rule
WARNING: One or more atoms are time integrated more than once (src/src/modify.cpp:289)
Neighbor list info ...
  update: every = 1 steps, delay = 0 steps, check = yes
  max neighbors/atom: 2000, page size: 100000
  master list distance cutoff = 12.5
  ghost atom cutoff = 12.5
  binsize = 6.25, bins = 26 26 26
  2 neighbor lists, perpetual/occasional/extra = 1 1 0
  (1) pair lj/cut, perpetual
      attributes: half, newton on
      pair build: half/bin/newton
      stencil: half/bin/3d
      bin: standard
  (2) compute centro/atom, occasional
      attributes: full, newton on
      pair build: full/bin
      stencil: full/bin/3d
      bin: standard
Per MPI rank memory allocation (min/avg/max) = 5.368 | 5.368 | 5.368 Mbytes
   Step          Temp     
         0   300          
     10000   299.89449    
     20000   302.23793    
     30000   429.14934    
     40000   280.5604     
     50000   249.28905    
     60000   348.43907    
     70000   431.75493    
     80000   283.13809    
     90000   345.56343    
    100000   455.66366    
Loop time of 0.363536 on 1 procs for 100000 steps with 10 atoms

Performance: 23766.560 ns/day, 0.001 hours/ns, 275075.927 timesteps/s, 2.751 Matom-step/s
90.6% CPU use with 1 MPI tasks x no OpenMP threads

MPI task timing breakdown:
Section |  min time  |  avg time  |  max time  |%varavg| %total
---------------------------------------------------------------
Pair    | 0.079029   | 0.079029   | 0.079029   |   0.0 | 21.74
Bond    | 0.026936   | 0.026936   | 0.026936   |   0.0 |  7.41
Neigh   | 0.00089783 | 0.00089783 | 0.00089783 |   0.0 |  0.25
Comm    | 0.057797   | 0.057797   | 0.057797   |   0.0 | 15.90
Output  | 0.0010817  | 0.0010817  | 0.0010817  |   0.0 |  0.30
Modify  | 0.14606    | 0.14606    | 0.14606    |   0.0 | 40.18
Other   |            | 0.05174    |            |       | 14.23

Nlocal:             10 ave          10 max          10 min
Histogram: 1 0 0 0 0 0 0 0 0 0
Nghost:             70 ave          70 max          70 min
Histogram: 1 0 0 0 0 0 0 0 0 0
Neighs:             28 ave          28 max          28 min
Histogram: 1 0 0 0 0 0 0 0 0 0
FullNghs:            0 ave           0 max           0 min
Histogram: 1 0 0 0 0 0 0 0 0 0

Total # of neighbors = 28
Ave neighs/atom = 2.8
Ave special neighs/atom = 4.8
Neighbor list builds = 36
Dangerous builds = 0
unfix 1
unfix 2
write_restart 	restart.${simname}.dreiding1
write_restart 	restart.InitialFile.dreiding1
System init for write_restart ...
Generated 0 of 3 mixed pair_coeff terms from geometric mixing rule

#####################################################
# Define Settings
compute eng all pe/atom
compute eatoms all reduce sum c_eng

#####################################################
# Minimization

dump mydmp all atom 100 dump.lammpstrj

reset_timestep 0
fix 1 all nvt temp 300.0 300.0 100.0
thermo 20
thermo_style custom step pe lx ly lz press pxx pyy pzz c_eatoms
min_style cg
minimize 1e-25 1e-25 500000 1000000
Generated 0 of 3 mixed pair_coeff terms from geometric mixing rule
Per MPI rank memory allocation (min/avg/max) = 6.493 | 6.493 | 6.493 Mbytes
   Step         PotEng           Lx             Ly             Lz           Press           Pxx            Pyy            Pzz          c_eatoms   
         0  -18.226158      158.5          158.5          158.5          0.20856273     0.20118637     0.27583735     0.14866447    -18.226158    
        20  -19.733713      158.5          158.5          158.5          0.13970998     0.14875683     0.11681959     0.15355353    -19.733713    
        40  -19.76444       158.5          158.5          158.5          0.1394313      0.13908996     0.099001307    0.18020263    -19.76444     
        60  -19.76678       158.5          158.5          158.5          0.14114312     0.1461217      0.097286351    0.18002132    -19.76678     
        80  -19.77409       158.5          158.5          158.5          0.13585207     0.15027079     0.091226349    0.16605908    -19.77409     
       100  -19.797749      158.5          158.5          158.5          0.14215656     0.13355559     0.11076011     0.18215399    -19.797749    
       120  -19.841129      158.5          158.5          158.5          0.13747685     0.14235193     0.094074599    0.17600403    -19.841129    
       140  -19.844798      158.5          158.5          158.5          0.13744493     0.14156755     0.095428023    0.17533921    -19.844798    
       160  -19.845312      158.5          158.5          158.5          0.14160596     0.1459035      0.09548657     0.18342781    -19.845312    
       180  -19.845449      158.5          158.5          158.5          0.14061167     0.14459522     0.096829085    0.18041069    -19.845449    
       200  -19.845522      158.5          158.5          158.5          0.1400807      0.14484823     0.096458689    0.17893518    -19.845522    
       220  -19.845605      158.5          158.5          158.5          0.14078657     0.14546189     0.097120041    0.17977777    -19.845605    
       240  -19.845634      158.5          158.5          158.5          0.14035695     0.1444985      0.096374896    0.18019744    -19.845634    
       260  -19.845652      158.5          158.5          158.5          0.14039232     0.14467237     0.096483128    0.18002146    -19.845652    
       280  -19.845659      158.5          158.5          158.5          0.14036629     0.14460424     0.096456144    0.18003848    -19.845659    
       300  -19.845661      158.5          158.5          158.5          0.14033201     0.1445358      0.096431031    0.18002921    -19.845661    
       320  -19.845662      158.5          158.5          158.5          0.14034313     0.14455448     0.096449838    0.18002507    -19.845662    
       340  -19.845662      158.5          158.5          158.5          0.14032967     0.14453164     0.096439142    0.18001823    -19.845662    
       360  -19.845662      158.5          158.5          158.5          0.14033449     0.14453702     0.096442711    0.18002374    -19.845662    
       380  -19.845662      158.5          158.5          158.5          0.14033516     0.14453736     0.096443863    0.18002425    -19.845662    
       400  -19.845662      158.5          158.5          158.5          0.1403351      0.14453765     0.09644355     0.18002409    -19.845662    
       411  -19.845662      158.5          158.5          158.5          0.14033508     0.14453759     0.096443569    0.18002408    -19.845662    
Loop time of 0.00699368 on 1 procs for 411 steps with 10 atoms

54.9% CPU use with 1 MPI tasks x no OpenMP threads

Minimization stats:
  Stopping criterion = energy tolerance
  Energy initial, next-to-last, final = 
       -18.22615845997  -19.8456618486284  -19.8456618486284
  Force two-norm initial, final = 38.473289 1.2105275e-06
  Force max component initial, final = 16.811143 4.9501349e-07
  Final line search alpha, max atom move = 1 4.9501349e-07
  Iterations, force evaluations = 411 913

MPI task timing breakdown:
Section |  min time  |  avg time  |  max time  |%varavg| %total
---------------------------------------------------------------
Pair    | 0.0032494  | 0.0032494  | 0.0032494  |   0.0 | 46.46
Bond    | 0.00035601 | 0.00035601 | 0.00035601 |   0.0 |  5.09
Neigh   | 0          | 0          | 0          |   0.0 |  0.00
Comm    | 0.00090771 | 0.00090771 | 0.00090771 |   0.0 | 12.98
Output  | 0.001303   | 0.001303   | 0.001303   |   0.0 | 18.63
Modify  | 0          | 0          | 0          |   0.0 |  0.00
Other   |            | 0.001178   |            |       | 16.84

Nlocal:             10 ave          10 max          10 min
Histogram: 1 0 0 0 0 0 0 0 0 0
Nghost:             70 ave          70 max          70 min
Histogram: 1 0 0 0 0 0 0 0 0 0
Neighs:             28 ave          28 max          28 min
Histogram: 1 0 0 0 0 0 0 0 0 0
FullNghs:            0 ave           0 max           0 min
Histogram: 1 0 0 0 0 0 0 0 0 0

Total # of neighbors = 28
Ave neighs/atom = 2.8
Ave special neighs/atom = 4.8
Neighbor list builds = 0
Dangerous builds = 0


molecule mol molTemplate.txt
ERROR on proc 0: Invalid header keyword: atom (src/src/molecule.cpp:507)
Last command: molecule mol molTemplate.txt
