LAMMPS (2 Aug 2023 - Update 2)
# VARIABLES
variable fname index InitialFile.txt
variable simname index InitialFile
variable lj_epsilon equal 1.0
variable lj_sigma equal 2.0

# Initialization
units		real
boundary	    p p p
atom_style	bond
#log 		log.${simname}.txt
read_data	InitialFile.txt
Reading data file ...
  orthogonal box = (0 0 0) to (158.5 158.5 158.5)
  1 by 1 by 1 MPI processor grid
  reading atom labelmap ...
  reading bond labelmap ...
WARNING: Atom style in data file atomic differs from currently defined atom style bond (src/src/read_data.cpp:621)
  reading atoms ...
  100 atoms
  scanning bonds ...
  1 = max bonds/atom
  reading bonds ...
  99 bonds
Finding 1-2 1-3 1-4 neighbors ...
  special bond factors lj:    0        0        0       
  special bond factors coul:  0        0        0       
     2 = max # of 1-2 neighbors
     2 = max # of 1-3 neighbors
     4 = max # of 1-4 neighbors
     6 = max # of special neighbors
  special bonds CPU = 0.026 seconds
  read_data CPU = 0.083 seconds

# Dreiding potential information
neighbor	2.0 bin
neigh_modify every 1 delay 0 check yes

bond_style      harmonic
bond_coeff	1 350 1
bond_coeff	2 700 0.5
special_bonds lj/coul 0.0 0.0 0.5
Finding 1-2 1-3 1-4 neighbors ...
  special bond factors lj:    0        0        0.5     
  special bond factors coul:  0        0        0.5     
     2 = max # of 1-2 neighbors
     2 = max # of 1-3 neighbors
     4 = max # of 1-4 neighbors
     6 = max # of special neighbors
  special bonds CPU = 0.000 seconds


pair_style	lj/cut 10.5
pair_coeff	* * 2 1.0 10.5
pair_coeff	3 3 4 0.5 10.5

compute csym all centro/atom fcc
compute peratom all pe/atom


#####################################################
# Equilibration (Brownian dynamics at 300 K)

velocity 	all create 300.0 1231
fix		1 all nve/limit 0.05
fix 2 all brownian 30.0 12908410 gamma_t 3.0 rng gaussian # Compute a correct 300K simulation, check the value for gamma_t
thermo_style	custom step temp
thermo          10000
timestep	1
run		100000
Generated 0 of 3 mixed pair_coeff terms from geometric mixing rule
WARNING: One or more atoms are time integrated more than once (src/src/modify.cpp:289)
Neighbor list info ...
  update: every = 1 steps, delay = 0 steps, check = yes
  max neighbors/atom: 2000, page size: 100000
  master list distance cutoff = 12.5
  ghost atom cutoff = 12.5
  binsize = 6.25, bins = 26 26 26
  2 neighbor lists, perpetual/occasional/extra = 1 1 0
  (1) pair lj/cut, perpetual
      attributes: half, newton on
      pair build: half/bin/newton
      stencil: half/bin/3d
      bin: standard
  (2) compute centro/atom, occasional
      attributes: full, newton on
      pair build: full/bin
      stencil: full/bin/3d
      bin: standard
Per MPI rank memory allocation (min/avg/max) = 5.371 | 5.371 | 5.371 Mbytes
   Step          Temp     
         0   300          
     10000   294.79451    
     20000   283.90263    
     30000   326.97571    
     40000   264.86773    
     50000   295.33223    
     60000   296.33508    
     70000   327.41118    
     80000   275.48336    
     90000   333.16427    
    100000   327.8743     
Loop time of 2.3549 on 1 procs for 100000 steps with 100 atoms

Performance: 3668.942 ns/day, 0.007 hours/ns, 42464.612 timesteps/s, 4.246 Matom-step/s
92.4% CPU use with 1 MPI tasks x no OpenMP threads

MPI task timing breakdown:
Section |  min time  |  avg time  |  max time  |%varavg| %total
---------------------------------------------------------------
Pair    | 1.2421     | 1.2421     | 1.2421     |   0.0 | 52.74
Bond    | 0.14515    | 0.14515    | 0.14515    |   0.0 |  6.16
Neigh   | 0.0055275  | 0.0055275  | 0.0055275  |   0.0 |  0.23
Comm    | 0.020675   | 0.020675   | 0.020675   |   0.0 |  0.88
Output  | 0.00021548 | 0.00021548 | 0.00021548 |   0.0 |  0.01
Modify  | 0.87784    | 0.87784    | 0.87784    |   0.0 | 37.28
Other   |            | 0.0634     |            |       |  2.69

Nlocal:            100 ave         100 max         100 min
Histogram: 1 0 0 0 0 0 0 0 0 0
Nghost:              0 ave           0 max           0 min
Histogram: 1 0 0 0 0 0 0 0 0 0
Neighs:           1235 ave        1235 max        1235 min
Histogram: 1 0 0 0 0 0 0 0 0 0
FullNghs:            0 ave           0 max           0 min
Histogram: 1 0 0 0 0 0 0 0 0 0

Total # of neighbors = 1235
Ave neighs/atom = 12.35
Ave special neighs/atom = 5.88
Neighbor list builds = 116
Dangerous builds = 0
unfix 1
unfix 2

#####################################################
# Define Settings
compute eng all pe/atom
#compute eatoms all reduce sum c_eng

#####################################################
# Minimization

dump mydmp all atom 100 dump.lammpstrj

reset_timestep 0
fix 1 all nvt temp 300.0 300.0 100.0
thermo 20
#thermo_style custom step pe lx ly lz press pxx pyy pzz c_eatoms
min_style cg
minimize 1e-25 1e-25 500000 1000000
Generated 0 of 3 mixed pair_coeff terms from geometric mixing rule
Per MPI rank memory allocation (min/avg/max) = 6.496 | 6.496 | 6.496 Mbytes
   Step          Temp     
         0   327.8743     
        20   327.8743     
        40   327.8743     
        60   327.8743     
        80   327.8743     
       100   327.8743     
       120   327.8743     
       140   327.8743     
       160   327.8743     
       180   327.8743     
       200   327.8743     
       220   327.8743     
       240   327.8743     
       260   327.8743     
       280   327.8743     
       300   327.8743     
       320   327.8743     
       340   327.8743     
       360   327.8743     
       380   327.8743     
       400   327.8743     
       420   327.8743     
       440   327.8743     
       460   327.8743     
       480   327.8743     
       500   327.8743     
       520   327.8743     
       540   327.8743     
       560   327.8743     
       580   327.8743     
       600   327.8743     
       620   327.8743     
       640   327.8743     
       660   327.8743     
       680   327.8743     
       700   327.8743     
       720   327.8743     
       740   327.8743     
       760   327.8743     
       780   327.8743     
       800   327.8743     
       820   327.8743     
       840   327.8743     
       860   327.8743     
       880   327.8743     
       900   327.8743     
       914   327.8743     
Loop time of 0.118569 on 1 procs for 914 steps with 100 atoms

86.7% CPU use with 1 MPI tasks x no OpenMP threads

Minimization stats:
  Stopping criterion = energy tolerance
  Energy initial, next-to-last, final = 
     -122.957497787298  -288.985595858102  -288.985595858102
  Force two-norm initial, final = 171.96138 8.5309679
  Force max component initial, final = 32.922014 5.5278845
  Final line search alpha, max atom move = 0.0011306314 0.00625
  Iterations, force evaluations = 914 2920

MPI task timing breakdown:
Section |  min time  |  avg time  |  max time  |%varavg| %total
---------------------------------------------------------------
Pair    | 0.10061    | 0.10061    | 0.10061    |   0.0 | 84.85
Bond    | 0.007294   | 0.007294   | 0.007294   |   0.0 |  6.15
Neigh   | 0.00032357 | 0.00032357 | 0.00032357 |   0.0 |  0.27
Comm    | 0.00051466 | 0.00051466 | 0.00051466 |   0.0 |  0.43
Output  | 0.0040099  | 0.0040099  | 0.0040099  |   0.0 |  3.38
Modify  | 0          | 0          | 0          |   0.0 |  0.00
Other   |            | 0.005818   |            |       |  4.91

Nlocal:            100 ave         100 max         100 min
Histogram: 1 0 0 0 0 0 0 0 0 0
Nghost:              0 ave           0 max           0 min
Histogram: 1 0 0 0 0 0 0 0 0 0
Neighs:           1351 ave        1351 max        1351 min
Histogram: 1 0 0 0 0 0 0 0 0 0
FullNghs:            0 ave           0 max           0 min
Histogram: 1 0 0 0 0 0 0 0 0 0

Total # of neighbors = 1351
Ave neighs/atom = 13.51
Ave special neighs/atom = 5.88
Neighbor list builds = 6
Dangerous builds = 0

unfix 1

molecule mol molTemplate.txt
Read molecule template mol:
  1 molecules
  0 fragments
  5 atoms with max type 3
  4 bonds with max type 2
  0 angles with max type 0
  0 dihedrals with max type 0
  0 impropers with max type 0
molecule mol2 molTemplate2.txt
Read molecule template mol2:
  1 molecules
  0 fragments
  5 atoms with max type 3
  4 bonds with max type 2
  0 angles with max type 0
  0 dihedrals with max type 0
  0 impropers with max type 0


#####################################################
# Do the reactions
fix 3 all bond/react stabilization yes statted_grp .03   react reac all 1 0 4 mol mol2 map.txt molecule intra
dynamic group bond_react_MASTER_group defined
dynamic group statted_grp_REACT defined

fix 1 statted_grp_REACT nvt temp 300 300 100

thermo_style custom step temp f_3[1]

run 100000

CITE-CITE-CITE-CITE-CITE-CITE-CITE-CITE-CITE-CITE-CITE-CITE-CITE

Your simulation uses code contributions which should be cited:

- fix bond/react: reacter.org doi:10.1016/j.polymer.2017.09.038, doi:10.1021/acs.macromol.0c02012

@Article{Gissinger17,
 author = {J. R. Gissinger and B. D. Jensen and K. E. Wise},
 title = {Modeling Chemical Reactions in Classical Molecular Dynamics Simulations},
 journal = {Polymer},
 year =    2017,
 volume =  128,
 pages =   {211--217}
}

@Article{Gissinger20,
 author = {J. R. Gissinger, B. D. Jensen, K. E. Wise},
 title = {{REACTER}: A Heuristic Method for Reactive Molecular Dynamics},
 journal = {Macromolecules},
 year =    2020,
 volume =  53,
 number =  22,
 pages =   {9953--9961}
}

CITE-CITE-CITE-CITE-CITE-CITE-CITE-CITE-CITE-CITE-CITE-CITE-CITE

Generated 0 of 3 mixed pair_coeff terms from geometric mixing rule
Neighbor list info ...
  update: every = 1 steps, delay = 0 steps, check = yes
  max neighbors/atom: 2000, page size: 100000
  master list distance cutoff = 12.5
  ghost atom cutoff = 12.5
  binsize = 6.25, bins = 26 26 26
  3 neighbor lists, perpetual/occasional/extra = 1 2 0
  (1) pair lj/cut, perpetual
      attributes: half, newton on
      pair build: half/bin/newton
      stencil: half/bin/3d
      bin: standard
  (2) compute centro/atom, occasional
      attributes: full, newton on
      pair build: full/bin
      stencil: full/bin/3d
      bin: standard
  (3) fix bond/react, occasional, copy from (1)
      attributes: half, newton on
      pair build: copy
      stencil: none
      bin: none
Per MPI rank memory allocation (min/avg/max) = 6.749 | 6.749 | 6.749 Mbytes
   Step          Temp          f_3[1]    
       914   327.8743       0            
       920   207.31396      0            
       940   172.44312      0            
       960   171.15024      0            
       980   223.52675      0            
      1000   214.19142      0            
      1020   202.57878      0            
      1040   267.2981       0            
      1060   241.10239      0            
      1080   240.75756      0            
      1100   261.27888      0            
      1120   292.03187      0            
      1140   294.01681      0            
      1160   322.36737      0            
      1180   296.57435      0            
      1200   309.43665      0            
      1220   329.03609      0            
      1240   316.21831      0            
      1260   349.26276      0            
      1280   343.96664      0            
      1300   347.00835      0            
      1320   330.01609      0            
      1340   314.64444      0            
      1360   310.50351      0            
      1380   306.97589      0            
      1400   306.93558      0            
      1420   297.53224      0            
      1440   298.38979      0            
      1460   326.93087      0            
      1480   313.1914       0            
      1500   320.95778      0            
      1520   343.41045      0            
      1540   324.8538       0            
      1560   297.84565      0            
      1580   304.30566      0            
      1600   300.07192      0            
      1620   310.61831      0            
      1640   312.29774      0            
      1660   309.08842      0            
      1680   313.32012      0            
      1700   305.33388      0            
      1720   296.91871      0            
      1740   303.22455      0            
      1760   314.69953      0            
      1780   313.5803       0            
      1800   323.5943       0            
      1820   305.43047      0            
      1840   318.25387      0            
      1860   319.97503      0            
      1880   344.20119      0            
      1900   345.37105      0            
      1920   332.13394      0            
      1940   345.96388      0            
      1960   354.72633      0            
      1980   353.52098      0            
      2000   331.61625      0            
      2020   324.0885       0            
      2040   307.06977      0            
      2060   321.88502      0            
      2080   344.39521      0            
      2100   367.43344      0            
      2120   349.3739       0            
      2140   347.51209      0            
      2160   382.48914      0            
      2180   388.2962       0            
      2200   372.82937      0            
      2220   383.87064      0            
      2240   370.86046      0            
      2260   365.62843      0            
      2280   335.47593      0            
      2300   341.47584      0            
      2320   380.4657       0            
      2340   393.24517      0            
      2360   393.40614      0            
      2380   404.07724      0            
      2400   384.3746       0            
      2420   366.60032      0            
      2440   412.37364      0            
      2460   429.94281      0            
      2480   336.42934      0            
      2500   359.67657      0            
      2520   350.88292      0            
      2540   321.07148      0            
      2560   329.46192      0            
      2580   336.96435      0            
      2600   314.15233      0            
      2620   276.2901       0            
      2640   295.87847      0            
      2660   339.74506      0            
      2680   336.01336      0            
      2700   337.66955      0            
      2720   333.86234      0            
      2740   352.69845      0            
      2760   345.25551      0            
      2780   360.47558      0            
      2800   404.61057      0            
      2820   397.97378      0            
      2840   381.8572       0            
      2860   338.38618      0            
      2880   354.48938      0            
      2900   369.25195      0            
      2920   359.37926      0            
      2940   312.20525      0            
      2960   301.47672      0            
      2980   315.21809      0            
      3000   309.19927      0            
      3020   321.90483      0            
      3040   272.17198      0            
      3060   292.44008      0            
      3080   312.38772      0            
      3100   315.23093      0            
      3120   327.53646      0            
      3140   365.87898      0            
      3160   363.48904      0            
      3180   353.33806      0            
      3200   358.21659      0            
      3220   322.61356      0            
      3240   319.77594      0            
      3260   310.92647      0            
      3280   340.50732      0            
      3300   342.16903      0            
      3320   343.18633      0            
      3340   304.8594       0            
      3360   312.94018      0            
      3380   344.57698      0            
      3400   335.10304      0            
      3420   335.04381      0            
      3440   278.54069      0            
      3460   301.8365       0            
      3480   294.2726       0            
      3500   296.86981      0            
      3520   291.15279      0            
      3540   294.80371      0            
      3560   305.25624      0            
      3580   385.76507      0            
      3600   369.03815      0            
      3620   378.86873      0            
      3640   348.6783       0            
      3660   336.37438      0            
      3680   341.80472      0            
      3700   351.39249      0            
      3720   348.37109      0            
      3740   347.90117      0            
      3760   335.85646      0            
      3780   323.96901      0            
      3800   311.95374      0            
      3820   336.47179      0            
      3840   309.95294      0            
      3860   298.84968      0            
      3880   295.6248       0            
      3900   291.10031      0            
      3920   288.14412      0            
      3940   315.38668      0            
      3960   328.66503      0            
      3980   298.59016      0            
      4000   277.59266      0            
      4020   308.05125      0            
      4040   307.08337      0            
      4060   305.29456      0            
      4080   295.7231       0            
      4100   308.1545       0            
      4120   332.99846      0            
      4140   286.11354      0            
      4160   330.7025       0            
      4180   303.96505      0            
      4200   306.46184      0            
      4220   298.44716      0            
      4240   319.43983      0            
      4260   345.1275       0            
      4280   306.00988      0            
      4300   317.4454       0            
      4320   312.76027      0            
      4340   288.28189      0            
      4360   309.4392       0            
      4380   291.17643      0            
      4400   311.08143      0            
      4420   296.10954      0            
      4440   349.35859      0            
      4460   384.7576       0            
      4480   361.23633      0            
      4500   356.32656      0            
      4520   313.43439      0            
      4540   372.67922      0            
      4560   326.01187      0            
      4580   357.43167      0            
      4600   348.40887      0            
      4620   357.66407      0            
      4640   307.99223      0            
      4660   341.79634      0            
      4680   338.42876      0            
      4700   310.95025      0            
      4720   357.80988      0            
      4740   336.59643      0            
      4760   327.7838       0            
      4780   355.16391      0            
      4800   336.99819      0            
      4820   322.67693      0            
      4840   324.53774      0            
      4860   270.64782      0            
      4880   304.07981      0            
      4900   304.80816      0            
      4920   311.9545       0            
      4940   312.37264      0            
      4960   325.11802      0            
      4980   287.51968      0            
      5000   314.33412      0            
      5020   285.22099      0            
      5040   312.58773      0            
      5060   332.20563      0            
      5080   314.47778      0            
      5100   313.38283      0            
      5120   277.82222      0            
      5140   278.1924       0            
      5160   281.49777      0            
      5180   289.12972      0            
      5200   303.15318      0            
      5220   277.81195      0            
      5240   279.69715      0            
      5260   294.96782      0            
      5280   314.91153      0            
      5300   282.47182      0            
      5320   324.40017      0            
      5340   312.52111      0            
      5360   303.06519      0            
      5380   306.439        0            
      5400   326.059        0            
      5420   281.57254      0            
      5440   330.50314      0            
      5460   293.5841       0            
      5480   304.61064      0            
      5500   298.90371      0            
      5520   316.92646      0            
      5540   310.98098      0            
      5560   298.60856      0            
      5580   289.38006      0            
      5600   286.76483      0            
      5620   289.30011      0            
      5640   309.84749      0            
      5660   307.21814      0            
      5680   300.6189       0            
      5700   291.01048      0            
      5720   310.8286       0            
      5740   283.43105      0            
      5760   303.10194      0            
      5780   272.39697      0            
      5800   302.3299       0            
      5820   313.07264      0            
      5840   344.08981      0            
      5860   316.9323       0            
      5880   339.36065      0            
      5900   331.58425      0            
      5920   325.32885      0            
      5940   355.48525      0            
      5960   394.03913      0            
      5980   393.95061      0            
      6000   376.1039       0            
      6020   357.21755      0            
      6040   393.57699      0            
      6060   353.0473       0            
      6080   367.2639       0            
      6100   456.67865      0            
      6120   375.76805      0            
      6140   383.53168      0            
      6160   453.54156      0            
      6180   442.86519      0            
      6200   401.80105      0            
      6220   418.12166      0            
      6240   422.12546      0            
      6260   385.37719      0            
      6280   412.05133      0            
      6300   404.89562      0            
      6320   392.79419      0            
      6340   366.5131       0            
      6360   340.80035      0            
      6380   356.18439      0            
      6400   359.44218      0            
      6420   352.24573      0            
      6440   357.92054      0            
      6460   362.54665      0            
      6480   358.50581      0            
      6500   328.37753      0            
      6520   313.95554      0            
      6540   316.8822       0            
      6560   303.39118      0            
      6580   326.69679      0            
      6600   277.36747      0            
      6620   264.59301      0            
      6640   350.17494      0            
      6660   301.17782      0            
      6680   327.2456       0            
      6700   310.75992      0            
      6720   315.35305      0            
      6740   362.84877      0            
      6760   430.23436      0            
      6780   378.8606       0            
      6800   442.04039      0            
      6820   452.74426      0            
      6840   451.69716      0            
      6860   395.37896      0            
      6880   383.08488      0            
      6900   371.01551      0            
      6920   341.10557      0            
      6940   354.97426      0            
      6960   322.45385      0            
      6980   316.07145      0            
      7000   341.75873      0            
      7020   299.5267       0            
      7040   268.70384      0            
      7060   292.35641      0            
      7080   298.92061      0            
      7100   300.50026      0            
      7120   282.32164      0            
      7140   263.97585      0            
      7160   290.85579      0            
      7180   289.76806      0            
      7200   293.74987      0            
      7220   297.34004      0            
      7240   241.64403      0            
      7260   280.65873      0            
      7280   264.41684      0            
      7300   261.30637      0            
      7320   281.32915      0            
      7340   291.9926       0            
      7360   285.47922      0            
      7380   292.2086       0            
      7400   278.29405      0            
      7420   291.72783      0            
      7440   294.15884      0            
      7460   315.26786      0            
      7480   325.20161      0            
      7500   310.85508      0            
      7520   283.85701      0            
      7540   332.76181      0            
      7560   328.14844      0            
      7580   358.25246      0            
      7600   365.02031      0            
      7620   290.92346      0            
      7640   335.36324      0            
      7660   306.09169      0            
      7680   303.68366      0            
      7700   319.34617      0            
      7720   290.08149      0            
      7740   299.70377      0            
      7760   280.71227      0            
      7780   311.22663      0            
      7800   310.90862      0            
      7820   257.2299       0            
      7840   258.37858      0            
      7860   294.61825      0            
      7880   283.89804      0            
      7900   303.71468      0            
      7920   297.77865      0            
      7940   271.49237      0            
      7960   305.00238      0            
      7980   325.1041       0            
      8000   292.48493      0            
      8020   313.14353      0            
      8040   375.11164      0            
      8060   400.73093      0            
      8080   352.05988      0            
      8100   336.55463      0            
      8120   332.78948      0            
      8140   381.62459      0            
      8160   343.7893       0            
      8180   315.01983      0            
      8200   312.85432      0            
      8220   271.12104      0            
      8240   318.32026      0            
      8260   291.53459      0            
      8280   311.69328      0            
      8300   328.34416      0            
      8320   296.89627      0            
      8340   316.69443      0            
      8360   274.45519      0            
      8380   305.05093      0            
      8400   297.80484      0            
      8420   292.57811      0            
      8440   279.52471      0            
      8460   271.41735      0            
      8480   282.09994      0            
      8500   310.59833      0            
      8520   300.8935       0            
      8540   275.74526      0            
      8560   274.72134      0            
      8580   249.46586      0            
      8600   281.01705      0            
      8620   299.1181       0            
      8640   272.39585      0            
      8660   317.1128       0            
      8680   353.45661      0            
      8700   319.18226      0            
      8720   323.92426      0            
      8740   350.1799       0            
      8760   314.05634      0            
      8780   305.31152      0            
      8800   314.21667      0            
      8820   295.15869      0            
      8840   327.22504      0            
      8860   306.83044      0            
      8880   296.72123      0            
      8900   281.58885      0            
      8920   318.08066      0            
      8940   301.45216      0            
      8960   304.45804      0            
      8980   315.5988       0            
      9000   306.58628      0            
      9020   330.48078      0            
      9040   277.00888      0            
      9060   296.78472      0            
      9080   298.38548      0            
      9100   312.36202      0            
      9120   319.54652      0            
      9140   284.848        0            
      9160   288.50953      0            
      9180   316.67399      0            
      9200   311.69795      0            
      9220   304.91121      0            
      9240   340.23083      0            
      9260   294.90558      0            
      9280   288.70217      0            
      9300   293.06428      0            
      9320   276.90916      0            
      9340   275.17481      0            
      9360   279.5351       0            
      9380   299.96279      0            
      9400   302.24898      0            
      9420   287.07154      0            
      9440   279.40505      0            
      9460   266.2685       0            
      9480   278.07679      0            
      9500   274.10469      0            
      9520   272.72499      0            
      9540   264.60153      0            
      9560   296.96814      0            
      9580   270.19279      0            
      9600   288.78085      0            
      9620   278.91915      0            
      9640   323.35119      0            
      9660   311.30696      0            
      9680   309.76283      0            
      9700   304.48529      0            
      9720   265.07003      0            
      9740   379.07593      0            
      9760   311.49418      0            
      9780   314.00543      0            
      9800   330.36096      0            
      9820   327.37663      0            
      9840   326.97196      0            
      9860   281.93321      0            
      9880   319.55655      0            
      9900   310.77436      0            
      9920   330.02344      0            
      9940   386.38054      0            
      9960   376.82934      0            
      9980   408.53027      0            
     10000   368.38542      0            
     10020   392.77205      0            
     10040   340.84639      0            
     10060   354.63491      0            
     10080   368.33655      0            
     10100   316.46404      0            
     10120   305.7911       0            
     10140   301.11263      0            
     10160   346.14246      0            
     10180   322.5312       0            
     10200   294.95843      0            
     10220   277.79044      0            
     10240   285.89098      0            
     10260   310.71589      0            
     10280   304.15892      0            
     10300   294.11006      0            
     10320   292.64364      0            
     10340   292.07417      0            
     10360   306.45478      0            
     10380   312.55848      0            
     10400   299.41554      0            
     10420   307.41111      0            
     10440   322.18977      0            
     10460   277.64283      0            
     10480   289.39082      0            
     10500   276.25097      0            
     10520   299.59246      0            
     10540   303.29639      0            
     10560   272.47073      0            
     10580   318.72905      0            
     10600   292.05028      0            
     10620   344.5851       0            
     10640   322.48847      0            
     10660   311.05377      0            
     10680   307.5014       0            
     10700   326.04482      0            
     10720   328.07692      0            
     10740   309.21278      0            
     10760   295.61788      0            
     10780   325.62936      0            
     10800   300.08334      0            
     10820   277.14198      0            
     10840   280.85202      0            
     10860   295.36353      0            
     10880   275.03151      0            
     10900   273.48132      0            
     10920   303.72644      0            
     10940   288.43852      0            
     10960   297.3477       0            
     10980   301.33255      0            
     11000   297.27721      0            
     11020   277.04046      0            
     11040   264.59918      0            
     11060   289.04813      0            
     11080   300.31175      0            
     11100   302.79155      0            
     11120   281.95549      0            
     11140   291.22323      0            
     11160   349.84494      0            
     11180   320.86848      0            
     11200   335.68769      0            
     11220   324.24372      0            
     11240   315.54102      0            
     11260   290.29617      0            
     11280   350.40389      0            
     11300   322.29955      0            
     11320   328.35431      0            
     11340   328.47201      0            
     11360   325.33499      0            
     11380   293.15416      0            
     11400   315.59111      0            
     11420   318.09758      0            
     11440   337.24669      0            
     11460   291.11112      0            
     11480   341.4918       0            
     11500   283.81312      0            
     11520   280.91229      0            
     11540   279.86081      0            
     11560   252.39993      0            
     11580   274.17497      0            
     11600   280.84445      0            
     11620   291.57574      0            
     11640   292.149        0            
     11660   270.46382      0            
     11680   286.77851      0            
     11700   296.91877      0            
     11720   267.54575      0            
     11740   361.12486      0            
     11760   303.2834       0            
     11780   352.42619      0            
     11800   315.32275      0            
     11820   340.42267      0            
     11840   338.35011      0            
     11860   363.30867      0            
     11880   322.14444      0            
     11900   339.88938      0            
     11920   399.72199      0            
     11940   341.14082      0            
     11960   323.76536      0            
     11980   322.32896      0            
     12000   306.95704      0            
     12020   267.87951      0            
     12040   321.91603      0            
     12060   271.59944      0            
     12080   318.16522      0            
     12100   319.2934       0            
     12120   307.54629      0            
     12140   288.89813      0            
     12160   309.51111      0            
     12180   304.45324      0            
     12200   272.85421      0            
     12220   285.31715      0            
     12240   306.7268       0            
     12260   271.7787       0            
     12280   305.06838      0            
     12300   312.20029      0            
     12320   271.85833      0            
     12340   288.37387      0            
     12360   263.55935      0            
     12380   273.3325       0            
     12400   287.02546      0            
     12420   307.98963      0            
     12440   248.96848      0            
     12460   305.28797      0            
     12480   306.68578      0            
     12500   280.03865      0            
     12520   323.05952      0            
     12540   312.26842      0            
     12560   316.42683      0            
     12580   337.63839      0            
     12600   303.86325      0            
     12620   293.74441      0            
     12640   329.47648      0            
     12660   325.1462       0            
     12680   312.54043      0            
     12700   316.42373      0            
     12720   338.33086      0            
     12740   308.66277      0            
     12760   298.3066       0            
     12780   320.41038      0            
     12800   274.44589      0            
     12820   269.89515      0            
     12840   271.57733      0            
     12860   311.40034      0            
     12880   263.26913      0            
     12900   260.24803      0            
     12920   287.33152      0            
     12940   274.15837      0            
     12960   260.90057      0            
     12980   307.28433      0            
     13000   279.85789      0            
     13020   278.7285       0            
     13040   275.9647       0            
     13060   277.52458      0            
     13080   274.30394      0            
     13100   301.97358      0            
     13120   301.77116      0            
     13140   312.33636      0            
     13160   311.06963      0            
     13180   322.53114      0            
     13200   292.20781      0            
     13220   334.76578      0            
     13240   328.85175      0            
     13260   325.44751      0            
     13280   299.31092      0            
     13300   301.09127      0            
     13320   292.06426      0            
     13340   299.45393      0            
     13360   288.72932      0            
     13380   291.92229      0            
     13400   328.20675      0            
     13420   310.6774       0            
     13440   283.30731      0            
     13460   365.16987      0            
     13480   265.37787      0            
     13500   292.36535      0            
     13520   310.00062      0            
     13540   320.40838      0            
     13560   307.02671      0            
     13580   299.15529      0            
     13600   313.59271      0            
     13620   309.1756       0            
     13640   315.09988      0            
     13660   330.79368      0            
     13680   326.49182      0            
     13700   314.28343      0            
     13720   285.81003      0            
     13740   321.05692      0            
     13760   284.0507       0            
     13780   310.6895       0            
     13800   288.29267      0            
     13820   330.79798      0            
     13840   279.64393      0            
     13860   284.36567      0            
     13880   277.73821      0            
     13900   312.50617      0            
     13920   283.5654       0            
     13940   270.25984      0            
     13960   301.19842      0            
     13980   239.88688      0            
     14000   280.72143      0            
     14020   245.70776      0            
     14040   300.53258      0            
     14060   267.57634      0            
     14080   284.23927      0            
     14100   277.6184       0            
     14120   290.12211      0            
     14140   326.99146      0            
     14160   297.9087       0            
     14180   329.74017      0            
     14200   297.71879      0            
     14220   349.14979      0            
     14240   302.16784      0            
     14260   302.28809      0            
     14280   291.55687      0            
     14300   320.05089      0            
     14320   319.33409      0            
     14340   315.36088      0            
     14360   299.3644       0            
     14380   277.21824      0            
     14400   273.09201      0            
     14420   312.59199      0            
     14440   308.72624      0            
     14460   296.29857      0            
     14480   273.63722      0            
     14500   310.20728      0            
     14520   313.53264      0            
     14540   295.60185      0            
     14560   296.61618      0            
     14580   296.7742       0            
     14600   254.07604      0            
     14620   282.12681      0            
     14640   298.49723      0            
     14660   283.55048      0            
     14680   321.95198      0            
     14700   289.66069      0            
     14720   304.2867       0            
     14740   270.27074      0            
     14760   289.98272      0            
     14780   278.90412      0            
     14800   294.21031      0            
     14820   283.25783      0            
     14840   288.84142      0            
     14860   286.88986      0            
     14880   297.09602      0            
     14900   313.415        0            
     14920   293.33249      0            
     14940   311.90337      0            
     14960   295.71861      0            
     14980   312.59531      0            
     15000   303.39256      0            
     15020   297.91897      0            
     15040   281.16836      0            
     15060   310.76155      0            
     15080   320.89536      0            
     15100   302.54904      0            
     15120   295.27485      0            
     15140   280.9388       0            
     15160   279.08048      0            
     15180   313.78724      0            
     15200   332.83006      0            
     15220   313.62296      0            
     15240   317.26248      0            
     15260   307.88053      0            
     15280   314.33774      0            
     15300   294.77464      0            
     15320   291.38372      0            
     15340   320.04468      0            
     15360   282.00213      0            
     15380   302.85024      0            
     15400   288.34708      0            
     15420   262.60714      0            
     15440   282.05274      0            
     15460   283.93608      0            
     15480   259.58027      0            
     15500   261.85445      0            
     15520   268.38026      0            
     15540   264.80031      0            
     15560   280.76668      0            
     15580   272.5127       0            
     15600   254.30226      0            
     15620   329.70823      0            
     15640   347.13605      0            
     15660   294.17778      0            
     15680   294.19302      0            
     15700   301.73009      0            
     15720   327.78006      0            
     15740   316.23138      0            
     15760   334.52682      0            
     15780   322.9826       0            
     15800   336.61488      0            
     15820   286.58056      0            
     15840   304.36295      0            
     15860   298.5877       0            
     15880   305.80338      0            
     15900   309.54332      0            
     15920   295.58355      0            
     15940   302.60574      0            
     15960   294.70292      0            
     15980   284.99749      0            
     16000   319.92436      0            
     16020   288.7111       0            
     16040   265.31463      0            
     16060   291.35409      0            
     16080   276.35185      0            
     16100   280.49405      0            
     16120   249.55148      0            
     16140   263.64147      0            
     16160   327.30793      0            
     16180   296.03086      0            
     16200   330.97183      0            
     16220   300.13128      0            
     16240   331.70309      0            
     16260   334.32379      0            
     16280   366.59313      0            
     16300   335.69882      0            
     16320   301.29768      0            
     16340   335.33581      0            
     16360   342.3505       0            
     16380   313.69321      0            
     16400   315.11577      0            
     16420   314.55432      0            
     16440   303.61853      0            
     16460   272.91345      0            
     16480   311.03893      0            
     16500   323.94501      0            
     16520   335.79954      0            
     16540   280.96973      0            
     16560   267.97786      0            
     16580   299.46034      0            
     16600   291.87606      0            
     16620   315.81627      0            
     16640   303.75514      0            
     16660   314.8449       0            
     16680   288.23438      0            
     16700   308.839        0            
     16720   296.09429      0            
     16740   324.64787      0            
     16760   346.20992      0            
     16780   334.78411      0            
     16800   329.71964      0            
     16820   333.25778      0            
     16840   355.60719      0            
     16860   310.48046      0            
     16880   355.87325      0            
     16900   341.15437      0            
     16920   326.41489      0            
     16940   313.7167       0            
     16960   303.16327      0            
     16980   319.0428       0            
     17000   313.75429      0            
     17020   295.3177       0            
     17040   312.36115      0            
     17060   324.28723      0            
     17080   312.28075      0            
     17100   306.28891      0            
     17120   258.22971      0            
     17140   316.03464      0            
     17160   311.01212      0            
     17180   275.7883       0            
     17200   284.0474       0            
     17220   292.8004       0            
     17240   271.07031      0            
     17260   320.26583      0            
     17280   302.7728       0            
     17300   298.98781      0            
     17320   299.45754      0            
     17340   262.11027      0            
     17360   302.35189      0            
     17380   271.18958      0            
     17400   326.48779      0            
     17420   317.68893      0            
     17440   308.75561      0            
     17460   316.21948      0            
     17480   346.75994      0            
     17500   319.12621      0            
     17520   333.6775       0            
     17540   346.13013      0            
     17560   299.63432      0            
     17580   329.23764      0            
     17600   325.4567       0            
     17620   379.03432      0            
     17640   293.53434      0            
     17660   313.9802       0            
     17680   285.44639      0            
     17700   275.49442      0            
     17720   298.25328      0            
     17740   287.36949      0            
     17760   277.95419      0            
     17780   287.91089      0            
     17800   285.58393      0            
     17820   249.74787      0            
     17840   309.13332      0            
     17860   334.98241      0            
     17880   288.98089      0            
     17900   293.25411      0            
     17920   294.93503      0            
     17940   306.37435      0            
     17960   280.79174      0            
     17980   323.44714      0            
     18000   314.42875      0            
     18020   298.09193      0            
     18040   332.56345      0            
     18060   331.25257      0            
     18080   304.22534      0            
     18100   304.72878      0            
     18120   360.74544      0            
     18140   371.27783      0            
     18160   298.81308      0            
     18180   340.63148      0            
     18200   340.12698      0            
     18220   320.77634      0            
     18240   349.34639      0            
     18260   327.01713      0            
     18280   317.13783      0            
     18300   323.70475      0            
     18320   297.97017      0            
     18340   279.46243      0            
     18360   319.70841      0            
     18380   290.80379      0            
     18400   254.08217      0            
     18420   286.68508      0            
     18440   286.24995      0            
     18460   308.62992      0            
     18480   315.50102      0            
     18500   283.64086      0            
     18520   278.413        0            
     18540   284.78937      0            
     18560   288.36428      0            
     18580   312.44939      0            
     18600   301.92783      0            
     18620   307.89675      0            
     18640   303.7745       0            
     18660   307.56739      0            
     18680   283.6673       0            
     18700   325.08023      0            
     18720   302.71867      0            
     18740   293.20412      0            
     18760   340.67463      0            
     18780   288.19261      0            
     18800   306.99972      0            
     18820   305.77334      0            
     18840   294.88892      0            
     18860   301.39355      0            
     18880   339.70992      0            
     18900   281.85057      0            
     18920   273.62295      0            
     18940   294.42203      0            
     18960   308.19103      0            
     18980   267.36236      0            
     19000   272.06052      0            
     19020   266.94206      0            
     19040   247.73287      0            
     19060   266.05906      0            
     19080   269.36598      0            
     19100   281.22651      0            
     19120   282.42748      0            
     19140   279.66212      0            
     19160   293.21501      0            
     19180   312.64384      0            
     19200   310.70956      0            
     19220   306.33361      0            
     19240   298.73343      0            
     19260   333.356        0            
     19280   322.73102      0            
     19300   331.17458      0            
     19320   308.9787       0            
     19340   300.19679      0            
     19360   343.50775      0            
     19380   347.19971      0            
     19400   314.59763      0            
     19420   274.65835      0            
     19440   322.24263      0            
     19460   312.9295       0            
     19480   297.46842      0            
     19500   302.63036      0            
     19520   306.98003      0            
     19540   279.4285       0            
     19560   309.56527      0            
     19580   260.39602      0            
     19600   292.42153      0            
     19620   282.82976      0            
     19640   272.88197      0            
     19660   302.66783      0            
     19680   289.86283      0            
     19700   301.26313      0            
     19720   265.99623      0            
     19740   286.72267      0            
     19760   298.54355      0            
     19780   294.20833      0            
     19800   298.78452      0            
     19820   303.79014      0            
     19840   306.40493      0            
     19860   302.4281       0            
     19880   312.45979      0            
     19900   329.49573      0            
     19920   323.15426      0            
     19940   339.95408      0            
     19960   336.70455      0            
     19980   300.49827      0            
     20000   330.07769      0            
     20020   292.67319      0            
     20040   332.57315      0            
     20060   309.26455      0            
     20080   307.27982      0            
     20100   294.2098       0            
     20120   250.53666      0            
     20140   286.88097      0            
     20160   317.23895      0            
     20180   334.33252      0            
     20200   297.56303      0            
     20220   300.50548      0            
     20240   271.70111      0            
     20260   289.64436      0            
     20280   294.336        0            
     20300   308.64887      0            
     20320   278.72231      0            
     20340   295.11918      0            
     20360   286.8612       0            
     20380   285.67363      0            
     20400   310.68814      0            
     20420   312.05928      0            
     20440   316.27142      0            
     20460   298.26703      0            
     20480   305.26449      0            
     20500   352.39138      0            
     20520   317.17433      0            
     20540   327.60988      0            
     20560   334.72791      0            
     20580   339.3389       0            
     20600   337.66929      0            
     20620   342.58979      0            
     20640   277.37885      0            
     20660   320.29478      0            
     20680   301.5336       0            
     20700   326.95024      0            
     20720   356.52849      0            
     20740   318.80004      0            
     20760   330.00778      0            
     20780   281.0675       0            
     20800   319.06614      0            
     20820   286.31162      0            
     20840   322.47541      0            
     20860   246.1235       0            
     20880   286.77743      0            
     20900   298.01641      0            
     20920   296.34652      0            
     20940   257.17967      0            
     20960   279.02346      0            
     20980   287.22865      0            
     21000   290.58139      0            
     21020   286.76457      0            
     21040   315.61523      0            
     21060   326.12059      0            
     21080   293.58333      0            
     21100   285.15117      0            
     21120   307.31735      0            
     21140   316.99529      0            
     21160   326.85298      0            
     21180   339.75982      0            
     21200   362.17809      0            
     21220   325.23311      0            
     21240   314.57728      0            
     21260   298.89357      0            
     21280   308.52772      0            
     21300   326.73         0            
     21320   311.57046      0            
     21340   298.99082      0            
     21360   282.45408      0            
     21380   285.98212      0            
     21400   278.23616      0            
     21420   264.87273      0            
     21440   261.81839      0            
     21460   326.00451      0            
     21480   283.81776      0            
     21500   279.63516      0            
     21520   300.86549      0            
     21540   297.04273      0            
     21560   328.01002      0            
     21580   276.36388      0            
     21600   250.54854      0            
     21620   275.61058      0            
     21640   298.81255      0            
     21660   289.97332      0            
     21680   320.80927      0            
     21700   301.22029      0            
     21720   331.08093      0            
     21740   328.88614      0            
     21760   296.48844      0            
     21780   297.52795      0            
     21800   314.2401       0            
     21820   304.68968      0            
     21840   281.59491      0            
     21860   326.71399      0            
     21880   322.34261      0            
     21900   281.709        0            
     21920   295.86906      0            
     21940   286.15051      0            
     21960   271.99302      0            
     21980   256.40706      0            
     22000   266.00417      0            
     22020   267.14761      0            
     22040   273.48588      0            
     22060   265.33869      0            
     22080   279.62406      0            
     22100   298.88985      0            
     22120   299.74433      0            
     22140   270.27917      0            
     22160   308.57053      0            
     22180   294.1513       0            
     22200   305.46364      0            
     22220   288.1395       0            
     22240   296.95308      0            
     22260   321.00049      0            
     22280   303.25946      0            
     22300   308.33895      0            
     22320   314.36455      0            
     22340   349.75841      0            
     22360   269.87644      0            
     22380   302.55412      0            
     22400   300.47398      0            
     22420   309.85251      0            
     22440   303.82246      0            
     22460   272.09548      0            
     22480   264.2947       0            
     22500   304.1588       0            
     22520   325.62985      0            
     22540   284.48638      0            
     22560   291.70858      0            
     22580   272.22627      0            
     22600   295.09299      0            
     22620   253.55636      0            
     22640   254.36523      0            
     22660   260.19742      0            
     22680   255.15388      0            
     22700   267.56131      0            
     22720   276.94245      0            
     22740   274.30532      0            
     22760   286.00545      0            
     22780   271.43566      0            
     22800   293.75362      0            
     22820   297.30405      0            
     22840   318.89598      0            
     22860   302.06123      0            
     22880   289.4509       0            
     22900   271.89197      0            
     22920   287.93265      0            
     22940   316.22857      0            
     22960   282.49065      0            
     22980   288.44769      0            
     23000   316.05971      0            
     23020   296.1442       0            
     23040   347.03157      0            
     23060   295.82384      0            
     23080   300.30866      0            
     23100   323.75942      0            
     23120   318.15984      0            
     23140   341.55612      0            
     23160   291.132        0            
     23180   280.36999      0            
     23200   291.9914       0            
     23220   318.67295      0            
     23240   297.63236      0            
     23260   285.68094      0            
     23280   283.12555      0            
     23300   270.62315      0            
     23320   276.80238      0            
     23340   273.58555      0            
     23360   287.40957      0            
     23380   266.78918      0            
     23400   253.50036      0            
     23420   271.6857       0            
     23440   278.87662      0            
     23460   282.46851      0            
     23480   292.77007      0            
     23500   263.88299      0            
     23520   281.38343      0            
     23540   284.45997      0            
     23560   304.87571      0            
     23580   292.03037      0            
     23600   327.06455      0            
     23620   295.01141      0            
     23640   297.57741      0            
     23660   320.97361      0            
     23680   316.49967      0            
     23700   315.85412      0            
     23720   300.68726      0            
     23740   290.03507      0            
     23760   314.37271      0            
     23780   287.61093      0            
     23800   290.55751      0            
     23820   316.69941      0            
     23840   304.04117      0            
     23860   288.32614      0            
     23880   276.65784      0            
     23900   260.14012      0            
     23920   257.21304      0            
     23940   282.44465      0            
     23960   259.07254      0            
     23980   280.42014      0            
     24000   244.68744      0            
     24020   248.14842      0            
     24040   269.03931      0            
     24060   269.7766       0            
     24080   243.57103      0            
     24100   276.49651      0            
     24120   269.88257      0            
     24140   299.18576      0            
     24160   283.74098      0            
     24180   248.46332      0            
     24200   320.04087      0            
     24220   287.42009      0            
     24240   272.53101      0            
     24260   288.2735       0            
     24280   336.08504      0            
     24300   325.50732      0            
     24320   299.97         0            
     24340   283.52373      0            
     24360   334.85853      0            
     24380   305.86181      0            
     24400   325.50073      0            
     24420   298.19657      0            
     24440   285.76248      0            
     24460   311.33011      0            
     24480   269.53864      0            
     24500   262.91467      0            
     24520   269.96583      0            
     24540   258.7474       0            
     24560   289.13819      0            
     24580   285.06368      0            
     24600   285.34928      0            
     24620   252.25041      0            
     24640   254.40216      0            
     24660   259.72749      0            
     24680   259.6165       0            
     24700   272.76167      0            
     24720   273.2081       0            
     24740   294.55898      0            
     24760   298.50673      0            
     24780   328.87774      0            
     24800   296.21577      0            
     24820   317.89741      0            
     24840   288.57568      0            
     24860   328.54584      0            
     24880   315.26248      0            
     24900   314.81356      0            
     24920   331.26179      0            
     24940   327.59662      0            
     24960   326.81708      0            
     24980   304.6495       0            
     25000   288.06345      0            
     25020   301.75274      0            
     25040   331.39831      0            
     25060   292.18232      0            
     25080   283.71646      0            
     25100   294.54507      0            
     25120   268.10419      0            
     25140   254.05001      0            
     25160   298.64713      0            
     25180   306.4599       0            
     25200   260.86144      0            
     25220   246.74988      0            
     25240   272.73202      0            
     25260   268.3868       0            
     25280   269.00951      0            
     25300   273.77481      0            
     25320   284.17629      0            
     25340   274.70714      0            
     25360   306.41008      0            
     25380   294.60918      0            
     25400   299.20217      0            
     25420   335.40294      0            
     25440   292.54503      0            
     25460   344.85984      0            
     25480   318.87066      0            
     25500   317.91845      0            
     25520   276.96644      0            
     25540   321.19201      0            
     25560   342.1216       0            
     25580   289.54833      0            
     25600   327.55667      0            
     25620   317.24264      0            
     25640   294.33068      0            
     25660   328.45726      0            
     25680   299.01313      0            
     25700   314.44689      0            
     25720   274.10665      0            
     25740   261.37776      0            
     25760   265.58575      0            
     25780   270.74997      0            
     25800   252.76286      0            
     25820   309.39285      0            
     25840   306.00129      0            
     25860   306.13185      0            
     25880   295.87846      0            
     25900   319.67011      0            
     25920   328.1157       0            
     25940   298.67524      0            
     25960   302.06562      0            
     25980   294.88841      0            
     26000   285.91278      0            
     26020   294.69343      0            
     26040   283.54465      0            
     26060   311.95991      0            
     26080   277.86357      0            
     26100   311.56396      0            
     26120   268.7923       0            
     26140   299.69277      0            
     26160   312.63817      0            
     26180   321.89164      0            
     26200   285.7488       0            
     26220   305.6468       0            
     26240   321.45011      0            
     26260   281.50486      0            
     26280   312.66479      0            
     26300   329.93222      0            
     26320   293.5458       0            
     26340   323.41039      0            
     26360   319.21815      0            
     26380   314.87702      0            
     26400   268.56454      0            
     26420   291.47946      0            
     26440   278.32317      0            
     26460   284.29413      0            
     26480   278.18185      0            
     26500   291.03789      0            
     26520   282.47997      0            
     26540   292.16286      0            
     26560   283.41555      0            
     26580   284.96478      0            
     26600   298.9308       0            
     26620   308.59175      0            
     26640   284.28213      0            
     26660   320.1325       0            
     26680   315.74822      0            
     26700   325.68842      0            
     26720   259.82038      0            
     26740   316.30372      0            
     26760   347.09825      0            
     26780   288.95696      0            
     26800   324.14218      0            
     26820   318.36697      0            
     26840   354.13762      0            
     26860   321.54927      0            
     26880   334.62738      0            
     26900   311.99594      0            
     26920   289.25324      0            
     26940   257.38115      0            
     26960   311.99024      0            
     26980   280.69585      0            
     27000   277.01699      0            
     27020   293.20209      0            
     27040   295.86417      0            
     27060   267.71122      0            
     27080   273.04274      0            
     27100   303.40641      0            
     27120   287.00848      0            
     27140   279.2953       0            
     27160   271.84646      0            
     27180   299.97672      0            
     27200   279.48585      0            
     27220   308.44098      0            
     27240   282.8132       0            
     27260   270.56689      0            
     27280   321.28896      0            
     27300   292.0225       0            
     27320   274.83507      0            
     27340   279.19533      0            
     27360   335.86688      0            
     27380   312.98053      0            
     27400   325.32628      0            
     27420   319.1929       0            
     27440   310.17477      0            
     27460   308.78109      0            
     27480   290.04008      0            
     27500   263.09699      0            
     27520   310.5598       0            
     27540   328.38976      0            
     27560   297.05572      0            
     27580   336.57744      0            
     27600   324.47801      0            
     27620   326.84538      0            
     27640   315.38255      0            
     27660   336.25012      0            
     27680   301.19473      0            
     27700   333.98876      0            
     27720   323.32022      0            
     27740   310.32124      0            
     27760   285.07285      0            
     27780   334.00768      0            
     27800   320.77225      0            
     27820   273.88962      0            
     27840   244.24338      0            
     27860   286.60279      0            
     27880   275.73113      0            
     27900   297.8377       0            
     27920   269.32498      0            
     27940   297.54797      0            
     27960   273.50003      0            
     27980   284.09287      0            
     28000   263.37012      0            
     28020   273.91271      0            
     28040   302.17093      0            
     28060   275.18645      0            
     28080   322.56345      0            
     28100   286.42626      0            
     28120   320.47814      0            
     28140   353.25895      0            
     28160   315.1626       0            
     28180   332.14781      0            
     28200   336.00649      0            
     28220   312.81692      0            
     28240   325.08149      0            
     28260   336.87302      0            
     28280   305.6351       0            
     28300   362.48498      0            
     28320   346.98903      0            
     28340   316.42047      0            
     28360   343.83573      0            
     28380   325.04273      0            
     28400   282.97532      0            
     28420   322.031        0            
     28440   304.2845       0            
     28460   278.04148      0            
     28480   304.67769      0            
     28500   297.29101      0            
     28520   281.49948      0            
     28540   304.3322       0            
     28560   266.35374      0            
     28580   300.27508      0            
     28600   278.07523      0            
     28620   283.81926      0            
     28640   284.38546      0            
     28660   255.03772      0            
     28680   300.91623      0            
     28700   278.37702      0            
     28720   304.25321      0            
     28740   309.63386      0            
     28760   314.61091      0            
     28780   321.83454      0            
     28800   324.9757       0            
     28820   308.72715      0            
     28840   368.7159       0            
     28860   341.23476      0            
     28880   299.65533      0            
     28900   311.78522      0            
     28920   305.80893      0            
     28940   266.19618      0            
     28960   315.80815      0            
     28980   315.71126      0            
     29000   301.79637      0            
     29020   298.8628       0            
     29040   297.65671      0            
     29060   279.80205      0            
     29080   274.66261      0            
     29100   274.45872      0            
     29120   283.84762      0            
     29140   260.01927      0            
     29160   295.53037      0            
     29180   283.57501      0            
     29200   282.35749      0            
     29220   270.10328      0            
     29240   288.03133      0            
     29260   301.54485      0            
     29280   268.79395      0            
     29300   274.04694      0            
     29320   282.73062      0            
     29340   282.65569      0            
     29360   313.25391      0            
     29380   291.65183      0            
     29400   323.05803      0            
     29420   362.84137      0            
     29440   314.57433      0            
     29460   291.77285      0            
     29480   332.8878       0            
     29500   315.16092      0            
     29520   317.91447      0            
     29540   306.30799      0            
     29560   290.37457      0            
     29580   307.02594      0            
     29600   279.34459      0            
     29620   295.49454      0            
     29640   285.34796      0            
     29660   315.23446      0            
     29680   296.65624      0            
     29700   252.77327      0            
     29720   266.44558      0            
     29740   273.61945      0            
     29760   250.96347      0            
     29780   276.59036      0            
     29800   254.62489      0            
     29820   300.9825       0            
     29840   289.18139      0            
     29860   310.64505      0            
     29880   283.62267      0            
     29900   255.37726      0            
     29920   247.18145      0            
     29940   292.66002      0            
     29960   320.50826      0            
     29980   300.09328      0            
     30000   270.34202      0            
     30020   310.50701      0            
     30040   315.88727      0            
     30060   303.68282      0            
     30080   299.08904      0            
     30100   318.90922      0            
     30120   318.34097      0            
     30140   306.98186      0            
     30160   300.57148      0            
     30180   330.926        0            
     30200   319.31748      0            
     30220   317.28969      0            
     30240   281.70969      0            
     30260   291.34865      0            
     30280   303.31768      0            
     30300   300.28964      0            
     30320   296.47616      0            
     30340   301.02233      0            
     30360   281.5081       0            
     30380   265.15059      0            
     30400   292.38842      0            
     30420   274.19188      0            
     30440   255.11582      0            
     30460   255.02299      0            
     30480   282.67085      0            
     30500   273.69024      0            
     30520   290.54783      0            
     30540   305.53785      0            
     30560   288.46267      0            
     30580   297.05113      0            
     30600   291.35476      0            
     30620   322.32314      0            
     30640   309.32692      0            
     30660   309.65601      0            
     30680   300.0186       0            
     30700   353.43819      0            
     30720   320.58719      0            
     30740   299.98726      0            
     30760   321.09952      0            
     30780   322.11384      0            
     30800   342.68153      0            
     30820   287.46409      0            
     30840   315.92048      0            
     30860   298.34218      0            
     30880   277.1247       0            
     30900   311.14681      0            
     30920   294.15378      0            
     30940   314.53363      0            
     30960   292.92578      0            
     30980   259.72449      0            
     31000   290.60642      0            
     31020   297.00137      0            
     31040   273.59356      0            
     31060   258.84668      0            
     31080   268.41413      0            
     31100   243.35431      0            
     31120   294.00317      0            
     31140   235.4821       0            
     31160   263.60467      0            
     31180   261.43953      0            
     31200   272.27495      0            
     31220   272.5044       0            
     31240   276.39938      0            
     31260   260.61553      0            
     31280   265.65866      0            
     31300   292.08859      0            
     31320   262.75335      0            
     31340   254.1428       0            
     31360   327.14606      0            
     31380   253.03922      0            
     31400   324.51828      0            
     31420   286.6777       0            
     31440   302.21559      0            
     31460   263.87094      0            
     31480   319.45744      0            
     31500   325.36893      0            
     31520   319.0461       0            
     31540   322.12352      0            
     31560   311.077        0            
     31580   293.23453      0            
     31600   336.14186      0            
     31620   300.76815      0            
     31640   311.71929      0            
     31660   321.77527      0            
     31680   337.36644      0            
     31700   297.17157      0            
     31720   325.79448      0            
     31740   308.68208      0            
     31760   281.39552      0            
     31780   269.11933      0            
     31800   252.92636      0            
     31820   289.7499       0            
     31840   293.96995      0            
     31860   286.18022      0            
     31880   298.41266      0            
     31900   263.36298      0            
     31920   276.84534      0            
     31940   273.46602      0            
     31960   270.33656      0            
     31980   300.67606      0            
     32000   274.61651      0            
     32020   326.83738      0            
     32040   297.64142      0            
     32060   320.90508      0            
     32080   317.38522      0            
     32100   326.53323      0            
     32120   294.66195      0            
     32140   336.80958      0            
     32160   297.64321      0            
     32180   317.24335      0            
     32200   306.62107      0            
     32220   310.88796      0            
     32240   325.38148      0            
     32260   283.25963      0            
     32280   294.19563      0            
     32300   313.75996      0            
     32320   268.9671       0            
     32340   320.53456      0            
     32360   324.09947      0            
     32380   276.80126      0            
     32400   283.1577       0            
     32420   273.60745      0            
     32440   284.84282      0            
     32460   283.68432      0            
     32480   292.00932      0            
     32500   273.71501      0            
     32520   281.00848      0            
     32540   251.77555      0            
     32560   232.84622      0            
     32580   274.29384      0            
     32600   251.38836      0            
     32620   244.56741      0            
     32640   276.63871      0            
     32660   274.88853      0            
     32680   267.56669      0            
     32700   272.09384      0            
     32720   271.19643      0            
     32740   300.99894      0            
     32760   309.70998      0            
     32780   268.7773       0            
     32800   314.04801      0            
     32820   296.6342       0            
     32840   277.54009      0            
     32860   309.12358      0            
     32880   310.50105      0            
     32900   291.76102      0            
     32920   285.40664      0            
     32940   316.75514      0            
     32960   303.90857      0            
     32980   294.52238      0            
     33000   318.14524      0            
     33020   306.10036      0            
     33040   327.66687      0            
     33060   302.41702      0            
     33080   295.82968      0            
     33100   306.41267      0            
     33120   313.40414      0            
     33140   304.28832      0            
     33160   289.91913      0            
     33180   265.61057      0            
     33200   264.34037      0            
     33220   253.58952      0            
     33240   273.60887      0            
     33260   260.0515       0            
     33280   278.67197      0            
     33300   283.56844      0            
     33320   267.92275      0            
     33340   300.83137      0            
     33360   282.5892       0            
     33380   273.60511      0            
     33400   262.58964      0            
     33420   289.48466      0            
     33440   290.82946      0            
     33460   329.18682      0            
     33480   333.39999      0            
     33500   266.43989      0            
     33520   317.6019       0            
     33540   327.01573      0            
     33560   287.23804      0            
     33580   291.62027      0            
     33600   309.51792      0            
     33620   293.562        0            
     33640   331.66786      0            
     33660   276.00308      0            
     33680   319.24735      0            
     33700   322.15534      0            
     33720   277.94213      0            
     33740   284.79673      0            
     33760   286.17787      0            
     33780   285.65758      0            
     33800   252.14338      0            
     33820   292.60915      0            
     33840   284.90493      0            
     33860   286.76796      0            
     33880   265.81854      0            
     33900   269.36005      0            
     33920   277.01391      0            
     33940   258.87932      0            
     33960   265.66741      0            
     33980   249.91388      0            
     34000   307.35521      0            
     34020   291.11559      0            
     34040   305.59053      0            
     34060   336.39285      0            
     34080   319.21881      0            
     34100   316.90266      0            
     34120   332.00484      0            
     34140   305.39234      0            
     34160   337.13164      0            
     34180   305.65718      0            
     34200   340.04449      0            
     34220   307.60525      0            
     34240   296.62359      0            
     34260   300.29262      0            
     34280   348.62578      0            
     34300   280.10357      0            
     34320   322.4725       0            
     34340   258.44805      0            
     34360   267.06937      0            
     34380   297.27065      0            
     34400   269.35585      0            
     34420   279.05764      0            
     34440   281.75825      0            
     34460   283.73389      0            
     34480   275.73862      0            
     34500   249.82424      0            
     34520   281.20421      0            
     34540   268.22404      0            
     34560   298.41409      0            
     34580   253.03379      0            
     34600   289.82411      0            
     34620   295.22255      0            
     34640   320.32567      0            
     34660   315.66211      0            
     34680   271.40216      0            
     34700   268.19275      0            
     34720   313.25109      0            
     34740   317.29816      0            
     34760   274.07453      0            
     34780   336.09114      0            
     34800   313.9079       0            
     34820   285.93548      0            
     34840   299.06761      0            
     34860   334.31655      0            
     34880   331.93455      0            
     34900   328.85694      0            
     34920   322.56331      0            
     34940   295.33711      0            
     34960   312.7387       0            
     34980   335.12571      0            
     35000   316.55647      0            
     35020   303.85388      0            
     35040   289.31638      0            
     35060   302.4981       0            
     35080   269.60579      0            
     35100   280.35798      0            
     35120   256.93378      0            
     35140   280.38738      0            
     35160   268.3295       0            
     35180   252.97168      0            
     35200   269.02709      0            
     35220   295.71184      0            
     35240   267.43855      0            
     35260   282.90571      0            
     35280   288.16136      0            
     35300   291.8958       0            
     35320   292.41516      0            
     35340   307.6615       0            
     35360   296.65662      0            
     35380   310.9965       0            
     35400   307.4749       0            
     35420   329.24447      0            
     35440   327.50839      0            
     35460   331.62601      0            
     35480   320.80083      0            
     35500   291.05494      0            
     35520   301.33435      0            
     35540   311.5953       0            
     35560   303.11836      0            
     35580   318.36719      0            
     35600   298.71813      0            
     35620   291.83571      0            
     35640   304.12369      0            
     35660   289.963        0            
     35680   277.64024      0            
     35700   264.85449      0            
     35720   272.40441      0            
     35740   236.26969      0            
     35760   287.42196      0            
     35780   279.86402      0            
     35800   266.93947      0            
     35820   301.49776      0            
     35840   298.70214      0            
     35860   299.6486       0            
     35880   312.04216      0            
     35900   351.0357       0            
     35920   351.15944      0            
     35940   367.73172      0            
     35960   327.74542      0            
     35980   336.695        0            
     36000   326.83917      0            
     36020   338.44774      0            
     36040   322.77301      0            
     36060   298.70443      0            
     36080   337.57056      0            
     36100   311.32324      0            
     36120   322.97818      0            
     36140   304.82785      0            
     36160   277.65451      0            
     36180   272.02719      0            
     36200   272.86212      0            
     36220   276.44635      0            
     36240   262.2002       0            
     36260   271.23555      0            
     36280   262.42996      0            
     36300   290.40902      0            
     36320   264.98062      0            
     36340   291.55875      0            
     36360   288.42265      0            
     36380   281.73418      0            
     36400   299.41389      0            
     36420   303.83726      0            
     36440   311.89173      0            
     36460   315.77199      0            
     36480   315.91941      0            
     36500   344.61762      0            
     36520   304.5653       0            
     36540   313.4101       0            
     36560   365.03098      0            
     36580   339.80949      0            
     36600   339.7524       0            
     36620   291.60777      0            
     36640   341.02097      0            
     36660   298.63317      0            
     36680   314.07926      0            
     36700   296.79916      0            
     36720   333.42877      0            
     36740   278.32241      0            
     36760   327.02921      0            
     36780   288.6069       0            
     36800   272.37118      0            
     36820   297.33968      0            
     36840   290.60385      0            
     36860   271.31457      0            
     36880   267.54298      0            
     36900   294.92768      0            
     36920   310.44028      0            
     36940   299.30086      0            
     36960   250.55402      0            
     36980   264.71505      0            
     37000   300.0108       0            
     37020   290.12626      0            
     37040   338.49338      0            
     37060   294.48479      0            
     37080   305.43897      0            
     37100   308.69348      0            
     37120   341.69416      0            
     37140   336.79556      0            
     37160   331.19629      0            
     37180   302.20011      0            
     37200   324.13971      0            
     37220   325.22778      0            
     37240   365.41815      0            
     37260   333.57568      0            
     37280   309.76795      0            
     37300   343.26832      0            
     37320   324.87184      0            
     37340   290.58229      0            
     37360   324.44804      0            
     37380   337.63854      0            
     37400   314.3423       0            
     37420   281.85779      0            
     37440   285.06465      0            
     37460   263.2129       0            
     37480   272.93446      0            
     37500   326.02846      0            
     37520   304.42762      0            
     37540   287.24765      0            
     37560   282.81692      0            
     37580   299.29439      0            
     37600   300.20232      0            
     37620   267.83201      0            
     37640   307.69948      0            
     37660   314.41845      0            
     37680   287.64528      0            
     37700   339.95325      0            
     37720   311.8708       0            
     37740   345.64601      0            
     37760   340.6078       0            
     37780   280.81079      0            
     37800   362.0211       0            
     37820   336.87526      0            
     37840   326.01873      0            
     37860   380.50539      0            
     37880   334.63951      0            
     37900   337.07406      0            
     37920   366.53499      0            
     37940   339.13251      0            
     37960   326.99209      0            
     37980   295.70047      0            
     38000   358.66498      0            
     38020   332.73432      0            
     38040   280.78913      0            
     38060   304.24442      0            
     38080   273.50103      0            
     38100   288.97844      0            
     38120   287.6117       0            
     38140   289.47296      0            
     38160   294.7278       0            
     38180   270.92091      0            
     38200   263.83694      0            
     38220   270.81131      0            
     38240   296.46178      0            
     38260   282.14701      0            
     38280   284.55364      0            
     38300   262.07397      0            
     38320   301.50159      0            
     38340   286.12047      0            
     38360   318.34586      0            
     38380   300.52645      0            
     38400   325.41524      0            
     38420   296.26712      0            
     38440   308.95274      0            
     38460   332.70248      0            
     38480   296.90034      0            
     38500   301.88686      0            
     38520   337.88881      0            
     38540   312.72673      0            
     38560   314.4801       0            
     38580   311.85026      0            
     38600   321.24324      0            
     38620   294.32342      0            
     38640   322.599        0            
     38660   297.9019       0            
     38680   294.67927      0            
     38700   295.95826      0            
     38720   289.65256      0            
     38740   288.94831      0            
     38760   298.4515       0            
     38780   241.80878      0            
     38800   273.24412      0            
     38820   315.78593      0            
     38840   306.16432      0            
     38860   304.77853      0            
     38880   272.35155      0            
     38900   293.84895      0            
     38920   307.41383      0            
     38940   307.68284      0            
     38960   348.52288      0            
     38980   296.77487      0            
     39000   295.29933      0            
     39020   291.97023      0            
     39040   297.60428      0            
     39060   339.4323       0            
     39080   332.80831      0            
     39100   341.3027       0            
     39120   319.49564      0            
     39140   316.28784      0            
     39160   320.10155      0            
     39180   304.89697      0            
     39200   290.6431       0            
     39220   313.83222      0            
     39240   281.68788      0            
     39260   288.28909      0            
     39280   299.76384      0            
     39300   279.97198      0            
     39320   295.76699      0            
     39340   261.36388      0            
     39360   287.04839      0            
     39380   281.82718      0            
     39400   290.25341      0            
     39420   290.10276      0            
     39440   277.10227      0            
     39460   269.75796      0            
     39480   268.55086      0            
     39500   261.78464      0            
     39520   298.82993      0            
     39540   292.04111      0            
     39560   293.9686       0            
     39580   342.15603      0            
     39600   307.2642       0            
     39620   322.06991      0            
     39640   313.35046      0            
     39660   292.88563      0            
     39680   316.37796      0            
     39700   327.51623      0            
     39720   296.46658      0            
     39740   310.42471      0            
     39760   276.26054      0            
     39780   319.83829      0            
     39800   313.86006      0            
     39820   297.18392      0            
     39840   286.65088      0            
     39860   330.44513      0            
     39880   271.39705      0            
     39900   289.82805      0            
     39920   301.69305      0            
     39940   282.46632      0            
     39960   294.91003      0            
     39980   272.16744      0            
     40000   262.25972      0            
     40020   261.64686      0            
     40040   239.28653      0            
     40060   263.72708      0            
     40080   290.33701      0            
     40100   268.64811      0            
     40120   253.85547      0            
     40140   242.20407      0            
     40160   255.5566       0            
     40180   246.51014      0            
     40200   246.03275      0            
     40220   270.8962       0            
     40240   230.05531      0            
     40260   272.52432      0            
     40280   307.49562      0            
     40300   278.17933      0            
     40320   299.92802      0            
     40340   287.13371      0            
     40360   328.06613      0            
     40380   309.44009      0            
     40400   309.94516      0            
     40420   290.12704      0            
     40440   315.19954      0            
     40460   309.56191      0            
     40480   289.02018      0            
     40500   317.72235      0            
     40520   317.48422      0            
     40540   312.35058      0            
     40560   332.6422       0            
     40580   334.3205       0            
     40600   314.49324      0            
     40620   310.50499      0            
     40640   315.58468      0            
     40660   283.91068      0            
     40680   285.30966      0            
     40700   264.30094      0            
     40720   294.71114      0            
     40740   275.92802      0            
     40760   261.71547      0            
     40780   262.33677      0            
     40800   227.96303      0            
     40820   277.92508      0            
     40840   278.39478      0            
     40860   259.91974      0            
     40880   265.46305      0            
     40900   285.29774      0            
     40920   285.24687      0            
     40940   294.54036      0            
     40960   338.406        0            
     40980   317.5928       0            
     41000   264.97977      0            
     41020   320.34029      0            
     41040   318.46201      0            
     41060   280.39269      0            
     41080   283.35417      0            
     41100   305.03209      0            
     41120   317.77573      0            
     41140   278.31124      0            
     41160   296.80747      0            
     41180   320.00925      0            
     41200   314.85346      0            
     41220   287.1851       0            
     41240   264.09011      0            
     41260   322.11279      0            
     41280   273.64781      0            
     41300   285.69154      0            
     41320   320.02703      0            
     41340   322.48366      0            
     41360   273.05804      0            
     41380   271.10766      0            
     41400   249.3849       0            
     41420   260.1908       0            
     41440   268.55745      0            
     41460   266.27441      0            
     41480   255.65979      0            
     41500   268.18227      0            
     41520   277.10629      0            
     41540   281.65769      0            
     41560   277.50612      0            
     41580   289.94215      0            
     41600   294.39194      0            
     41620   311.66382      0            
     41640   305.5849       0            
     41660   295.91361      0            
     41680   300.29305      0            
     41700   357.40082      0            
     41720   312.56111      0            
     41740   295.28461      0            
     41760   340.24426      0            
     41780   310.14258      0            
     41800   339.52281      0            
     41820   312.33194      0            
     41840   293.53774      0            
     41860   301.82097      0            
     41880   260.84774      0            
     41900   263.34548      0            
     41920   273.97176      0            
     41940   292.06267      0            
     41960   274.84989      0            
     41980   300.84617      0            
     42000   258.96784      0            
     42020   277.06712      0            
     42040   293.70401      0            
     42060   274.76385      0            
     42080   291.86976      0            
     42100   270.77009      0            
     42120   281.88011      0            
     42140   290.39847      0            
     42160   316.21781      0            
     42180   305.04783      0            
     42200   304.4395       0            
     42220   302.02494      0            
     42240   285.91448      0            
     42260   285.96504      0            
     42280   292.72237      0            
     42300   344.08294      0            
     42320   306.43         0            
     42340   299.46492      0            
     42360   280.32771      0            
     42380   279.20838      0            
     42400   305.00549      0            
     42420   295.16769      0            
     42440   293.54081      0            
     42460   286.1854       0            
     42480   294.06441      0            
     42500   288.13685      0            
     42520   286.70433      0            
     42540   301.50674      0            
     42560   248.71289      0            
     42580   273.97682      0            
     42600   266.61255      0            
     42620   280.0725       0            
     42640   278.16802      0            
     42660   277.53843      0            
     42680   280.07686      0            
     42700   299.2524       0            
     42720   260.74998      0            
     42740   264.35561      0            
     42760   269.05859      0            
     42780   290.88481      0            
     42800   260.24441      0            
     42820   294.50508      0            
     42840   310.52002      0            
     42860   282.11599      0            
     42880   312.14081      0            
     42900   265.58855      0            
     42920   304.41608      0            
     42940   324.45932      0            
     42960   320.47303      0            
     42980   304.22124      0            
     43000   304.38077      0            
     43020   316.79009      0            
     43040   298.53579      0            
     43060   317.12198      0            
     43080   284.21072      0            
     43100   328.61134      0            
     43120   303.95124      0            
     43140   283.3297       0            
     43160   315.60412      0            
     43180   290.20076      0            
     43200   265.49943      0            
     43220   285.22988      0            
     43240   253.2117       0            
     43260   244.70428      0            
     43280   271.55267      0            
     43300   309.46385      0            
     43320   284.10808      0            
     43340   275.28763      0            
     43360   303.70655      0            
     43380   311.76742      0            
     43400   303.89725      0            
     43420   313.31579      0            
     43440   313.53813      0            
     43460   334.28867      0            
     43480   271.34738      0            
     43500   292.702        0            
     43520   327.24947      0            
     43540   312.53576      0            
     43560   311.72695      0            
     43580   286.92879      0            
     43600   312.12409      0            
     43620   328.57451      0            
     43640   274.30168      0            
     43660   297.64818      0            
     43680   346.10378      0            
     43700   268.36595      0            
     43720   307.31959      0            
     43740   305.17065      0            
     43760   282.34948      0            
     43780   306.97266      0            
     43800   266.10058      0            
     43820   269.90049      0            
     43840   251.49134      0            
     43860   255.54248      0            
     43880   253.12825      0            
     43900   268.63879      0            
     43920   269.88292      0            
     43940   262.11296      0            
     43960   260.97614      0            
     43980   316.8966       0            
     44000   310.61141      0            
     44020   341.29928      0            
     44040   317.52817      0            
     44060   305.34244      0            
     44080   305.97718      0            
     44100   300.12662      0            
     44120   333.90096      0            
     44140   341.05466      0            
     44160   310.92864      0            
     44180   294.00867      0            
     44200   315.90445      0            
     44220   328.92199      0            
     44240   273.17617      0            
     44260   279.50631      0            
     44280   312.72965      0            
     44300   295.36464      0            
     44320   269.72568      0            
     44340   272.9493       0            
     44360   299.17309      0            
     44380   287.5055       0            
     44400   260.67134      0            
     44420   263.94614      0            
     44440   278.81065      0            
     44460   310.079        0            
     44480   303.9217       0            
     44500   274.42402      0            
     44520   273.61376      0            
     44540   295.92763      0            
     44560   287.88374      0            
     44580   339.60172      0            
     44600   313.97039      0            
     44620   295.94002      0            
     44640   321.42284      0            
     44660   328.9243       0            
     44680   325.37935      0            
     44700   313.00388      0            
     44720   328.34984      0            
     44740   299.22433      0            
     44760   294.06992      0            
     44780   308.62001      0            
     44800   287.42076      0            
     44820   304.22236      0            
     44840   298.97984      0            
     44860   312.7419       0            
     44880   286.81259      0            
     44900   290.12125      0            
     44920   290.65027      0            
     44940   282.13304      0            
     44960   259.32125      0            
     44980   297.9585       0            
     45000   274.93693      0            
     45020   256.35241      0            
     45040   292.61068      0            
     45060   325.25238      0            
     45080   290.73497      0            
     45100   285.84923      0            
     45120   292.30984      0            
     45140   294.24743      0            
     45160   302.11937      0            
     45180   279.70635      0            
     45200   298.68675      0            
     45220   336.85208      0            
     45240   314.17717      0            
     45260   344.55798      0            
     45280   325.679        0            
     45300   323.33824      0            
     45320   309.88705      0            
     45340   328.18004      0            
     45360   291.99332      0            
     45380   304.98435      0            
     45400   311.92289      0            
     45420   284.76635      0            
     45440   299.72993      0            
     45460   322.21646      0            
     45480   273.39035      0            
     45500   296.76096      0            
     45520   293.78871      0            
     45540   275.26281      0            
     45560   292.13699      0            
     45580   292.89698      0            
     45600   300.27501      0            
     45620   292.11647      0            
     45640   273.17379      0            
     45660   261.92252      0            
     45680   333.66268      0            
     45700   258.62715      0            
     45720   285.35266      0            
     45740   322.59496      0            
     45760   315.06229      0            
     45780   285.46039      0            
     45800   288.62089      0            
     45820   271.5599       0            
     45840   290.02204      0            
     45860   316.08324      0            
     45880   327.9057       0            
     45900   298.67935      0            
     45920   318.10668      0            
     45940   316.98258      0            
     45960   290.96755      0            
     45980   332.15264      0            
     46000   335.42176      0            
     46020   352.7971       0            
     46040   319.68318      0            
     46060   329.07794      0            
     46080   338.59634      0            
     46100   379.34218      0            
     46120   331.30292      0            
     46140   307.98365      0            
     46160   333.9841       0            
     46180   330.0213       0            
     46200   272.95861      0            
     46220   321.95954      0            
     46240   323.65813      0            
     46260   313.30342      0            
     46280   310.66761      0            
     46300   294.23113      0            
     46320   277.53996      0            
     46340   294.27432      0            
     46360   298.69669      0            
     46380   293.99512      0            
     46400   280.5365       0            
     46420   271.25552      0            
     46440   314.08562      0            
     46460   326.75244      0            
     46480   289.01832      0            
     46500   298.43038      0            
     46520   325.43077      0            
     46540   290.66057      0            
     46560   284.52643      0            
     46580   314.16576      0            
     46600   333.76321      0            
     46620   290.59488      0            
     46640   308.66352      0            
     46660   365.46639      0            
     46680   295.68957      0            
     46700   322.4651       0            
     46720   280.14674      0            
     46740   326.33107      0            
     46760   315.62627      0            
     46780   324.84278      0            
     46800   331.03884      0            
     46820   314.11737      0            
     46840   315.2076       0            
     46860   330.12181      0            
     46880   319.9294       0            
     46900   292.41805      0            
     46920   292.08474      0            
     46940   277.37975      0            
     46960   307.13154      0            
     46980   295.71855      0            
     47000   276.86244      0            
     47020   287.14678      0            
     47040   306.59414      0            
     47060   360.8913       0            
     47080   294.04904      0            
     47100   279.64926      0            
     47120   308.72681      0            
     47140   343.35251      0            
     47160   310.15274      0            
     47180   299.97021      0            
     47200   284.47797      0            
     47220   315.02809      0            
     47240   314.73471      0            
     47260   270.87084      0            
     47280   330.48233      0            
     47300   312.93196      0            
     47320   344.73777      0            
     47340   305.34838      0            
     47360   314.4546       0            
     47380   337.69893      0            
     47400   273.286        0            
     47420   318.06806      0            
     47440   319.31497      0            
     47460   325.54946      0            
     47480   295.08924      0            
     47500   289.56704      0            
     47520   261.61353      0            
     47540   295.12019      0            
     47560   278.62953      0            
     47580   270.0507       0            
     47600   240.01926      0            
     47620   293.32081      0            
     47640   276.98423      0            
     47660   281.12546      0            
     47680   271.08092      0            
     47700   291.80191      0            
     47720   282.54357      0            
     47740   293.75608      0            
     47760   291.23436      0            
     47780   333.59508      0            
     47800   308.58822      0            
     47820   300.59664      0            
     47840   304.56799      0            
     47860   282.42655      0            
     47880   321.4923       0            
     47900   305.8044       0            
     47920   302.41977      0            
     47940   304.48972      0            
     47960   314.26182      0            
     47980   293.47305      0            
     48000   299.25637      0            
     48020   303.50987      0            
     48040   326.41168      0            
     48060   299.28249      0            
     48080   259.12451      0            
     48100   309.53026      0            
     48120   302.34882      0            
     48140   285.92278      0            
     48160   268.23889      0            
     48180   265.91469      0            
     48200   272.46496      0            
     48220   264.31873      0            
     48240   267.83079      0            
     48260   280.90918      0            
     48280   255.76882      0            
     48300   316.63271      0            
     48320   308.34451      0            
     48340   278.24382      0            
     48360   289.15874      0            
     48380   306.83084      0            
     48400   316.39217      0            
     48420   289.85429      0            
     48440   309.4592       0            
     48460   277.43143      0            
     48480   329.91249      0            
     48500   333.67898      0            
     48520   337.80429      0            
     48540   350.1368       0            
     48560   298.70522      0            
     48580   287.00951      0            
     48600   275.50666      0            
     48620   261.80845      0            
     48640   304.39091      0            
     48660   314.25073      0            
     48680   293.34485      0            
     48700   290.7767       0            
     48720   284.38929      0            
     48740   289.21764      0            
     48760   300.40736      0            
     48780   268.0183       0            
     48800   278.15446      0            
     48820   256.94955      0            
     48840   284.94375      0            
     48860   274.43813      0            
     48880   300.41769      0            
     48900   280.08233      0            
     48920   279.05046      0            
     48940   298.24116      0            
     48960   310.66492      0            
     48980   292.86826      0            
     49000   264.36069      0            
     49020   320.26352      0            
     49040   296.87589      0            
     49060   297.51711      0            
     49080   257.64612      0            
     49100   261.02036      0            
     49120   305.71292      0            
     49140   284.66235      0            
     49160   297.37328      0            
     49180   283.22372      0            
     49200   280.29647      0            
     49220   287.92923      0            
     49240   312.27872      0            
     49260   307.87268      0            
     49280   302.35282      0            
     49300   296.65663      0            
     49320   293.98279      0            
     49340   287.37625      0            
     49360   280.97087      0            
     49380   286.93114      0            
     49400   279.95744      0            
     49420   260.31577      0            
     49440   298.16222      0            
     49460   307.0689       0            
     49480   304.83246      0            
     49500   280.4539       0            
     49520   265.00544      0            
     49540   306.91097      0            
     49560   278.26593      0            
     49580   313.79175      0            
     49600   305.70305      0            
     49620   328.27308      0            
     49640   320.10549      0            
     49660   298.4817       0            
     49680   300.69168      0            
     49700   314.7909       0            
     49720   347.78292      0            
     49740   315.18975      0            
     49760   293.54156      0            
     49780   321.43704      0            
     49800   330.60731      0            
     49820   331.21619      0            
     49840   328.32831      0            
     49860   295.19296      0            
     49880   282.37719      0            
     49900   267.6902       0            
     49920   276.83712      0            
     49940   295.0913       0            
     49960   265.91231      0            
     49980   275.75488      0            
     50000   255.76053      0            
     50020   280.00293      0            
     50040   263.51426      0            
     50060   278.4872       0            
     50080   305.03812      0            
     50100   271.10237      0            
     50120   286.07184      0            
     50140   290.10183      0            
     50160   316.43288      0            
     50180   309.8313       0            
     50200   275.99888      0            
     50220   286.15949      0            
     50240   287.09529      0            
     50260   316.46358      0            
     50280   302.47905      0            
     50300   308.17374      0            
     50320   310.42976      0            
     50340   338.67687      0            
     50360   283.20529      0            
     50380   300.16086      0            
     50400   327.92258      0            
     50420   317.17576      0            
     50440   288.25557      0            
     50460   320.02049      0            
     50480   325.06104      0            
     50500   301.36691      0            
     50520   273.38493      0            
     50540   291.11009      0            
     50560   277.71402      0            
     50580   291.72785      0            
     50600   293.67726      0            
     50620   276.37728      0            
     50640   263.35677      0            
     50660   318.16424      0            
     50680   285.3766       0            
     50700   292.85231      0            
     50720   270.66247      0            
     50740   317.76763      0            
     50760   276.2424       0            
     50780   318.6281       0            
     50800   323.5642       0            
     50820   298.47974      0            
     50840   301.83523      0            
     50860   303.06773      0            
     50880   284.37442      0            
     50900   282.97853      0            
     50920   310.48347      0            
     50940   329.27686      0            
     50960   278.48518      0            
     50980   334.10516      0            
     51000   313.81894      0            
     51020   284.35803      0            
     51040   318.09282      0            
     51060   287.68295      0            
     51080   262.05966      0            
     51100   312.55155      0            
     51120   302.92259      0            
     51140   270.2142       0            
     51160   296.74258      0            
     51180   312.14911      0            
     51200   275.81508      0            
     51220   288.77401      0            
     51240   280.96253      0            
     51260   288.65766      0            
     51280   269.76745      0            
     51300   288.76497      0            
     51320   296.18904      0            
     51340   275.43568      0            
     51360   259.87277      0            
     51380   274.16023      0            
     51400   241.99811      0            
     51420   307.0441       0            
     51440   279.35789      0            
     51460   243.02906      0            
     51480   344.43855      0            
     51500   317.92253      0            
     51520   280.96154      0            
     51540   316.84844      0            
     51560   304.81466      0            
     51580   311.01185      0            
     51600   342.45095      0            
     51620   315.92637      0            
     51640   349.01226      0            
     51660   338.25495      0            
     51680   344.50326      0            
     51700   294.91289      0            
     51720   321.34174      0            
     51740   307.73649      0            
     51760   264.61657      0            
     51780   249.67444      0            
     51800   268.8427       0            
     51820   281.38537      0            
     51840   286.18558      0            
     51860   297.3151       0            
     51880   274.81777      0            
     51900   269.24599      0            
     51920   285.63373      0            
     51940   259.71443      0            
     51960   271.23313      0            
     51980   285.15442      0            
     52000   297.90789      0            
     52020   297.8345       0            
     52040   309.96854      0            
     52060   326.85469      0            
     52080   269.76267      0            
     52100   314.89364      0            
     52120   298.0218       0            
     52140   299.80948      0            
     52160   300.40375      0            
     52180   283.03913      0            
     52200   295.54019      0            
     52220   324.54624      0            
     52240   292.14268      0            
     52260   303.60291      0            
     52280   299.03295      0            
     52300   337.61277      0            
     52320   309.39653      0            
     52340   361.72677      0            
     52360   329.348        0            
     52380   320.82562      0            
     52400   334.18792      0            
     52420   394.34932      0            
     52440   342.34759      0            
     52460   362.66518      0            
     52480   337.91004      0            
     52500   333.03555      0            
     52520   284.65781      0            
     52540   319.28298      0            
     52560   297.93766      0            
     52580   317.98915      0            
     52600   285.97218      0            
     52620   294.77087      0            
     52640   325.45807      0            
     52660   311.6331       0            
     52680   299.52751      0            
     52700   271.24432      0            
     52720   297.05608      0            
     52740   281.92699      0            
     52760   310.7          0            
     52780   322.90855      0            
     52800   304.23959      0            
     52820   296.52392      0            
     52840   293.91018      0            
     52860   296.32959      0            
     52880   293.12511      0            
     52900   273.84937      0            
     52920   288.98669      0            
     52940   316.03666      0            
     52960   292.19123      0            
     52980   297.9657       0            
     53000   326.66268      0            
     53020   302.28807      0            
     53040   305.75536      0            
     53060   314.42257      0            
     53080   305.49252      0            
     53100   318.07282      0            
     53120   293.99158      0            
     53140   299.73811      0            
     53160   310.64766      0            
     53180   316.97321      0            
     53200   325.19344      0            
     53220   312.56652      0            
     53240   328.51866      0            
     53260   295.64311      0            
     53280   268.3327       0            
     53300   305.18957      0            
     53320   292.94297      0            
     53340   290.78508      0            
     53360   278.84048      0            
     53380   305.47844      0            
     53400   290.4305       0            
     53420   294.79494      0            
     53440   253.0744       0            
     53460   266.33258      0            
     53480   292.29505      0            
     53500   303.85095      0            
     53520   292.57821      0            
     53540   306.26681      0            
     53560   294.55791      0            
     53580   308.25259      0            
     53600   293.81522      0            
     53620   292.65855      0            
     53640   319.18062      0            
     53660   299.92748      0            
     53680   307.21271      0            
     53700   330.18701      0            
     53720   317.59419      0            
     53740   305.69405      0            
     53760   308.50398      0            
     53780   333.55907      0            
     53800   341.89483      0            
     53820   306.2132       0            
     53840   293.18771      0            
     53860   337.42843      0            
     53880   293.29359      0            
     53900   302.76219      0            
     53920   308.56857      0            
     53940   274.50274      0            
     53960   289.441        0            
     53980   280.59408      0            
     54000   277.90197      0            
     54020   300.39307      0            
     54040   301.21158      0            
     54060   290.08755      0            
     54080   278.25619      0            
     54100   284.17641      0            
     54120   336.84527      0            
     54140   256.92052      0            
     54160   284.47622      0            
     54180   275.06538      0            
     54200   260.45271      0            
     54220   250.66062      0            
     54240   265.57695      0            
     54260   285.52631      0            
     54280   262.15017      0            
     54300   270.53119      0            
     54320   244.04178      0            
     54340   287.62883      0            
     54360   263.41723      0            
     54380   307.58913      0            
     54400   281.31534      0            
     54420   285.32997      0            
     54440   321.01163      0            
     54460   327.79467      0            
     54480   285.1688       0            
     54500   308.47832      0            
     54520   333.30511      0            
     54540   301.82038      0            
     54560   302.32936      0            
     54580   313.92936      0            
     54600   308.15895      0            
     54620   318.58795      0            
     54640   323.09493      0            
     54660   309.32916      0            
     54680   328.53044      0            
     54700   312.19709      0            
     54720   285.18949      0            
     54740   310.07015      0            
     54760   310.48368      0            
     54780   283.62143      0            
     54800   264.5272       0            
     54820   278.60678      0            
     54840   273.70701      0            
     54860   285.16558      0            
     54880   266.07778      0            
     54900   260.12257      0            
     54920   272.61574      0            
     54940   265.55859      0            
     54960   268.07884      0            
     54980   281.03654      0            
     55000   273.29593      0            
     55020   287.08         0            
     55040   288.38217      0            
     55060   295.49394      0            
     55080   299.23185      0            
     55100   324.4566       0            
     55120   285.26913      0            
     55140   288.41564      0            
     55160   292.4976       0            
     55180   306.92811      0            
     55200   327.83023      0            
     55220   297.76757      0            
     55240   301.24318      0            
     55260   300.37429      0            
     55280   326.59711      0            
     55300   301.79737      0            
     55320   280.24008      0            
     55340   308.00824      0            
     55360   281.47458      0            
     55380   280.33662      0            
     55400   335.56879      0            
     55420   300.47079      0            
     55440   287.72703      0            
     55460   330.20886      0            
     55480   292.29509      0            
     55500   287.76014      0            
     55520   273.24314      0            
     55540   272.37228      0            
     55560   305.96853      0            
     55580   298.64015      0            
     55600   278.36046      0            
     55620   274.25839      0            
     55640   274.47163      0            
     55660   291.92398      0            
     55680   271.68003      0            
     55700   269.66562      0            
     55720   272.98504      0            
     55740   325.98955      0            
     55760   313.61373      0            
     55780   329.15808      0            
     55800   307.72771      0            
     55820   316.10445      0            
     55840   315.80663      0            
     55860   312.46934      0            
     55880   335.37511      0            
     55900   306.66198      0            
     55920   329.75527      0            
     55940   324.03545      0            
     55960   310.28724      0            
     55980   332.49474      0            
     56000   347.69799      0            
     56020   310.02362      0            
     56040   287.55938      0            
     56060   278.867        0            
     56080   272.33018      0            
     56100   316.08328      0            
     56120   280.44934      0            
     56140   256.42602      0            
     56160   277.41611      0            
     56180   267.66176      0            
     56200   246.34661      0            
     56220   296.38483      0            
     56240   274.19083      0            
     56260   246.01613      0            
     56280   276.22552      0            
     56300   264.63858      0            
     56320   284.97959      0            
     56340   299.15369      0            
     56360   312.73022      0            
     56380   292.2669       0            
     56400   299.55007      0            
     56420   312.022        0            
     56440   306.09531      0            
     56460   322.53053      0            
     56480   318.81822      0            
     56500   342.22522      0            
     56520   305.40319      0            
     56540   323.34631      0            
     56560   308.22893      0            
     56580   384.9565       0            
     56600   284.66504      0            
     56620   284.27103      0            
     56640   277.06343      0            
     56660   303.62496      0            
     56680   311.30121      0            
     56700   302.28216      0            
     56720   289.74883      0            
     56740   277.85277      0            
     56760   306.99205      0            
     56780   267.35161      0            
     56800   281.50201      0            
     56820   249.2609       0            
     56840   285.11444      0            
     56860   279.57423      0            
     56880   337.94296      0            
     56900   315.44284      0            
     56920   313.948        0            
     56940   295.88262      0            
     56960   332.13646      0            
     56980   337.62044      0            
     57000   350.11437      0            
     57020   321.20936      0            
     57040   326.46741      0            
     57060   335.04619      0            
     57080   344.12389      0            
     57100   330.26493      0            
     57120   353.36729      0            
     57140   364.45735      0            
     57160   341.95899      0            
     57180   331.59229      0            
     57200   340.9811       0            
     57220   291.62185      0            
     57240   321.47443      0            
     57260   314.90759      0            
     57280   326.81602      0            
     57300   290.7927       0            
     57320   293.71123      0            
     57340   279.49805      0            
     57360   297.56267      0            
     57380   302.49729      0            
     57400   280.91579      0            
     57420   269.99583      0            
     57440   295.25254      0            
     57460   326.68572      0            
     57480   315.42311      0            
     57500   289.26713      0            
     57520   302.4276       0            
     57540   283.52587      0            
     57560   315.08828      0            
     57580   314.03209      0            
     57600   304.948        0            
     57620   299.25034      0            
     57640   274.32672      0            
     57660   333.73226      0            
     57680   316.50031      0            
     57700   319.45046      0            
     57720   315.46191      0            
     57740   336.53157      0            
     57760   381.97464      0            
     57780   308.19681      0            
     57800   307.50015      0            
     57820   319.16763      0            
     57840   344.98671      0            
     57860   286.15347      0            
     57880   337.53998      0            
     57900   310.07524      0            
     57920   320.63417      0            
     57940   297.0632       0            
     57960   278.04386      0            
     57980   308.70068      0            
     58000   267.51327      0            
     58020   314.66235      0            
     58040   302.91707      0            
     58060   254.28812      0            
     58080   297.34213      0            
     58100   311.14532      0            
     58120   311.02813      0            
     58140   262.95709      0            
     58160   293.76285      0            
     58180   265.82784      0            
     58200   286.04123      0            
     58220   271.93146      0            
     58240   300.52242      0            
     58260   308.7126       0            
     58280   307.24997      0            
     58300   317.53528      0            
     58320   318.5515       0            
     58340   338.19405      0            
     58360   320.83865      0            
     58380   337.98545      0            
     58400   356.30383      0            
     58420   317.98865      0            
     58440   337.09404      0            
     58460   318.1941       0            
     58480   324.83101      0            
     58500   284.48751      0            
     58520   308.55202      0            
     58540   285.67954      0            
     58560   296.28272      0            
     58580   283.99694      0            
     58600   282.16348      0            
     58620   270.39934      0            
     58640   241.42595      0            
     58660   280.6282       0            
     58680   312.60541      0            
     58700   309.69361      0            
     58720   279.2884       0            
     58740   316.79065      0            
     58760   315.99798      0            
     58780   281.32087      0            
     58800   287.80617      0            
     58820   303.41398      0            
     58840   307.57366      0            
     58860   297.82863      0            
     58880   334.74205      0            
     58900   338.08984      0            
     58920   301.51859      0            
     58940   333.18186      0            
     58960   324.41499      0            
     58980   304.03499      0            
     59000   323.80064      0            
     59020   323.29662      0            
     59040   359.25304      0            
     59060   360.4927       0            
     59080   349.69648      0            
     59100   335.41388      0            
     59120   376.02298      0            
     59140   331.5608       0            
     59160   309.29401      0            
     59180   313.69542      0            
     59200   323.39365      0            
     59220   321.33595      0            
     59240   269.54834      0            
     59260   294.82397      0            
     59280   270.88362      0            
     59300   284.21506      0            
     59320   337.22755      0            
     59340   319.5065       0            
     59360   277.90023      0            
     59380   291.81635      0            
     59400   293.38405      0            
     59420   300.8629       0            
     59440   326.44194      0            
     59460   283.60351      0            
     59480   303.77252      0            
     59500   269.71311      0            
     59520   309.06464      0            
     59540   340.4556       0            
     59560   321.17027      0            
     59580   293.04256      0            
     59600   296.6427       0            
     59620   363.08901      0            
     59640   333.50855      0            
     59660   298.28135      0            
     59680   325.18875      0            
     59700   360.67484      0            
     59720   313.82204      0            
     59740   325.13159      0            
     59760   279.78784      0            
     59780   318.12784      0            
     59800   299.37219      0            
     59820   274.51314      0            
     59840   277.58322      0            
     59860   255.13028      0            
     59880   273.57133      0            
     59900   278.11264      0            
     59920   301.18346      0            
     59940   259.93299      0            
     59960   274.87147      0            
     59980   272.78125      0            
     60000   293.01619      0            
     60020   286.09724      0            
     60040   292.22137      0            
     60060   318.6781       0            
     60080   291.21188      0            
     60100   308.9335       0            
     60120   323.6612       0            
     60140   276.59383      0            
     60160   308.07394      0            
     60180   314.06356      0            
     60200   313.80577      0            
     60220   301.16924      0            
     60240   289.17867      0            
     60260   306.38476      0            
     60280   306.58695      0            
     60300   283.42393      0            
     60320   283.13262      0            
     60340   320.10324      0            
     60360   294.77817      0            
     60380   317.80622      0            
     60400   314.07454      0            
     60420   312.45054      0            
     60440   322.04042      0            
     60460   311.45569      0            
     60480   299.2719       0            
     60500   332.19403      0            
     60520   274.78005      0            
     60540   301.12398      0            
     60560   276.30185      0            
     60580   302.42873      0            
     60600   298.25588      0            
     60620   289.50971      0            
     60640   297.94665      0            
     60660   318.66709      0            
     60680   300.2768       0            
     60700   315.55833      0            
     60720   319.39964      0            
     60740   323.6917       0            
     60760   278.0437       0            
     60780   302.36528      0            
     60800   286.30348      0            
     60820   267.96484      0            
     60840   272.86386      0            
     60860   269.54437      0            
     60880   297.63265      0            
     60900   304.25772      0            
     60920   301.1533       0            
     60940   316.3944       0            
     60960   265.41859      0            
     60980   333.84917      0            
     61000   254.25817      0            
     61020   257.37145      0            
     61040   286.37898      0            
     61060   266.24138      0            
     61080   270.05955      0            
     61100   282.08322      0            
     61120   312.60009      0            
     61140   313.70416      0            
     61160   308.38704      0            
     61180   306.92093      0            
     61200   317.85757      0            
     61220   305.07072      0            
     61240   338.21868      0            
     61260   362.49653      0            
     61280   326.89006      0            
     61300   307.49124      0            
     61320   316.6033       0            
     61340   315.84521      0            
     61360   319.9005       0            
     61380   258.88927      0            
     61400   316.10108      0            
     61420   318.70282      0            
     61440   312.47936      0            
     61460   296.58451      0            
     61480   292.38034      0            
     61500   263.52189      0            
     61520   277.5514       0            
     61540   300.91188      0            
     61560   279.68938      0            
     61580   290.07423      0            
     61600   270.62725      0            
     61620   271.92542      0            
     61640   298.82553      0            
     61660   280.29306      0            
     61680   297.62072      0            
     61700   301.76896      0            
     61720   290.85629      0            
     61740   300.31294      0            
     61760   305.60725      0            
     61780   350.13166      0            
     61800   315.88313      0            
     61820   331.79814      0            
     61840   326.04881      0            
     61860   310.53171      0            
     61880   321.48704      0            
     61900   329.31542      0            
     61920   310.95967      0            
     61940   335.70714      0            
     61960   316.30415      0            
     61980   330.2393       0            
     62000   325.37079      0            
     62020   319.48683      0            
     62040   324.83809      0            
     62060   300.94389      0            
     62080   327.10441      0            
     62100   298.35727      0            
     62120   280.72444      0            
     62140   283.43418      0            
     62160   333.75256      0            
     62180   293.0673       0            
     62200   296.72538      0            
     62220   268.57791      0            
     62240   292.21933      0            
     62260   285.30956      0            
     62280   324.25745      0            
     62300   310.7409       0            
     62320   302.93529      0            
     62340   281.28267      0            
     62360   298.78068      0            
     62380   291.02191      0            
     62400   270.50191      0            
     62420   304.63407      0            
     62440   265.9211       0            
     62460   283.5215       0            
     62480   279.1          0            
     62500   269.19591      0            
     62520   337.50289      0            
     62540   275.75669      0            
     62560   305.38562      0            
     62580   301.41183      0            
     62600   338.97822      0            
     62620   312.71538      0            
     62640   308.03858      0            
     62660   301.69921      0            
     62680   339.99657      0            
     62700   333.04516      0            
     62720   341.34969      0            
     62740   304.99983      0            
     62760   316.13839      0            
     62780   330.1215       0            
     62800   299.19466      0            
     62820   282.02964      0            
     62840   302.75572      0            
     62860   298.42223      0            
     62880   274.28694      0            
     62900   256.80711      0            
     62920   302.62756      0            
     62940   291.28301      0            
     62960   268.9804       0            
     62980   277.41373      0            
     63000   326.03736      0            
     63020   293.11337      0            
     63040   265.80653      0            
     63060   312.56789      0            
     63080   290.17696      0            
     63100   257.07664      0            
     63120   288.83833      0            
     63140   306.55119      0            
     63160   284.49721      0            
     63180   321.70968      0            
     63200   326.93886      0            
     63220   309.8368       0            
     63240   305.74841      0            
     63260   303.41382      0            
     63280   308.21352      0            
     63300   329.74663      0            
     63320   327.87792      0            
     63340   296.68473      0            
     63360   299.02315      0            
     63380   306.15744      0            
     63400   311.06049      0            
     63420   296.83256      0            
     63440   314.94512      0            
     63460   288.49366      0            
     63480   340.15147      0            
     63500   319.61001      0            
     63520   292.5062       0            
     63540   331.66797      0            
     63560   253.6438       0            
     63580   345.88517      0            
     63600   295.11466      0            
     63620   321.21594      0            
     63640   315.09081      0            
     63660   299.53747      0            
     63680   318.7421       0            
     63700   310.61469      0            
     63720   289.09509      0            
     63740   287.77659      0            
     63760   268.76587      0            
     63780   246.36799      0            
     63800   253.28643      0            
     63820   267.85481      0            
     63840   261.61268      0            
     63860   269.99813      0            
     63880   299.14288      0            
     63900   303.32442      0            
     63920   300.475        0            
     63940   321.52853      0            
     63960   275.32698      0            
     63980   302.68972      0            
     64000   287.05671      0            
     64020   261.08889      0            
     64040   295.93353      0            
     64060   265.62457      0            
     64080   318.92207      0            
     64100   308.72651      0            
     64120   309.55848      0            
     64140   272.90787      0            
     64160   300.1375       0            
     64180   312.39202      0            
     64200   291.17026      0            
     64220   284.57393      0            
     64240   289.91173      0            
     64260   301.35787      0            
     64280   298.56171      0            
     64300   297.22351      0            
     64320   321.59771      0            
     64340   309.14662      0            
     64360   293.73925      0            
     64380   289.09113      0            
     64400   322.12058      0            
     64420   312.99401      0            
     64440   309.34921      0            
     64460   283.78975      0            
     64480   298.27691      0            
     64500   268.87571      0            
     64520   317.99598      0            
     64540   279.07906      0            
     64560   270.37934      0            
     64580   243.77629      0            
     64600   322.33443      0            
     64620   276.46513      0            
     64640   292.29668      0            
     64660   288.41505      0            
     64680   281.95501      0            
     64700   310.89074      0            
     64720   297.22866      0            
     64740   282.75086      0            
     64760   295.49004      0            
     64780   277.55868      0            
     64800   289.31452      0            
     64820   332.52974      0            
     64840   334.24663      0            
     64860   325.21453      0            
     64880   322.33776      0            
     64900   311.71671      0            
     64920   351.2382       0            
     64940   330.71749      0            
     64960   313.49328      0            
     64980   305.10232      0            
     65000   287.62225      0            
     65020   320.16489      0            
     65040   318.87429      0            
     65060   296.10568      0            
     65080   317.09473      0            
     65100   292.4632       0            
     65120   298.9236       0            
     65140   267.9579       0            
     65160   307.52129      0            
     65180   333.16038      0            
     65200   290.50602      0            
     65220   279.96573      0            
     65240   283.75969      0            
     65260   311.01885      0            
     65280   298.37825      0            
     65300   335.26526      0            
     65320   309.47833      0            
     65340   277.24074      0            
     65360   329.1283       0            
     65380   303.12015      0            
     65400   298.02487      0            
     65420   316.1075       0            
     65440   316.45576      0            
     65460   319.85867      0            
     65480   289.11039      0            
     65500   326.71151      0            
     65520   347.53829      0            
     65540   356.06139      0            
     65560   358.31918      0            
     65580   344.24061      0            
     65600   335.23862      0            
     65620   351.64824      0            
     65640   325.17259      0            
     65660   331.84387      0            
     65680   304.06239      0            
     65700   314.96983      0            
     65720   316.21382      0            
     65740   324.32652      0            
     65760   292.51811      0            
     65780   304.73904      0            
     65800   278.31648      0            
     65820   299.35894      0            
     65840   283.28346      0            
     65860   289.33855      0            
     65880   301.67862      0            
     65900   286.29248      0            
     65920   317.55075      0            
     65940   266.12486      0            
     65960   270.64285      0            
     65980   296.73651      0            
     66000   265.64507      0            
     66020   313.47022      0            
     66040   304.49436      0            
     66060   315.85686      0            
     66080   324.52296      0            
     66100   304.79458      0            
     66120   315.35497      0            
     66140   347.49378      0            
     66160   360.67569      0            
     66180   306.69454      0            
     66200   329.99126      0            
     66220   320.16217      0            
     66240   313.61049      0            
     66260   313.32612      0            
     66280   319.35416      0            
     66300   299.46332      0            
     66320   253.18185      0            
     66340   301.28928      0            
     66360   268.63319      0            
     66380   327.05706      0            
     66400   287.43697      0            
     66420   324.0469       0            
     66440   292.45824      0            
     66460   245.15279      0            
     66480   330.59428      0            
     66500   312.39709      0            
     66520   315.56314      0            
     66540   307.42346      0            
     66560   271.50425      0            
     66580   275.65916      0            
     66600   282.69961      0            
     66620   305.28748      0            
     66640   307.85199      0            
     66660   301.32343      0            
     66680   289.19999      0            
     66700   304.82371      0            
     66720   342.54605      0            
     66740   350.09986      0            
     66760   325.05419      0            
     66780   328.8019       0            
     66800   313.41592      0            
     66820   338.0872       0            
     66840   387.05962      0            
     66860   293.45553      0            
     66880   339.59679      0            
     66900   322.40899      0            
     66920   332.38025      0            
     66940   289.80673      0            
     66960   315.69145      0            
     66980   292.25262      0            
     67000   294.6825       0            
     67020   263.70917      0            
     67040   314.19938      0            
     67060   298.30557      0            
     67080   282.43428      0            
     67100   261.09299      0            
     67120   274.38339      0            
     67140   258.27343      0            
     67160   297.14238      0            
     67180   318.47124      0            
     67200   293.64976      0            
     67220   276.37278      0            
     67240   293.96812      0            
     67260   302.15905      0            
     67280   324.01249      0            
     67300   313.59776      0            
     67320   348.94694      0            
     67340   315.71437      0            
     67360   315.58086      0            
     67380   281.74623      0            
     67400   295.82904      0            
     67420   327.34192      0            
     67440   331.57875      0            
     67460   327.08795      0            
     67480   286.48152      0            
     67500   321.71521      0            
     67520   360.1966       0            
     67540   276.09975      0            
     67560   310.09976      0            
     67580   273.22451      0            
     67600   279.97336      0            
     67620   328.95856      0            
     67640   262.7632       0            
     67660   286.93911      0            
     67680   306.73212      0            
     67700   297.44533      0            
     67720   280.14095      0            
     67740   270.98898      0            
     67760   321.33758      0            
     67780   322.01182      0            
     67800   321.85591      0            
     67820   275.21948      0            
     67840   327.008        0            
     67860   311.84296      0            
     67880   288.39847      0            
     67900   268.91923      0            
     67920   275.9067       0            
     67940   294.78982      0            
     67960   284.00349      0            
     67980   303.97613      0            
     68000   284.46035      0            
     68020   311.32317      0            
     68040   294.15798      0            
     68060   286.87273      0            
     68080   298.69907      0            
     68100   297.01572      0            
     68120   285.92215      0            
     68140   294.24126      0            
     68160   303.29371      0            
     68180   315.9374       0            
     68200   274.04343      0            
     68220   312.55452      0            
     68240   306.21982      0            
     68260   309.2617       0            
     68280   309.10868      0            
     68300   339.62968      0            
     68320   289.40119      0            
     68340   336.24369      0            
     68360   326.15885      0            
     68380   319.43656      0            
     68400   335.27544      0            
     68420   301.94152      0            
     68440   280.72636      0            
     68460   302.43009      0            
     68480   318.49251      0            
     68500   296.59598      0            
     68520   262.13091      0            
     68540   290.79763      0            
     68560   326.10252      0            
     68580   283.84543      0            
     68600   293.39354      0            
     68620   270.90654      0            
     68640   283.24006      0            
     68660   291.84491      0            
     68680   259.04972      0            
     68700   334.3978       0            
     68720   242.36635      0            
     68740   307.18121      0            
     68760   317.95636      0            
     68780   294.1441       0            
     68800   320.14797      0            
     68820   306.45483      0            
     68840   317.70165      0            
     68860   321.0964       0            
     68880   308.78602      0            
     68900   317.88284      0            
     68920   300.20806      0            
     68940   330.06703      0            
     68960   347.86331      0            
     68980   338.17082      0            
     69000   353.16567      0            
     69020   341.31306      0            
     69040   347.35308      0            
     69060   338.22477      0            
     69080   344.24915      0            
     69100   364.70065      0            
     69120   343.54427      0            
     69140   348.40825      0            
     69160   400.98787      0            
     69180   297.58995      0            
     69200   353.05292      0            
     69220   281.8666       0            
     69240   295.02789      0            
     69260   304.75997      0            
     69280   295.14135      0            
     69300   295.14865      0            
     69320   300.15075      0            
     69340   295.49537      0            
     69360   261.31041      0            
     69380   294.64505      0            
     69400   290.84074      0            
     69420   307.73246      0            
     69440   248.44331      0            
     69460   289.68159      0            
     69480   308.16345      0            
     69500   245.123        0            
     69520   310.7687       0            
     69540   287.6275       0            
     69560   319.79741      0            
     69580   294.03671      0            
     69600   293.96697      0            
     69620   320.71767      0            
     69640   302.80821      0            
     69660   319.64521      0            
     69680   347.32818      0            
     69700   324.49145      0            
     69720   339.51338      0            
     69740   316.16131      0            
     69760   304.41057      0            
     69780   342.64303      0            
     69800   297.17934      0            
     69820   317.37289      0            
     69840   319.07826      0            
     69860   287.7965       0            
     69880   301.85467      0            
     69900   274.81916      0            
     69920   293.76928      0            
     69940   304.88635      0            
     69960   294.06934      0            
     69980   278.35011      0            
     70000   292.58221      0            
     70020   308.48533      0            
     70040   291.6039       0            
     70060   247.43144      0            
     70080   285.45432      0            
     70100   257.19461      0            
     70120   312.17277      0            
     70140   326.99851      0            
     70160   318.76049      0            
     70180   289.94929      0            
     70200   335.99338      0            
     70220   294.17565      0            
     70240   334.33827      0            
     70260   306.45143      0            
     70280   297.79662      0            
     70300   336.79227      0            
     70320   342.21826      0            
     70340   281.2355       0            
     70360   300.34945      0            
     70380   301.14309      0            
     70400   324.27593      0            
     70420   267.75354      0            
     70440   282.84147      0            
     70460   299.04401      0            
     70480   282.49346      0            
     70500   260.47488      0            
     70520   246.33662      0            
     70540   274.29523      0            
     70560   271.61931      0            
     70580   287.62683      0            
     70600   257.85338      0            
     70620   302.85964      0            
     70640   271.37416      0            
     70660   328.79358      0            
     70680   306.7013       0            
     70700   297.15798      0            
     70720   329.61673      0            
     70740   317.84725      0            
     70760   293.18703      0            
     70780   318.86182      0            
     70800   317.70542      0            
     70820   322.58859      0            
     70840   315.17266      0            
     70860   291.09387      0            
     70880   306.42396      0            
     70900   304.27133      0            
     70920   287.90458      0            
     70940   320.45995      0            
     70960   309.75689      0            
     70980   301.24515      0            
     71000   331.86236      0            
     71020   272.79564      0            
     71040   262.47804      0            
     71060   304.19564      0            
     71080   268.08308      0            
     71100   279.44071      0            
     71120   243.30674      0            
     71140   289.88798      0            
     71160   268.68825      0            
     71180   240.34234      0            
     71200   268.36489      0            
     71220   253.2318       0            
     71240   249.94061      0            
     71260   238.86216      0            
     71280   268.38146      0            
     71300   263.47818      0            
     71320   263.00734      0            
     71340   282.25041      0            
     71360   271.07004      0            
     71380   283.95239      0            
     71400   315.55186      0            
     71420   302.85921      0            
     71440   304.32567      0            
     71460   317.19164      0            
     71480   306.86477      0            
     71500   336.92151      0            
     71520   263.00387      0            
     71540   317.00976      0            
     71560   321.28761      0            
     71580   315.30463      0            
     71600   286.10498      0            
     71620   331.72669      0            
     71640   291.11013      0            
     71660   320.70066      0            
     71680   327.09157      0            
     71700   323.78643      0            
     71720   321.68063      0            
     71740   305.1431       0            
     71760   332.38401      0            
     71780   304.57455      0            
     71800   270.24623      0            
     71820   277.71819      0            
     71840   314.35443      0            
     71860   247.13624      0            
     71880   262.83425      0            
     71900   272.98168      0            
     71920   249.62599      0            
     71940   275.75673      0            
     71960   289.88443      0            
     71980   287.95851      0            
     72000   272.14824      0            
     72020   275.9907       0            
     72040   295.41304      0            
     72060   284.06854      0            
     72080   309.62515      0            
     72100   263.48386      0            
     72120   304.3698       0            
     72140   285.09508      0            
     72160   314.86135      0            
     72180   331.78199      0            
     72200   300.65113      0            
     72220   309.5128       0            
     72240   334.95243      0            
     72260   290.64007      0            
     72280   266.35297      0            
     72300   307.53269      0            
     72320   299.72429      0            
     72340   292.50124      0            
     72360   290.68095      0            
     72380   277.6112       0            
     72400   263.12545      0            
     72420   287.52355      0            
     72440   317.92772      0            
     72460   294.56954      0            
     72480   285.69422      0            
     72500   285.25331      0            
     72520   296.33366      0            
     72540   254.26487      0            
     72560   276.06629      0            
     72580   288.27286      0            
     72600   278.03577      0            
     72620   250.4322       0            
     72640   250.20326      0            
     72660   276.32131      0            
     72680   229.34888      0            
     72700   298.75759      0            
     72720   293.75912      0            
     72740   269.90913      0            
     72760   267.98466      0            
     72780   322.08543      0            
     72800   315.43947      0            
     72820   274.33259      0            
     72840   328.92071      0            
     72860   306.9843       0            
     72880   299.02234      0            
     72900   352.81497      0            
     72920   314.79297      0            
     72940   300.39925      0            
     72960   327.09384      0            
     72980   309.84208      0            
     73000   286.75577      0            
     73020   297.37043      0            
     73040   306.44321      0            
     73060   275.87377      0            
     73080   305.30244      0            
     73100   300.13265      0            
     73120   272.02095      0            
     73140   280.05188      0            
     73160   242.21118      0            
     73180   264.67973      0            
     73200   274.14549      0            
     73220   262.68636      0            
     73240   271.60586      0            
     73260   277.67693      0            
     73280   301.67585      0            
     73300   290.39899      0            
     73320   308.99608      0            
     73340   340.48794      0            
     73360   284.60853      0            
     73380   338.05272      0            
     73400   297.77374      0            
     73420   292.96736      0            
     73440   312.84366      0            
     73460   315.51564      0            
     73480   324.28802      0            
     73500   291.80832      0            
     73520   324.16937      0            
     73540   330.14163      0            
     73560   254.33345      0            
     73580   291.7271       0            
     73600   301.01727      0            
     73620   291.32303      0            
     73640   269.39541      0            
     73660   272.273        0            
     73680   248.64086      0            
     73700   301.8443       0            
     73720   268.40549      0            
     73740   281.65901      0            
     73760   275.15057      0            
     73780   279.71607      0            
     73800   320.34892      0            
     73820   294.45237      0            
     73840   282.77737      0            
     73860   307.21311      0            
     73880   331.26792      0            
     73900   301.86775      0            
     73920   292.11278      0            
     73940   351.10257      0            
     73960   339.52676      0            
     73980   309.08382      0            
     74000   317.68721      0            
     74020   311.9898       0            
     74040   313.346        0            
     74060   329.69378      0            
     74080   316.87382      0            
     74100   328.38481      0            
     74120   304.22373      0            
     74140   304.8883       0            
     74160   301.2237       0            
     74180   267.91907      0            
     74200   309.95902      0            
     74220   286.37319      0            
     74240   300.12827      0            
     74260   291.90447      0            
     74280   316.88073      0            
     74300   268.16738      0            
     74320   262.04301      0            
     74340   305.64157      0            
     74360   292.46269      0            
     74380   317.20524      0            
     74400   264.96362      0            
     74420   295.01937      0            
     74440   331.98889      0            
     74460   304.5063       0            
     74480   312.96672      0            
     74500   324.35688      0            
     74520   305.73726      0            
     74540   327.81455      0            
     74560   338.76254      0            
     74580   327.08585      0            
     74600   328.36357      0            
     74620   306.94366      0            
     74640   336.92722      0            
     74660   332.98005      0            
     74680   277.51455      0            
     74700   294.59874      0            
     74720   301.7926       0            
     74740   283.17585      0            
     74760   317.15777      0            
     74780   274.65789      0            
     74800   264.78245      0            
     74820   325.24282      0            
     74840   258.81076      0            
     74860   311.02095      0            
     74880   314.56378      0            
     74900   291.50281      0            
     74920   284.07539      0            
     74940   302.70217      0            
     74960   270.94212      0            
     74980   298.46245      0            
     75000   295.1355       0            
     75020   294.88399      0            
     75040   295.99597      0            
     75060   315.99918      0            
     75080   342.84689      0            
     75100   304.95018      0            
     75120   352.41017      0            
     75140   310.16872      0            
     75160   337.16716      0            
     75180   374.83694      0            
     75200   334.56267      0            
     75220   338.02386      0            
     75240   342.72939      0            
     75260   313.46841      0            
     75280   357.72376      0            
     75300   289.97066      0            
     75320   345.34301      0            
     75340   314.35035      0            
     75360   293.17684      0            
     75380   310.92758      0            
     75400   322.95723      0            
     75420   305.17622      0            
     75440   318.02945      0            
     75460   257.75401      0            
     75480   331.55406      0            
     75500   275.41519      0            
     75520   330.50285      0            
     75540   298.16086      0            
     75560   292.99846      0            
     75580   310.65255      0            
     75600   263.66096      0            
     75620   306.34421      0            
     75640   294.09235      0            
     75660   311.95291      0            
     75680   291.88151      0            
     75700   290.81629      0            
     75720   310.01281      0            
     75740   325.17953      0            
     75760   292.39821      0            
     75780   326.70693      0            
     75800   288.24471      0            
     75820   291.48667      0            
     75840   293.37343      0            
     75860   314.58918      0            
     75880   328.44072      0            
     75900   321.1496       0            
     75920   329.16947      0            
     75940   301.04134      0            
     75960   299.29208      0            
     75980   323.193        0            
     76000   362.12861      0            
     76020   302.43859      0            
     76040   286.2762       0            
     76060   279.09558      0            
     76080   307.63322      0            
     76100   291.58038      0            
     76120   304.18854      0            
     76140   295.68627      0            
     76160   285.41367      0            
     76180   262.55405      0            
     76200   279.9718       0            
     76220   305.45473      0            
     76240   252.45493      0            
     76260   279.05697      0            
     76280   292.1039       0            
     76300   263.22313      0            
     76320   260.20304      0            
     76340   274.04373      0            
     76360   282.4912       0            
     76380   281.769        0            
     76400   324.10725      0            
     76420   301.18737      0            
     76440   306.73494      0            
     76460   296.2189       0            
     76480   294.20787      0            
     76500   322.41583      0            
     76520   300.91797      0            
     76540   305.22987      0            
     76560   309.88497      0            
     76580   332.09925      0            
     76600   318.191        0            
     76620   328.66283      0            
     76640   308.19223      0            
     76660   312.3288       0            
     76680   323.88823      0            
     76700   291.21432      0            
     76720   264.81609      0            
     76740   232.97766      0            
     76760   290.61853      0            
     76780   298.89979      0            
     76800   296.5578       0            
     76820   251.32694      0            
     76840   307.95823      0            
     76860   285.71912      0            
     76880   275.07573      0            
     76900   262.64274      0            
     76920   279.36857      0            
     76940   315.84433      0            
     76960   297.29376      0            
     76980   321.85938      0            
     77000   287.77391      0            
     77020   301.67509      0            
     77040   319.63328      0            
     77060   300.11146      0            
     77080   340.54654      0            
     77100   334.97534      0            
     77120   322.35249      0            
     77140   346.65986      0            
     77160   326.61595      0            
     77180   304.94968      0            
     77200   279.49864      0            
     77220   298.29835      0            
     77240   299.65863      0            
     77260   291.96569      0            
     77280   258.38972      0            
     77300   303.86648      0            
     77320   252.61862      0            
     77340   293.39515      0            
     77360   263.73377      0            
     77380   301.85665      0            
     77400   307.44173      0            
     77420   285.65741      0            
     77440   286.7083       0            
     77460   297.90259      0            
     77480   288.35126      0            
     77500   294.55958      0            
     77520   319.86979      0            
     77540   328.47642      0            
     77560   324.36018      0            
     77580   324.39884      0            
     77600   316.36723      0            
     77620   333.45001      0            
     77640   293.87597      0            
     77660   313.16847      0            
     77680   278.83746      0            
     77700   353.11834      0            
     77720   339.37182      0            
     77740   287.75872      0            
     77760   351.0292       0            
     77780   313.28536      0            
     77800   311.8893       0            
     77820   286.73857      0            
     77840   297.82424      0            
     77860   302.35296      0            
     77880   287.94995      0            
     77900   287.10718      0            
     77920   322.46396      0            
     77940   293.01588      0            
     77960   289.79907      0            
     77980   291.563        0            
     78000   283.77575      0            
     78020   308.7629       0            
     78040   319.97905      0            
     78060   301.81456      0            
     78080   279.27879      0            
     78100   340.34542      0            
     78120   306.24512      0            
     78140   290.19329      0            
     78160   338.03378      0            
     78180   321.01716      0            
     78200   344.81774      0            
     78220   320.65837      0            
     78240   282.67277      0            
     78260   322.91785      0            
     78280   324.4639       0            
     78300   321.9318       0            
     78320   321.78657      0            
     78340   347.32338      0            
     78360   311.78062      0            
     78380   336.65507      0            
     78400   306.95562      0            
     78420   326.86847      0            
     78440   307.92352      0            
     78460   304.8626       0            
     78480   316.48115      0            
     78500   295.6187       0            
     78520   272.51286      0            
     78540   313.01963      0            
     78560   306.05356      0            
     78580   284.02533      0            
     78600   321.49473      0            
     78620   291.08741      0            
     78640   258.89888      0            
     78660   265.55779      0            
     78680   283.64183      0            
     78700   290.58157      0            
     78720   288.43621      0            
     78740   296.67196      0            
     78760   310.60267      0            
     78780   306.20791      0            
     78800   321.04794      0            
     78820   317.52014      0            
     78840   319.77175      0            
     78860   300.54518      0            
     78880   310.83826      0            
     78900   327.86587      0            
     78920   346.81252      0            
     78940   343.38056      0            
     78960   360.14904      0            
     78980   350.62028      0            
     79000   335.64889      0            
     79020   291.39117      0            
     79040   291.82547      0            
     79060   312.62298      0            
     79080   280.0829       0            
     79100   279.82025      0            
     79120   304.73128      0            
     79140   292.53235      0            
     79160   273.56978      0            
     79180   282.1115       0            
     79200   291.96309      0            
     79220   266.9315       0            
     79240   283.50913      0            
     79260   277.70836      0            
     79280   279.6709       0            
     79300   309.26133      0            
     79320   295.50125      0            
     79340   344.56922      0            
     79360   301.64468      0            
     79380   300.21911      0            
     79400   351.43201      0            
     79420   334.76801      0            
     79440   318.7172       0            
     79460   308.77247      0            
     79480   319.80154      0            
     79500   306.27989      0            
     79520   318.21769      0            
     79540   317.80523      0            
     79560   341.17977      0            
     79580   275.85837      0            
     79600   319.71716      0            
     79620   261.995        0            
     79640   289.18356      0            
     79660   235.0387       0            
     79680   285.84792      0            
     79700   267.67076      0            
     79720   280.94964      0            
     79740   268.10476      0            
     79760   293.40884      0            
     79780   294.02058      0            
     79800   278.68454      0            
     79820   270.43825      0            
     79840   289.52859      0            
     79860   306.57367      0            
     79880   284.01784      0            
     79900   339.46325      0            
     79920   319.28428      0            
     79940   285.88224      0            
     79960   276.09134      0            
     79980   346.0364       0            
     80000   323.09663      0            
     80020   303.68735      0            
     80040   300.34902      0            
     80060   320.4823       0            
     80080   312.42273      0            
     80100   315.65448      0            
     80120   295.40182      0            
     80140   335.51716      0            
     80160   314.28439      0            
     80180   304.36322      0            
     80200   324.86325      0            
     80220   279.13568      0            
     80240   303.64763      0            
     80260   319.66848      0            
     80280   303.7674       0            
     80300   280.86396      0            
     80320   299.05231      0            
     80340   304.40323      0            
     80360   295.24805      0            
     80380   289.70701      0            
     80400   282.97292      0            
     80420   320.53267      0            
     80440   314.66669      0            
     80460   304.00409      0            
     80480   281.64017      0            
     80500   308.14301      0            
     80520   281.22086      0            
     80540   310.01704      0            
     80560   284.57269      0            
     80580   298.06806      0            
     80600   275.0315       0            
     80620   297.1344       0            
     80640   296.3797       0            
     80660   314.58319      0            
     80680   297.09985      0            
     80700   306.73507      0            
     80720   308.3868       0            
     80740   294.38974      0            
     80760   296.26603      0            
     80780   317.72695      0            
     80800   336.11159      0            
     80820   304.76602      0            
     80840   343.13768      0            
     80860   322.2361       0            
     80880   298.01218      0            
     80900   323.6671       0            
     80920   310.54024      0            
     80940   332.11262      0            
     80960   296.31962      0            
     80980   304.39418      0            
     81000   287.02836      0            
     81020   294.88308      0            
     81040   311.95004      0            
     81060   274.03054      0            
     81080   272.91212      0            
     81100   287.7675       0            
     81120   274.43507      0            
     81140   275.81562      0            
     81160   318.6358       0            
     81180   274.61393      0            
     81200   275.60751      0            
     81220   306.10472      0            
     81240   291.05682      0            
     81260   285.62299      0            
     81280   292.61112      0            
     81300   310.46283      0            
     81320   324.49872      0            
     81340   334.93426      0            
     81360   336.13677      0            
     81380   298.69188      0            
     81400   313.74711      0            
     81420   328.22841      0            
     81440   336.73051      0            
     81460   331.74818      0            
     81480   303.12842      0            
     81500   288.08308      0            
     81520   334.46211      0            
     81540   321.69491      0            
     81560   346.20178      0            
     81580   309.73418      0            
     81600   307.82851      0            
     81620   293.19287      0            
     81640   300.1069       0            
     81660   296.0952       0            
     81680   297.39379      0            
     81700   319.34826      0            
     81720   289.24016      0            
     81740   267.54946      0            
     81760   301.9278       0            
     81780   284.49746      0            
     81800   276.77305      0            
     81820   322.98087      0            
     81840   292.66602      0            
     81860   298.07065      0            
     81880   316.50561      0            
     81900   347.10941      0            
     81920   343.42325      0            
     81940   312.78843      0            
     81960   292.2728       0            
     81980   345.00316      0            
     82000   358.26909      0            
     82020   291.23236      0            
     82040   350.19988      0            
     82060   339.0941       0            
     82080   318.85753      0            
     82100   330.45583      0            
     82120   313.43678      0            
     82140   308.21774      0            
     82160   270.78661      0            
     82180   303.04076      0            
     82200   304.65388      0            
     82220   321.62685      0            
     82240   300.99141      0            
     82260   287.96305      0            
     82280   266.67245      0            
     82300   281.95011      0            
     82320   282.65972      0            
     82340   285.37275      0            
     82360   276.616        0            
     82380   290.46825      0            
     82400   303.16153      0            
     82420   260.77917      0            
     82440   311.6244       0            
     82460   287.08871      0            
     82480   302.49233      0            
     82500   345.57919      0            
     82520   272.97835      0            
     82540   310.30479      0            
     82560   348.49337      0            
     82580   363.40233      0            
     82600   324.59645      0            
     82620   334.79008      0            
     82640   346.49791      0            
     82660   356.45407      0            
     82680   326.08299      0            
     82700   338.77477      0            
     82720   341.64404      0            
     82740   309.03737      0            
     82760   320.32534      0            
     82780   312.62843      0            
     82800   316.66493      0            
     82820   267.00141      0            
     82840   335.84542      0            
     82860   304.46007      0            
     82880   253.87655      0            
     82900   315.53078      0            
     82920   322.47638      0            
     82940   313.12158      0            
     82960   294.91819      0            
     82980   303.75584      0            
     83000   290.09054      0            
     83020   288.27007      0            
     83040   274.47795      0            
     83060   320.73638      0            
     83080   301.12375      0            
     83100   308.94185      0            
     83120   289.74489      0            
     83140   266.13851      0            
     83160   317.77542      0            
     83180   296.50471      0            
     83200   309.88987      0            
     83220   296.97399      0            
     83240   307.05861      0            
     83260   298.25533      0            
     83280   362.86885      0            
     83300   289.37149      0            
     83320   304.52018      0            
     83340   299.93124      0            
     83360   350.62168      0            
     83380   328.29726      0            
     83400   333.08357      0            
     83420   323.71356      0            
     83440   318.01026      0            
     83460   304.30386      0            
     83480   300.26044      0            
     83500   277.55647      0            
     83520   281.11321      0            
     83540   307.60433      0            
     83560   295.31633      0            
     83580   309.1221       0            
     83600   280.81526      0            
     83620   287.31414      0            
     83640   274.55928      0            
     83660   269.32435      0            
     83680   292.03332      0            
     83700   289.0241       0            
     83720   306.03879      0            
     83740   288.98305      0            
     83760   309.42982      0            
     83780   314.03573      0            
     83800   297.32271      0            
     83820   335.20282      0            
     83840   300.85981      0            
     83860   321.09922      0            
     83880   313.20026      0            
     83900   298.03034      0            
     83920   319.1863       0            
     83940   328.13989      0            
     83960   343.40763      0            
     83980   348.01764      0            
     84000   338.57179      0            
     84020   331.5165       0            
     84040   349.74873      0            
     84060   311.38162      0            
     84080   306.9017       0            
     84100   326.21697      0            
     84120   311.26606      0            
     84140   324.7207       0            
     84160   275.1586       0            
     84180   315.78537      0            
     84200   323.81997      0            
     84220   279.4562       0            
     84240   252.64721      0            
     84260   305.20959      0            
     84280   268.17473      0            
     84300   276.61369      0            
     84320   298.93575      0            
     84340   242.91546      0            
     84360   288.50345      0            
     84380   270.37407      0            
     84400   285.05271      0            
     84420   324.76227      0            
     84440   276.16282      0            
     84460   319.81816      0            
     84480   287.07182      0            
     84500   324.94304      0            
     84520   304.03241      0            
     84540   330.20847      0            
     84560   310.15315      0            
     84580   308.93386      0            
     84600   328.45707      0            
     84620   336.26674      0            
     84640   337.81863      0            
     84660   318.15309      0            
     84680   291.81723      0            
     84700   310.68364      0            
     84720   314.32805      0            
     84740   278.88871      0            
     84760   285.48284      0            
     84780   331.78308      0            
     84800   285.61761      0            
     84820   298.69413      0            
     84840   297.95623      0            
     84860   265.36972      0            
     84880   309.77716      0            
     84900   320.72637      0            
     84920   262.49937      0            
     84940   270.37601      0            
     84960   270.1727       0            
     84980   306.02041      0            
     85000   268.72658      0            
     85020   271.61052      0            
     85040   289.0266       0            
     85060   280.31238      0            
     85080   248.12913      0            
     85100   254.38359      0            
     85120   269.75585      0            
     85140   254.91048      0            
     85160   255.03496      0            
     85180   248.6444       0            
     85200   239.17508      0            
     85220   298.36009      0            
     85240   295.91631      0            
     85260   259.54328      0            
     85280   290.46354      0            
     85300   314.06505      0            
     85320   324.67918      0            
     85340   306.47134      0            
     85360   282.1776       0            
     85380   331.68339      0            
     85400   303.63409      0            
     85420   300.99457      0            
     85440   317.42081      0            
     85460   307.02824      0            
     85480   305.61404      0            
     85500   285.63872      0            
     85520   322.89498      0            
     85540   314.70999      0            
     85560   318.07995      0            
     85580   299.56465      0            
     85600   275.87436      0            
     85620   330.76638      0            
     85640   276.16364      0            
     85660   305.85513      0            
     85680   287.48748      0            
     85700   270.46514      0            
     85720   275.50804      0            
     85740   285.91985      0            
     85760   266.5842       0            
     85780   288.19189      0            
     85800   260.08181      0            
     85820   274.29522      0            
     85840   303.6011       0            
     85860   263.06118      0            
     85880   257.99106      0            
     85900   301.48277      0            
     85920   299.22349      0            
     85940   322.9731       0            
     85960   310.79168      0            
     85980   304.41862      0            
     86000   310.19483      0            
     86020   301.38699      0            
     86040   328.42829      0            
     86060   321.46345      0            
     86080   276.27449      0            
     86100   324.66219      0            
     86120   349.6195       0            
     86140   307.58129      0            
     86160   314.25023      0            
     86180   306.04584      0            
     86200   304.7136       0            
     86220   297.46356      0            
     86240   303.57995      0            
     86260   301.4845       0            
     86280   268.99496      0            
     86300   263.11232      0            
     86320   297.12837      0            
     86340   291.57572      0            
     86360   279.09605      0            
     86380   290.88314      0            
     86400   259.79506      0            
     86420   260.73972      0            
     86440   297.35451      0            
     86460   272.80192      0            
     86480   307.40561      0            
     86500   339.97158      0            
     86520   317.84445      0            
     86540   323.03475      0            
     86560   341.35189      0            
     86580   312.83759      0            
     86600   321.94511      0            
     86620   308.68518      0            
     86640   303.06855      0            
     86660   294.6999       0            
     86680   303.31619      0            
     86700   340.78151      0            
     86720   304.03843      0            
     86740   318.01259      0            
     86760   307.16148      0            
     86780   306.46805      0            
     86800   296.28059      0            
     86820   272.4019       0            
     86840   257.51143      0            
     86860   295.90861      0            
     86880   286.38198      0            
     86900   300.95006      0            
     86920   267.67646      0            
     86940   310.66691      0            
     86960   274.88494      0            
     86980   292.10122      0            
     87000   332.58489      0            
     87020   305.46513      0            
     87040   328.18565      0            
     87060   340.60838      0            
     87080   343.41665      0            
     87100   358.3049       0            
     87120   312.86457      0            
     87140   331.29044      0            
     87160   288.19131      0            
     87180   343.25536      0            
     87200   348.35654      0            
     87220   335.26208      0            
     87240   301.77198      0            
     87260   312.40958      0            
     87280   301.79008      0            
     87300   313.79478      0            
     87320   331.65434      0            
     87340   307.28622      0            
     87360   347.29293      0            
     87380   286.01992      0            
     87400   275.3008       0            
     87420   276.45945      0            
     87440   289.55227      0            
     87460   293.43863      0            
     87480   321.0715       0            
     87500   325.77926      0            
     87520   305.35333      0            
     87540   280.66492      0            
     87560   328.42743      0            
     87580   308.84685      0            
     87600   336.37275      0            
     87620   291.82329      0            
     87640   278.184        0            
     87660   311.58428      0            
     87680   328.42892      0            
     87700   336.4722       0            
     87720   334.7785       0            
     87740   309.02053      0            
     87760   359.29016      0            
     87780   304.76092      0            
     87800   338.3064       0            
     87820   371.62055      0            
     87840   327.44801      0            
     87860   333.8646       0            
     87880   342.27238      0            
     87900   327.90157      0            
     87920   311.9074       0            
     87940   329.51895      0            
     87960   305.59161      0            
     87980   300.33371      0            
     88000   384.11563      0            
     88020   340.06119      0            
     88040   300.72894      0            
     88060   344.11389      0            
     88080   296.88458      0            
     88100   336.69079      0            
     88120   300.42385      0            
     88140   275.65515      0            
     88160   295.05656      0            
     88180   290.85506      0            
     88200   250.01405      0            
     88220   269.9661       0            
     88240   268.75869      0            
     88260   292.68964      0            
     88280   313.723        0            
     88300   291.62389      0            
     88320   285.18337      0            
     88340   287.65985      0            
     88360   282.24549      0            
     88380   273.47701      0            
     88400   289.14898      0            
     88420   281.75133      0            
     88440   311.00757      0            
     88460   305.24522      0            
     88480   318.44018      0            
     88500   330.4027       0            
     88520   305.64471      0            
     88540   330.78445      0            
     88560   319.49867      0            
     88580   303.94894      0            
     88600   342.42051      0            
     88620   266.57202      0            
     88640   345.54022      0            
     88660   341.87789      0            
     88680   302.69279      0            
     88700   313.38001      0            
     88720   344.49489      0            
     88740   291.97667      0            
     88760   249.41144      0            
     88780   298.14171      0            
     88800   310.66964      0            
     88820   312.25642      0            
     88840   300.3933       0            
     88860   286.77974      0            
     88880   270.55557      0            
     88900   279.02292      0            
     88920   300.05832      0            
     88940   309.31095      0            
     88960   318.08257      0            
     88980   320.17526      0            
     89000   287.77046      0            
     89020   297.72576      0            
     89040   295.46126      0            
     89060   259.33148      0            
     89080   287.95176      0            
     89100   326.11494      0            
     89120   315.90603      0            
     89140   313.76375      0            
     89160   317.43402      0            
     89180   313.93611      0            
     89200   313.75801      0            
     89220   355.04456      0            
     89240   296.43767      0            
     89260   346.12729      0            
     89280   350.34921      0            
     89300   337.24305      0            
     89320   327.98094      0            
     89340   342.66764      0            
     89360   288.0239       0            
     89380   317.97262      0            
     89400   304.81436      0            
     89420   302.37139      0            
     89440   332.19214      0            
     89460   325.51395      0            
     89480   297.88156      0            
     89500   288.42151      0            
     89520   319.89631      0            
     89540   267.82896      0            
     89560   291.66945      0            
     89580   284.12925      0            
     89600   314.8847       0            
     89620   278.48274      0            
     89640   279.7144       0            
     89660   308.73522      0            
     89680   309.92067      0            
     89700   314.60141      0            
     89720   312.26689      0            
     89740   339.55474      0            
     89760   307.29775      0            
     89780   337.9953       0            
     89800   298.14398      0            
     89820   320.92631      0            
     89840   319.11626      0            
     89860   323.98211      0            
     89880   343.07104      0            
     89900   349.23048      0            
     89920   353.2743       0            
     89940   319.78981      0            
     89960   315.72506      0            
     89980   327.93781      0            
     90000   311.80687      0            
     90020   281.71556      0            
     90040   300.05801      0            
     90060   260.27276      0            
     90080   294.40361      0            
     90100   295.80971      0            
     90120   282.87785      0            
     90140   307.18461      0            
     90160   289.63974      0            
     90180   281.17348      0            
     90200   320.75289      0            
     90220   279.35832      0            
     90240   293.991        0            
     90260   336.70699      0            
     90280   307.00709      0            
     90300   325.14677      0            
     90320   298.25871      0            
     90340   306.08231      0            
     90360   279.97505      0            
     90380   267.4531       0            
     90400   298.0416       0            
     90420   330.04984      0            
     90440   303.29613      0            
     90460   310.90114      0            
     90480   318.05359      0            
     90500   328.98347      0            
     90520   324.87551      0            
     90540   341.16049      0            
     90560   316.94479      0            
     90580   329.99701      0            
     90600   312.20192      0            
     90620   317.20849      0            
     90640   279.01816      0            
     90660   306.4379       0            
     90680   277.47513      0            
     90700   298.697        0            
     90720   327.94407      0            
     90740   293.89714      0            
     90760   303.18105      0            
     90780   284.55487      0            
     90800   253.34512      0            
     90820   315.7924       0            
     90840   256.80853      0            
     90860   299.83222      0            
     90880   290.86325      0            
     90900   310.46539      0            
     90920   280.67982      0            
     90940   300.51296      0            
     90960   335.6503       0            
     90980   316.86697      0            
     91000   316.64476      0            
     91020   323.07937      0            
     91040   310.81547      0            
     91060   326.80601      0            
     91080   304.95182      0            
     91100   350.04081      0            
     91120   304.32327      0            
     91140   313.53615      0            
     91160   291.53116      0            
     91180   309.21435      0            
     91200   318.8975       0            
     91220   327.00094      0            
     91240   327.03079      0            
     91260   312.76619      0            
     91280   312.88858      0            
     91300   300.51686      0            
     91320   311.25309      0            
     91340   314.60153      0            
     91360   302.94801      0            
     91380   295.09414      0            
     91400   292.6794       0            
     91420   286.97469      0            
     91440   280.67981      0            
     91460   290.84003      0            
     91480   294.46843      0            
     91500   281.21396      0            
     91520   238.70719      0            
     91540   273.3082       0            
     91560   291.56777      0            
     91580   283.04583      0            
     91600   283.546        0            
     91620   283.49594      0            
     91640   327.12618      0            
     91660   278.5242       0            
     91680   330.87625      0            
     91700   305.0531       0            
     91720   336.43156      0            
     91740   333.2844       0            
     91760   306.03093      0            
     91780   299.75367      0            
     91800   327.05133      0            
     91820   320.37174      0            
     91840   329.24797      0            
     91860   341.93929      0            
     91880   302.80731      0            
     91900   304.53541      0            
     91920   305.10978      0            
     91940   267.59333      0            
     91960   324.81269      0            
     91980   278.50934      0            
     92000   329.13782      0            
     92020   293.22794      0            
     92040   299.91005      0            
     92060   272.19665      0            
     92080   268.22871      0            
     92100   258.25472      0            
     92120   274.39554      0            
     92140   298.90278      0            
     92160   276.1968       0            
     92180   292.83416      0            
     92200   267.76117      0            
     92220   261.76648      0            
     92240   276.92288      0            
     92260   306.93584      0            
     92280   275.41447      0            
     92300   283.36074      0            
     92320   325.36066      0            
     92340   290.87774      0            
     92360   325.79327      0            
     92380   299.05984      0            
     92400   297.04835      0            
     92420   345.70115      0            
     92440   300.68415      0            
     92460   280.95782      0            
     92480   303.76792      0            
     92500   301.21009      0            
     92520   306.80932      0            
     92540   300.37005      0            
     92560   309.9799       0            
     92580   274.35285      0            
     92600   302.32847      0            
     92620   289.29453      0            
     92640   286.89406      0            
     92660   271.75831      0            
     92680   270.75621      0            
     92700   278.31342      0            
     92720   286.07621      0            
     92740   274.54578      0            
     92760   297.09747      0            
     92780   265.90503      0            
     92800   281.63657      0            
     92820   251.88533      0            
     92840   300.84725      0            
     92860   297.05399      0            
     92880   335.78293      0            
     92900   314.07309      0            
     92920   312.26508      0            
     92940   319.87471      0            
     92960   309.06585      0            
     92980   302.12361      0            
     93000   290.16302      0            
     93020   317.83158      0            
     93040   359.68654      0            
     93060   298.13886      0            
     93080   303.93316      0            
     93100   300.78007      0            
     93120   326.10511      0            
     93140   308.06489      0            
     93160   290.11921      0            
     93180   317.79717      0            
     93200   297.1433       0            
     93220   288.2461       0            
     93240   304.2405       0            
     93260   268.15496      0            
     93280   270.51019      0            
     93300   284.33522      0            
     93320   290.3592       0            
     93340   307.28589      0            
     93360   265.92508      0            
     93380   237.98027      0            
     93400   298.13529      0            
     93420   268.44983      0            
     93440   285.47439      0            
     93460   276.19695      0            
     93480   260.41499      0            
     93500   286.90721      0            
     93520   265.04405      0            
     93540   273.34473      0            
     93560   262.90531      0            
     93580   307.2575       0            
     93600   289.01442      0            
     93620   303.91748      0            
     93640   297.07974      0            
     93660   338.59458      0            
     93680   313.54004      0            
     93700   295.48033      0            
     93720   332.75417      0            
     93740   314.39049      0            
     93760   306.5102       0            
     93780   302.2674       0            
     93800   314.39063      0            
     93820   352.39287      0            
     93840   294.72429      0            
     93860   310.36181      0            
     93880   307.001        0            
     93900   345.79149      0            
     93920   309.92322      0            
     93940   305.33015      0            
     93960   293.2163       0            
     93980   300.1094       0            
     94000   295.07795      0            
     94020   295.9285       0            
     94040   292.53456      0            
     94060   272.3019       0            
     94080   250.14951      0            
     94100   275.9143       0            
     94120   308.27237      0            
     94140   298.43453      0            
     94160   285.6385       0            
     94180   267.83752      0            
     94200   305.82742      0            
     94220   273.23551      0            
     94240   280.62974      0            
     94260   310.94249      0            
     94280   310.13825      0            
     94300   313.11219      0            
     94320   288.59154      0            
     94340   312.63837      0            
     94360   304.69278      0            
     94380   330.08501      0            
     94400   317.19869      0            
     94420   326.92347      0            
     94440   256.87507      0            
     94460   317.97575      0            
     94480   308.14611      0            
     94500   341.19774      0            
     94520   307.9237       0            
     94540   324.56786      0            
     94560   306.67838      0            
     94580   304.40884      0            
     94600   322.10614      0            
     94620   321.85809      0            
     94640   316.11061      0            
     94660   298.29933      0            
     94680   298.44977      0            
     94700   296.49659      0            
     94720   270.26034      0            
     94740   287.27469      0            
     94760   277.67306      0            
     94780   275.72826      0            
     94800   292.28924      0            
     94820   290.44604      0            
     94840   277.13179      0            
     94860   278.49025      0            
     94880   263.2017       0            
     94900   282.9039       0            
     94920   295.73832      0            
     94940   273.51795      0            
     94960   288.62471      0            
     94980   299.06732      0            
     95000   350.69029      0            
     95020   299.84752      0            
     95040   294.5832       0            
     95060   333.27206      0            
     95080   338.21844      0            
     95100   295.65994      0            
     95120   350.42311      0            
     95140   304.66214      0            
     95160   323.98099      0            
     95180   307.74053      0            
     95200   335.53135      0            
     95220   315.34087      0            
     95240   323.44171      0            
     95260   307.50203      0            
     95280   312.60953      0            
     95300   269.04538      0            
     95320   281.5594       0            
     95340   292.62283      0            
     95360   290.79129      0            
     95380   292.31387      0            
     95400   313.35792      0            
     95420   280.3481       0            
     95440   302.44074      0            
     95460   311.96935      0            
     95480   295.96134      0            
     95500   283.93169      0            
     95520   307.24365      0            
     95540   328.16916      0            
     95560   295.82378      0            
     95580   325.467        0            
     95600   304.52981      0            
     95620   321.28522      0            
     95640   299.41905      0            
     95660   278.42488      0            
     95680   241.04403      0            
     95700   290.15772      0            
     95720   301.73348      0            
     95740   324.92145      0            
     95760   308.73087      0            
     95780   272.90534      0            
     95800   311.96388      0            
     95820   309.59952      0            
     95840   316.84559      0            
     95860   295.43896      0            
     95880   301.59855      0            
     95900   325.91897      0            
     95920   306.37112      0            
     95940   317.29049      0            
     95960   309.80917      0            
     95980   287.1891       0            
     96000   306.50848      0            
     96020   300.43068      0            
     96040   282.82846      0            
     96060   310.20362      0            
     96080   307.50991      0            
     96100   274.48586      0            
     96120   314.73764      0            
     96140   310.28246      0            
     96160   301.88025      0            
     96180   283.21664      0            
     96200   297.39854      0            
     96220   308.64185      0            
     96240   264.11155      0            
     96260   315.69531      0            
     96280   310.01767      0            
     96300   286.70479      0            
     96320   262.10834      0            
     96340   286.57619      0            
     96360   300.68691      0            
     96380   312.34636      0            
     96400   313.00891      0            
     96420   302.28518      0            
     96440   302.50221      0            
     96460   310.52095      0            
     96480   317.85256      0            
     96500   329.21608      0            
     96520   300.12948      0            
     96540   335.40998      0            
     96560   333.31887      0            
     96580   303.62686      0            
     96600   312.02112      0            
     96620   351.26288      0            
     96640   291.69466      0            
     96660   320.30325      0            
     96680   314.05943      0            
     96700   283.93386      0            
     96720   270.2047       0            
     96740   311.86403      0            
     96760   283.45895      0            
     96780   280.52568      0            
     96800   264.19698      0            
     96820   302.52524      0            
     96840   280.85588      0            
     96860   290.3275       0            
     96880   285.87277      0            
     96900   270.77905      0            
     96920   297.74035      0            
     96940   281.47553      0            
     96960   293.19891      0            
     96980   330.64848      0            
     97000   295.82809      0            
     97020   310.50797      0            
     97040   312.36532      0            
     97060   331.69403      0            
     97080   305.49896      0            
     97100   354.50146      0            
     97120   324.50644      0            
     97140   346.94765      0            
     97160   327.0644       0            
     97180   320.37342      0            
     97200   306.13032      0            
     97220   322.97504      0            
     97240   280.38232      0            
     97260   314.97043      0            
     97280   310.56527      0            
     97300   319.83141      0            
     97320   290.4183       0            
     97340   301.32536      0            
     97360   294.60637      0            
     97380   326.74322      0            
     97400   302.65286      0            
     97420   318.96587      0            
     97440   295.00689      0            
     97460   270.41754      0            
     97480   298.15414      0            
     97500   282.80316      0            
     97520   285.24416      0            
     97540   299.81078      0            
     97560   281.48366      0            
     97580   303.42651      0            
     97600   312.36171      0            
     97620   279.8922       0            
     97640   340.37403      0            
     97660   301.42283      0            
     97680   317.96524      0            
     97700   319.31551      0            
     97720   314.14344      0            
     97740   303.47675      0            
     97760   323.85405      0            
     97780   294.01919      0            
     97800   316.99172      0            
     97820   337.23728      0            
     97840   345.25296      0            
     97860   355.28513      0            
     97880   329.08976      0            
     97900   336.9933       0            
     97920   287.71931      0            
     97940   299.23072      0            
     97960   315.11499      0            
     97980   277.38257      0            
     98000   264.33096      0            
     98020   311.88571      0            
     98040   340.38301      0            
     98060   296.70331      0            
     98080   329.25037      0            
     98100   290.12881      0            
     98120   338.87715      0            
     98140   293.56671      0            
     98160   296.12148      0            
     98180   288.76694      0            
     98200   291.48114      0            
     98220   300.02758      0            
     98240   301.57548      0            
     98260   284.77542      0            
     98280   294.5933       0            
     98300   311.75357      0            
     98320   337.58549      0            
     98340   353.5838       0            
     98360   320.2827       0            
     98380   298.50676      0            
     98400   366.25544      0            
     98420   328.53232      0            
     98440   352.35974      0            
     98460   341.91028      0            
     98480   340.6244       0            
     98500   332.23628      0            
     98520   319.33533      0            
     98540   328.34101      0            
     98560   322.41666      0            
     98580   331.02031      0            
     98600   317.62237      0            
     98620   320.23799      0            
     98640   287.8621       0            
     98660   299.0912       0            
     98680   311.57661      0            
     98700   280.21055      0            
     98720   277.76618      0            
     98740   304.25837      0            
     98760   304.28651      0            
     98780   294.95197      0            
     98800   283.40701      0            
     98820   294.28052      0            
     98840   300.56027      0            
     98860   286.70747      0            
     98880   282.75745      0            
     98900   328.15048      0            
     98920   296.68108      0            
     98940   302.79617      0            
     98960   292.48543      0            
     98980   334.30076      0            
     99000   284.64568      0            
     99020   315.62153      0            
     99040   332.05318      0            
     99060   299.82275      0            
     99080   292.6397       0            
     99100   352.61115      0            
     99120   346.26843      0            
     99140   328.94215      0            
     99160   315.21399      0            
     99180   315.86779      0            
     99200   352.25306      0            
     99220   314.93197      0            
     99240   327.72366      0            
     99260   287.35885      0            
     99280   311.1991       0            
     99300   271.81164      0            
     99320   280.39498      0            
     99340   285.46784      0            
     99360   294.11342      0            
     99380   308.39159      0            
     99400   291.51488      0            
     99420   279.34191      0            
     99440   269.2955       0            
     99460   278.11049      0            
     99480   284.62361      0            
     99500   282.66453      0            
     99520   302.13833      0            
     99540   277.96115      0            
     99560   296.20186      0            
     99580   300.51112      0            
     99600   309.03742      0            
     99620   316.15181      0            
     99640   324.5803       0            
     99660   316.44386      0            
     99680   341.27835      0            
     99700   342.70068      0            
     99720   329.36097      0            
     99740   315.86587      0            
     99760   328.23335      0            
     99780   311.65433      0            
     99800   299.21573      0            
     99820   302.69028      0            
     99840   272.19319      0            
     99860   247.6063       0            
     99880   273.17416      0            
     99900   285.6976       0            
     99920   269.86879      0            
     99940   282.24579      0            
     99960   266.30742      0            
     99980   287.95926      0            
    100000   297.12499      0            
    100020   252.25967      0            
    100040   288.87693      0            
    100060   267.75522      0            
    100080   301.63798      0            
    100100   304.63212      0            
    100120   311.2418       0            
    100140   320.45947      0            
    100160   320.70817      0            
    100180   290.40813      0            
    100200   296.88466      0            
    100220   298.42945      0            
    100240   327.01841      0            
    100260   300.0578       0            
    100280   346.14184      0            
    100300   320.10237      0            
    100320   318.98613      0            
    100340   331.34511      0            
    100360   300.45286      0            
    100380   283.28475      0            
    100400   272.98532      0            
    100420   297.89148      0            
    100440   314.75107      0            
    100460   292.86523      0            
    100480   306.33098      0            
    100500   270.66177      0            
    100520   290.18688      0            
    100540   288.72743      0            
    100560   275.29965      0            
    100580   268.27818      0            
    100600   289.5242       0            
    100620   299.95271      0            
    100640   294.17023      0            
    100660   292.95546      0            
    100680   279.18308      0            
    100700   302.76138      0            
    100720   266.83876      0            
    100740   302.27112      0            
    100760   312.64485      0            
    100780   296.35573      0            
    100800   298.94876      0            
    100820   296.43793      0            
    100840   285.68776      0            
    100860   322.07005      0            
    100880   310.99325      0            
    100900   316.79617      0            
    100914   328.76206      0            
Loop time of 18.8071 on 1 procs for 100000 steps with 100 atoms

Performance: 459.401 ns/day, 0.052 hours/ns, 5317.139 timesteps/s, 531.714 katom-step/s
50.0% CPU use with 1 MPI tasks x no OpenMP threads

MPI task timing breakdown:
Section |  min time  |  avg time  |  max time  |%varavg| %total
---------------------------------------------------------------
Pair    | 12.013     | 12.013     | 12.013     |   0.0 | 63.88
Bond    | 0.31927    | 0.31927    | 0.31927    |   0.0 |  1.70
Neigh   | 0.010888   | 0.010888   | 0.010888   |   0.0 |  0.06
Comm    | 0.040988   | 0.040988   | 0.040988   |   0.0 |  0.22
Output  | 1.0008     | 1.0008     | 1.0008     |   0.0 |  5.32
Modify  | 5.2191     | 5.2191     | 5.2191     |   0.0 | 27.75
Other   |            | 0.2029     |            |       |  1.08

Nlocal:            100 ave         100 max         100 min
Histogram: 1 0 0 0 0 0 0 0 0 0
Nghost:              0 ave           0 max           0 min
Histogram: 1 0 0 0 0 0 0 0 0 0
Neighs:           4753 ave        4753 max        4753 min
Histogram: 1 0 0 0 0 0 0 0 0 0
FullNghs:            0 ave           0 max           0 min
Histogram: 1 0 0 0 0 0 0 0 0 0

Total # of neighbors = 4753
Ave neighs/atom = 47.53
Ave special neighs/atom = 5.88
Neighbor list builds = 84
Dangerous builds = 0

#####################################################
print "All done"
All done

# 3 options for the reaction:
  # 1 story telling avec fix/react et 5 atoms
  # 2 story telling avec fix/react et 2 molecules
  # 3 envoyer un mail à Jacob Gissinger  FAIT
  # 4 tenter la méthode naïve 
Total wall time: 0:00:21
