read_data	InitialFile.txt
Reading data file ...
  orthogonal box = (0 0 0) to (158.5 158.5 158.5)
  1 by 1 by 1 MPI processor grid
WARNING: Atom style in data file atomic differs from currently defined atom style molecular (src/src/read_data.cpp:621)
  reading atoms ...
  4 atoms
  scanning bonds ...
  1 = max bonds/atom
  scanning angles ...
  1 = max angles/atom
  scanning dihedrals ...
  1 = max dihedrals/atom
  reading bonds ...
  3 bonds
  reading angles ...
  2 angles
  reading dihedrals ...
  1 dihedrals
Finding 1-2 1-3 1-4 neighbors ...
  special bond factors lj:    0        0        0       
  special bond factors coul:  0        0        0       
     2 = max # of 1-2 neighbors
     1 = max # of 1-3 neighbors
     2 = max # of 1-4 neighbors
     3 = max # of special neighbors
  special bonds CPU = 0.000 seconds
  read_data CPU = 0.003 seconds

# Dreiding potential information
neighbor	2.0 bin
neigh_modify every 1 delay 0 check yes

bond_style      harmonic
bond_coeff	1 350 1.53
bond_coeff	2 700 1.53
special_bonds lj/coul 0.0 0.0 0.5
Finding 1-2 1-3 1-4 neighbors ...
  special bond factors lj:    0        0        0.5     
  special bond factors coul:  0        0        0.5     
     2 = max # of 1-2 neighbors
     1 = max # of 1-3 neighbors
     2 = max # of 1-4 neighbors
     3 = max # of special neighbors
  special bonds CPU = 0.000 seconds


angle_style     harmonic
angle_coeff	1 60 109.5
angle_coeff	2 120 109.5

dihedral_style	multi/harmonic
dihedral_coeff	1 1.73 -4.49 0.776 6.99 0.0
dihedral_coeff	2 1.73 -4.49 0.776 6.99 0.0

pair_style	lj/cut 10.5
pair_coeff	* * 1.0 1.0 10.5
pair_coeff	3 3 2.0 0.5 10.5

compute csym all centro/atom fcc
compute peratom all pe/atom


#####################################################
# Equilibration (Brownian dynamics at 300 K)

velocity 	all create 300.0 1231
fix		1 all nve/limit 0.05
fix 2 all brownian 30.0 12908410 gamma_t 3.0 rng gaussian # Compute a correct 300K simulation, check the value for gamma_t
thermo_style	custom step temp
thermo          10000
timestep	1
run		100000
Generated 0 of 3 mixed pair_coeff terms from geometric mixing rule
WARNING: One or more atoms are time integrated more than once (src/src/modify.cpp:289)
Neighbor list info ...
  update: every = 1 steps, delay = 0 steps, check = yes
  max neighbors/atom: 2000, page size: 100000
  master list distance cutoff = 12.5
  ghost atom cutoff = 12.5
  binsize = 6.25, bins = 26 26 26
  2 neighbor lists, perpetual/occasional/extra = 1 1 0
  (1) pair lj/cut, perpetual
      attributes: half, newton on
      pair build: half/bin/newton
      stencil: half/bin/3d
      bin: standard
  (2) compute centro/atom, occasional
      attributes: full, newton on
      pair build: full/bin
      stencil: full/bin/3d
      bin: standard
Per MPI rank memory allocation (min/avg/max) = 7.931 | 7.931 | 7.931 Mbytes
   Step          Temp     
         0   300          
     10000   382.22649    
     20000   354.83348    
     30000   238.93088    
     40000   763.80509    
     50000   602.71732    
     60000   177.04023    
     70000   332.15365    
     80000   228.86235    
     90000   387.88565    
    100000   232.24961    
Loop time of 0.157134 on 1 procs for 100000 steps with 4 atoms

Performance: 54984.863 ns/day, 0.000 hours/ns, 636398.874 timesteps/s, 2.546 Matom-step/s
93.9% CPU use with 1 MPI tasks x no OpenMP threads

MPI task timing breakdown:
Section |  min time  |  avg time  |  max time  |%varavg| %total
---------------------------------------------------------------
Pair    | 0.011642   | 0.011642   | 0.011642   |   0.0 |  7.41
Bond    | 0.032392   | 0.032392   | 0.032392   |   0.0 | 20.61
Neigh   | 0.00037114 | 0.00037114 | 0.00037114 |   0.0 |  0.24
Comm    | 0.029443   | 0.029443   | 0.029443   |   0.0 | 18.74
Output  | 0.00022065 | 0.00022065 | 0.00022065 |   0.0 |  0.14
Modify  | 0.053195   | 0.053195   | 0.053195   |   0.0 | 33.85
Other   |            | 0.02987    |            |       | 19.01

Nlocal:              4 ave           4 max           4 min
Histogram: 1 0 0 0 0 0 0 0 0 0
Nghost:             28 ave          28 max          28 min
Histogram: 1 0 0 0 0 0 0 0 0 0
Neighs:              1 ave           1 max           1 min
Histogram: 1 0 0 0 0 0 0 0 0 0
FullNghs:            0 ave           0 max           0 min
Histogram: 1 0 0 0 0 0 0 0 0 0

Total # of neighbors = 1
Ave neighs/atom = 0.25
Ave special neighs/atom = 3
Neighbor list builds = 19
Dangerous builds = 0
unfix 1
unfix 2
write_restart 	restart.${simname}.dreiding1
write_restart 	restart.InitialFile.dreiding1
System init for write_restart ...
Generated 0 of 3 mixed pair_coeff terms from geometric mixing rule

#####################################################
# Define Settings
compute eng all pe/atom
compute eatoms all reduce sum c_eng

#####################################################
# Minimization

dump mydmp all atom 100 dump.lammpstrj

reset_timestep 0
fix 1 all nvt temp 300.0 300.0 100.0
thermo 20
thermo_style custom step pe lx ly lz press pxx pyy pzz c_eatoms
min_style cg
minimize 1e-25 1e-25 500000 1000000
Generated 0 of 3 mixed pair_coeff terms from geometric mixing rule
Per MPI rank memory allocation (min/avg/max) = 9.056 | 9.056 | 9.056 Mbytes
   Step         PotEng           Lx             Ly             Lz           Press           Pxx            Pyy            Pzz          c_eatoms   
         0   0.59467738     158.5          158.5          158.5          0.02461187    -0.1134872      0.18039273     0.0069300722   0.59467738   
        20   0.013897817    158.5          158.5          158.5          0.0022898521  -0.018479071    0.015002394    0.010346233    0.013897817  
        40   0.0054218172   158.5          158.5          158.5          0.023421621    0.029402516    0.01871413     0.022148218    0.0054218172 
        60   0.0054190992   158.5          158.5          158.5          0.023678911    0.030012342    0.01871727     0.022307122    0.0054190992 
        80   0.0054101719   158.5          158.5          158.5          0.022285173    0.028521022    0.016408989    0.021925507    0.0054101719 
       100   0.0053869948   158.5          158.5          158.5          0.023842864    0.030553024    0.018525857    0.022449712    0.0053869948 
       120   0.0053869948   158.5          158.5          158.5          0.023842709    0.030553453    0.018524846    0.022449828    0.0053869948 
       124   0.0053869948   158.5          158.5          158.5          0.023842709    0.030553453    0.018524846    0.022449828    0.0053869948 
Loop time of 0.000813728 on 1 procs for 124 steps with 4 atoms

87.3% CPU use with 1 MPI tasks x no OpenMP threads

Minimization stats:
  Stopping criterion = energy tolerance
  Energy initial, next-to-last, final = 
     0.594677381291793 0.00538699478381168 0.00538699478381168
  Force two-norm initial, final = 27.61823 2.4817327e-11
  Force max component initial, final = 18.536263 1.4430518e-11
  Final line search alpha, max atom move = 1 1.4430518e-11
  Iterations, force evaluations = 124 521

MPI task timing breakdown:
Section |  min time  |  avg time  |  max time  |%varavg| %total
---------------------------------------------------------------
Pair    | 6.5344e-05 | 6.5344e-05 | 6.5344e-05 |   0.0 |  8.03
Bond    | 0.00022784 | 0.00022784 | 0.00022784 |   0.0 | 28.00
Neigh   | 0          | 0          | 0          |   0.0 |  0.00
Comm    | 0.00015576 | 0.00015576 | 0.00015576 |   0.0 | 19.14
Output  | 9.8925e-05 | 9.8925e-05 | 9.8925e-05 |   0.0 | 12.16
Modify  | 0          | 0          | 0          |   0.0 |  0.00
Other   |            | 0.0002659  |            |       | 32.67

Nlocal:              4 ave           4 max           4 min
Histogram: 1 0 0 0 0 0 0 0 0 0
Nghost:             28 ave          28 max          28 min
Histogram: 1 0 0 0 0 0 0 0 0 0
Neighs:              1 ave           1 max           1 min
Histogram: 1 0 0 0 0 0 0 0 0 0
FullNghs:            0 ave           0 max           0 min
Histogram: 1 0 0 0 0 0 0 0 0 0

Total # of neighbors = 1
Ave neighs/atom = 0.25
Ave special neighs/atom = 3
Neighbor list builds = 0
Dangerous builds = 0

group type1_atoms type 1
1 atoms in group type1_atoms
group type2_atoms type 2
1 atoms in group type2_atoms
group type3_atoms type 3
2 atoms in group type3_atoms

molecule mol1closeTo3PRE mol1closeTo3PRE.txt
Read molecule template mol1closeTo3PRE:
  1 molecules
  0 fragments
  4 atoms with max type 3
  3 bonds with max type 1
  2 angles with max type 1
  1 dihedrals with max type 1
  0 impropers with max type 0
molecule mol1closeTo3POST mol1closeTo3POST.txt
Read molecule template mol1closeTo3POST:
  1 molecules
  0 fragments
  4 atoms with max type 3
  3 bonds with max type 1
  2 angles with max type 1
  1 dihedrals with max type 1
  0 impropers with max type 0
molecule mol3closeTo1POST mol3closeTo1POST.txt
Read molecule template mol3closeTo1POST:
  1 molecules
  0 fragments
  4 atoms with max type 2
  3 bonds with max type 1
  2 angles with max type 1
  1 dihedrals with max type 1
  0 impropers with max type 0
molecule mol2closeTo3PRE mol2closeTo3PRE.txt
Read molecule template mol2closeTo3PRE:
  1 molecules
  0 fragments
  4 atoms with max type 3
  3 bonds with max type 1
  2 angles with max type 1
  1 dihedrals with max type 1
  0 impropers with max type 0
molecule mol2closeTo3POST mol2closeTo3POST.txt
Read molecule template mol2closeTo3POST:
  1 molecules
  0 fragments
  4 atoms with max type 3
  3 bonds with max type 1
  2 angles with max type 1
  1 dihedrals with max type 1
  0 impropers with max type 0
molecule mol3closeTo2POST mol3closeTo2POST.txt
Read molecule template mol3closeTo2POST:
  1 molecules
  0 fragments
  4 atoms with max type 2
  3 bonds with max type 1
  2 angles with max type 1
  1 dihedrals with max type 1
  0 impropers with max type 0
molecule mol2closeTo1PRE mol2closeTo1PRE.txt
Read molecule template mol2closeTo1PRE:
  1 molecules
  0 fragments
  4 atoms with max type 3
  3 bonds with max type 1
  2 angles with max type 1
  1 dihedrals with max type 1
  0 impropers with max type 0
molecule mol2closeTo1POST mol2closeTo1POST.txt
Read molecule template mol2closeTo1POST:
  1 molecules
  0 fragments
  4 atoms with max type 3
  3 bonds with max type 1
  2 angles with max type 1
  1 dihedrals with max type 1
  0 impropers with max type 0

#####################################################
# Do the reactions
fix 3 all bond/react   react reac1to2 all 1 0 3 mol1closeTo3PRE mol1closeTo3POST map_1to2.txt molecule intra   react reac2to3 all 1 0 10 mol2closeTo3PRE mol2closeTo3POST map_2to3.txt    react reac3to2 all 1 0 10 mol2closeTo3PRE mol3closeTo2POST map_3to2.txt    react reac2to1 all 1 0 10 mol2closeTo1PRE mol2closeTo1POST map_2to1.txt
dynamic group bond_react_MASTER_group defined

run 100000

CITE-CITE-CITE-CITE-CITE-CITE-CITE-CITE-CITE-CITE-CITE-CITE-CITE

Your simulation uses code contributions which should be cited:

- fix bond/react: reacter.org doi:10.1016/j.polymer.2017.09.038, doi:10.1021/acs.macromol.0c02012

@Article{Gissinger17,
 author = {J. R. Gissinger and B. D. Jensen and K. E. Wise},
 title = {Modeling Chemical Reactions in Classical Molecular Dynamics Simulations},
 journal = {Polymer},
 year =    2017,
 volume =  128,
 pages =   {211--217}
}

@Article{Gissinger20,
 author = {J. R. Gissinger, B. D. Jensen, K. E. Wise},
 title = {{REACTER}: A Heuristic Method for Reactive Molecular Dynamics},
 journal = {Macromolecules},
 year =    2020,
 volume =  53,
 number =  22,
 pages =   {9953--9961}
}

CITE-CITE-CITE-CITE-CITE-CITE-CITE-CITE-CITE-CITE-CITE-CITE-CITE

Generated 0 of 3 mixed pair_coeff terms from geometric mixing rule
Neighbor list info ...
  update: every = 1 steps, delay = 0 steps, check = yes
  max neighbors/atom: 2000, page size: 100000
  master list distance cutoff = 12.5
  ghost atom cutoff = 12.5
  binsize = 6.25, bins = 26 26 26
  3 neighbor lists, perpetual/occasional/extra = 1 2 0
  (1) pair lj/cut, perpetual
      attributes: half, newton on
      pair build: half/bin/newton
      stencil: half/bin/3d
      bin: standard
  (2) compute centro/atom, occasional
      attributes: full, newton on
      pair build: full/bin
      stencil: full/bin/3d
      bin: standard
  (3) fix bond/react, occasional, copy from (1)
      attributes: half, newton on
      pair build: copy
      stencil: none
      bin: none
Per MPI rank memory allocation (min/avg/max) = 9.368 | 9.368 | 9.368 Mbytes
   Step         PotEng           Lx             Ly             Lz           Press           Pxx            Pyy            Pzz          c_eatoms   
       124   0.0053869948   158.5          158.5          158.5          0.023842709    0.030553453    0.018524846    0.022449828    0.0053869948 
       140   0.54474836     158.5          158.5          158.5          0.10991724    -0.06159081     0.38506242     0.006280116    0.54474836   
       160   0.54201232     158.5          158.5          158.5         -0.03045488    -0.041785901   -0.066565226    0.016986489    0.54201232   
       180   0.51233039     158.5          158.5          158.5         -0.049225179   -0.046006144   -0.10196052     0.00029112561  0.51233039   
       200   0.61960726     158.5          158.5          158.5         -0.19909126    -0.25435187    -0.33913688    -0.003785028    0.61960726   
       220   0.36049824     158.5          158.5          158.5          0.093808699    0.13876085     0.1082612      0.034404042    0.36049824   
       240   0.56391863     158.5          158.5          158.5          0.26070195     0.23952181     0.50777431     0.034809722    0.56391863   
       260   0.80437241     158.5          158.5          158.5         -0.12502522    -0.24096659    -0.14778108     0.013671995    0.80437241   
       280   1.0596164      158.5          158.5          158.5         -0.10631951     0.14023979    -0.49981433     0.040615995    1.0596164    
       300   0.38540031     158.5          158.5          158.5          0.1112925      0.26159869     0.011036361    0.061242449    0.38540031   
       320   1.6057602      158.5          158.5          158.5          0.18167419     0.046962822    0.48349364     0.014566124    1.6057602    
       340   0.29053869     158.5          158.5          158.5          0.26238449     0.32016031     0.34421594     0.12277722     0.29053869   
       360   1.1639296      158.5          158.5          158.5         -0.267172       0.03539449    -0.86892859     0.032018111    1.1639296    
       380   0.76691273     158.5          158.5          158.5         -0.019236094   -0.038155946   -0.088646076    0.069093741    0.76691273   
       400   0.93504067     158.5          158.5          158.5          0.36044019     0.25397999     0.64851188     0.17882871     0.93504067   
       420   0.86310493     158.5          158.5          158.5          0.071110024    0.19844493    -0.014137937    0.029023078    0.86310493   
       440   0.3649499      158.5          158.5          158.5         -0.0073878      0.00061609762 -0.11574332     0.09296382     0.3649499    
       460   0.49824525     158.5          158.5          158.5         -0.12264975    -0.081416575   -0.18635888    -0.10017379     0.49824525   
       480   0.33760329     158.5          158.5          158.5         -0.055343019    0.008236367   -0.071087234   -0.10317819     0.33760329   
       500   0.67436993     158.5          158.5          158.5          0.21343559     0.14235833     0.36677266     0.13117577     0.67436993   
       520   0.19894336     158.5          158.5          158.5         -0.079174688    0.018139747    0.0022342017  -0.25789801     0.19894336   
       540   0.67075118     158.5          158.5          158.5         -0.24988067    -0.1260033     -0.37728861    -0.24635008     0.67075118   
       560   0.20313379     158.5          158.5          158.5         -0.001210478    0.0086963901  -0.023634077    0.011306253    0.20313379   
       580   0.55366863     158.5          158.5          158.5          0.026568346    0.11988783     0.21525706    -0.25543985     0.55366863   
       600   0.3502786      158.5          158.5          158.5          0.1078102      0.11985131     0.15790162     0.045677653    0.3502786    
       620   0.65218653     158.5          158.5          158.5         -0.11519931    -0.11719268    -0.28138852     0.05298326     0.65218653   
       640   0.49052235     158.5          158.5          158.5         -0.1769978     -0.067546831   -0.2018632     -0.26158336     0.49052235   
       660   0.48000894     158.5          158.5          158.5          0.2921223      0.27683871     0.31524509     0.2842831      0.48000894   
       680   0.58754805     158.5          158.5          158.5          0.18718375    -0.10382634     0.17999706     0.48538052     0.58754805   
       700   0.61014073     158.5          158.5          158.5         -0.026452188   -0.10350991    -0.093817547    0.11797089     0.61014073   
       720   1.2253021      158.5          158.5          158.5          0.059003247    0.23948622    -0.072231411    0.0097549296   1.2253021    
       740   0.38466615     158.5          158.5          158.5          0.031702983   -0.21323646     0.080446924    0.22789849     0.38466615   
       760   1.1978063      158.5          158.5          158.5          0.30779163     0.059174898    0.24163133     0.62256865     1.1978063    
       780   0.44754275     158.5          158.5          158.5          0.1072798      0.28887996    -0.0016186115   0.03457806     0.44754275   
       800   0.84716379     158.5          158.5          158.5         -0.35865515    -0.094557888   -0.19170927    -0.7896983      0.84716379   
       820   0.68870945     158.5          158.5          158.5         -0.011808736    0.09646725     0.0055663658  -0.13745982     0.68870945   
       840   0.95243511     158.5          158.5          158.5          0.089091148    0.091962575   -0.050353639    0.22566451     0.95243511   
       860   0.6101974      158.5          158.5          158.5         -0.0037983773  -0.0051188459  -0.11709755     0.11082127     0.6101974    
       880   0.69011152     158.5          158.5          158.5         -0.085722047    0.070152448   -0.014048215   -0.31327037     0.69011152   
       900   0.46254829     158.5          158.5          158.5         -0.28040336     0.00086695713 -0.11713703    -0.72494002     0.46254829   
       920   0.32657097     158.5          158.5          158.5          0.089772819    0.080786398   -0.017192439    0.2057245      0.32657097   
       940   0.74064467     158.5          158.5          158.5          0.19947158     0.013353561    0.065188115    0.51987305     0.74064467   
       960   0.18140776     158.5          158.5          158.5         -0.080421242   -0.018455839   -0.059756775   -0.16305111     0.18140776   
       980   0.69498238     158.5          158.5          158.5         -0.027971331    0.082231006    0.12973447    -0.29587947     0.69498238   
      1000   0.19290316     158.5          158.5          158.5          0.029241961    0.01899261     0.053869257    0.014864018    0.19290316   
      1020   0.41459258     158.5          158.5          158.5          0.13751499    -0.0024038386  -0.038261085    0.45320989     0.41459258   
      1040   0.34338244     158.5          158.5          158.5          0.21752618     0.043281302    0.14882613     0.46047111     0.34338244   
      1060   0.55666747     158.5          158.5          158.5         -0.15141518     0.011612317    0.0096419051  -0.47549976     0.55666747   
      1080   0.39593058     158.5          158.5          158.5         -0.068455604    0.031947664    0.028352568   -0.26566704     0.39593058   
      1100   0.45751888     158.5          158.5          158.5          0.2083301      0.043739302    0.077363229    0.50388778     0.45751888   
      1120   0.44325438     158.5          158.5          158.5          0.031959486    0.057401017   -0.16621933     0.20469677     0.44325438   
      1140   0.71042862     158.5          158.5          158.5         -0.058066348    0.067836936    0.075261992   -0.31729797     0.71042862   
      1160   1.324571       158.5          158.5          158.5         -0.19900796     0.064755012    0.094942995   -0.7567219      1.324571     
      1180   0.56517057     158.5          158.5          158.5         -0.037757357    0.11747691    -0.083939927   -0.14680905     0.56517057   
      1200   1.5255889      158.5          158.5          158.5          0.33016812     0.16635728    -0.00085492765  0.825002       1.5255889    
      1220   0.73353109     158.5          158.5          158.5         -0.11191873     0.060961435   -0.14700774    -0.24970988     0.73353109   
      1240   0.91449732     158.5          158.5          158.5         -0.21589311     0.12638027     0.13460391    -0.90866352     0.91449732   
      1260   0.39656164     158.5          158.5          158.5          0.073376385    0.12515635     0.087346724    0.0076260829   0.39656164   
      1280   1.1856282      158.5          158.5          158.5          0.010537079   -0.12149022    -0.12311522     0.27621668     1.1856282    
      1300   0.6405827      158.5          158.5          158.5          0.19169081     0.29482481     0.1151418      0.16510582     0.6405827    
      1320   0.71771926     158.5          158.5          158.5         -0.070065398    0.072113375    0.033107232   -0.3154168      0.71771926   
      1340   0.51894032     158.5          158.5          158.5         -0.22172922    -0.33420244    -0.077839613   -0.25314563     0.51894032   
      1360   0.29890395     158.5          158.5          158.5          0.24101792     0.25597395     0.069605484    0.39747431     0.29890395   
      1380   0.79835543     158.5          158.5          158.5          0.13102178     0.15968583     0.062149758    0.17122975     0.79835543   
      1400   0.36751566     158.5          158.5          158.5         -0.045154541   -0.21224312     0.0053911113   0.071388383    0.36751566   
      1420   0.68842394     158.5          158.5          158.5          0.0041889762   0.018568044   -0.020035668    0.014034553    0.68842394   
      1440   0.49655533     158.5          158.5          158.5         -0.04823453     0.011405268   -0.041392817   -0.11471604     0.49655533   
      1460   0.39963676     158.5          158.5          158.5          0.22561429     0.14184262     0.13175384     0.4032464      0.39963676   
      1480   0.22675134     158.5          158.5          158.5          0.083871292   -0.01674926     0.06933715     0.19902598     0.22675134   
      1500   0.8400415      158.5          158.5          158.5         -0.223923      -0.10644967    -0.13170227    -0.43361706     0.8400415    
      1520   0.40782325     158.5          158.5          158.5          0.05452571     0.13664293     0.0087545204   0.018179679    0.40782325   
      1540   0.7316141      158.5          158.5          158.5          0.062607184   -0.063164247    0.049301645    0.20168415     0.7316141    
      1560   0.38900531     158.5          158.5          158.5          0.03119254     0.20893924    -0.092536141   -0.022825477    0.38900531   
      1580   0.51192823     158.5          158.5          158.5         -0.029151354    0.21016829    -0.12163741    -0.17598495     0.51192823   
      1600   1.2799878      158.5          158.5          158.5         -0.37513248    -0.52491651    -0.29870671    -0.30177421     1.2799878    
      1620   0.58034502     158.5          158.5          158.5          0.10251135     0.31909054    -0.064890735    0.053334264    0.58034502   
      1640   1.1800038      158.5          158.5          158.5          0.26136777     0.65086521    -0.027993055    0.16123114     1.1800038    
      1660   0.88437466     158.5          158.5          158.5         -0.16470799    -0.31362974    -0.11977543    -0.060718808    0.88437466   
      1680   0.96548492     158.5          158.5          158.5         -0.03534724    -0.20259987     0.11984577    -0.023287625    0.96548492   
      1700   0.35187813     158.5          158.5          158.5          0.044703131    0.16125952    -0.11648719     0.089337063    0.35187813   
      1720   1.132204       158.5          158.5          158.5          0.18740164     0.30333005     0.23643863     0.02243624     1.132204     
      1740   0.67410603     158.5          158.5          158.5          0.29239446     0.30834679     0.54000534     0.02883126     0.67410603   
      1760   0.899403       158.5          158.5          158.5         -0.1341942     -0.2264095     -0.17552956    -0.00064355647  0.899403     
      1780   0.36183774     158.5          158.5          158.5         -0.0051593807  -0.088633339   -0.0016973076   0.074852504    0.36183774   
      1800   0.26099546     158.5          158.5          158.5          0.18307757     0.24156876     0.3052474      0.0024165464   0.26099546   
      1820   0.58046254     158.5          158.5          158.5          0.022098502    0.1511105      0.022627802   -0.1074428      0.58046254   
      1840   0.43716613     158.5          158.5          158.5          0.025514938    0.020062697   -0.053678594    0.11016071     0.43716613   
      1860   0.55896428     158.5          158.5          158.5         -0.15427554    -0.29752902    -0.15451291    -0.010784681    0.55896428   
      1880   0.42713903     158.5          158.5          158.5         -0.084614793   -0.051248221   -0.10142115    -0.10117501     0.42713903   
      1900   0.5328037      158.5          158.5          158.5          0.16952565     0.37321449     0.055343302    0.080019174    0.5328037    
      1920   0.17367509     158.5          158.5          158.5         -0.13980981    -0.1611983     -0.096685286   -0.16154585     0.17367509   
      1940   0.7673544      158.5          158.5          158.5         -0.1979204     -0.41395818    -0.18114001     0.0013369746   0.7673544    
      1960   0.47314904     158.5          158.5          158.5          0.0424721      0.033732627   -0.029026738    0.12271041     0.47314904   
      1980   0.76020237     158.5          158.5          158.5          0.022550109    0.20995319     0.074873192   -0.21717606     0.76020237   
      2000   0.41168823     158.5          158.5          158.5          0.18660509     0.31452934     0.15493979     0.090346148    0.41168823   
      2020   0.40040209     158.5          158.5          158.5         -0.054456225   -0.20199758    -0.067215401    0.10584431     0.40040209   
      2040   0.90482685     158.5          158.5          158.5         -0.16841141    -0.29803809    -0.16306034    -0.044135796    0.90482685   
      2060   0.86925962     158.5          158.5          158.5          0.30261865     0.53993381     0.095169334    0.2727528      0.86925962   
      2080   0.81216654     158.5          158.5          158.5          0.20970483     0.39232396     0.1570169      0.079773628    0.81216654   
      2100   0.77709301     158.5          158.5          158.5         -0.0090532831  -0.11333551     0.030738583    0.055437075    0.77709301   
      2120   1.0398791      158.5          158.5          158.5         -0.042211762   -0.095044872   -0.18536039     0.15376998     1.0398791    
      2140   0.17405131     158.5          158.5          158.5         -0.082631416    0.027118159   -0.23558326    -0.039429149    0.17405131   
      2160   1.0815158      158.5          158.5          158.5          0.28551058     0.34834639     0.42706849     0.081116849    1.0815158    
      2180   0.51974981     158.5          158.5          158.5          0.080143568    0.11792743    -0.017166482    0.13966976     0.51974981   
      2200   1.09574        158.5          158.5          158.5         -0.29660556    -0.32369382    -0.38078551    -0.18533734     1.09574      
      2220   0.51408141     158.5          158.5          158.5          0.039375355   -0.098494023    0.30613104    -0.089510953    0.51408141   
      2240   0.27542499     158.5          158.5          158.5          0.029830771    0.012434202    0.025616452    0.051441658    0.27542499   
      2260   0.49533474     158.5          158.5          158.5          0.0047364103   0.11303089    -0.16733076     0.068509099    0.49533474   
      2280   0.46215684     158.5          158.5          158.5          0.015301873   -0.064071787    0.17773661    -0.067759202    0.46215684   
      2300   0.42500437     158.5          158.5          158.5         -0.18934483    -0.27876906    -0.054420005   -0.23484541     0.42500437   
      2320   0.42992829     158.5          158.5          158.5          0.078449739    0.18746398    -0.056272461    0.1041577      0.42992829   
      2340   0.30697139     158.5          158.5          158.5          0.14195068     0.15334403     0.059778041    0.21272997     0.30697139   
      2360   0.13851433     158.5          158.5          158.5         -0.089212065   -0.17020602     0.0050129975  -0.10244318     0.13851433   
      2380   0.54164866     158.5          158.5          158.5         -0.020953225    0.07452094    -0.0041531267  -0.13322749     0.54164866   
      2400   0.26210386     158.5          158.5          158.5         -0.020932274    0.071359345   -0.086225621   -0.047930547    0.26210386   
      2420   0.59798778     158.5          158.5          158.5          0.11361548     0.041825121    0.06656361     0.23245771     0.59798778   
      2440   0.29512177     158.5          158.5          158.5          0.18084823     0.2181778      0.080275793    0.24409111     0.29512177   
      2460   0.39235405     158.5          158.5          158.5         -0.2065718     -0.040365024   -0.13397971    -0.44537066     0.39235405   
      2480   0.4455689      158.5          158.5          158.5         -0.00067615115  0.026597025    0.050894873   -0.079520352    0.4455689    
      2500   0.57029144     158.5          158.5          158.5          0.2072963      0.17552939     0.071600098    0.37475942     0.57029144   
      2520   0.62607593     158.5          158.5          158.5          0.023684784    0.061386787   -0.06404973     0.073717294    0.62607593   
      2540   0.54352009     158.5          158.5          158.5          0.0411865      0.096284389    0.021349719    0.0059253917   0.54352009   
      2560   0.75574265     158.5          158.5          158.5         -0.18075303    -0.157401       0.026396495   -0.41125458     0.75574265   
      2580   0.13840554     158.5          158.5          158.5         -0.050909922   -0.036519371    0.021840269   -0.13805066     0.13840554   
      2600   0.80053352     158.5          158.5          158.5          0.23999867     0.1581332      0.030913619    0.53094919     0.80053352   
      2620   0.64596001     158.5          158.5          158.5         -0.11421808    -0.27690749     0.010127631   -0.075874369    0.64596001   
      2640   0.97783004     158.5          158.5          158.5         -0.18190344    -0.0052825413   0.0042914547  -0.54471924     0.97783004   
      2660   0.51600474     158.5          158.5          158.5         -0.0035271715   0.095238184    0.022422728   -0.12824243     0.51600474   
      2680   0.57898138     158.5          158.5          158.5          0.011434843   -0.23932128     0.038065782    0.23556002     0.57898138   
      2700   0.58136937     158.5          158.5          158.5          0.19629108     0.14977842     0.055635021    0.3834598      0.58136937   
      2720   1.0433675      158.5          158.5          158.5         -0.1268151      0.12365787    -0.035740932   -0.46836224     1.0433675    
      2740   0.58437541     158.5          158.5          158.5         -0.1444986      0.025121216   -0.0032941138  -0.45532289     0.58437541   
      2760   0.98249451     158.5          158.5          158.5          0.30597193     0.195064       0.14642556     0.57642624     0.98249451   
      2780   0.92464462     158.5          158.5          158.5          0.1327475      0.043058693   -0.11439988     0.46958369     0.92464462   
      2800   0.097752833    158.5          158.5          158.5          0.035997245    0.11187828    -0.022859792    0.018973247    0.097752833  
      2820   0.81150807     158.5          158.5          158.5          0.0421606      0.11782527     0.1629843     -0.15432777     0.81150807   
      2840   0.46361226     158.5          158.5          158.5         -0.054880281   -0.0060288487  -0.20191847     0.043306475    0.46361226   
      2860   0.68497461     158.5          158.5          158.5          0.21868368     0.050709005    0.035427738    0.56991429     0.68497461   
      2880   0.44642141     158.5          158.5          158.5          0.051871862    0.028366559    0.15440461    -0.027155587    0.44642141   
      2900   0.30647304     158.5          158.5          158.5         -0.21948632     0.013837053   -0.11717821    -0.55511779     0.30647304   
      2920   0.28187923     158.5          158.5          158.5         -0.026544462    0.025359016    0.00066292768 -0.10565533     0.28187923   
      2940   0.45781857     158.5          158.5          158.5         -0.00703809     0.014840342    0.064010767   -0.099965379    0.45781857   
      2960   0.32270791     158.5          158.5          158.5          0.018374319    0.0090682321   0.070747102   -0.024692376    0.32270791   
      2980   0.4172108      158.5          158.5          158.5         -0.034914586    0.0063761499  -0.022068698   -0.089051211    0.4172108    
      3000   0.46093561     158.5          158.5          158.5         -0.22100893     0.014301607   -0.1260272     -0.5513012      0.46093561   
      3020   0.085273478    158.5          158.5          158.5          0.085528758    0.026291438    0.21341547     0.016879361    0.085273478  
      3040   0.4514097      158.5          158.5          158.5          0.13775137     0.02878223    -0.016106315    0.4005782      0.4514097    
      3060   0.41397916     158.5          158.5          158.5         -0.074107411    0.029078481   -0.17885196    -0.072548752    0.41397916   
      3080   0.80242757     158.5          158.5          158.5          0.044980414    0.048113487    0.211791      -0.12496324     0.80242757   
      3100   0.53338513     158.5          158.5          158.5          0.013182267    0.062191955   -0.19136572     0.16872057     0.53338513   
      3120   0.55279684     158.5          158.5          158.5          0.18960301     0.10072152    -0.10609151     0.57417903     0.55279684   
      3140   0.45911968     158.5          158.5          158.5          0.28043955     0.11575761     0.39427555     0.33128548     0.45911968   
      3160   1.1903995      158.5          158.5          158.5         -0.21460921    -0.012534438   -0.29949515    -0.33179803     1.1903995    
      3180   0.64852825     158.5          158.5          158.5         -0.016629321    0.15569432    -0.19803015    -0.00755213     0.64852825   
      3200   0.83132074     158.5          158.5          158.5          0.20565566     0.0847625      0.32383474     0.20836975     0.83132074   
      3220   1.0445282      158.5          158.5          158.5          0.00087437147 -0.098296916    0.086949668    0.013970362    1.0445282    
      3240   0.37862244     158.5          158.5          158.5          0.016138822    0.1549365     -0.084605732   -0.021914304    0.37862244   
      3260   0.66992053     158.5          158.5          158.5         -0.22468458    -0.091755215   -0.31440863    -0.26788991     0.66992053   
      3280   0.66167645     158.5          158.5          158.5         -0.029458148   -0.14767057     0.085639197   -0.026343075    0.66167645   
      3300   0.88656384     158.5          158.5          158.5          0.22759821     0.1349555      0.30091671     0.24692243     0.88656384   
      3320   0.56715416     158.5          158.5          158.5         -0.10430063    -0.1461409     -0.11128235    -0.055478646    0.56715416   
      3340   0.64311928     158.5          158.5          158.5         -0.10288284    -0.057287899   -0.18687549    -0.064485138    0.64311928   
      3360   0.13827159     158.5          158.5          158.5         -0.020366248    0.041769631   -0.09953651    -0.0033318645   0.13827159   
      3380   0.78694728     158.5          158.5          158.5         -0.019711462   -0.069710792    0.051931524   -0.041355119    0.78694728   
      3400   0.58205754     158.5          158.5          158.5          0.21452371     0.11662863     0.35577752     0.17116498     0.58205754   
      3420   0.39139638     158.5          158.5          158.5         -0.07109068     0.012171533   -0.19085432    -0.034589257    0.39139638   
      3440   0.77029831     158.5          158.5          158.5         -0.14557158     0.040638682   -0.32676121    -0.15059221     0.77029831   
      3460   0.20083431     158.5          158.5          158.5          0.20422163     0.17282491     0.29713289     0.14270708     0.20083431   
      3480   0.47190211     158.5          158.5          158.5          0.081464686   -0.033806882    0.24404906     0.03415188     0.47190211   
      3500   0.55288583     158.5          158.5          158.5          0.016165702    0.17754724    -0.040755914   -0.088294224    0.55288583   
      3520   0.67276983     158.5          158.5          158.5         -0.010013171    0.096505624   -0.1772877      0.050742568    0.67276983   
      3540   0.65922469     158.5          158.5          158.5         -0.051513694   -0.11347257    -0.0576296      0.016561086    0.65922469   
      3560   0.63671835     158.5          158.5          158.5          0.2758304      0.26471931     0.50693498     0.055836914    0.63671835   
      3580   0.20889464     158.5          158.5          158.5          0.042812012    0.15796413     0.0836391     -0.11316719     0.20889464   
      3600   1.6263653      158.5          158.5          158.5         -0.21723683    -0.095227305   -0.58271163     0.026228441    1.6263653    
      3620   0.7912211      158.5          158.5          158.5          0.076132154    0.033228245   -0.020589356    0.21575757     0.7912211    
      3640   1.0834756      158.5          158.5          158.5          0.032263565    0.13631733     0.24293267    -0.28245931     1.0834756    
      3660   1.382912       158.5          158.5          158.5          0.063216679    0.23741476     0.038378539   -0.086143262    1.382912     
      3680   0.67803701     158.5          158.5          158.5         -0.070590374    0.067920196   -0.36509125     0.085399934    0.67803701   
      3700   0.69670981     158.5          158.5          158.5         -0.34952294    -0.2896174     -0.61770155    -0.14124988     0.69670981   
      3720   0.59090785     158.5          158.5          158.5          0.11325289     0.23284544     0.076328663    0.030584565    0.59090785   
      3740   0.78328072     158.5          158.5          158.5          0.14753831     0.28216181     0.19817694    -0.037723811    0.78328072   
      3760   0.66842989     158.5          158.5          158.5         -0.074626616   -0.23785548    -0.011154086    0.02512972     0.66842989   
      3780   0.65005003     158.5          158.5          158.5          0.035425799   -0.0083762162  -0.0015348267   0.11618844     0.65005003   
      3800   0.19826471     158.5          158.5          158.5         -0.022075799    0.069872733   -0.10272169    -0.033378442    0.19826471   
      3820   0.64333359     158.5          158.5          158.5          0.1473816     -0.021333379    0.3415024      0.12197579     0.64333359   
      3840   0.6248872      158.5          158.5          158.5          0.22275772     0.017462161    0.45961522     0.1911958      0.6248872    
      3860   0.55768206     158.5          158.5          158.5         -0.092963297   -0.043882945   -0.22921524    -0.0057917087   0.55768206   
      3880   0.77944394     158.5          158.5          158.5          0.042378107    0.063944398    0.031546929    0.031642994    0.77944394   
      3900   0.43031504     158.5          158.5          158.5          0.12027473    -0.085973721    0.32154796     0.12524994     0.43031504   
      3920   0.26767873     158.5          158.5          158.5          0.019568793    0.0072304168  -0.0082795473   0.05975551     0.26767873   
      3940   0.55220947     158.5          158.5          158.5          0.067970773    0.24718895    -0.061907962    0.018631332    0.55220947   
      3960   0.81698709     158.5          158.5          158.5         -0.22855681    -0.22825961    -0.27413766    -0.18327316     0.81698709   
      3980   0.64401594     158.5          158.5          158.5         -0.07360496     0.031256811   -0.21902625    -0.03304544     0.64401594   
      4000   0.87059409     158.5          158.5          158.5          0.16473229     0.367194      -0.13096419     0.25796705     0.87059409   
      4020   0.1911741      158.5          158.5          158.5         -0.18472352    -0.088436916   -0.3241671     -0.14156653     0.1911741    
      4040   1.047551       158.5          158.5          158.5         -0.14773151    -0.019108076   -0.10438254    -0.3197039      1.047551     
      4060   0.668057       158.5          158.5          158.5          0.012311996    0.16671224    -0.13663116     0.0068549072   0.668057     
      4080   0.7500996      158.5          158.5          158.5          0.030068644    0.041787634   -0.06587443     0.11429273     0.7500996    
      4100   1.1172371      158.5          158.5          158.5          0.25514944     0.077737143    0.37126676     0.31644441     1.1172371    
      4120   0.79612142     158.5          158.5          158.5         -0.090189317    0.032246445   -0.067378871   -0.23543552     0.79612142   
      4140   0.34571736     158.5          158.5          158.5         -0.058635386    0.077067802    0.039535197   -0.29250916     0.34571736   
      4160   0.66838488     158.5          158.5          158.5          0.2723542      0.12578086     0.43585108     0.25543064     0.66838488   
      4180   0.79426049     158.5          158.5          158.5          0.088143598    0.098876317   -0.057105319    0.2226598      0.79426049   
      4200   0.81712336     158.5          158.5          158.5          0.10027782     0.069263898    0.10587158     0.12569798     0.81712336   
      4220   0.79496265     158.5          158.5          158.5         -0.022987573    0.050370893    0.16389632    -0.28322994     0.79496265   
      4240   0.17620726     158.5          158.5          158.5         -0.092753606    0.027412542   -0.090464867   -0.21520849     0.17620726   
      4260   0.59688573     158.5          158.5          158.5          0.2092609      0.063591097    0.067756738    0.49643486     0.59688573   
      4280   0.35831534     158.5          158.5          158.5         -0.022609532   -0.0067047723  -0.026883618   -0.034240205    0.35831534   
      4300   0.41314922     158.5          158.5          158.5         -0.17302877    -0.0077883535  -0.081536616   -0.42976135     0.41314922   
      4320   0.68109919     158.5          158.5          158.5          0.019610009    0.07935628    -0.0044456157  -0.016080635    0.68109919   
      4340   0.40960876     158.5          158.5          158.5         -0.054884518   -0.064946284   -0.11360804     0.013900768    0.40960876   
      4360   0.20297444     158.5          158.5          158.5          0.041472192   -0.014521956    0.0017041925   0.13723434     0.20297444   
      4380   0.37848082     158.5          158.5          158.5         -0.023059851    0.091008736    0.011626884   -0.17181517     0.37848082   
      4400   0.49599544     158.5          158.5          158.5         -0.20166373    -0.024641933   -0.076868937   -0.50348033     0.49599544   
      4420   0.64383505     158.5          158.5          158.5          0.12386177     0.013254227    0.064383072    0.29394801     0.64383505   
      4440   0.71118367     158.5          158.5          158.5          0.10867827    -0.034168678    0.012960531    0.34724295     0.71118367   
      4460   0.17802803     158.5          158.5          158.5         -0.025549816    0.067889056   -0.0016847675  -0.14285374     0.17802803   
      4480   0.89751315     158.5          158.5          158.5          0.016513952    0.19020794     0.047526831   -0.18819291     0.89751315   
      4500   0.7069239      158.5          158.5          158.5         -0.083219625   -0.14184923     0.03373088    -0.14154053     0.7069239    
      4520   0.86567216     158.5          158.5          158.5          0.23860447     0.19583318     0.027894476    0.49208575     0.86567216   
      4540   1.0360104      158.5          158.5          158.5          0.26041948     0.18824113     0.02932084     0.56369646     1.0360104    
      4560   1.2360032      158.5          158.5          158.5         -0.19275354    -0.24516762     0.033774888   -0.36686789     1.2360032    
      4580   0.3502845      158.5          158.5          158.5          0.099641061    0.28652365     0.055936444   -0.043536913    0.3502845    
      4600   0.49939834     158.5          158.5          158.5          0.16849628     0.13120463     0.047400884    0.32688332     0.49939834   
      4620   0.76909529     158.5          158.5          158.5          0.0071483115  -0.19958934    -0.015444651    0.23647892     0.76909529   
      4640   0.85133831     158.5          158.5          158.5          0.076328387    0.22816117     0.028575475   -0.027751487    0.85133831   
      4660   1.0987937      158.5          158.5          158.5         -0.18753993     0.081840264   -0.087782365   -0.55667769     1.0987937    
      4680   0.26172462     158.5          158.5          158.5         -0.028593948   -0.038645862   -0.041451399   -0.0056845831   0.26172462   
      4700   0.54938594     158.5          158.5          158.5          0.13593599     0.13389392     0.032440476    0.24147357     0.54938594   
      4720   0.70207745     158.5          158.5          158.5         -0.15745965     0.091391403   -0.27443515    -0.28933519     0.70207745   
      4740   0.50938701     158.5          158.5          158.5         -0.10251854     0.00070304533 -0.0056251215  -0.30263354     0.50938701   
      4760   0.78529926     158.5          158.5          158.5         -0.024148155   -0.03036588     0.021517381   -0.063595965    0.78529926   
      4780   0.82550795     158.5          158.5          158.5         -0.011822344    0.07917976    -0.21951004     0.10486325     0.82550795   
      4800   0.17492312     158.5          158.5          158.5          0.17189857     0.19389603     0.11777836     0.20402133     0.17492312   
      4820   0.53839113     158.5          158.5          158.5         -0.14354745    -0.13367845     0.0092508912  -0.3062148      0.53839113   
      4840   0.44083203     158.5          158.5          158.5         -0.057708554   -0.032176478   -0.030405969   -0.11054322     0.44083203   
      4860   0.71426419     158.5          158.5          158.5          0.27044299     0.24939261     0.25407356     0.3078628      0.71426419   
      4880   1.0603853      158.5          158.5          158.5          0.091706035    0.16583306     0.18971031    -0.080425272    1.0603853    
      4900   0.24647904     158.5          158.5          158.5          0.1204862      0.1095674      0.24624404     0.0056471557   0.24647904   
      4920   0.66518445     158.5          158.5          158.5          0.010468875   -0.034326651    0.046530777    0.0192025      0.66518445   
      4940   0.62173532     158.5          158.5          158.5         -0.081134959    0.0085964238  -0.0089279566  -0.24307334     0.62173532   
      4960   0.60385392     158.5          158.5          158.5          0.27112805     0.34111594     0.23812932     0.23413888     0.60385392   
      4980   0.72800471     158.5          158.5          158.5          0.01530367    -0.028094688   -0.077734185    0.15173988     0.72800471   
      5000   0.96325429     158.5          158.5          158.5         -0.21165349    -0.24182386    -0.21785185    -0.17528478     0.96325429   
      5020   0.38822315     158.5          158.5          158.5         -0.0010043474   0.025320262   -0.049837525    0.021504221    0.38822315   
      5040   0.52646057     158.5          158.5          158.5         -0.071910863   -0.12470288    -0.14868353     0.057653822    0.52646057   
      5060   0.44940037     158.5          158.5          158.5          0.038051754   -0.03654742     0.0069404896   0.14376219     0.44940037   
      5080   0.8728052      158.5          158.5          158.5         -0.083267445   -0.16181579    -0.0073289985  -0.080657549    0.8728052    
      5100   1.0536465      158.5          158.5          158.5         -0.23764263    -0.38433387    -0.23486052    -0.093733501    1.0536465    
      5120   0.42372448     158.5          158.5          158.5          0.17178508     0.10432029     0.12395907     0.28707589     0.42372448   
      5140   0.55558904     158.5          158.5          158.5          0.06378708     0.24097646     0.091534372   -0.14114959     0.55558904   
      5160   0.64693754     158.5          158.5          158.5         -0.0642708     -0.033971871   -0.079075776   -0.079764753    0.64693754   
      5180   0.58869935     158.5          158.5          158.5          0.10584388     0.032338964    0.042933242    0.24225945     0.58869935   
      5200   0.78021868     158.5          158.5          158.5          0.0018585243   0.22183528    -0.092865239   -0.12339447     0.78021868   
      5220   1.0354872      158.5          158.5          158.5          0.23075181     0.58155331     0.13889861    -0.02819649     1.0354872    
      5240   0.36080888     158.5          158.5          158.5          0.19820436     0.23150468     0.23276699     0.1303414      0.36080888   
      5260   0.49532182     158.5          158.5          158.5         -0.17239845    -0.21612382    -0.29993001    -0.0011415185   0.49532182   
      5280   0.40350898     158.5          158.5          158.5          0.050598229    0.20627461    -0.10196144     0.047481517    0.40350898   
      5300   0.54051536     158.5          158.5          158.5          0.098596751    0.10393632     0.1829967      0.0088572378   0.54051536   
      5320   0.89837306     158.5          158.5          158.5          0.018140997   -0.0021599542   0.06226265    -0.0056797035   0.89837306   
      5340   0.47316895     158.5          158.5          158.5          0.028238239    0.088919159   -0.048157146    0.043952704    0.47316895   
      5360   0.48216762     158.5          158.5          158.5         -0.22588828    -0.47235016    -0.19849793    -0.0068167483   0.48216762   
      5380   0.51541727     158.5          158.5          158.5         -0.0095050525  -0.22984767     0.19665275     0.0046797636   0.51541727   
      5400   0.43296103     158.5          158.5          158.5          0.1205141      0.25057899     0.090915217    0.020048103    0.43296103   
      5420   0.52054331     158.5          158.5          158.5         -0.13126244    -0.19904088    -0.1873455     -0.0074009539   0.52054331   
      5440   0.97698861     158.5          158.5          158.5         -0.049279356   -0.31088511     0.17097765    -0.0079306025   0.97698861   
      5460   0.29315624     158.5          158.5          158.5         -0.048957401   -0.086497178   -0.045538416   -0.014836608    0.29315624   
      5480   0.45663747     158.5          158.5          158.5          0.0017092566   0.15289975    -0.16631263     0.018540646    0.45663747   
      5500   0.36729357     158.5          158.5          158.5          0.20954326     0.18975549     0.29993744     0.13893683     0.36729357   
      5520   0.71061761     158.5          158.5          158.5         -0.11344361    -0.13394769    -0.12040425    -0.085978896    0.71061761   
      5540   1.2325082      158.5          158.5          158.5         -0.027215116    0.28741657    -0.20076508    -0.16829684     1.2325082    
      5560   0.59517198     158.5          158.5          158.5          0.27377662     0.4416653      0.19460266     0.18506189     0.59517198   
      5580   0.78570904     158.5          158.5          158.5          0.076297975    0.01928959     0.081220131    0.1283842      0.78570904   
      5600   1.0900727      158.5          158.5          158.5          0.051742867    0.40619019    -0.072208405   -0.17875319     1.0900727    
      5620   0.486098       158.5          158.5          158.5         -0.011626501    0.13959792    -0.022754559   -0.15172286     0.486098     
      5640   0.82884509     158.5          158.5          158.5         -0.0063844567  -0.078711293   -0.010775104    0.070333026    0.82884509   
      5660   1.4007266      158.5          158.5          158.5          0.28967513     0.46162425     0.12736932     0.28003181     1.4007266    
      5680   0.68401676     158.5          158.5          158.5         -0.040572028    0.050373378    0.029305945   -0.20139541     0.68401676   
      5700   0.7203467      158.5          158.5          158.5         -0.12758024    -0.23567142    -0.060840011   -0.0862293      0.7203467    
      5720   0.20864557     158.5          158.5          158.5          0.054340276    0.041301615    0.03898532     0.082733894    0.20864557   
      5740   0.44464784     158.5          158.5          158.5         -0.088309022   -0.029130334   -0.041215512   -0.19458122     0.44464784   
      5760   0.74332955     158.5          158.5          158.5          0.044228123   -0.053763826   -0.052275559    0.23872375     0.74332955   
      5780   0.4773617      158.5          158.5          158.5         -0.042301272   -0.1431787     -0.052357713    0.068632594    0.4773617    
      5800   0.48059215     158.5          158.5          158.5         -0.21195659    -0.13232591    -0.073358131   -0.43018573     0.48059215   
      5820   0.42767606     158.5          158.5          158.5          0.084619898    0.063903819    0.045346958    0.14460892     0.42767606   
      5840   0.20543237     158.5          158.5          158.5          0.037621193   -0.036928292   -0.052744043    0.20253592     0.20543237   
      5860   0.32741737     158.5          158.5          158.5         -0.053275212    0.015732799   -0.022108942   -0.15344949     0.32741737   
      5880   0.71766916     158.5          158.5          158.5          0.056536775    0.084747297    0.13359591    -0.048732883    0.71766916   
      5900   0.4586348      158.5          158.5          158.5         -0.029783421    0.017899503   -0.064375675   -0.042874092    0.4586348    
      5920   0.41883489     158.5          158.5          158.5          0.17503561     0.16861251     0.046545944    0.30994839     0.41883489   
      5940   0.24666124     158.5          158.5          158.5          0.14234227     0.16056831     0.094248583    0.17220991     0.24666124   
      5960   0.4555597      158.5          158.5          158.5         -0.12252329    -0.060187133   -0.010283927   -0.29709881     0.4555597    
      5980   0.84217891     158.5          158.5          158.5          0.12464617     0.055926119    0.1961233      0.12188909     0.84217891   
      6000   0.69058696     158.5          158.5          158.5          0.089734758    0.10582552    -0.098111278    0.26149003     0.69058696   
      6020   0.44709914     158.5          158.5          158.5          0.034949497    0.050840694   -0.089041182    0.14304898     0.44709914   
      6040   0.78218977     158.5          158.5          158.5          0.073145157    0.045469088    0.23118281    -0.057216428    0.78218977   
      6060   0.452133       158.5          158.5          158.5         -0.24983462    -0.0058586158  -0.1707642     -0.57288104     0.452133     
      6080   0.36832536     158.5          158.5          158.5         -0.011236098    0.060859882   -0.014760335   -0.079807842    0.36832536   
      6100   1.1833656      158.5          158.5          158.5          0.10296692     0.10918518     0.12653119     0.073184406    1.1833656    
      6120   0.70128067     158.5          158.5          158.5         -0.18711207     0.0042073607  -0.20419525    -0.36134832     0.70128067   
      6140   0.75048551     158.5          158.5          158.5         -0.04548829     0.047841522    0.071682362   -0.25598875     0.75048551   
      6160   0.3725405      158.5          158.5          158.5         -0.043679126    0.11997533     0.095418285   -0.34643099     0.3725405    
      6180   0.28875287     158.5          158.5          158.5         -0.010062728    0.023166662   -0.069547369    0.016192523    0.28875287   
      6200   1.0812559      158.5          158.5          158.5          0.18711933     0.032810927    0.053150015    0.47539704     1.0812559    
      6220   0.90686799     158.5          158.5          158.5         -0.083163954    0.03035041     0.010624069   -0.29046634     0.90686799   
      6240   0.52894288     158.5          158.5          158.5          0.05490583     0.15821742     0.02817942    -0.021679346    0.52894288   
      6260   0.88318408     158.5          158.5          158.5          0.17560544     0.085597288   -0.039549207    0.48076825     0.88318408   
      6280   0.40607735     158.5          158.5          158.5          0.02567027    -0.069077917    0.016803671    0.12928506     0.40607735   
      6300   0.36994829     158.5          158.5          158.5          0.13393383     0.19284814     0.094796746    0.11415661     0.36994829   
      6320   0.9415811      158.5          158.5          158.5         -0.016242779    0.076576916   -0.095729285   -0.029575969    0.9415811    
      6340   0.56255364     158.5          158.5          158.5         -0.026333908   -0.062285808   -0.04664912     0.029933205    0.56255364   
      6360   0.61809077     158.5          158.5          158.5          0.21480205     0.15579285     0.15256909     0.33604421     0.61809077   
      6380   0.28550216     158.5          158.5          158.5         -0.073944298   -0.097657687   -0.020212356   -0.10396285     0.28550216   
      6400   0.20615468     158.5          158.5          158.5         -0.1348        -0.028742543   -0.11063248    -0.26502497     0.20615468   
      6420   0.53908626     158.5          158.5          158.5          0.0095771809   0.082297516   -0.026123282   -0.027442691    0.53908626   
      6440   0.58423711     158.5          158.5          158.5         -0.066448632   -0.17992205    -0.010005162   -0.0094186798   0.58423711   
      6460   0.34115359     158.5          158.5          158.5          0.061812601    0.018596056    0.036483636    0.13035811     0.34115359   
      6480   0.41450499     158.5          158.5          158.5         -0.058920192    0.011154418   -0.091123018   -0.096791975    0.41450499   
      6500   0.32652255     158.5          158.5          158.5         -0.16981914    -0.10965341    -0.1700196     -0.22978442     0.32652255   
      6520   0.22803609     158.5          158.5          158.5          0.10219115     0.085295719    0.12734663     0.093931104    0.22803609   
      6540   0.65644994     158.5          158.5          158.5          0.039304631   -0.049202562    0.065762854    0.1013536      0.65644994   
      6560   0.56553019     158.5          158.5          158.5          0.006126249    0.023204546   -0.088412738    0.083586939    0.56553019   
      6580   0.55162817     158.5          158.5          158.5          0.045813151    0.18509954     0.068081157   -0.11574124     0.55162817   
      6600   0.45733527     158.5          158.5          158.5         -0.0882198      0.0035391257   0.0052978957  -0.27349642     0.45733527   
      6620   0.3635792      158.5          158.5          158.5          0.22994605     0.086749447    0.19571997     0.40736874     0.3635792    
      6640   0.97297858     158.5          158.5          158.5          0.17124523     0.19118351     0.29095554     0.031596637    0.97297858   
      6660   1.4360336      158.5          158.5          158.5         -0.10716495     0.12063647     0.072576039   -0.51470736     1.4360336    
      6680   0.59102738     158.5          158.5          158.5          0.19175097     0.092249467    0.17518891     0.30781453     0.59102738   
      6700   1.110637       158.5          158.5          158.5          0.048750947    0.052105805    0.037345598    0.056801439    1.110637     
      6720   0.86200452     158.5          158.5          158.5         -0.016411373    0.11144282     0.10498122    -0.26565815     0.86200452   
      6740   0.18263494     158.5          158.5          158.5          0.11910384     0.088635676    0.0085095313   0.26016632     0.18263494   
      6760   1.0584141      158.5          158.5          158.5         -0.21952984    -0.021681247   -0.57839978    -0.058508482    1.0584141    
      6780   0.83381728     158.5          158.5          158.5          0.0088739271   0.025085717    0.049794533   -0.048258469    0.83381728   
      6800   0.7328746      158.5          158.5          158.5          0.10347457     0.079405757    0.15870055     0.072317413    0.7328746    
      6820   0.63116308     158.5          158.5          158.5         -0.14846818     0.043148846   -0.50487244     0.016319067    0.63116308   
      6840   0.21614237     158.5          158.5          158.5         -0.031080054    0.043294122   -0.19285827     0.056323991    0.21614237   
      6860   0.56176454     158.5          158.5          158.5         -0.10830217    -0.11808796    -0.16079479    -0.046023757    0.56176454   
      6880   0.80227788     158.5          158.5          158.5          0.0014980728   0.072912646   -0.1008736      0.032455171    0.80227788   
      6900   0.44935045     158.5          158.5          158.5          0.21117748     0.26712148     0.28302642     0.08338453     0.44935045   
      6920   0.72464211     158.5          158.5          158.5         -0.14489433    -0.25617148    -0.10389988    -0.074611623    0.72464211   
      6940   0.54003924     158.5          158.5          158.5         -0.0034230233   0.020869817   -0.056834144    0.025695257    0.54003924   
      6960   0.099389674    158.5          158.5          158.5          0.1931057      0.20363361     0.31215257     0.063530909    0.099389674  
      6980   0.7508266      158.5          158.5          158.5          0.037428866   -0.25631659     0.36885077    -0.00024758297  0.7508266    
      7000   0.68521572     158.5          158.5          158.5          0.18284251     0.13030171     0.39807769     0.020148117    0.68521572   
      7020   0.79509372     158.5          158.5          158.5         -0.015829581    0.069524589   -0.14578403     0.028770701    0.79509372   
      7040   0.64613577     158.5          158.5          158.5         -0.056707932   -0.24990042     0.035594265    0.044182356    0.64613577   
      7060   0.27685048     158.5          158.5          158.5          0.29339151     0.28619141     0.4933103      0.10067283     0.27685048   
      7080   1.3674128      158.5          158.5          158.5         -0.096848198    0.10001914    -0.43792474     0.047361006    1.3674128    
      7100   1.943456       158.5          158.5          158.5         -0.078635955    0.067606853   -0.28321156    -0.020303157    1.943456     
      7120   0.81322992     158.5          158.5          158.5          0.010951215    0.074779609   -0.061323084    0.019397119    0.81322992   
      7140   1.9340926      158.5          158.5          158.5         -0.13705241     0.043325382   -0.5419624      0.087479791    1.9340926    
      7160   1.4793661      158.5          158.5          158.5          0.14069058     0.1872027     -0.010749961    0.24561901     1.4793661    
      7180   0.27343932     158.5          158.5          158.5         -0.090519413    0.012485402   -0.12926102    -0.15478262     0.27343932   
      7200   0.6214028      158.5          158.5          158.5         -0.19736507    -0.034023963   -0.42468247    -0.13338879     0.6214028    
      7220   0.6376352      158.5          158.5          158.5          0.13468255     0.084333074   -0.024393227    0.3441078      0.6376352    
      7240   0.88915068     158.5          158.5          158.5         -0.019278186    0.083794155    0.046783127   -0.18841184     0.88915068   
      7260   0.86923825     158.5          158.5          158.5          0.048494543    0.071104701    0.12356424    -0.049185313    0.86923825   
      7280   0.33008402     158.5          158.5          158.5          0.12168517     0.040601983    0.071002856    0.25345067     0.33008402   
      7300   0.53117251     158.5          158.5          158.5         -0.087320451    0.060733328    0.038577891   -0.36127257     0.53117251   
      7320   0.73804295     158.5          158.5          158.5          0.17046919     0.17314995     0.33664209     0.0016155397   0.73804295   
      7340   0.42843569     158.5          158.5          158.5          0.14483866     0.088545525    0.05742528     0.28854519     0.42843569   
      7360   0.81063601     158.5          158.5          158.5         -0.044936083    0.048675143   -0.046811565   -0.13667183     0.81063601   
      7380   0.91752375     158.5          158.5          158.5          0.077056227    0.1690103      0.20225849    -0.1401001      0.91752375   
      7400   0.17706567     158.5          158.5          158.5         -0.013923986   -0.019406754   -0.05454765     0.032182445    0.17706567   
      7420   0.4353922      158.5          158.5          158.5          0.031966725   -0.019246533   -0.01880819     0.1339549      0.4353922    
      7440   0.57314265     158.5          158.5          158.5          0.061078635    0.14336749     0.019195203    0.02067321     0.57314265   
      7460   0.88121916     158.5          158.5          158.5         -0.21199302    -0.16959912    -0.12761082    -0.33876912     0.88121916   
      7480   1.1491135      158.5          158.5          158.5          0.051511905    0.022690486   -0.019861854    0.15170708     1.1491135    
      7500   0.40347667     158.5          158.5          158.5          0.076487357    0.035171798    0.030580472    0.1637098      0.40347667   
      7520   0.64336956     158.5          158.5          158.5         -0.17244079    -0.21118404    -0.012052754   -0.29408559     0.64336956   
      7540   1.3196334      158.5          158.5          158.5          0.0058333286   0.16803879     0.011542698   -0.1620815      1.3196334    
      7560   0.4540823      158.5          158.5          158.5         -0.093234975   -0.016604333   -0.00016714773 -0.26293344     0.4540823    
      7580   1.4381784      158.5          158.5          158.5          0.0069217389  -0.044306838    0.031138471    0.033933584    1.4381784    
      7600   1.5426486      158.5          158.5          158.5          0.25579309     0.22699589     0.12229538     0.41808799     1.5426486    
      7620   0.51052295     158.5          158.5          158.5         -0.094497194   -0.011774376   -0.011051215   -0.26066599     0.51052295   
      7640   0.65970788     158.5          158.5          158.5          0.031484275    0.088042531   -0.0046560479   0.011066343    0.65970788   
      7660   0.35160615     158.5          158.5          158.5          0.14607562     0.11520005     0.092449624    0.23057719     0.35160615   
      7680   0.75571466     158.5          158.5          158.5          0.016395417    0.039690565   -0.068645045    0.078140731    0.75571466   
      7700   0.98159628     158.5          158.5          158.5          0.15031086     0.056023774    0.033393509    0.3615153      0.98159628   
      7720   0.32957165     158.5          158.5          158.5         -0.00056127904  0.01786496     0.0080678748  -0.027616672    0.32957165   
      7740   0.35725149     158.5          158.5          158.5         -0.045016679    0.03084218     0.025491257   -0.19138347     0.35725149   
      7760   0.47327271     158.5          158.5          158.5          0.12591579     0.054724171    0.072926608    0.25009659     0.47327271   
      7780   0.28655075     158.5          158.5          158.5         -0.069353503   -0.0059400692  -0.14712583    -0.054994613    0.28655075   
      7800   0.61313773     158.5          158.5          158.5          0.0011654683   0.022793862    0.061320776   -0.080618233    0.61313773   
      7820   0.68367962     158.5          158.5          158.5          0.017161242    0.014242811    0.078902823   -0.041661908    0.68367962   
      7840   0.31292394     158.5          158.5          158.5         -0.14386489     0.0046751504  -0.21983648    -0.21643334     0.31292394   
      7860   0.35361748     158.5          158.5          158.5          0.059482125    0.068117299    0.039798905    0.070530171    0.35361748   
      7880   0.38850467     158.5          158.5          158.5         -0.07199435     0.029570615   -0.046360954   -0.19919271     0.38850467   
      7900   0.67231415     158.5          158.5          158.5         -0.16404158     0.02211238    -0.14107536    -0.37316177     0.67231415   
      7920   1.1106436      158.5          158.5          158.5          0.14101127     0.072171666    0.15573838     0.19512376     1.1106436    
      7940   0.59903011     158.5          158.5          158.5          0.0040931453   0.014579963   -0.11062249     0.10832196     0.59903011   
      7960   0.39067649     158.5          158.5          158.5          0.014410823    0.10040246     0.0048336069  -0.0620036      0.39067649   
      7980   1.0512236      158.5          158.5          158.5          0.078242845    0.1262883      0.18473802    -0.076297793    1.0512236    
      8000   0.59924932     158.5          158.5          158.5         -0.053765758    0.049528323   -0.086019259   -0.12480634     0.59924932   
      8020   0.89704242     158.5          158.5          158.5          0.25447723     0.23773327     0.18801501     0.3376834      0.89704242   
      8040   1.4063657      158.5          158.5          158.5          0.10408098     0.22746488     0.1494107     -0.064632642    1.4063657    
      8060   0.68080468     158.5          158.5          158.5         -0.038784722    0.039309957   -0.099958453   -0.055705669    0.68080468   
      8080   0.48289823     158.5          158.5          158.5          0.15212063     0.19586154     0.09891399     0.16158637     0.48289823   
      8100   0.41393111     158.5          158.5          158.5         -0.048753347    0.1196902      0.059039722   -0.32498997     0.41393111   
      8120   0.55585832     158.5          158.5          158.5          0.050801243    0.0049009924   0.036979418    0.11052332     0.55585832   
      8140   1.2675684      158.5          158.5          158.5          0.10605859     0.032607592    0.013208806    0.27235938     1.2675684    
      8160   0.72076395     158.5          158.5          158.5         -0.18740898    -0.14157885    -0.10297142    -0.31767666     0.72076395   
      8180   0.52076786     158.5          158.5          158.5          0.0096415408  -0.070231555   -0.00028645998  0.099442637    0.52076786   
      8200   0.89862852     158.5          158.5          158.5         -0.041176848   -0.28490343     0.004882544    0.15649034     0.89862852   
      8220   0.28046328     158.5          158.5          158.5         -0.13453257    -0.22431034    -0.060744651   -0.11854273     0.28046328   
      8240   0.66904186     158.5          158.5          158.5          0.058662866    0.13410964     0.043197173   -0.0013182193   0.66904186   
      8260   1.1123195      158.5          158.5          158.5         -0.071853485   -0.24894459     0.012660531    0.0207236      1.1123195    
      8280   0.51234258     158.5          158.5          158.5          0.0013156732  -0.0011515718  -0.0037825114   0.0088811028   0.51234258   
      8300   0.567778       158.5          158.5          158.5          0.14364495     0.39387462     0.0079102651   0.029149957    0.567778     
      8320   0.30282303     158.5          158.5          158.5         -0.068700715   -0.12682934    -0.046135129   -0.033137673    0.30282303   
      8340   0.46658213     158.5          158.5          158.5          0.087625367    0.12865791     0.097839098    0.036379094    0.46658213   
      8360   1.1818389      158.5          158.5          158.5          0.092207041    0.4440179     -0.2001523      0.03275553     1.1818389    
      8380   0.66000301     158.5          158.5          158.5          0.038475443    0.12629646    -0.020162727    0.0092925972   0.66000301   
      8400   0.61841266     158.5          158.5          158.5          0.18401679     0.20739955     0.32587579     0.018775023    0.61841266   
      8420   0.97111455     158.5          158.5          158.5         -0.055116428    0.14589119    -0.32819444     0.016953966    0.97111455   
      8440   0.20565241     158.5          158.5          158.5         -0.025291398    0.10398283    -0.22167287     0.041815848    0.20565241   
      8460   0.66864902     158.5          158.5          158.5          0.20004087     0.12314165     0.43181263     0.045168337    0.66864902   
      8480   1.1478649      158.5          158.5          158.5         -0.088511853   -0.079277977   -0.1949342      0.0086766122   1.1478649    
      8500   0.88602642     158.5          158.5          158.5         -0.038568423    0.067349818   -0.1752972     -0.0077578889   0.88602642   
      8520   0.93293389     158.5          158.5          158.5          0.0056923848  -0.23676251     0.21165969     0.042179977    0.93293389   
      8540   0.33237352     158.5          158.5          158.5         -0.13876159    -0.37353656    -0.052793452    0.010045247    0.33237352   
      8560   0.82806726     158.5          158.5          158.5          0.083087791    0.18082795    -0.012935792    0.081371219    0.82806726   
      8580   1.732634       158.5          158.5          158.5         -0.057318829   -0.17483849     0.013836323   -0.010954315    1.732634     
      8600   0.81075631     158.5          158.5          158.5         -0.095347903   -0.25601625    -0.022696999   -0.0073304621   0.81075631   
      8620   1.083871       158.5          158.5          158.5          0.16255715     0.30482478     0.10357367     0.079273003    1.083871     
      8640   1.3238647      158.5          158.5          158.5         -0.070711184    0.0091929728  -0.058462003   -0.16286452     1.3238647    
      8660   0.23131841     158.5          158.5          158.5          0.078474821    0.013201171    0.029231455    0.19299184     0.23131841   
      8680   0.38255456     158.5          158.5          158.5          0.10297616     0.20240262     0.072200219    0.034325642    0.38255456   
      8700   0.79346867     158.5          158.5          158.5         -0.10668851    -0.0083402802  -0.002120568   -0.30960467     0.79346867   
      8720   0.56462659     158.5          158.5          158.5          0.16630549     0.12808769     0.10181775     0.26901104     0.56462659   
      8740   0.66934573     158.5          158.5          158.5          0.080360293    0.13206849     0.092843142    0.016169246    0.66934573   
      8760   0.35466426     158.5          158.5          158.5         -0.046450525    0.069268224    0.071007364   -0.27962716     0.35466426   
      8780   0.19414428     158.5          158.5          158.5          0.12425056     0.10679258     0.079169166    0.18678993     0.19414428   
      8800   0.74270025     158.5          158.5          158.5         -0.059673325   -0.054271415   -0.10208462    -0.022663941    0.74270025   
      8820   0.50057337     158.5          158.5          158.5          0.0096224216   0.057597685    0.064400069   -0.093130489    0.50057337   
      8840   0.49322468     158.5          158.5          158.5          0.096516695    0.070358875    0.046709789    0.17248142     0.49322468   
      8860   0.95210089     158.5          158.5          158.5         -0.174407      -0.1952585     -0.23271371    -0.095248791    0.95210089   
      8880   0.24029592     158.5          158.5          158.5          0.021373912    0.0096621632   0.036914506    0.017545068    0.24029592   
      8900   0.33965972     158.5          158.5          158.5         -0.026484286    0.01323899    -0.076523034   -0.016168816    0.33965972   
      8920   1.0611045      158.5          158.5          158.5         -0.1120346     -0.075167865   -0.2667141      0.0057781558   1.0611045    
      8940   0.81410951     158.5          158.5          158.5          0.11647456     0.15772064     0.10536278     0.086340276    0.81410951   
      8960   1.2721632      158.5          158.5          158.5         -0.10367638    -0.048065969   -0.12403778    -0.13892539     1.2721632    
      8980   0.59403723     158.5          158.5          158.5          0.035204916    0.10866516    -0.053734058    0.050683641    0.59403723   
      9000   0.26833787     158.5          158.5          158.5          0.18011226     0.23342077     0.15850453     0.14841148     0.26833787   
      9020   1.6001226      158.5          158.5          158.5         -0.18663715    -0.20807277    -0.12870573    -0.22313295     1.6001226    
      9040   0.78011294     158.5          158.5          158.5          0.15869623     0.17205062     0.17183201     0.13220605     0.78011294   
      9060   0.78361929     158.5          158.5          158.5          0.17734106     0.21551714     0.13942722     0.17707881     0.78361929   
      9080   1.4776949      158.5          158.5          158.5         -0.025303618   -0.13411152    -0.060935677    0.11913635     1.4776949    
      9100   0.36331976     158.5          158.5          158.5          0.1884849      0.12603913     0.13805659     0.30135899     0.36331976   
      9120   0.35287322     158.5          158.5          158.5         -0.013405406    0.076051654    0.024034754   -0.14030262     0.35287322   
      9140   0.66373717     158.5          158.5          158.5         -0.020848707   -0.069603975   -0.02190486     0.028962715    0.66373717   
      9160   0.46628906     158.5          158.5          158.5          0.12978123     0.094324495    0.045909668    0.24910954     0.46628906   
      9180   0.82710003     158.5          158.5          158.5         -0.09277708     0.0042997106  -0.0039414445  -0.27868951     0.82710003   
      9200   0.4387049      158.5          158.5          158.5          0.015280996    0.076735365    0.022644309   -0.053536687    0.4387049    
      9220   0.11375503     158.5          158.5          158.5         -0.031992603   -0.024610005    0.011595612   -0.082963416    0.11375503   
      9240   0.74088405     158.5          158.5          158.5         -0.14181446    -0.021613543    0.017746105   -0.42157595     0.74088405   
      9260   0.59330602     158.5          158.5          158.5          0.085396294    0.20964722     0.025595049    0.020946615    0.59330602   
      9280   0.4971732      158.5          158.5          158.5         -0.058905412   -0.13399218    -0.0044301713  -0.038293883    0.4971732    
      9300   0.88697051     158.5          158.5          158.5         -0.083294849   -0.015567035   -0.0050085276  -0.22930898     0.88697051   
      9320   0.42279348     158.5          158.5          158.5          0.094284202    0.29281867     0.026137538   -0.036103606    0.42279348   
      9340   0.25711969     158.5          158.5          158.5         -0.10956796    -0.19190482     0.027621707   -0.16442076     0.25711969   
      9360   0.75646793     158.5          158.5          158.5          0.063546427    0.026514241    0.039474231    0.12465081     0.75646793   
      9380   0.70122732     158.5          158.5          158.5          0.15161213     0.22981027     0.058703227    0.1663229      0.70122732   
      9400   1.083792       158.5          158.5          158.5         -0.045033697   -0.11465825     0.045330135   -0.065772978    1.083792     
      9420   0.82956436     158.5          158.5          158.5          0.21197313     0.12233529     0.15379198     0.35979211     0.82956436   
      9440   0.16605177     158.5          158.5          158.5          0.058996519    0.098462197    0.021974831    0.056552527    0.16605177   
      9460   1.1935206      158.5          158.5          158.5         -0.063660978    0.028941732   -0.043525353   -0.17639931     1.1935206    
      9480   1.1306475      158.5          158.5          158.5          0.17776499     0.14840465     0.27279325     0.11209708     1.1306475    
      9500   0.53696204     158.5          158.5          158.5          0.0046191431   0.04640721    -0.1047875      0.072237714    0.53696204   
      9520   1.4123636      158.5          158.5          158.5          0.0054908552   0.038327213   -0.075715591    0.053860944    1.4123636    
      9540   0.79093814     158.5          158.5          158.5          0.030744667    0.059128165    0.11258213    -0.079476299    0.79093814   
      9560   0.22831528     158.5          158.5          158.5         -0.16731393     0.052008451   -0.27924427    -0.27470598     0.22831528   
      9580   0.73153298     158.5          158.5          158.5          0.090436132    0.05475734    -0.080611759    0.29716282     0.73153298   
      9600   0.50465188     158.5          158.5          158.5         -0.03330147     0.049732097   -0.045007259   -0.10462925     0.50465188   
      9620   0.80589774     158.5          158.5          158.5         -0.1263062      0.018741105   -0.17303336    -0.22462636     0.80589774   
      9640   0.68797008     158.5          158.5          158.5          0.089697189    0.035535755   -0.063196431    0.29675224     0.68797008   
      9660   0.078331516    158.5          158.5          158.5         -0.087560362    0.028535438   -0.19565331    -0.09556321     0.078331516  
      9680   0.50273669     158.5          158.5          158.5         -0.032762783    0.0087627425   0.068127417   -0.17517851     0.50273669   
      9700   0.49651015     158.5          158.5          158.5          0.1085823      0.035570499    0.10338659     0.18678981     0.49651015   
      9720   0.33372939     158.5          158.5          158.5         -0.053395104    0.0022682293  -0.089081796   -0.073371745    0.33372939   
      9740   0.75452234     158.5          158.5          158.5          0.11013969     0.018713043    0.32868149    -0.016975463    0.75452234   
      9760   0.36286056     158.5          158.5          158.5          0.062751263    0.032012811    0.13384934     0.022391635    0.36286056   
      9780   0.16616197     158.5          158.5          158.5         -0.034270069    0.019168016   -0.11598514    -0.0059930852   0.16616197   
      9800   0.5999325      158.5          158.5          158.5          0.13743921     0.037387377    0.37539715    -0.00046689077  0.5999325    
      9820   0.51885599     158.5          158.5          158.5         -0.020751127   -0.02509762     0.047277669   -0.08443343     0.51885599   
      9840   1.0811512      158.5          158.5          158.5          0.035256124    0.10982506    -0.12934429     0.12528761     1.0811512    
      9860   1.0936457      158.5          158.5          158.5          0.14917555     0.11377435     0.23065003     0.10310228     1.0936457    
      9880   0.34421065     158.5          158.5          158.5         -0.18469665    -0.2230432     -0.20638883    -0.12465793     0.34421065   
      9900   1.3022008      158.5          158.5          158.5          0.082839268    0.32392765    -0.11595164     0.040541798    1.3022008    
      9920   1.1457574      158.5          158.5          158.5          0.041774799    0.11907168    -0.057615695    0.06386841     1.1457574    
      9940   0.52607169     158.5          158.5          158.5         -0.13832119    -0.23933031    -0.20068929     0.025056035    0.52607169   
      9960   1.4328168      158.5          158.5          158.5          0.076389894    0.37160732    -0.15485189     0.012414253    1.4328168    
      9980   1.0898032      158.5          158.5          158.5         -0.14843918     0.049751141   -0.44972478    -0.045343902    1.0898032    
     10000   0.37363773     158.5          158.5          158.5         -0.044140845   -0.13561646    -0.042304806    0.045498729    0.37363773   
     10020   0.55046688     158.5          158.5          158.5          0.14159043     0.18280623     0.16023793     0.081727129    0.55046688   
     10040   0.42885329     158.5          158.5          158.5         -0.099145463    0.024006074   -0.30629881    -0.015143648    0.42885329   
     10060   0.77458613     158.5          158.5          158.5          0.04757735    -0.025888015    0.1403808      0.028239263    0.77458613   
     10080   0.79923159     158.5          158.5          158.5          0.082710436    0.016401008    0.21732873     0.014401567    0.79923159   
     10100   0.29116831     158.5          158.5          158.5          0.02095513     0.080306756   -0.020841417    0.0034000528   0.29116831   
     10120   0.57382531     158.5          158.5          158.5          0.15785392     0.074244768    0.2686724      0.13064459     0.57382531   
     10140   0.64056622     158.5          158.5          158.5         -0.056785741   -0.092957016   -0.0019833116  -0.075416896    0.64056622   
     10160   0.23494015     158.5          158.5          158.5          0.010676277    0.034227587   -0.035037864    0.032839108    0.23494015   
     10180   0.84271602     158.5          158.5          158.5          0.17923402     0.11592004     0.26322955     0.15855248     0.84271602   
     10200   0.75536752     158.5          158.5          158.5         -0.059342174   -0.021647833    0.054395415   -0.2107741      0.75536752   
     10220   0.15410925     158.5          158.5          158.5          0.034080935    0.039693235   -0.01554364     0.078093212    0.15410925   
     10240   0.57359384     158.5          158.5          158.5          0.028416746    0.022183628   -0.10065754     0.16372415     0.57359384   
     10260   0.47698558     158.5          158.5          158.5         -0.14662625    -0.039784277   -0.13144389    -0.26865058     0.47698558   
     10280   0.9114532      158.5          158.5          158.5          0.090815133    0.021656428    0.12979857     0.1209904      0.9114532    
     10300   1.4272868      158.5          158.5          158.5         -0.080372817   -0.1322852     -0.26135318     0.15251993     1.4272868    
     10320   0.29055763     158.5          158.5          158.5         -0.12155505    -0.077708412   -0.21860165    -0.068355086    0.29055763   
     10340   1.1967613      158.5          158.5          158.5          0.063677054    0.16943845     0.0042770975   0.017315616    1.1967613    
     10360   1.5657828      158.5          158.5          158.5         -0.090881583   -0.2430648     -0.11852799     0.088948042    1.5657828    
     10380   0.22408946     158.5          158.5          158.5          0.088134916    0.064070614    0.062680847    0.13765329     0.22408946   
     10400   1.3884964      158.5          158.5          158.5          0.11343495     0.33879104     0.046810311   -0.045296498    1.3884964    
     10420   1.3711008      158.5          158.5          158.5         -0.10968036    -0.060548788   -0.076064436   -0.19242786     1.3711008    
     10440   0.44647131     158.5          158.5          158.5          0.22859147     0.25606185     0.21141668     0.21829589     0.44647131   
     10460   0.66996247     158.5          158.5          158.5          0.07485519     0.18507397    -0.020365546    0.059857148    0.66996247   
     10480   0.26059568     158.5          158.5          158.5         -0.035539708   -0.018766391   -0.048650681   -0.039202053    0.26059568   
     10500   0.56904031     158.5          158.5          158.5          0.13567246     0.19410667     0.11947188     0.093438816    0.56904031   
     10520   0.87218072     158.5          158.5          158.5         -0.030344217    0.061961834   -0.16381445     0.010819965    0.87218072   
     10540   0.30723009     158.5          158.5          158.5          0.094056919    0.10162198     0.023447001    0.15710177     0.30723009   
     10560   0.43818027     158.5          158.5          158.5          0.11420646     0.056152356    0.20520125     0.081265765    0.43818027   
     10580   0.71571961     158.5          158.5          158.5         -0.20376083    -0.12228869    -0.19655813    -0.29243567     0.71571961   
     10600   0.21286278     158.5          158.5          158.5          0.011255543    0.052611445   -0.0075735351  -0.011271281    0.21286278   
     10620   0.73282527     158.5          158.5          158.5          0.02154482    -0.053308323    0.17520091    -0.057258125    0.73282527   
     10640   0.89639619     158.5          158.5          158.5         -0.096866215   -0.11613612    -0.0060905003  -0.16837202     0.89639619   
     10660   0.39705265     158.5          158.5          158.5          0.043315902    0.05015593     0.016486218    0.063305557    0.39705265   
     10680   0.60482725     158.5          158.5          158.5         -0.16633265    -0.010077738   -0.062370017   -0.4265502      0.60482725   
     10700   0.40420871     158.5          158.5          158.5         -0.011170182    0.015870581    0.13768978    -0.1870709      0.40420871   
     10720   0.71692468     158.5          158.5          158.5          0.16689527     0.11995688     0.011847217    0.3688817      0.71692468   
     10740   1.3763785      158.5          158.5          158.5         -0.088876276    0.056065304   -0.24816476    -0.074529375    1.3763785    
     10760   0.63267271     158.5          158.5          158.5          0.12772993     0.061035399    0.32371537    -0.0015609676   0.63267271   
     10780   0.52447392     158.5          158.5          158.5          0.036938221    0.091543078   -0.033409068    0.052680651    0.52447392   
     10800   1.255034       158.5          158.5          158.5         -0.050535313    0.085217269   -0.27393288     0.037109672    1.255034     
     10820   0.50159601     158.5          158.5          158.5          0.29806899     0.094117764    0.34323995     0.45684926     0.50159601   
     10840   0.74334488     158.5          158.5          158.5         -0.012777272    0.057872432   -0.080291073   -0.015913177    0.74334488   
     10860   1.2612635      158.5          158.5          158.5         -0.010461843    0.087312329   -0.12402945     0.0053315965   1.2612635    
     10880   0.44969616     158.5          158.5          158.5          0.18595724     0.094056581    0.1651868      0.29862832     0.44969616   
     10900   0.53939321     158.5          158.5          158.5         -0.056762983   -0.059705518   -0.054351995   -0.056231438    0.53939321   
     10920   0.34392251     158.5          158.5          158.5          0.026127775    0.065150914    0.007527326    0.0057050862   0.34392251   
     10940   0.27198449     158.5          158.5          158.5         -0.03021907     0.040925427    0.040147813   -0.17173045     0.27198449   
     10960   0.71734587     158.5          158.5          158.5         -0.12121295    -0.091783352   -0.02073505    -0.25112046     0.71734587   
     10980   0.40634132     158.5          158.5          158.5          0.11083729     0.033309508    0.029862888    0.26933948     0.40634132   
     11000   0.18267778     158.5          158.5          158.5         -0.071082177   -0.075942675   -0.023691043   -0.11361281     0.18267778   
     11020   0.54455772     158.5          158.5          158.5         -0.10282529    -0.045371549    0.0031221802  -0.26622651     0.54455772   
     11040   0.19277948     158.5          158.5          158.5          0.035960032    0.093533526    0.026939547   -0.012592976    0.19277948   
     11060   0.41779875     158.5          158.5          158.5         -0.067036083   -0.1107172     -0.024939079   -0.065451973    0.41779875   
     11080   0.69220752     158.5          158.5          158.5          0.088462115    0.046358384   -0.00079720795  0.21982517     0.69220752   
     11100   0.22326846     158.5          158.5          158.5          0.032084832    0.077352174    0.015259374    0.0036429482   0.22326846   
     11120   0.4475405      158.5          158.5          158.5         -0.15367451    -0.063997227    0.020533161   -0.41755945     0.4475405    
     11140   0.39137838     158.5          158.5          158.5          0.17661114     0.21899745     0.031627324    0.27920864     0.39137838   
     11160   0.40355251     158.5          158.5          158.5          0.10140631     0.059763216    0.01326938     0.23118633     0.40355251   
     11180   1.0371571      158.5          158.5          158.5          0.01814849     0.12113249    -0.012059006   -0.054628014    1.0371571    
     11200   0.64811437     158.5          158.5          158.5          0.14135905     0.29681178     0.018303967    0.10896139     0.64811437   
     11220   0.40739255     158.5          158.5          158.5         -0.076268776   -0.13354193     0.024074376   -0.11933877     0.40739255   
     11240   0.92060089     158.5          158.5          158.5          0.082667542    0.15969398     0.0097288928   0.078579757    0.92060089   
     11260   0.47203705     158.5          158.5          158.5          0.13062883     0.21466873     0.012151249    0.16506651     0.47203705   
     11280   0.56579012     158.5          158.5          158.5         -0.15046042    -0.21853097     0.014360052   -0.24721034     0.56579012   
     11300   1.1769538      158.5          158.5          158.5          0.025763739    0.01832204     0.083438682   -0.024469506    1.1769538    
     11320   0.60360281     158.5          158.5          158.5         -0.051887501   -0.049721797   -0.09561833    -0.010322377    0.60360281   
     11340   0.46349786     158.5          158.5          158.5         -0.051142897   -0.16562168     0.034641735   -0.022448745    0.46349786   
     11360   0.50378374     158.5          158.5          158.5          0.09530982     0.035555286    0.23769789     0.012676279    0.50378374   
     11380   0.55147376     158.5          158.5          158.5         -0.22826836    -0.09830002    -0.30530388    -0.28120116     0.55147376   
     11400   0.95399545     158.5          158.5          158.5         -0.023822053   -0.022816387    0.0089905188  -0.05764029     0.95399545   
     11420   0.77723499     158.5          158.5          158.5          0.16293377     0.052151614    0.34910973     0.087539965    0.77723499   
     11440   0.31898892     158.5          158.5          158.5         -0.08782235     0.014078182   -0.25084384    -0.026701391    0.31898892   
     11460   0.9380872      158.5          158.5          158.5          0.053770652    0.12868585    -0.053406334    0.086032439    0.9380872    
     11480   0.41936606     158.5          158.5          158.5          0.040955864    0.029111236    0.10037499    -0.0066186354   0.41936606   
     11500   0.39740549     158.5          158.5          158.5          0.044822142    0.17849877    -0.15534708     0.11131473     0.39740549   
     11520   1.0181308      158.5          158.5          158.5          0.25045188     0.36148346     0.069271056    0.32060113     1.0181308    
     11540   0.51808557     158.5          158.5          158.5         -0.048530021   -0.0043770523  -0.060456099   -0.08075691     0.51808557   
     11560   0.34587595     158.5          158.5          158.5          0.00039142102  0.0036053011  -0.039653615    0.037222577    0.34587595   
     11580   0.41658613     158.5          158.5          158.5          0.12207371     0.18144606    -0.022524459    0.20729954     0.41658613   
     11600   0.28097021     158.5          158.5          158.5         -0.050301247   -0.012745658   -0.011314709   -0.12684337     0.28097021   
     11620   0.69266355     158.5          158.5          158.5          0.060055506    0.036601465    0.13997018     0.0035948739   0.69266355   
     11640   0.61239062     158.5          158.5          158.5         -0.078882497   -0.081145615   -0.10229767    -0.053204209    0.61239062   
     11660   0.20057462     158.5          158.5          158.5         -0.13821887    -0.13083743    -0.11179632    -0.17202285     0.20057462   
     11680   0.72196167     158.5          158.5          158.5          0.12978184     0.15133619     0.17675788     0.061251437    0.72196167   
     11700   0.41781624     158.5          158.5          158.5         -0.10579865    -0.10637709    -0.050718815   -0.16030005     0.41781624   
     11720   0.29735705     158.5          158.5          158.5         -0.11727706    -0.17009914    -0.09242279    -0.089309266    0.29735705   
     11740   1.0672801      158.5          158.5          158.5          0.041276166    0.033355021   -0.0041648672   0.094638345    1.0672801    
     11760   0.65093049     158.5          158.5          158.5         -0.083855554   -0.020335195   -0.033885831   -0.19734563     0.65093049   
     11780   0.48354774     158.5          158.5          158.5          0.17220496     0.21583606     0.20820535     0.092573461    0.48354774   
     11800   0.5802671      158.5          158.5          158.5          0.073991374    0.096497599    0.03137021     0.094106313    0.5802671    
     11820   0.5376364      158.5          158.5          158.5         -0.13504416    -0.24002316    -0.0802755     -0.084833813    0.5376364    
     11840   1.3896879      158.5          158.5          158.5          0.25076187     0.25557584     0.34800161     0.14870816     1.3896879    
     11860   1.1836816      158.5          158.5          158.5          0.11505602     0.18659668     0.16907519    -0.010503798    1.1836816    
     11880   0.30298499     158.5          158.5          158.5          0.11241264     0.20570191     0.079094178    0.052441816    0.30298499   
     11900   1.2650802      158.5          158.5          158.5          0.064357395   -0.11289067     0.27589334     0.030069511    1.2650802    
     11920   0.6111805      158.5          158.5          158.5         -0.152129      -0.25207689    -0.17358831    -0.030721791    0.6111805    
     11940   0.42277039     158.5          158.5          158.5          0.17095624     0.41391369    -0.010859762    0.10981479     0.42277039   
     11960   0.94439563     158.5          158.5          158.5          0.097624207    0.16021149     0.11100139     0.021659741    0.94439563   
     11980   0.63820371     158.5          158.5          158.5         -0.18067324    -0.32339285    -0.1593849     -0.059241967    0.63820371   
     12000   0.43278979     158.5          158.5          158.5          0.050863606    0.15120331    -0.032008646    0.033396157    0.43278979   
     12020   0.44401416     158.5          158.5          158.5         -0.042328184    0.025419541   -0.16314193     0.010737834    0.44401416   
     12040   0.284186       158.5          158.5          158.5         -0.040805658   -0.041576293   -0.081534449    0.00069376661  0.284186     
     12060   0.62119772     158.5          158.5          158.5          0.053352308    0.20039177    -0.028113063   -0.012221787    0.62119772   
     12080   0.80051632     158.5          158.5          158.5         -0.18465698    -0.18008687    -0.26727543    -0.10660865     0.80051632   
     12100   0.19421854     158.5          158.5          158.5          0.0303855     -0.011707981    0.08039135     0.022473131    0.19421854   
     12120   0.54681348     158.5          158.5          158.5          0.11194686     0.1854719      0.077318796    0.073049899    0.54681348   
     12140   0.60574589     158.5          158.5          158.5         -0.07888515     0.016404386   -0.15511337    -0.097946467    0.60574589   
     12160   0.2889512      158.5          158.5          158.5          0.061846029   -0.031328868    0.11847823     0.098388729    0.2889512    
     12180   0.83729019     158.5          158.5          158.5         -0.0058643724  -0.15014401     0.068550881    0.064000015    0.83729019   
     12200   0.73499504     158.5          158.5          158.5          0.065677363    0.18090009     0.029811817   -0.013679822    0.73499504   
     12220   0.28647604     158.5          158.5          158.5          0.23847795     0.27810375     0.14654308     0.29078702     0.28647604   
     12240   0.68615159     158.5          158.5          158.5         -0.13236083    -0.41495892     0.025410263   -0.0075338422   0.68615159   
     12260   0.37847378     158.5          158.5          158.5          0.014092684    0.12504857    -0.017126716   -0.065643798    0.37847378   
     12280   0.68214975     158.5          158.5          158.5          0.17574799     0.27068003     0.043511497    0.21305243     0.68214975   
     12300   1.2369729      158.5          158.5          158.5         -0.01234719    -0.27057356     0.031581018    0.20195097     1.2369729    
     12320   0.19031893     158.5          158.5          158.5          0.13706324     0.24142454     0.039537902    0.13022729     0.19031893   
     12340   0.81828084     158.5          158.5          158.5         -0.1204259      0.074219016    0.017010264   -0.45250697     0.81828084   
     12360   0.86416947     158.5          158.5          158.5         -0.1883884     -0.2138754     -0.0094983972  -0.34179139     0.86416947   
     12380   0.44674934     158.5          158.5          158.5          0.19836023     0.34982939     0.059902565    0.18534875     0.44674934   
     12400   1.0274496      158.5          158.5          158.5         -0.097526478    0.073664001    0.025025064   -0.3912685      1.0274496    
     12420   0.94719652     158.5          158.5          158.5         -0.12191356    -0.066536735    0.031319784   -0.33052374     0.94719652   
     12440   0.3755546      158.5          158.5          158.5         -0.00011113418  0.061594633    0.042907085   -0.10483512     0.3755546    
     12460   0.66123718     158.5          158.5          158.5         -0.085417425    0.066668924   -0.060717476   -0.26220372     0.66123718   
     12480   0.33220651     158.5          158.5          158.5          0.16514931     0.12222659     0.085827103    0.28739423     0.33220651   
     12500   0.61740135     158.5          158.5          158.5         -0.0012193022  -0.032406848   -0.037855768    0.066604709    0.61740135   
     12520   0.87385028     158.5          158.5          158.5         -0.092413005    0.00038011107 -0.011955272   -0.26566385     0.87385028   
     12540   0.25604425     158.5          158.5          158.5          0.20311855     0.10045706     0.19806758     0.310831       0.25604425   
     12560   0.4535518      158.5          158.5          158.5          0.020131434   -0.015047169   -0.10882932     0.18427079     0.4535518    
     12580   0.43056886     158.5          158.5          158.5          0.037290859    0.018637431    0.01666101     0.076574138    0.43056886   
     12600   0.22772207     158.5          158.5          158.5          0.089410503    0.03614094     0.17767747     0.054413101    0.22772207   
     12620   0.52293283     158.5          158.5          158.5         -0.075766482   -0.026224324   -0.09938332    -0.1016918      0.52293283   
     12640   0.5101584      158.5          158.5          158.5          0.13251602     0.028448056    0.066011945    0.30308804     0.5101584    
     12660   0.13473922     158.5          158.5          158.5          0.0451553      0.032541813    0.010393458    0.09253063     0.13473922   
     12680   0.38176177     158.5          158.5          158.5         -0.17021573     0.0055628512  -0.12952817    -0.38668188     0.38176177   
     12700   0.38606813     158.5          158.5          158.5          0.012172455    0.012471359    0.11200447    -0.087958462    0.38606813   
     12720   0.4543308      158.5          158.5          158.5         -0.055063104    0.014015311   -0.14492323    -0.034281389    0.4543308    
     12740   0.90252144     158.5          158.5          158.5         -0.0048565005   0.014041186   -0.12453414     0.095923452    0.90252144   
     12760   0.38035994     158.5          158.5          158.5          0.034764916    0.035069317    0.072387428   -0.0031619951   0.38035994   
     12780   0.64433551     158.5          158.5          158.5         -0.25386059     0.037094621   -0.21319926    -0.58547712     0.64433551   
     12800   1.0316384      158.5          158.5          158.5          0.076786762    0.084379433    0.048425769    0.097555084    1.0316384    
     12820   0.51989173     158.5          158.5          158.5          0.15518934     0.068049667    0.11549036     0.28202801     0.51989173   
     12840   0.72113969     158.5          158.5          158.5         -0.044544371    0.025075153   -0.043563352   -0.11514491     0.72113969   
     12860   1.4401408      158.5          158.5          158.5          0.10182461     0.20846498     0.11735806    -0.020349212    1.4401408    
     12880   0.40686624     158.5          158.5          158.5         -0.054532655    0.0011873048   0.04869892    -0.21348419     0.40686624   
     12900   0.58258757     158.5          158.5          158.5          0.10175846    -0.03454159     0.15908983     0.18072713     0.58258757   
     12920   0.53366543     158.5          158.5          158.5          0.28295243     0.27477781     0.14492883     0.42915065     0.53366543   
     12940   0.64803724     158.5          158.5          158.5         -0.11837166    -0.071620088   -0.062335412   -0.22115947     0.64803724   
     12960   1.1286194      158.5          158.5          158.5          0.023381832   -0.013057541    0.1031985     -0.019995462    1.1286194    
     12980   0.33527428     158.5          158.5          158.5          0.12996899     0.15379921     0.057688142    0.17841961     0.33527428   
     13000   0.51678552     158.5          158.5          158.5         -0.020022903   -0.050310004   -0.015704716    0.0059460125   0.51678552   
     13020   0.83547482     158.5          158.5          158.5          0.043227917    0.048151487    0.034902478    0.046629787    0.83547482   
     13040   0.26053418     158.5          158.5          158.5         -0.12628085     0.038728279   -0.16469738    -0.25287344     0.26053418   
     13060   0.57831023     158.5          158.5          158.5         -0.071722165    0.061673844   -0.082967025   -0.19387331     0.57831023   
     13080   0.92564691     158.5          158.5          158.5          0.14778261     0.059889745    0.1397174      0.24374068     0.92564691   
     13100   0.27768596     158.5          158.5          158.5         -0.11435501    -0.15387384    -0.08176033    -0.10743087     0.27768596   
     13120   0.49140922     158.5          158.5          158.5         -0.045738628    0.17238235    -0.10333862    -0.20625962     0.49140922   
     13140   0.32868656     158.5          158.5          158.5          0.0061233641   0.05313166    -0.036092953    0.0013313853   0.32868656   
     13160   0.49474512     158.5          158.5          158.5         -0.073024122   -0.16958376    -0.030492932   -0.018995679    0.49474512   
     13180   1.0038709      158.5          158.5          158.5          0.17123516     0.23088269     0.21395858     0.068864205    1.0038709    
     13200   0.40389055     158.5          158.5          158.5         -0.026856234    0.08893196    -0.071255005   -0.098245657    0.40389055   
     13220   0.59400913     158.5          158.5          158.5         -0.14460168    -0.1515592     -0.31172402     0.029478186    0.59400913   
     13240   1.1487686      158.5          158.5          158.5          0.23608134     0.15703452     0.23894943     0.31226006     1.1487686    
     13260   0.74785991     158.5          158.5          158.5          0.09216946     0.16973289     0.21186156    -0.10508607     0.74785991   
     13280   0.70009179     158.5          158.5          158.5          0.1161416      0.10439675     0.02216707     0.22186099     0.70009179   
     13300   1.6408873      158.5          158.5          158.5          0.068727494    0.039574029   -0.09192686     0.25853531     1.6408873    
     13320   0.84179493     158.5          158.5          158.5         -0.10760499    -0.043380348   -0.14974239    -0.12969223     0.84179493   
     13340   0.79539496     158.5          158.5          158.5          0.29270591     0.30483516     0.36614119     0.20714137     0.79539496   
     13360   0.37380263     158.5          158.5          158.5          0.056392798    0.12133429     0.039571423    0.0082726834   0.37380263   
     13380   0.57430263     158.5          158.5          158.5         -0.19431734    -0.177723      -0.3199962     -0.085232811    0.57430263   
     13400   0.96794644     158.5          158.5          158.5          0.051333744    0.010866738    0.027541308    0.11559319     0.96794644   
     13420   0.5942585      158.5          158.5          158.5         -0.07465501    -0.074150125   -0.081871207   -0.067943699    0.5942585    
     13440   0.35576762     158.5          158.5          158.5          0.067814605   -0.049345443    0.26237414    -0.0095848849   0.35576762   
     13460   0.60195068     158.5          158.5          158.5          0.014152244   -0.031454001    0.015580322    0.058330412    0.60195068   
     13480   0.45191757     158.5          158.5          158.5         -0.28863643    -0.24925806    -0.59436893    -0.022282293    0.45191757   
     13500   0.36871005     158.5          158.5          158.5          0.081887298    0.025689443    0.19929157     0.020680881    0.36871005   
     13520   0.83849001     158.5          158.5          158.5          0.098338726   -0.037983808    0.32378505     0.0092149362   0.83849001   
     13540   0.30308576     158.5          158.5          158.5         -0.062582374   -0.0085439752  -0.17652544    -0.002677707    0.30308576   
     13560   0.51922383     158.5          158.5          158.5          0.069211449    0.25989526    -0.083292107    0.031031193    0.51922383   
     13580   0.41898889     158.5          158.5          158.5         -0.06065316    -0.10546849    -0.09952114     0.02303015     0.41898889   
     13600   0.34469355     158.5          158.5          158.5          0.13911303     0.21354067     0.1636305      0.040167914    0.34469355   
     13620   0.94880507     158.5          158.5          158.5          0.25371836     0.44713489     0.25483049     0.059189711    0.94880507   
     13640   0.81145658     158.5          158.5          158.5         -0.12253424    -0.10871923    -0.27790612     0.019022622    0.81145658   
     13660   0.37061826     158.5          158.5          158.5          0.076657914    0.17503978     0.0018626617   0.053071304    0.37061826   
     13680   0.81927865     158.5          158.5          158.5          0.077061931    0.23208079    -0.085855702    0.084960707    0.81927865   
     13700   0.70413481     158.5          158.5          158.5          0.0019489107  -0.082128963    0.13903917    -0.051063472    0.70413481   
     13720   0.4813002      158.5          158.5          158.5          0.14666972     0.071893387    0.32771368     0.040402101    0.4813002    
     13740   1.4677519      158.5          158.5          158.5         -0.23610104    -0.097639113   -0.53981001    -0.070853984    1.4677519    
     13760   0.56521355     158.5          158.5          158.5         -0.069942036   -0.045380443   -0.034053581   -0.13039208     0.56521355   
     13780   0.79589258     158.5          158.5          158.5          0.23725809     0.1120574      0.61049082    -0.010773965    0.79589258   
     13800   0.60557649     158.5          158.5          158.5         -0.18282705     0.038194484   -0.3129185     -0.27375714     0.60557649   
     13820   0.52349585     158.5          158.5          158.5         -0.094868382    0.030068873   -0.13364819    -0.18102583     0.52349585   
     13840   0.89389531     158.5          158.5          158.5         -0.017049838    0.016339663    0.14062925    -0.20811843     0.89389531   
     13860   0.66572371     158.5          158.5          158.5         -0.02183018     0.02155968    -0.038960733   -0.048089488    0.66572371   
     13880   0.34040219     158.5          158.5          158.5          0.22233259     0.091980264    0.11532642     0.45969109     0.34040219   
     13900   0.51108276     158.5          158.5          158.5         -0.062253265    0.0075082718  -0.059239172   -0.1350289      0.51108276   
     13920   0.33509128     158.5          158.5          158.5         -0.10030804    -0.025851423   -0.10391305    -0.17115963     0.33509128   
     13940   0.31055692     158.5          158.5          158.5          0.19213061     0.037768798    0.067662229    0.47096081     0.31055692   
     13960   0.68445315     158.5          158.5          158.5          0.047579964   -0.001645753   -0.022793134    0.16717878     0.68445315   
     13980   0.26586815     158.5          158.5          158.5          0.079514545    0.083958769    0.073137963    0.081446904    0.26586815   
     14000   0.34664108     158.5          158.5          158.5         -0.028803099   -0.028779123   -0.080980978    0.023350804    0.34664108   
     14020   0.31664796     158.5          158.5          158.5         -0.12995436    -0.087621636   -0.11108855    -0.19115288     0.31664796   
     14040   0.39267279     158.5          158.5          158.5          0.21123003     0.22841167     0.19323429     0.21204413     0.39267279   
     14060   0.60095906     158.5          158.5          158.5          0.018677577   -0.070302195    0.01207433     0.11426059     0.60095906   
     14080   0.73837652     158.5          158.5          158.5         -0.1728753     -0.14535051    -0.10998452    -0.26329087     0.73837652   
     14100   0.36218374     158.5          158.5          158.5          0.056675657    0.31419427     0.04107786    -0.18524516     0.36218374   
     14120   0.81468408     158.5          158.5          158.5         -0.10342847    -0.10349662     0.015234198   -0.222023       0.81468408   
     14140   0.83102425     158.5          158.5          158.5          0.06444809    -0.048247191    0.056888108    0.18470335     0.83102425   
     14160   0.30947617     158.5          158.5          158.5          0.078945839    0.28509398     0.026319254   -0.074575719    0.30947617   
     14180   1.4125879      158.5          158.5          158.5         -0.30240495    -0.070386179   -0.072298754   -0.76452992     1.4125879    
     14200   0.84839767     158.5          158.5          158.5          0.14376257     0.12555305     0.091976047    0.2137586      0.84839767   
     14220   0.54972387     158.5          158.5          158.5          0.14868397     0.0037399633   0.050753251    0.39155869     0.54972387   
     14240   0.46289764     158.5          158.5          158.5         -0.03824671    -0.034670187    0.0046126856  -0.084682629    0.46289764   
     14260   0.63383465     158.5          158.5          158.5          0.066489626    0.23561627     0.099910486   -0.13605788     0.63383465   
     14280   0.80764437     158.5          158.5          158.5         -0.11779148    -0.0081344082  -0.020272652   -0.32496738     0.80764437   
     14300   0.86173334     158.5          158.5          158.5          0.19080544     0.068564202    0.052396766    0.45145536     0.86173334   
     14320   0.32499541     158.5          158.5          158.5          0.25470932     0.12604687     0.092439437    0.54564167     0.32499541   
     14340   0.7878431      158.5          158.5          158.5         -0.22581373    -0.020345379   -0.10683313    -0.55026268     0.7878431    
     14360   0.58408845     158.5          158.5          158.5          0.042452092    0.10740722     0.15630484    -0.13635578     0.58408845   
     14380   0.15609164     158.5          158.5          158.5          0.12460877     0.06385951     0.028687274    0.28127953     0.15609164   
     14400   0.87530848     158.5          158.5          158.5          0.028620518    0.015742278   -0.19155722     0.2616765      0.87530848   
     14420   0.48667207     158.5          158.5          158.5          0.1232824      0.051016315    0.18436563     0.13446524     0.48667207   
     14440   0.54385311     158.5          158.5          158.5         -0.22184941    -0.0099364589  -0.022516159   -0.63309562     0.54385311   
     14460   0.31553684     158.5          158.5          158.5         -0.065396226    0.034685188   -0.085343403   -0.14553046     0.31553684   
     14480   0.37544427     158.5          158.5          158.5          0.18269472     0.08591758     0.11828073     0.34388585     0.37544427   
     14500   0.72459161     158.5          158.5          158.5         -0.1406857     -0.010918996   -0.10179521    -0.3093429      0.72459161   
     14520   0.8844953      158.5          158.5          158.5         -0.047061617    0.019496879    0.086792098   -0.24747383     0.8844953    
     14540   0.28650439     158.5          158.5          158.5         -0.080337003    0.023837052   -0.044980067   -0.219868       0.28650439   
     14560   0.87092994     158.5          158.5          158.5         -0.033417385    0.087011074   -0.078423137   -0.10884009     0.87092994   
     14580   0.88820546     158.5          158.5          158.5          0.30466507     0.20389967     0.23099781     0.47909773     0.88820546   
     14600   0.47114824     158.5          158.5          158.5         -0.10570658    -0.023151123   -0.17418817    -0.11978045     0.47114824   
     14620   1.7248258      158.5          158.5          158.5         -0.1091041      0.071495353   -0.099223575   -0.29958407     1.7248258    
     14640   1.477459       158.5          158.5          158.5          0.37580695     0.4602662      0.20371385     0.46344081     1.477459     
     14660   1.8878625      158.5          158.5          158.5          0.13004421    -0.034289965    0.044129156    0.38029343     1.8878625    
     14680   0.66491659     158.5          158.5          158.5          0.22668432     0.21226837     0.12498014     0.34280446     0.66491659   
     14700   0.62399541     158.5          158.5          158.5          0.024642495    0.13884476    -0.047609763   -0.01730751     0.62399541   
     14720   0.67122472     158.5          158.5          158.5         -0.15262993    -0.39703129    -0.053867896   -0.0069905978   0.67122472   
     14740   0.89469576     158.5          158.5          158.5          0.2565171      0.27942662     0.18677848     0.30334619     0.89469576   
     14760   0.62763235     158.5          158.5          158.5          0.062412581    0.34678615    -0.021965077   -0.13758333     0.62763235   
     14780   0.70004261     158.5          158.5          158.5         -0.16991828    -0.18862128    -0.17954132    -0.14159226     0.70004261   
     14800   0.73950153     158.5          158.5          158.5         -0.06516238    -0.16694186    -0.080867504    0.052322229    0.73950153   
     14820   0.20296989     158.5          158.5          158.5         -0.097421311    0.087351423   -0.26183411    -0.11778124     0.20296989   
     14840   0.55873733     158.5          158.5          158.5          0.092620669    0.34266892    -0.037775755   -0.027031164    0.55873733   
     14860   0.50099637     158.5          158.5          158.5         -0.00087161118 -0.044738688    0.06618747    -0.024063615    0.50099637   
     14880   0.72632055     158.5          158.5          158.5         -0.24565568    -0.33013216    -0.34624442    -0.060590458    0.72632055   
     14900   0.47089015     158.5          158.5          158.5          0.11180448     0.28554326     0.026871609    0.022998576    0.47089015   
     14920   0.32061806     158.5          158.5          158.5          0.11711023     0.0880417      0.21332082     0.049968158    0.32061806   
     14940   0.27548134     158.5          158.5          158.5          0.0018380229  -0.066287851    0.047497016    0.024304904    0.27548134   
     14960   0.88853166     158.5          158.5          158.5          0.068575629    0.13093875     0.073417894    0.0013702393   0.88853166   
     14980   0.45349561     158.5          158.5          158.5         -0.094482867   -0.27564677    -0.007229583   -0.00057224652  0.45349561   
     15000   0.76615382     158.5          158.5          158.5          0.17154003     0.12943027     0.35853733     0.026652485    0.76615382   
     15020   0.70625047     158.5          158.5          158.5          0.27220899     0.54475953     0.22671979     0.045147647    0.70625047   
     15040   0.26937319     158.5          158.5          158.5         -0.1736711     -0.33047487    -0.21198828     0.021449834    0.26937319   
     15060   0.86058626     158.5          158.5          158.5         -0.022503991   -0.25853009     0.1100614      0.080956724    0.86058626   
     15080   0.65042677     158.5          158.5          158.5          0.079865706    0.2385702     -0.011890172    0.012917093    0.65042677   
     15100   1.2209772      158.5          158.5          158.5          0.064435373    0.363172      -0.067558469   -0.10230741     1.2209772    
     15120   0.92229097     158.5          158.5          158.5          0.13203086     0.11946716     0.11491946     0.16170596     0.92229097   
     15140   0.63800535     158.5          158.5          158.5         -0.2742799     -0.4393477     -0.30300996    -0.080482049    0.63800535   
     15160   0.4945767      158.5          158.5          158.5         -0.090178398    0.017238791   -0.17563713    -0.11213685     0.4945767    
     15180   1.0692075      158.5          158.5          158.5          0.2071934      0.37517241     0.20166881     0.044738992    1.0692075    
     15200   0.63591853     158.5          158.5          158.5         -0.049115099   -0.00023631758  0.028960977   -0.17606996     0.63591853   
     15220   0.73444152     158.5          158.5          158.5          0.014973717    0.06032825    -0.045146142    0.029739043    0.73444152   
     15240   0.6725324      158.5          158.5          158.5         -0.10143621    -0.21314678    -0.078069738   -0.013092103    0.6725324    
     15260   0.20999773     158.5          158.5          158.5         -0.041492562   -0.042193498   -0.004598785   -0.077685402    0.20999773   
     15280   0.40683199     158.5          158.5          158.5          0.22302146     0.38390946     0.17380014     0.11135478     0.40683199   
     15300   0.32926279     158.5          158.5          158.5         -0.07586898    -0.10896507    -0.030559977   -0.088081888    0.32926279   
     15320   0.54630139     158.5          158.5          158.5         -0.11288596    -0.24509508    -0.14783377     0.054270969    0.54630139   
     15340   0.38631833     158.5          158.5          158.5          0.13946622     0.16463666     0.076824164    0.17693783     0.38631833   
     15360   0.42890899     158.5          158.5          158.5          0.052830379    0.15954692     0.055953972   -0.057009749    0.42890899   
     15380   0.14343646     158.5          158.5          158.5          0.10603552     0.078669282   -0.013010989    0.25244825     0.14343646   
     15400   0.6445437      158.5          158.5          158.5         -0.061047367   -0.14083245    -0.08280545     0.040495795    0.6445437    
     15420   0.45197356     158.5          158.5          158.5         -0.10289701    -0.062153388   -0.0083047859  -0.23823286     0.45197356   
     15440   0.60884663     158.5          158.5          158.5          0.24515034     0.26388699     0.13046753     0.3410965      0.60884663   
     15460   0.67291971     158.5          158.5          158.5          0.024775213    0.065976725   -0.12835926     0.13670818     0.67291971   
     15480   0.34315174     158.5          158.5          158.5         -0.1182124     -0.11328919     0.076720938   -0.31806894     0.34315174   
     15500   0.45447901     158.5          158.5          158.5         -0.030384148   -0.052147055    0.12251527    -0.16152066     0.45447901   
     15520   0.6658845      158.5          158.5          158.5         -0.107744       0.039302513   -0.30517144    -0.057363074    0.6658845    
     15540   0.85376795     158.5          158.5          158.5          0.17861214     0.1707292      0.18730858     0.17779864     0.85376795   
     15560   0.65625728     158.5          158.5          158.5          0.02115113    -0.0013747592   0.15191353    -0.087085377    0.65625728   
     15580   0.85713331     158.5          158.5          158.5         -0.33966939    -0.15959254    -0.27090076    -0.58851486     0.85713331   
     15600   0.21496538     158.5          158.5          158.5          0.071923134    0.058264709    0.19226687    -0.034762172    0.21496538   
     15620   0.98062079     158.5          158.5          158.5          0.086639567    0.072411264    0.026589281    0.16091816     0.98062079   
     15640   0.62052978     158.5          158.5          158.5          0.078440036    0.13563764    -0.098745365    0.19842784     0.62052978   
     15660   0.69015458     158.5          158.5          158.5          0.07851423     0.15121167     0.11331816    -0.02898714     0.69015458   
     15680   1.1477969      158.5          158.5          158.5         -0.13550518     0.020712225   -0.064133827   -0.36309394     1.1477969    
     15700   0.39468194     158.5          158.5          158.5          0.2011237      0.22362745     0.024085343    0.35565831     0.39468194   
     15720   0.40584808     158.5          158.5          158.5          0.26143928     0.24224311     0.047272559    0.49480216     0.40584808   
     15740   0.54724539     158.5          158.5          158.5         -0.10095622    -0.045772041    0.0095982002  -0.26669483     0.54724539   
     15760   0.76221238     158.5          158.5          158.5          0.016120094    0.17386452     0.075304082   -0.20080832     0.76221238   
     15780   0.6205995      158.5          158.5          158.5         -0.0008975507   0.056238093   -0.0031905829  -0.055740162    0.6205995    
     15800   0.61996223     158.5          158.5          158.5          0.067732275   -0.11194922    -0.0066402751   0.32178633     0.61996223   
     15820   0.14338273     158.5          158.5          158.5          0.10545447     0.082894834    0.024477285    0.2089913      0.14338273   
     15840   0.70289609     158.5          158.5          158.5         -0.27358095    -0.11507876     0.0020834685  -0.70774754     0.70289609   
     15860   0.25090152     158.5          158.5          158.5         -0.076660075   -0.018110606   -0.0006476305  -0.21122199     0.25090152   
     15880   0.44073638     158.5          158.5          158.5          0.12857063     0.0066200239  -0.0014444646   0.38053632     0.44073638   
     15900   0.42920017     158.5          158.5          158.5         -0.055895241   -0.1698162      0.0037272845  -0.0015968078   0.42920017   
     15920   0.2228799      158.5          158.5          158.5         -0.034285821    0.084566827    0.0055575618  -0.19298185     0.2228799    
     15940   0.20399759     158.5          158.5          158.5         -0.081381986    0.042800414   -0.010176517   -0.27676986     0.20399759   
     15960   0.20447071     158.5          158.5          158.5          0.0072428794  -0.06408858     0.011152687    0.074664531    0.20447071   
     15980   0.37451863     158.5          158.5          158.5          0.19903933     0.091702158    0.031107827    0.47430801     0.37451863   
     16000   0.2758617      158.5          158.5          158.5         -0.030751228   -0.019916032    0.0020815921  -0.074419243    0.2758617    
     16020   0.39888961     158.5          158.5          158.5         -0.060298308    0.083606832   -0.014224636   -0.25027712     0.39888961   
     16040   0.10212895     158.5          158.5          158.5          0.098733182    0.10930193     0.010759174    0.17613844     0.10212895   
     16060   0.498947       158.5          158.5          158.5          0.052818034   -0.10738431     0.021165733    0.24467268     0.498947     
     16080   0.48854422     158.5          158.5          158.5          0.15271429     0.15011619     0.054428603    0.25359807     0.48854422   
     16100   0.51457395     158.5          158.5          158.5         -0.099925619    0.06451547    -0.059460288   -0.30483204     0.51457395   
     16120   0.70547059     158.5          158.5          158.5         -0.17708021    -0.083309148   -0.075037678   -0.37289381     0.70547059   
     16140   0.66921328     158.5          158.5          158.5          0.23575517     0.17192498     0.18725239     0.34808814     0.66921328   
     16160   0.27901967     158.5          158.5          158.5          0.029099285   -0.068492708    0.0083884565   0.14740211     0.27901967   
     16180   0.49965377     158.5          158.5          158.5         -0.13427485    -0.027900075   -0.11746452    -0.25745994     0.49965377   
     16200   0.92028225     158.5          158.5          158.5         -0.060701945    0.15997388     0.097083139   -0.43916286     0.92028225   
     16220   0.64005985     158.5          158.5          158.5         -0.088919215   -0.00028010204 -0.059310138   -0.20716741     0.64005985   
     16240   1.0345199      158.5          158.5          158.5          0.20503246     0.039665478    0.065782724    0.50964918     1.0345199    
     16260   0.075604991    158.5          158.5          158.5          0.032233143    0.1054973      0.17642922    -0.18522709     0.075604991  
     16280   0.98234406     158.5          158.5          158.5         -0.29179255     0.054943437   -0.23064138    -0.69967972     0.98234406   
     16300   0.63183836     158.5          158.5          158.5          0.089479792    0.05828712    -0.058380261    0.26853252     0.63183836   
     16320   0.75802759     158.5          158.5          158.5          0.11021075     0.078083523    0.081485074    0.17106366     0.75802759   
     16340   0.75341813     158.5          158.5          158.5          0.12465142     0.08709891     0.2991673     -0.012311947    0.75341813   
     16360   0.7690686      158.5          158.5          158.5          0.0089969284   0.047459801   -0.15860064     0.13813162     0.7690686    
     16380   0.40446167     158.5          158.5          158.5         -0.21436387     0.020812774   -0.5077448     -0.15615958     0.40446167   
     16400   0.47316651     158.5          158.5          158.5          0.20417624     0.072826014    0.39899914     0.14070356     0.47316651   
     16420   0.60160133     158.5          158.5          158.5          0.22046039     0.11089832     0.29674614     0.25373672     0.60160133   
     16440   0.56448568     158.5          158.5          158.5         -0.11993525     0.035857246   -0.40661071     0.010947698    0.56448568   
     16460   0.78019046     158.5          158.5          158.5          0.023817838    0.040349829    0.018256797    0.012846887    0.78019046   
     16480   0.092189564    158.5          158.5          158.5          0.015052283    0.0023972706   0.03097384     0.011785739    0.092189564  
     16500   0.46244088     158.5          158.5          158.5          0.084441749    0.078603637    0.024162355    0.15055926     0.46244088   
     16520   0.34212116     158.5          158.5          158.5          0.10554078     0.050780699    0.21350207     0.052339582    0.34212116   
     16540   0.51528857     158.5          158.5          158.5         -0.21132016    -0.17605668    -0.23853269    -0.2193711      0.51528857   
     16560   0.40925285     158.5          158.5          158.5         -0.050137491    0.0095496557  -0.1662928      0.0063306732   0.40925285   
     16580   0.41802259     158.5          158.5          158.5          0.095950474    0.01462811     0.20551595     0.067707363    0.41802259   
     16600   0.23387684     158.5          158.5          158.5         -0.049653839   -0.23042807     0.14459681    -0.063130254    0.23387684   
     16620   0.34718036     158.5          158.5          158.5         -0.043596856    0.02383132    -0.11301848    -0.04160341     0.34718036   
     16640   0.51786383     158.5          158.5          158.5         -0.16467711    -0.050396997   -0.38331578    -0.060318552    0.51786383   
     16660   0.44758624     158.5          158.5          158.5          0.027077993   -0.13298519     0.18986781     0.024351366    0.44758624   
     16680   0.76919646     158.5          158.5          158.5          0.2783293      0.23220445     0.52702702     0.075756433    0.76919646   
     16700   0.27734831     158.5          158.5          158.5         -0.10360342     0.050362843   -0.3562617     -0.0049113976   0.27734831   
     16720   0.75499696     158.5          158.5          158.5         -0.08862207     0.058242611   -0.33904543     0.014936611    0.75499696   
     16740   0.7063489      158.5          158.5          158.5          0.17607293     0.25824995     0.21193628     0.058032572    0.7063489    
     16760   1.1889204      158.5          158.5          158.5          0.15284527     0.28140415     0.20520544    -0.028073796    1.1889204    
     16780   0.62560048     158.5          158.5          158.5          0.29893106     0.42404624     0.40243116     0.070315784    0.62560048   
     16800   1.220912       158.5          158.5          158.5         -0.081755081   -0.065639628   -0.27606818     0.096442569    1.220912     
     16820   0.39015968     158.5          158.5          158.5         -0.18551085    -0.050750836   -0.48470916    -0.021072552    0.39015968   
     16840   0.538775       158.5          158.5          158.5          0.26983333     0.25341099     0.4697845      0.086304489    0.538775     
     16860   0.86312326     158.5          158.5          158.5          0.016268342   -0.019458614    0.19793336    -0.12966972     0.86312326   
     16880   0.57929372     158.5          158.5          158.5         -0.1319901     -0.1214208     -0.25637142    -0.018178094    0.57929372   
     16900   0.96700634     158.5          158.5          158.5         -0.10839373    -0.12754115    -0.30519605     0.107556       0.96700634   
     16920   0.31714462     158.5          158.5          158.5         -0.12180701    -0.053396876   -0.060027948   -0.2519962      0.31714462   
     16940   0.45038129     158.5          158.5          158.5          0.15043996     0.1432944      0.34651307    -0.0384876      0.45038129   
     16960   0.50635836     158.5          158.5          158.5         -0.031122456    0.02163655    -0.09290493    -0.022098989    0.50635836   
     16980   0.61308379     158.5          158.5          158.5         -0.21265273    -0.1492264     -0.38206836    -0.10666343     0.61308379   
     17000   0.47355942     158.5          158.5          158.5          0.12918288     0.088232395    0.15509819     0.14421805     0.47355942   
     17020   0.75547918     158.5          158.5          158.5          0.070711447    0.068897766    0.14794733    -0.004710753    0.75547918   
     17040   0.13777116     158.5          158.5          158.5          0.095068701    0.070784888    0.14326709     0.071154129    0.13777116   
     17060   0.47019376     158.5          158.5          158.5          0.057759118    0.059578313   -0.060379674    0.17407872     0.47019376   
     17080   0.62413021     158.5          158.5          158.5         -0.15850358    -0.17542088    -0.29634688    -0.003742976    0.62413021   
     17100   0.57099188     158.5          158.5          158.5          0.23070987     0.09889743     0.31519255     0.27803963     0.57099188   
     17120   0.87941875     158.5          158.5          158.5          0.24941081     0.26268381     0.32507999     0.16046863     0.87941875   
     17140   0.36230858     158.5          158.5          158.5         -0.15593551    -0.15015396    -0.22180596    -0.095846626    0.36230858   
     17160   1.0794036      158.5          158.5          158.5         -0.04500068    -0.014286191   -0.18773508     0.067019235    1.0794036    
     17180   0.95815035     158.5          158.5          158.5         -0.029119884    0.10806367    -0.024886089   -0.17053724     0.95815035   
     17200   1.4474024      158.5          158.5          158.5          0.19308025     0.29155421     0.16876372     0.11892282     1.4474024    
     17220   0.78319938     158.5          158.5          158.5          0.16897933     0.10443679     0.059255532    0.34324568     0.78319938   
     17240   1.8318852      158.5          158.5          158.5         -0.37274878    -0.12609147    -0.34553268    -0.6466222      1.8318852    
     17260   0.6763912      158.5          158.5          158.5         -0.005012778    0.31488748    -0.082417977   -0.24750784     0.6763912    
     17280   0.62109359     158.5          158.5          158.5          0.19046503     0.030229465    0.15769405     0.38347158     0.62109359   
     17300   0.48172255     158.5          158.5          158.5          0.00051535145 -0.10282414    -0.036142183    0.14051238     0.48172255   
     17320   0.82311995     158.5          158.5          158.5          0.0093295047   0.21182483    -0.033092529   -0.15074379     0.82311995   
     17340   0.86978013     158.5          158.5          158.5         -0.18481666     0.012085388   -0.055032625   -0.51150275     0.86978013   
     17360   0.48098486     158.5          158.5          158.5          0.045879588   -0.016727272    0.028092627    0.12627341     0.48098486   
     17380   0.61796369     158.5          158.5          158.5          0.26673679     0.11592788     0.070103369    0.61417912     0.61796369   
     17400   0.41404649     158.5          158.5          158.5         -0.12137884     0.037017522   -0.091245793   -0.30990824     0.41404649   
     17420   0.76379412     158.5          158.5          158.5         -0.1089705      0.030199108    0.13186042    -0.48897101     0.76379412   
     17440   0.29083475     158.5          158.5          158.5          0.10151583     0.038458422    0.09432324     0.17176583     0.29083475   
     17460   1.0014495      158.5          158.5          158.5          0.1206434      0.029894944   -0.12542714     0.45746241     1.0014495    
     17480   0.33926686     158.5          158.5          158.5          0.17130863     0.042734875    0.15363705     0.31755396     0.33926686   
     17500   0.49899147     158.5          158.5          158.5         -0.1402127      0.052143818    0.062670941   -0.53545285     0.49899147   
     17520   0.40837415     158.5          158.5          158.5         -0.081302149    0.054726805    0.030488407   -0.32912166     0.40837415   
     17540   0.56808067     158.5          158.5          158.5          0.25936347     0.053432493    0.10085625     0.62380167     0.56808067   
     17560   0.87058623     158.5          158.5          158.5          0.036348462    0.016037282   -0.16823096     0.26123906     0.87058623   
     17580   0.61736874     158.5          158.5          158.5         -0.05436421     0.063836564    0.087724521   -0.31465371     0.61736874   
     17600   0.59371445     158.5          158.5          158.5         -0.099481708    0.095335284    0.10495903    -0.49873944     0.59371445   
     17620   0.71286747     158.5          158.5          158.5         -0.10943699    -0.036539849   -0.21045018    -0.081320952    0.71286747   
     17640   1.0069097      158.5          158.5          158.5          0.21968824     0.15615523     0.068229577    0.43467991     1.0069097    
     17660   0.44182799     158.5          158.5          158.5         -0.038968067    0.1548155      0.07945468    -0.35117438     0.44182799   
     17680   1.7200559      158.5          158.5          158.5         -0.35871401    -0.081838785   -0.063540232   -0.93076302     1.7200559    
     17700   0.6018632      158.5          158.5          158.5          0.075098502    0.23310324     0.061504146   -0.069311879    0.6018632    
     17720   1.007043       158.5          158.5          158.5          0.13122767     0.14492058     0.084036623    0.1647258      1.007043     
     17740   0.34254078     158.5          158.5          158.5          0.15661806    -0.045567598    0.063888843    0.45153292     0.34254078   
     17760   0.70849606     158.5          158.5          158.5         -0.01000119     0.040163361    0.008324749   -0.078491681    0.70849606   
     17780   0.91776999     158.5          158.5          158.5         -0.1349394     -0.018025567   -0.059874765   -0.32691788     0.91776999   
     17800   0.57999558     158.5          158.5          158.5          0.27498039     0.087778432    0.088149125    0.64901361     0.57999558   
     17820   0.5008085      158.5          158.5          158.5          0.22123224    -0.027516135    0.10470596     0.58650688     0.5008085    
     17840   0.33418815     158.5          158.5          158.5         -0.074345839   -0.0059218345  -0.01996546    -0.19715022     0.33418815   
     17860   0.51244038     158.5          158.5          158.5         -0.017536992    0.07508977     0.0074873084  -0.13518805     0.51244038   
     17880   0.24909878     158.5          158.5          158.5         -0.03254909    -0.20713037     0.012765846    0.096717252    0.24909878   
     17900   0.71295607     158.5          158.5          158.5          0.13098378     0.18729328     0.012277334    0.19338072     0.71295607   
     17920   0.24839156     158.5          158.5          158.5          0.079125285    0.26403694    -0.020238662   -0.006422423    0.24839156   
     17940   0.61231436     158.5          158.5          158.5         -0.32064917    -0.34960976    -0.16675252    -0.44558523     0.61231436   
     17960   0.20030965     158.5          158.5          158.5         -0.068570966    0.045566243   -0.080675644   -0.1706035      0.20030965   
     17980   0.55396202     158.5          158.5          158.5          0.10537699     0.34727247    -0.12558259     0.094441102    0.55396202   
     18000   0.66302534     158.5          158.5          158.5         -0.036880356   -0.03052367    -0.085528543    0.0054111435   0.66302534   
     18020   0.68807155     158.5          158.5          158.5         -0.027638281   -0.011376319    0.080221529   -0.15176005     0.68807155   
     18040   0.62531792     158.5          158.5          158.5         -0.18091386    -0.082759333   -0.24266621    -0.21731603     0.62531792   
     18060   0.35548659     158.5          158.5          158.5          0.084964375    0.071674708    0.061615789    0.12160263     0.35548659   
     18080   0.91396474     158.5          158.5          158.5          0.32927266     0.31162071     0.41357705     0.2626202      0.91396474   
     18100   0.45567286     158.5          158.5          158.5         -0.051691159    0.031748508   -0.11139225    -0.07542974     0.45567286   
     18120   1.2588792      158.5          158.5          158.5         -0.036332329   -0.13030392     0.10438656    -0.083079627    1.2588792    
     18140   0.63233296     158.5          158.5          158.5          0.096096221   -0.034904554    0.34436434    -0.02117112     0.63233296   
     18160   0.85030563     158.5          158.5          158.5          0.16220086     0.35961916     0.029486337    0.097497077    0.85030563   
     18180   0.28360526     158.5          158.5          158.5          0.23236867     0.35575774     0.14737759     0.19397069     0.28360526   
     18200   0.86094889     158.5          158.5          158.5         -0.23271293    -0.40934362    -0.10194359    -0.18685158     0.86094889   
     18220   0.57916416     158.5          158.5          158.5         -0.11904911    -0.20027724    -0.12314369    -0.033726394    0.57916416   
     18240   0.94579701     158.5          158.5          158.5          0.28052809     0.45125837     0.12907015     0.26125576     0.94579701   
     18260   0.59283465     158.5          158.5          158.5          0.0265716      0.20280857     0.083988971   -0.20708274     0.59283465   
     18280   0.44184508     158.5          158.5          158.5         -0.096672328   -0.18796857    -0.087406035   -0.014642376    0.44184508   
     18300   0.80797057     158.5          158.5          158.5         -0.13965499    -0.3458882     -0.27787884     0.20480207     0.80797057   
     18320   0.26735477     158.5          158.5          158.5         -0.053387381    0.013101743   -0.038568214   -0.13469567     0.26735477   
     18340   1.1028187      158.5          158.5          158.5          0.24104544     0.43474119     0.31515088    -0.026755746    1.1028187    
     18360   0.37475963     158.5          158.5          158.5         -0.019170541   -0.044493511   -0.028990748    0.015972636    0.37475963   
     18380   0.78774431     158.5          158.5          158.5         -0.25541288    -0.49528928    -0.29387736     0.022927987    0.78774431   
     18400   0.27309376     158.5          158.5          158.5          0.04304562     0.078384463   -0.016216016    0.066968413    0.27309376   
     18420   0.60463245     158.5          158.5          158.5          0.089990226    0.25894813     0.16473499    -0.15371244     0.60463245   
     18440   0.60921563     158.5          158.5          158.5          0.13945062     0.16086023     0.21792771     0.039563925    0.60921563   
     18460   0.89570449     158.5          158.5          158.5         -0.064988736   -0.078936507   -0.23864323     0.12261353     0.89570449   
     18480   0.51723655     158.5          158.5          158.5         -0.19231081    -0.2520121     -0.28578305    -0.03913727     0.51723655   
     18500   0.60285762     158.5          158.5          158.5          0.24468498     0.28013257     0.38078166     0.073140703    0.60285762   
     18520   0.64062136     158.5          158.5          158.5          0.20149974     0.43386749     0.070919196    0.099712529    0.64062136   
     18540   0.41059793     158.5          158.5          158.5         -0.076210995    0.042920713   -0.36116461     0.08961091     0.41059793   
     18560   1.0740575      158.5          158.5          158.5          0.023424726   -0.053799667    0.11150724     0.012566611    1.0740575    
     18580   0.53939312     158.5          158.5          158.5          0.019373556    0.12379796    -0.027108077   -0.038569209    0.53939312   
     18600   0.87934435     158.5          158.5          158.5          0.20221776     0.4948027     -0.089112273    0.20096287     0.87934435   
     18620   0.11905726     158.5          158.5          158.5          0.13355216     0.10853915     0.20110692     0.091010424    0.11905726   
     18640   0.9250582      158.5          158.5          158.5         -0.32681367    -0.61799676    -0.1247243     -0.23771996     0.9250582    
     18660   0.58175298     158.5          158.5          158.5         -0.050614673    0.04704099    -0.076166484   -0.12271852     0.58175298   
     18680   0.99831803     158.5          158.5          158.5          0.13764124     0.17710356     0.11282657     0.12299359     0.99831803   
     18700   0.73021636     158.5          158.5          158.5         -0.014219317   -0.29963908     0.13422247     0.12275866     0.73021636   
     18720   0.70531582     158.5          158.5          158.5         -0.088866777   -0.099112204   -0.0054197796  -0.16206835     0.70531582   
     18740   0.88373447     158.5          158.5          158.5         -0.29886984    -0.26997663    -0.18255685    -0.44407603     0.88373447   
     18760   0.29964607     158.5          158.5          158.5          0.0812039     -0.069341104    0.13294468     0.18000813     0.29964607   
     18780   0.88627014     158.5          158.5          158.5          0.31166        0.32099836     0.13127015     0.48271148     0.88627014   
     18800   0.59183947     158.5          158.5          158.5         -0.10773866     0.068181349   -0.11240851    -0.27898883     0.59183947   
     18820   0.89154004     158.5          158.5          158.5         -0.049012483    0.096959034    0.0049283187  -0.2489248      0.89154004   
     18840   0.18180969     158.5          158.5          158.5          0.12482149     0.23263775     0.048923968    0.092902753    0.18180969   
     18860   0.63326216     158.5          158.5          158.5          0.15400638     0.29584644     0.02333169     0.14284101     0.63326216   
     18880   0.30745097     158.5          158.5          158.5          0.23365622     0.34128399     0.024712453    0.33497221     0.30745097   
     18900   0.77956488     158.5          158.5          158.5         -0.11381726    -0.031804916   -0.019058843   -0.29058801     0.77956488   
     18920   0.37281414     158.5          158.5          158.5         -0.086433623    0.078023434    0.0067989327  -0.34412324     0.37281414   
     18940   0.44440455     158.5          158.5          158.5          0.2053266      0.17395755     0.029022067    0.41300019     0.44440455   
     18960   0.48342059     158.5          158.5          158.5         -0.0026954658  -0.22312204     0.0035677914   0.21146786     0.48342059   
     18980   0.248322       158.5          158.5          158.5         -0.097293595   -0.029418073    0.0025343184  -0.26499703     0.248322     
     19000   0.66743406     158.5          158.5          158.5         -0.18282387    -0.026206819   -0.0026685119  -0.51959627     0.66743406   
     19020   0.53852028     158.5          158.5          158.5         -0.089460416   -0.27817665    -0.011729745    0.021525147    0.53852028   
     19040   0.76149272     158.5          158.5          158.5          0.2097099      0.029911228    0.0080258043   0.59119268     0.76149272   
     19060   0.23093016     158.5          158.5          158.5         -0.0924835     -0.018989021   -0.039448864   -0.21901261     0.23093016   
     19080   0.84355689     158.5          158.5          158.5         -0.27043087    -0.067210911    0.050605832   -0.79468752     0.84355689   
     19100   0.4251833      158.5          158.5          158.5          0.12015929     0.13644552     0.14397513     0.080057213    0.4251833    
     19120   1.532062       158.5          158.5          158.5          0.13202552     0.094916869   -0.23180319     0.53296287     1.532062     
     19140   0.62768868     158.5          158.5          158.5          0.24573637     0.15354558     0.047718623    0.53594492     0.62768868   
     19160   1.0773672      158.5          158.5          158.5          0.0039083752   0.14508332     0.26944738    -0.40280558     1.0773672    
     19180   1.0363547      158.5          158.5          158.5         -0.20181179     0.1134777     -0.25327566    -0.46563742     1.0363547    
     19200   0.46303693     158.5          158.5          158.5          0.30647539     0.1261322      0.0091692461   0.78412471     0.46303693   
     19220   0.97417634     158.5          158.5          158.5          0.2472063      0.080961687    0.20596675     0.45469046     0.97417634   
     19240   0.51078027     158.5          158.5          158.5         -0.076911158    0.055529055   -0.11982445    -0.16643808     0.51078027   
     19260   1.0592931      158.5          158.5          158.5         -0.08989028     0.050623119   -0.09666885    -0.22362511     1.0592931    
     19280   0.30807858     158.5          158.5          158.5         -0.025751822    0.055584946    0.047483591   -0.180324       0.30807858   
     19300   0.60925935     158.5          158.5          158.5          0.1933547      0.056695302    0.18011719     0.34325159     0.60925935   
     19320   0.26884088     158.5          158.5          158.5          0.054447847    0.056876495   -0.06752261     0.17398966     0.26884088   
     19340   0.9325747      158.5          158.5          158.5         -0.28215933    -0.0055941503  -0.13670839    -0.70417545     0.9325747    
     19360   0.44139322     158.5          158.5          158.5          0.0097931134   0.057905595    0.17945569    -0.20798194     0.44139322   
     19380   0.71033602     158.5          158.5          158.5          0.13161258     0.019602077   -0.0067231707   0.38195882     0.71033602   
     19400   0.40842662     158.5          158.5          158.5          0.023737882   -0.034550057    0.00072737918  0.10503632     0.40842662   
     19420   0.55563455     158.5          158.5          158.5         -0.046614153    0.092191247    0.14186924    -0.37390294     0.55563455   
     19440   0.60615254     158.5          158.5          158.5         -0.24223172    -0.023117966   -0.27573887    -0.42783834     0.60615254   
     19460   0.59147544     158.5          158.5          158.5          0.068722585   -0.0047606075  -0.016964979    0.22789334     0.59147544   
     19480   0.95374394     158.5          158.5          158.5          0.27085112     0.062576522    0.42773256     0.32224429     0.95374394   
     19500   0.22670161     158.5          158.5          158.5         -0.11397106    -0.059324902   -0.094864578   -0.18772371     0.22670161   
     19520   0.93433271     158.5          158.5          158.5         -0.13882082     0.19571578    -0.33829387    -0.27388438     0.93433271   
     19540   0.13252189     158.5          158.5          158.5          0.07469037     0.088314643    0.036629371    0.099127096    0.13252189   
     19560   1.1848231      158.5          158.5          158.5          0.19207224    -0.056574387    0.3162066      0.3165845      1.1848231    
     19580   0.67454301     158.5          158.5          158.5          0.24352795     0.35269547     0.27600665     0.10188171     0.67454301   
     19600   0.81016347     158.5          158.5          158.5         -0.14783339     0.12257702    -0.34868693    -0.21739027     0.81016347   
     19620   0.70345889     158.5          158.5          158.5         -0.063648458    0.048400447   -0.24965786     0.010312041    0.70345889   
     19640   0.60765071     158.5          158.5          158.5          0.29980287     0.29498111     0.44407209     0.1603554      0.60765071   
     19660   0.71651333     158.5          158.5          158.5          0.090828104    0.066135063    0.27307949    -0.066730239    0.71651333   
     19680   0.75067485     158.5          158.5          158.5         -0.020668665   -0.043495741   -0.17385346     0.1553432      0.75067485   
     19700   1.0056081      158.5          158.5          158.5         -0.18471262    -0.039314045   -0.47542235    -0.039401453    1.0056081    
     19720   0.43873547     158.5          158.5          158.5         -0.093905608   -0.00075872146 -0.089063534   -0.19189457     0.43873547   
     19740   0.79166393     158.5          158.5          158.5          0.21235037     0.053184621    0.28787493     0.29599156     0.79166393   
     19760   0.13676245     158.5          158.5          158.5         -0.11674048    -0.09003016    -0.26058383     0.00039255011  0.13676245   
     19780   0.93019008     158.5          158.5          158.5         -0.29597252    -0.18738767    -0.55975402    -0.14077588     0.93019008   
     19800   0.31143036     158.5          158.5          158.5          0.030737609   -0.022367856   -0.067374376    0.18195506     0.31143036   
     19820   0.65016304     158.5          158.5          158.5          0.069548509    0.099946093    0.1672873     -0.058587864    0.65016304   
     19840   0.29134726     158.5          158.5          158.5          0.12704044     0.11949083     0.33123691    -0.069606432    0.29134726   
     19860   0.38068161     158.5          158.5          158.5         -0.051637076   -0.059397221   -0.16370811     0.068194108    0.38068161   
     19880   0.42346549     158.5          158.5          158.5         -0.11616373    -0.097507796   -0.27479891     0.023815505    0.42346549   
     19900   0.46702734     158.5          158.5          158.5          0.25740186     0.15997868     0.5596122      0.052614704    0.46702734   
     19920   0.61612327     158.5          158.5          158.5          0.19765491     0.13143513     0.54529723    -0.083767623    0.61612327   
     19940   0.29349882     158.5          158.5          158.5         -0.016820179   -0.013699715   -0.087128979    0.050368155    0.29349882   
     19960   0.6278645      158.5          158.5          158.5         -0.03872027    -0.085026557   -0.18445799     0.15332374     0.6278645    
     19980   0.18812007     158.5          158.5          158.5         -0.047537228   -0.10568842     0.071529961   -0.10845323     0.18812007   
     20000   1.0023448      158.5          158.5          158.5          0.23289509     0.33718281     0.34852252     0.012979951    1.0023448    
     20020   0.49364507     158.5          158.5          158.5          0.094188905    0.19249417     0.034693715    0.055378833    0.49364507   
     20040   1.2537039      158.5          158.5          158.5         -0.40470535    -0.4301943     -0.70276174    -0.081160005    1.2537039    
     20060   0.64096881     158.5          158.5          158.5         -0.060114665    0.21176431    -0.36315032    -0.02895798     0.64096881   
     20080   0.9462063      158.5          158.5          158.5          0.093549393    0.37521237    -0.061864996   -0.032699197    0.9462063    
     20100   0.65945892     158.5          158.5          158.5          0.039953235   -0.10066105     0.1300351      0.090485652    0.65945892   
     20120   0.75234568     158.5          158.5          158.5         -0.03827224     0.040172788   -0.19361079     0.038621277    0.75234568   
     20140   1.2724059      158.5          158.5          158.5         -0.25413107     0.015253373   -0.58957253    -0.18807405     1.2724059    
     20160   0.44294343     158.5          158.5          158.5          0.13783512     0.047908832    0.28139977     0.084196752    0.44294343   
     20180   0.86826643     158.5          158.5          158.5          0.30891707     0.10367585     0.58400682     0.23906855     0.86826643   
     20200   0.22421438     158.5          158.5          158.5         -0.059881875    0.035290616   -0.22456147     0.0096252271   0.22421438   
     20220   0.95830019     158.5          158.5          158.5         -0.079387849   -0.018809312   -0.060318632   -0.1590356      0.95830019   
     20240   0.4035797      158.5          158.5          158.5          0.031883046   -0.10837415     0.31143593    -0.10741265     0.4035797    
     20260   0.91287854     158.5          158.5          158.5          0.17982801     0.1386408      0.12634837     0.27449486     0.91287854   
     20280   0.34971024     158.5          158.5          158.5          0.22092228     0.1897698      0.16694701     0.30605002     0.34971024   
     20300   0.78483312     158.5          158.5          158.5         -0.23362919    -0.15651965    -0.07878893    -0.46557899     0.78483312   
     20320   0.26721925     158.5          158.5          158.5         -0.10936835    -0.026405309   -0.055361039   -0.2463387      0.26721925   
     20340   0.6218818      158.5          158.5          158.5          0.2486395      0.17837671     0.085382695    0.48215911     0.6218818    
     20360   0.76520456     158.5          158.5          158.5          0.064973794    0.05956677     0.035864334    0.099490276    0.76520456   
     20380   0.44540647     158.5          158.5          158.5         -0.047358344   -0.0089184107   0.0625456     -0.19570222     0.44540647   
     20400   0.8545993      158.5          158.5          158.5         -0.15901764    -0.0058313002  -0.22211855    -0.24910308     0.8545993    
     20420   0.086488108    158.5          158.5          158.5         -0.034398492    0.06509327    -0.12354851    -0.044740236    0.086488108  
     20440   0.95097588     158.5          158.5          158.5          0.25207547     0.13345941     0.21644849     0.40631852     0.95097588   
     20460   0.44484884     158.5          158.5          158.5         -0.039599115   -0.023603877   -0.1738543      0.078660833    0.44484884   
     20480   0.98187564     158.5          158.5          158.5         -0.24168822    -0.016085004   -0.17572934    -0.53325033     0.98187564   
     20500   0.54497761     158.5          158.5          158.5          0.014985361    0.13719657     0.070260684   -0.16250117     0.54497761   
     20520   0.86114998     158.5          158.5          158.5          0.061472595   -0.01666571    -0.10901017     0.31009366     0.86114998   
     20540   0.37034685     158.5          158.5          158.5          0.18163972     0.059174282   -0.0092833064   0.49502817     0.37034685   
     20560   0.79728746     158.5          158.5          158.5         -0.12393489     0.10090444     0.076182923   -0.54889202     0.79728746   
     20580   0.96957544     158.5          158.5          158.5         -0.25860737     0.023490074   -0.035865859   -0.76344633     0.96957544   
     20600   0.93211626     158.5          158.5          158.5          0.34736243     0.2605571      0.040412962    0.74111721     0.93211626   
     20620   1.034413       158.5          158.5          158.5          0.27860451    -0.0063191634   0.071349027    0.77078365     1.034413     
     20640   0.31705153     158.5          158.5          158.5         -0.03704316     0.0054143471   0.060628595   -0.17717242     0.31705153   
     20660   1.3772148      158.5          158.5          158.5         -0.0097672299   0.40493796     0.051345648   -0.4855853      1.3772148    
     20680   0.35754759     158.5          158.5          158.5          0.020172823   -0.047059838    0.03481564     0.072762666    0.35754759   
     20700   1.2510958      158.5          158.5          158.5          0.30375444    -0.056520586    0.025267614    0.94251629     1.2510958    
     20720   0.32465843     158.5          158.5          158.5          0.14716246     0.18399338     0.022643575    0.23485042     0.32465843   
     20740   0.86214589     158.5          158.5          158.5         -0.29990058     0.030237207    0.0072388233  -0.93717776     0.86214589   
     20760   0.30529836     158.5          158.5          158.5         -0.058302612    0.033470378    0.035496741   -0.24387496     0.30529836   
     20780   0.45563819     158.5          158.5          158.5          0.063516117   -0.0024132397  -0.036518294    0.22947989     0.45563819   
     20800   0.55133655     158.5          158.5          158.5          0.020528081    0.068015932   -0.056345302    0.049913612    0.55133655   
     20820   0.48468173     158.5          158.5          158.5         -0.083878332    0.054661856    0.0020239178  -0.30832077     0.48468173   
     20840   0.58626        158.5          158.5          158.5         -0.28021576    -0.078985971   -0.070538104   -0.69112322     0.58626      
     20860   0.19660402     158.5          158.5          158.5          0.06769565     0.12917599    -0.01263221     0.086543172    0.19660402   
     20880   0.49822682     158.5          158.5          158.5          0.21030194     0.092699856    0.024925177    0.51328079     0.49822682   
     20900   0.31337886     158.5          158.5          158.5         -0.094605662   -0.090596285   -0.049958681   -0.14326202     0.31337886   
     20920   0.861918       158.5          158.5          158.5         -0.036101043    0.052739565    0.13197779    -0.29302049     0.861918     
     20940   0.24969937     158.5          158.5          158.5          0.068888884    0.016201919    0.080892569    0.10957216     0.24969937   
     20960   0.91087745     158.5          158.5          158.5          0.20874704     0.026724595    0.060434746    0.53908178     0.91087745   
     20980   0.23299888     158.5          158.5          158.5          0.2922613      0.19233004     0.23855207     0.4459018      0.23299888   
     21000   0.89196976     158.5          158.5          158.5         -0.18908113    -0.035757395   -0.010786256   -0.52069973     0.89196976   
     21020   0.77448168     158.5          158.5          158.5         -0.092901685   -0.079012089    0.12387886    -0.32357182     0.77448168   
     21040   0.86813157     158.5          158.5          158.5          0.29807583     0.23463616     0.13323647     0.52635485     0.86813157   
     21060   1.1428456      158.5          158.5          158.5          0.092281275    0.21800094    -0.28160711     0.34044999     1.1428456    
     21080   0.34332504     158.5          158.5          158.5         -0.080738444   -0.010737761    0.018198065   -0.24967564     0.34332504   
     21100   1.0643548      158.5          158.5          158.5         -0.28457417    -0.23677508    -0.13978221    -0.47716523     1.0643548    
     21120   0.49359259     158.5          158.5          158.5         -0.050733213   -0.12981346    -0.27814492     0.25575875     0.49359259   
     21140   1.1886186      158.5          158.5          158.5          0.27621346     0.33168062     0.093494999    0.40346476     1.1886186    
     21160   0.38211573     158.5          158.5          158.5         -0.058555358    0.099071113   -0.00091908986 -0.2738181      0.38211573   
     21180   1.0307793      158.5          158.5          158.5         -0.23219838    -0.39341367    -0.2449264     -0.058255067    1.0307793    
     21200   0.18702101     158.5          158.5          158.5          0.023187203   -0.059230025   -0.052912242    0.18170387     0.18702101   
     21220   0.78967452     158.5          158.5          158.5          0.096717064    0.32905983     0.18908321    -0.22799185     0.78967452   
     21240   0.42960453     158.5          158.5          158.5          0.21308234     0.30275219     0.17966        0.15683483     0.42960453   
     21260   0.73172111     158.5          158.5          158.5         -0.063391424   -0.15408146    -0.14794221     0.11184939     0.73172111   
     21280   0.74050741     158.5          158.5          158.5         -0.21749974    -0.14093163    -0.22278956    -0.28877802     0.74050741   
     21300   0.31005699     158.5          158.5          158.5          0.24130926     0.43122609     0.20603588     0.086665821    0.31005699   
     21320   0.7308469      158.5          158.5          158.5          0.18991306     0.15206197     0.26923098     0.14844622     0.7308469    
     21340   0.31466359     158.5          158.5          158.5         -0.077043731   -0.0021073417  -0.14156621    -0.087457644    0.31466359   
     21360   1.0568286      158.5          158.5          158.5         -0.096383182    0.01090556    -0.27537358    -0.024681525    1.0568286    
     21380   0.36830956     158.5          158.5          158.5         -0.020852136   -0.16939316     0.070416993    0.03641976     0.36830956   
     21400   0.91696533     158.5          158.5          158.5          0.25634814     0.39526644     0.32342993     0.050348054    0.91696533   
     21420   0.27154272     158.5          158.5          158.5          0.10518769     0.3920284     -0.070210182   -0.0062551664   0.27154272   
     21440   0.82073357     158.5          158.5          158.5         -0.28069835    -0.5429529     -0.31523198     0.016089823    0.82073357   
     21460   0.48959559     158.5          158.5          158.5          0.025199142   -0.12525163     0.15432227     0.046526789    0.48959559   
     21480   0.90783619     158.5          158.5          158.5          0.13401655     0.42799308    -0.047246627    0.021303184    0.90783619   
     21500   0.64719875     158.5          158.5          158.5          0.096418552    0.16928        0.092828467    0.027147189    0.64719875   
     21520   0.59966959     158.5          158.5          158.5         -0.036371205   -0.35857701     0.21693579     0.032527604    0.59966959   
     21540   0.82971902     158.5          158.5          158.5         -0.35025126    -0.57503138    -0.49342451     0.017702115    0.82971902   
     21560   0.33572233     158.5          158.5          158.5          0.069680656    0.17292667     0.007207923    0.028907373    0.33572233   
     21580   1.1717654      158.5          158.5          158.5          0.26146358     0.16747148     0.5269296      0.089989661    1.1717654    
     21600   0.2979936      158.5          158.5          158.5         -0.11640751    -0.178104      -0.15871356    -0.012404976    0.2979936    
     21620   1.2212347      158.5          158.5          158.5         -0.13718579    -0.065984663   -0.28906059    -0.056512135    1.2212347    
     21640   0.22525362     158.5          158.5          158.5         -0.011682218   -0.088250783    0.022061808    0.031142322    0.22525362   
     21660   0.67231246     158.5          158.5          158.5          0.20468757     0.32974689     0.19704619     0.087269613    0.67231246   
     21680   0.41367332     158.5          158.5          158.5          0.24948948     0.65812183     0.065672701    0.024673916    0.41367332   
     21700   0.72516513     158.5          158.5          158.5         -0.16666996    -0.1895245     -0.16535199    -0.14513338     0.72516513   
     21720   0.54570481     158.5          158.5          158.5         -0.018559605   -0.055888408   -0.017049946    0.017259538    0.54570481   
     21740   0.42270071     158.5          158.5          158.5          0.22625525     0.53765955     0.12184197     0.019264244    0.42270071   
     21760   0.42703432     158.5          158.5          158.5          0.085802231    0.21434873     0.077222082   -0.034164121    0.42703432   
     21780   0.2867845      158.5          158.5          158.5          0.013028935   -0.10962554    -0.019912082    0.16862443     0.2867845    
     21800   0.63731364     158.5          158.5          158.5         -0.19686979    -0.24579854    -0.10690251    -0.23790831     0.63731364   
     21820   0.24994473     158.5          158.5          158.5         -0.063377489   -0.057068658    0.01288282    -0.14594663     0.24994473   
     21840   0.80224571     158.5          158.5          158.5          0.2020068      0.034952401    0.070501831    0.50056617     0.80224571   
     21860   0.11898843     158.5          158.5          158.5         -0.10493865    -0.25250931    -0.053796285   -0.0085103673   0.11898843   
     21880   0.75747021     158.5          158.5          158.5         -0.26756104    -0.2820143     -0.096598307   -0.42407052     0.75747021   
     21900   0.24790372     158.5          158.5          158.5         -0.027874939   -0.14795012    -0.034172571    0.098497877    0.24790372   
     21920   0.92529163     158.5          158.5          158.5          0.08441708     0.0066078276  -0.010731759    0.25737517     0.92529163   
     21940   0.73752279     158.5          158.5          158.5          0.23517867     0.42756789     0.095808035    0.18216009     0.73752279   
     21960   0.65619389     158.5          158.5          158.5         -0.096128134   -0.060156213    0.03452848    -0.26275667     0.65619389   
     21980   0.9302969      158.5          158.5          158.5         -0.18535385    -0.18697522     0.026051803   -0.39513813     0.9302969    
     22000   0.55270447     158.5          158.5          158.5          0.34919431     0.44388599     0.25635965     0.34733729     0.55270447   
     22020   1.3065784      158.5          158.5          158.5          0.26025619     0.36882263    -0.053191903    0.46513784     1.3065784    
     22040   0.54028041     158.5          158.5          158.5          0.048390305    0.10069829     0.035862557    0.0086100734   0.54028041   
     22060   1.3308609      158.5          158.5          158.5         -0.069467888   -0.02330804     0.25301483    -0.43811045     1.3308609    
     22080   0.41172012     158.5          158.5          158.5         -0.09256504     0.050916385   -0.16004792    -0.16856358     0.41172012   
     22100   0.88430738     158.5          158.5          158.5          0.27312204     0.20537406     0.035084433    0.57890763     0.88430738   
     22120   0.18192561     158.5          158.5          158.5          0.098463666    0.0981781      0.041253083    0.15595982     0.18192561   
     22140   0.99309782     158.5          158.5          158.5         -0.34577325    -0.095511183   -0.1230491     -0.81875945     0.99309782   
     22160   0.49013254     158.5          158.5          158.5         -0.038328243    0.065786817    0.15203993    -0.33281148     0.49013254   
     22180   0.63148259     158.5          158.5          158.5          0.090700504    0.11644343    -0.041248877    0.19690696     0.63148259   
     22200   0.50511184     158.5          158.5          158.5          0.074974164    0.0042644388  -0.14563644     0.36629449     0.50511184   
     22220   0.3076406      158.5          158.5          158.5         -0.027826716    0.057516269    0.10553398    -0.24653039     0.3076406    
     22240   0.89105917     158.5          158.5          158.5         -0.26048994     0.036987601    0.0440788     -0.86253621     0.89105917   
     22260   0.27937679     158.5          158.5          158.5          0.11358128     0.030118799   -0.022476665    0.3331017      0.27937679   
     22280   0.90785981     158.5          158.5          158.5          0.26762394     0.028367889   -0.0046518697   0.77915579     0.90785981   
     22300   0.2753628      158.5          158.5          158.5         -0.059996782    0.036996534    0.034046872   -0.25103375     0.2753628    
     22320   0.83117601     158.5          158.5          158.5         -0.097708569    0.14880234     0.033974573   -0.47590262     0.83117601   
     22340   0.23423585     158.5          158.5          158.5         -0.057398651   -0.066646955   -0.070484752   -0.035064246    0.23423585   
     22360   0.94248192     158.5          158.5          158.5          0.1861609      0.01552599     0.077882739    0.46507396     0.94248192   
     22380   0.48962994     158.5          158.5          158.5          0.26504426     0.18931636     0.12060324     0.48521317     0.48962994   
     22400   0.87929352     158.5          158.5          158.5         -0.26161088    -0.098044908   -0.10911239    -0.57767535     0.87929352   
     22420   0.47381109     158.5          158.5          158.5         -0.092452654    0.16427727    -0.051205784   -0.39042944     0.47381109   
     22440   0.48279343     158.5          158.5          158.5          0.2547034      0.16404911     0.11267238     0.48738871     0.48279343   
     22460   1.0206855      158.5          158.5          158.5          0.087281879   -0.23044936     0.13102175     0.36127325     1.0206855    
     22480   0.43752588     158.5          158.5          158.5          0.050881415    0.18854119     0.036564529   -0.072461476    0.43752588   
     22500   1.1685925      158.5          158.5          158.5         -0.18576447     0.17056625    -0.23651923    -0.49134043     1.1685925    
     22520   0.27242587     158.5          158.5          158.5         -0.040007657   -0.074358678   -0.0057429972  -0.039921295    0.27242587   
     22540   1.0765091      158.5          158.5          158.5          0.31507827     0.080540986    0.30444995     0.56024386     1.0765091    
     22560   0.23252036     158.5          158.5          158.5         -0.051487181   -0.068321065   -0.12648563     0.040345156    0.23252036   
     22580   1.0057476      158.5          158.5          158.5         -0.23888159     0.036491331   -0.33155222    -0.42158387     1.0057476    
     22600   0.56537197     158.5          158.5          158.5         -0.057449603    0.10726185    -0.075299417   -0.20431124     0.56537197   
     22620   0.80170478     158.5          158.5          158.5          0.04580794    -0.066935148   -0.056959986    0.26131895     0.80170478   
     22640   0.40868058     158.5          158.5          158.5          0.19161639     0.043394427    0.088017564    0.44343719     0.40868058   
     22660   0.43737104     158.5          158.5          158.5         -0.15614599     0.040272577   -0.097027376   -0.41168317     0.43737104   
     22680   0.58313393     158.5          158.5          158.5         -0.21627742    -0.017572255   -0.28932357    -0.34193643     0.58313393   
     22700   0.40902958     158.5          158.5          158.5          0.23964388     0.075371264    0.19558968     0.4479707      0.40902958   
     22720   0.74635672     158.5          158.5          158.5          0.17051077     0.11385165     0.41502734    -0.017346686    0.74635672   
     22740   0.15766426     158.5          158.5          158.5          0.029817735    0.056700497    0.21169036    -0.17893765     0.15766426   
     22760   0.7645739      158.5          158.5          158.5         -0.045591012   -0.018855079   -0.14666906     0.028751106    0.7645739    
     22780   0.093461093    158.5          158.5          158.5         -0.044728974    0.0060954279   0.011870381   -0.15215273     0.093461093  
     22800   0.78597371     158.5          158.5          158.5          0.26936116     0.13748843     0.59339531     0.077199745    0.78597371   
     22820   0.30170737     158.5          158.5          158.5          0.12488592     0.095395869    0.099770034    0.17949185     0.30170737   
     22840   0.72154968     158.5          158.5          158.5         -0.26418798    -0.097924029   -0.54538015    -0.14925978     0.72154968   
     22860   0.47898614     158.5          158.5          158.5         -0.069586329   -0.037138231   -0.088733381   -0.082887375    0.47898614   
     22880   0.46444971     158.5          158.5          158.5          0.05104882     0.14341087    -0.083927947    0.093663538    0.46444971   
     22900   0.85965646     158.5          158.5          158.5          0.092012653    0.24859511    -0.13685959     0.16430244     0.85965646   
     22920   0.7905839      158.5          158.5          158.5         -0.081469533   -0.06935558    -0.15852976    -0.016523261    0.7905839    
     22940   1.239222       158.5          158.5          158.5         -0.38446436    -0.23528566    -0.83868994    -0.079417492    1.239222     
     22960   0.5237534      158.5          158.5          158.5          0.1175533      0.40063282    -0.15243405     0.10446112     0.5237534    
     22980   1.1647508      158.5          158.5          158.5          0.30204461     0.19709052     0.63301138     0.076031919    1.1647508    
     23000   0.22962598     158.5          158.5          158.5         -0.031791488   -0.27985904     0.14677643     0.037708146    0.22962598   
     23020   1.339575       158.5          158.5          158.5         -0.028702377    0.16234853    -0.28875108     0.040295425    1.339575     
     23040   0.41318229     158.5          158.5          158.5         -0.0059437946  -0.097417792    0.046477726    0.033108681    0.41318229   
     23060   1.0406406      158.5          158.5          158.5          0.22692585    -0.094945266    0.75588029     0.019842535    1.0406406    
     23080   0.41662434     158.5          158.5          158.5          0.29071668     0.36497521     0.4599831      0.047191738    0.41662434   
     23100   0.47636761     158.5          158.5          158.5         -0.19129404    -0.13649515    -0.45310204     0.015715081    0.47636761   
     23120   0.52194434     158.5          158.5          158.5         -0.11701793    -0.24079141    -0.1011633     -0.0090990788   0.52194434   
     23140   0.30072447     158.5          158.5          158.5          0.15090898     0.17646781     0.2468568      0.029402331    0.30072447   
     23160   0.73706197     158.5          158.5          158.5          0.070210432    0.19827498    -0.0085327175   0.020889036    0.73706197   
     23180   0.24618001     158.5          158.5          158.5         -0.0059307569  -0.02436444    -0.0045335143   0.011105683    0.24618001   
     23200   0.68906849     158.5          158.5          158.5         -0.25561803    -0.21379829    -0.50067534    -0.052380465    0.68906849   
     23220   0.1312312      158.5          158.5          158.5         -0.060439805    0.07984822    -0.32737903     0.066211392    0.1312312    
     23240   0.7048853      158.5          158.5          158.5          0.24921781     0.23779827     0.40135413     0.10850102     0.7048853    
     23260   0.32751154     158.5          158.5          158.5         -0.05003762    -0.03871837     0.036361144   -0.14775563     0.32751154   
     23280   0.82032635     158.5          158.5          158.5         -0.1512244     -0.084254145   -0.45083862     0.081419552    0.82032635   
     23300   0.29624832     158.5          158.5          158.5         -0.0089850471   0.0090922367  -0.10489929     0.068851909    0.29624832   
     23320   0.63647124     158.5          158.5          158.5          0.066406637    0.1278172      0.33306088    -0.26165817     0.63647124   
     23340   0.47436577     158.5          158.5          158.5          0.26663906     0.18270989     0.33311275     0.28409454     0.47436577   
     23360   0.6124573      158.5          158.5          158.5         -0.084689781   -0.076073341   -0.25113442     0.073138419    0.6124573    
     23380   1.0039499      158.5          158.5          158.5         -0.24805478    -0.03229032    -0.23006279    -0.48181122     1.0039499    
     23400   0.39557891     158.5          158.5          158.5          0.23891409     0.2058546      0.31412501     0.19676265     0.39557891   
     23420   1.1567212      158.5          158.5          158.5          0.1704012      0.045817179    0.11709405     0.34829238     1.1567212    
     23440   0.1284909      158.5          158.5          158.5          0.031469009    0.11515233     0.087163459   -0.10790876     0.1284909    
     23460   1.136611       158.5          158.5          158.5         -0.15250592     0.095105399   -0.13962562    -0.41299755     1.136611     
     23480   0.49561276     158.5          158.5          158.5         -0.082432839   -0.035526136   -0.1795571     -0.032215278    0.49561276   
     23500   1.1463718      158.5          158.5          158.5          0.35518168     0.21107699     0.33658581     0.51788223     1.1463718    
     23520   0.45143541     158.5          158.5          158.5          0.12539844     0.10100958     0.18320271     0.091983029    0.45143541   
     23540   0.73765101     158.5          158.5          158.5         -0.24031154    -0.071602614   -0.23116519    -0.41816681     0.73765101   
     23560   0.46156731     158.5          158.5          158.5         -0.015985821    0.15894624    -0.063073989   -0.14382971     0.46156731   
     23580   0.51655942     158.5          158.5          158.5          0.032912535   -0.084430255    0.067240316    0.11592755     0.51655942   
     23600   0.60216084     158.5          158.5          158.5          0.13189668    -0.076395247    0.10762423     0.36446106     0.60216084   
     23620   0.29192283     158.5          158.5          158.5         -0.0097298787   0.048008343   -0.0099677753  -0.067230204    0.29192283   
     23640   0.60638702     158.5          158.5          158.5         -0.29224495    -0.1040082     -0.16056447    -0.61216219     0.60638702   
     23660   0.060092201    158.5          158.5          158.5          0.038428489    0.023037712    0.029079606    0.06316815     0.060092201  
     23680   0.51414767     158.5          158.5          158.5          0.14930321    -0.059609308    0.1230447      0.38447423     0.51414767   
     23700   0.15583198     158.5          158.5          158.5         -0.046164189   -0.085140731   -0.022764778   -0.030587058    0.15583198   
     23720   0.59695279     158.5          158.5          158.5         -0.077261607    0.15104664    -0.065571317   -0.31726015     0.59695279   
     23740   0.22145418     158.5          158.5          158.5         -0.065548303   -0.0028562925  -0.0024944374  -0.19129418     0.22145418   
     23760   0.37485347     158.5          158.5          158.5          0.17121232     0.0017514087   0.06369601     0.44818955     0.37485347   
     23780   0.33052467     158.5          158.5          158.5          0.22437193     0.11239611     0.011223467    0.54949621     0.33052467   
     23800   0.51875364     158.5          158.5          158.5         -0.14929013     0.035613318   -0.058906433   -0.42457729     0.51875364   
     23820   0.67390478     158.5          158.5          158.5         -0.029558874    0.15217327     0.050540591   -0.29139048     0.67390478   
     23840   0.43112422     158.5          158.5          158.5          0.17598264     0.040833337   -0.030279107    0.51739369     0.43112422   
     23860   0.7388317      158.5          158.5          158.5          0.12250023    -0.043235932   -0.051129173    0.46186578     0.7388317    
     23880   0.25242076     158.5          158.5          158.5          0.061714652    0.12800725     0.1737902     -0.11665349     0.25242076   
     23900   0.94454811     158.5          158.5          158.5         -0.31332276     0.054580402   -0.068819954   -0.92572874     0.94454811   
     23920   0.28411033     158.5          158.5          158.5         -0.089432334    0.025686578   -0.068331215   -0.22565237     0.28411033   
     23940   1.2326902      158.5          158.5          158.5          0.26781616     0.077170107    0.17154377     0.5547346      1.2326902    
     23960   0.30966855     158.5          158.5          158.5         -0.074167867    0.048644777   -0.18385557    -0.087292804    0.30966855   
     23980   0.8326168      158.5          158.5          158.5         -0.22044084     0.061085754    0.011944828   -0.73435312     0.8326168    
     24000   0.39030363     158.5          158.5          158.5         -0.073649409    0.062463542    0.15810324    -0.44151501     0.39030363   
     24020   0.67779932     158.5          158.5          158.5          0.071640485    0.063964786   -0.1740472      0.32500387     0.67779932   
     24040   0.93379088     158.5          158.5          158.5          0.29265406     0.10189965     0.027406513    0.74865602     0.93379088   
     24060   0.4015051      158.5          158.5          158.5         -0.047276298    0.035546351    0.085747462   -0.26312271     0.4015051    
     24080   0.90566504     158.5          158.5          158.5         -0.18910522     0.0092328754   0.079744007   -0.65629256     0.90566504   
     24100   0.28575183     158.5          158.5          158.5          0.22651193     0.13852797     0.13214074     0.40886707     0.28575183   
     24120   0.83661949     158.5          158.5          158.5          0.17984008     0.096049163   -0.09077486     0.53424594     0.83661949   
     24140   0.28914446     158.5          158.5          158.5          0.094747285    0.067869703    0.043573218    0.17279893     0.28914446   
     24160   0.96106084     158.5          158.5          158.5         -0.12915468     0.051264762    0.11115099    -0.54987979     0.96106084   
     24180   0.30923207     158.5          158.5          158.5         -0.15270574    -0.027540871   -0.056540826   -0.37403553     0.30923207   
     24200   0.69618304     158.5          158.5          158.5          0.251274       0.040653204    0.0061706537   0.70699815     0.69618304   
     24220   0.19378742     158.5          158.5          158.5          0.062557969   -0.0031472356  -0.010778564    0.20159971     0.19378742   
     24240   0.61521192     158.5          158.5          158.5         -0.25351296    -0.04913344    -0.044044872   -0.66736057     0.61521192   
     24260   0.572577       158.5          158.5          158.5         -0.039430388   -0.0062306101  -0.022498022   -0.089562531    0.572577     
     24280   0.40067995     158.5          158.5          158.5          0.029089502   -0.12347097    -0.019592473    0.23033195     0.40067995   
     24300   0.5874316      158.5          158.5          158.5          0.14237904     0.13154867     0.069601103    0.22598735     0.5874316    
     24320   0.14159612     158.5          158.5          158.5          0.0069588003   0.055135244    0.007153783   -0.041412626    0.14159612   
     24340   0.76435703     158.5          158.5          158.5         -0.26914674    -0.25435198    -0.12152034    -0.43156791     0.76435703   
     24360   0.20460828     158.5          158.5          158.5          0.1014739      0.19506703     0.048958271    0.060396405    0.20460828   
     24380   0.86784478     158.5          158.5          158.5          0.2094622      0.1905335      0.12240681     0.31544628     0.86784478   
     24400   0.30308497     158.5          158.5          158.5          0.010860794   -0.12238114     0.024212943    0.13075058     0.30308497   
     24420   0.8394346      158.5          158.5          158.5         -0.089653012    0.11624502    -0.089649372   -0.29555468     0.8394346    
     24440   0.37456664     158.5          158.5          158.5         -0.16713582     0.0052593928  -0.14661179    -0.36005508     0.37456664   
     24460   0.89001939     158.5          158.5          158.5          0.23967816     0.081529413    0.24457268     0.3929324      0.89001939   
     24480   0.85883108     158.5          158.5          158.5          0.31526009     0.38038731     0.23662385     0.32876912     0.85883108   
     24500   1.0132196      158.5          158.5          158.5         -0.25538777    -0.0065903535  -0.42744273    -0.33213022     1.0132196    
     24520   1.0571947      158.5          158.5          158.5         -0.077959567   -0.079787701   -0.028204529   -0.12588647     1.0571947    
     24540   0.42241379     158.5          158.5          158.5          0.18652438     0.15769493     0.24202877     0.15984943     0.42241379   
     24560   1.1817905      158.5          158.5          158.5          0.17932866     0.51638332    -0.1342716      0.15587426     1.1817905    
     24580   0.19989993     158.5          158.5          158.5          0.1315954      0.2767528      0.084439209    0.033594188    0.19989993   
     24600   1.2814171      158.5          158.5          158.5         -0.25225025    -0.55735132    -0.12497236    -0.074427079    1.2814171    
     24620   0.29024909     158.5          158.5          158.5         -0.047588036    0.0073997378  -0.1689248      0.018760951    0.29024909   
     24640   0.78197433     158.5          158.5          158.5          0.2354432      0.43852058     0.21009292     0.057716103    0.78197433   
     24660   0.26770646     158.5          158.5          158.5         -0.034855486   -0.20747192     0.16016937    -0.057263911    0.26770646   
     24680   0.54373373     158.5          158.5          158.5         -0.16294436    -0.36110996    -0.13221712     0.0044939935   0.54373373   
     24700   0.47936976     158.5          158.5          158.5         -0.14725271    -0.21206506    -0.26002929     0.030336228    0.47936976   
     24720   0.51630268     158.5          158.5          158.5          0.026792304   -0.012611348    0.1634398     -0.070451543    0.51630268   
     24740   0.52777438     158.5          158.5          158.5          0.22607856     0.28231356     0.37177446     0.024147673    0.52777438   
     24760   0.28102667     158.5          158.5          158.5         -0.12684269    -0.098913577   -0.27333231    -0.0082821686   0.28102667   
     24780   0.63202889     158.5          158.5          158.5         -0.19295459    -0.35364565    -0.27237566     0.047157551    0.63202889   
     24800   0.21678808     158.5          158.5          158.5          0.20078772     0.22516897     0.24867049     0.1285237      0.21678808   
     24820   0.93486961     158.5          158.5          158.5          0.17587366     0.53600449     0.12330323    -0.13168674     0.93486961   
     24840   0.21792676     158.5          158.5          158.5          0.13137582     0.31615915     0.040752388    0.037215936    0.21792676   
     24860   0.92177022     158.5          158.5          158.5         -0.07286226    -0.29690547    -0.12732434     0.20564303     0.92177022   
     24880   0.18065757     158.5          158.5          158.5         -0.099773808   -0.08364972    -0.10669678    -0.10897492     0.18065757   
     24900   0.72651878     158.5          158.5          158.5          0.29612352     0.60516096     0.28718833    -0.003978727    0.72651878   
     24920   0.57420616     158.5          158.5          158.5          0.11613172     0.19036185     0.088990415    0.069042901    0.57420616   
     24940   0.69767233     158.5          158.5          158.5         -0.22370962    -0.42442811    -0.22999085    -0.016709893    0.69767233   
     24960   0.83785809     158.5          158.5          158.5         -0.12187255    -0.29566473    -0.075380226    0.0054273157   0.83785809   
     24980   0.45028768     158.5          158.5          158.5         -0.039838379    0.0066439258  -0.072866661   -0.0532924      0.45028768   
     25000   0.8772726      158.5          158.5          158.5          0.16219403     0.28358808     0.0037924976   0.1992015      0.8772726    
     25020   0.36388249     158.5          158.5          158.5         -0.048863604   -0.052596946   -0.083083819   -0.010910046    0.36388249   
     25040   1.1759028      158.5          158.5          158.5         -0.37640306    -0.59109484    -0.32928419    -0.20883015     1.1759028    
     25060   0.43345915     158.5          158.5          158.5          0.13167431     0.12896335     0.031557933    0.23450166     0.43345915   
     25080   1.003498       158.5          158.5          158.5          0.22705948     0.45041214     0.16859047     0.062175832    1.003498     
     25100   0.15101538     158.5          158.5          158.5          0.05118232     0.13246584     0.058711067   -0.037629953    0.15101538   
     25120   0.94915021     158.5          158.5          158.5         -0.01264835    -0.13110013     0.092990886    0.00016419206  0.94915021   
     25140   0.41254164     158.5          158.5          158.5         -0.12203646    -0.17493205     0.014125494   -0.20530281     0.41254164   
     25160   0.69412813     158.5          158.5          158.5          0.21554905     0.2693941      0.22119824     0.1560548      0.69412813   
     25180   0.56062498     158.5          158.5          158.5          0.26578598     0.37342897     0.11819688     0.30573209     0.56062498   
     25200   0.25409217     158.5          158.5          158.5         -0.15392785    -0.1827402     -0.096805831   -0.18223752     0.25409217   
     25220   0.55375022     158.5          158.5          158.5         -0.10449552    -0.22722594     0.13267043    -0.21893105     0.55375022   
     25240   0.092095788    158.5          158.5          158.5          0.053998589    0.11308615    -0.030369155    0.079278767    0.092095788  
     25260   0.5843734      158.5          158.5          158.5          0.09694596     0.22588165    -0.14450759     0.20946382     0.5843734    
     25280   0.20054657     158.5          158.5          158.5          0.047606103    0.015445091    0.09778846     0.029584757    0.20054657   
     25300   0.51578386     158.5          158.5          158.5         -0.24411695    -0.26262515    -0.090539285   -0.37918641     0.51578386   
     25320   0.12378433     158.5          158.5          158.5         -0.049297446    0.059005816   -0.077576085   -0.12932207     0.12378433   
     25340   0.46747337     158.5          158.5          158.5          0.18897369     0.20909982     0.031499269    0.32632197     0.46747337   
     25360   0.31021119     158.5          158.5          158.5         -0.017237405   -0.048240449   -0.099044553    0.095572789    0.31021119   
     25380   0.66465554     158.5          158.5          158.5         -0.078099584    0.035217898    0.036234301   -0.30575095     0.66465554   
     25400   0.44694463     158.5          158.5          158.5         -0.11521617    -0.081978371    0.018884688   -0.28255481     0.44694463   
     25420   0.49612213     158.5          158.5          158.5          0.043340753   -0.077174813   -0.051737879    0.25893495     0.49612213   
     25440   0.77123946     158.5          158.5          158.5          0.30774017     0.42330203     0.050635836    0.44928264     0.77123946   
     25460   0.3578493      158.5          158.5          158.5         -0.10584266     0.014071992   -0.0055158823  -0.3260841      0.3578493    
     25480   1.2315287      158.5          158.5          158.5         -0.24446443    -0.30145018     0.041794603   -0.4737377      1.2315287    
     25500   0.32417186     158.5          158.5          158.5          0.18486744     0.22171832     0.045629474    0.28725454     0.32417186   
     25520   1.2771057      158.5          158.5          158.5          0.18627111     0.19426216     0.00063593376  0.36391524     1.2771057    
     25540   0.12255628     158.5          158.5          158.5          0.13714546    -0.05934869     0.039785108    0.43099995     0.12255628   
     25560   0.97933409     158.5          158.5          158.5         -0.14332466    -0.061762329    0.034066829   -0.40227847     0.97933409   
     25580   0.52515806     158.5          158.5          158.5         -0.10619928     0.10897904     0.016088382   -0.44366525     0.52515806   
     25600   0.88790537     158.5          158.5          158.5          0.33766978     0.16430302     0.030750995    0.81795531     0.88790537   
     25620   0.62488565     158.5          158.5          158.5          0.13863717    -0.15913985     0.027504183    0.54754718     0.62488565   
     25640   0.48546871     158.5          158.5          158.5         -0.15614519     0.10385008     0.0043561159  -0.57664176     0.48546871   
     25660   0.63495295     158.5          158.5          158.5         -0.092643278    0.19106327     0.02913657    -0.49812968     0.63495295   
     25680   0.39426779     158.5          158.5          158.5         -0.031960685   -0.1851104     -0.036538317    0.12576666     0.39426779   
     25700   0.80911044     158.5          158.5          158.5          0.18176707     0.080007529   -0.027864903    0.49315859     0.80911044   
     25720   0.25080932     158.5          158.5          158.5         -0.021095581    0.13726658    -0.033128594   -0.16742473     0.25080932   
     25740   0.91353914     158.5          158.5          158.5         -0.37166301    -0.077919451   -0.097768135   -0.93930144     0.91353914   
     25760   0.078572999    158.5          158.5          158.5          0.021818521    0.081598272    0.010831547   -0.026974255    0.078572999  
     25780   0.68561615     158.5          158.5          158.5          0.14166164     0.046910613   -0.093764445    0.47183875     0.68561615   
     25800   0.24108474     158.5          158.5          158.5          0.022752788   -0.030359926   -0.015031848    0.11365014     0.24108474   
     25820   0.7018734      158.5          158.5          158.5         -0.048697017    0.054080361    0.16175863    -0.36193004     0.7018734    
     25840   0.4562778      158.5          158.5          158.5         -0.11901838     0.042885666   -0.073617578   -0.32632322     0.4562778    
     25860   0.38076073     158.5          158.5          158.5          0.22933865     0.037791334    0.14719985     0.50302476     0.38076073   
     25880   0.59032685     158.5          158.5          158.5          0.29531208     0.048939737    0.31669121     0.5203053      0.59032685   
     25900   0.48760171     158.5          158.5          158.5         -0.10706945     0.044559435   -0.0019614038  -0.36380638     0.48760171   
     25920   0.98049077     158.5          158.5          158.5         -0.030568305    0.054782196    0.17406148    -0.32054859     0.98049077   
     25940   0.44369136     158.5          158.5          158.5          0.10031896     0.074013467    0.18104841     0.04589499     0.44369136   
     25960   1.1752644      158.5          158.5          158.5          0.19361559     0.1016003     -0.042432679    0.52167914     1.1752644    
     25980   0.18581216     158.5          158.5          158.5          0.14084708     0.12779029     0.012582739    0.2821682      0.18581216   
     26000   1.429127       158.5          158.5          158.5         -0.43955424     0.039581118   -0.38728706    -0.97095676     1.429127     
     26020   0.3294146      158.5          158.5          158.5         -0.11088868     0.10225397    -0.27330749    -0.16161253     0.3294146    
     26040   1.3319536      158.5          158.5          158.5          0.24750747     0.22971954    -0.11182805     0.62463093     1.3319536    
     26060   0.7038053      158.5          158.5          158.5         -0.038961433   -0.035169396   -0.11450209     0.032787182    0.7038053    
     26080   0.74389641     158.5          158.5          158.5         -0.13017391     0.038706643   -0.14941588    -0.2798125      0.74389641   
     26100   0.66799962     158.5          158.5          158.5         -0.17274189     0.11728577    -0.42379366    -0.21171778     0.66799962   
     26120   0.29945034     158.5          158.5          158.5          0.06773961    -0.021663015    0.087116007    0.13776584     0.29945034   
     26140   0.83458087     158.5          158.5          158.5          0.31304383     0.051940222    0.61035107     0.27684019     0.83458087   
     26160   0.2776745      158.5          158.5          158.5         -0.050823967    0.011967342   -0.12033726    -0.044101983    0.2776745    
     26180   0.79758142     158.5          158.5          158.5         -0.12747586     0.015699494   -0.26861947    -0.1295076      0.79758142   
     26200   0.18450637     158.5          158.5          158.5          0.12221118    -0.078558464    0.32988455     0.11530747     0.18450637   
     26220   0.62697086     158.5          158.5          158.5          0.14090296    -0.03300747     0.31503481     0.14068153     0.62697086   
     26240   0.20633717     158.5          158.5          158.5          0.15593582     0.26605939     0.16054435     0.041203704    0.20633717   
     26260   0.76299001     158.5          158.5          158.5         -0.16156586    -0.18157571    -0.25557636    -0.047545504    0.76299001   
     26280   0.34991269     158.5          158.5          158.5         -0.15929006    -0.20714934    -0.2392403     -0.031480525    0.34991269   
     26300   0.64348979     158.5          158.5          158.5          0.25869909     0.42567607     0.29519966     0.055221538    0.64348979   
     26320   0.3665221      158.5          158.5          158.5          0.072567465    0.0044473267   0.20736443     0.0058906388   0.3665221    
     26340   0.49127354     158.5          158.5          158.5         -0.18047274    -0.22652321    -0.28582635    -0.029068673    0.49127354   
     26360   0.82807404     158.5          158.5          158.5         -0.10387565     0.13307967    -0.45014277     0.0054361359   0.82807404   
     26380   0.37851714     158.5          158.5          158.5         -0.0087611646   0.055266234   -0.0044119584  -0.07713777     0.37851714   
     26400   1.0959844      158.5          158.5          158.5          0.23542509     0.093590654    0.5958223      0.016862332    1.0959844    
     26420   0.10629375     158.5          158.5          158.5          0.013838363    0.11611965    -0.090001383    0.015396819    0.10629375   
     26440   1.0436496      158.5          158.5          158.5         -0.32563967    -0.14861389    -0.80122807    -0.027077067    1.0436496    
     26460   0.26673207     158.5          158.5          158.5          0.06471867     0.028474933    0.058281705    0.10739937     0.26673207   
     26480   0.9859551      158.5          158.5          158.5          0.16281188     0.19771518     0.43718505    -0.14646458     0.9859551    
     26500   0.52239679     158.5          158.5          158.5          0.093464949    0.13227598     0.17053522    -0.022416359    0.52239679   
     26520   0.80110158     158.5          158.5          158.5         -0.06998128    -0.055146821   -0.32536213     0.17056511     0.80110158   
     26540   0.53390454     158.5          158.5          158.5         -0.2455994     -0.10938128    -0.47668478    -0.15073213     0.53390454   
     26560   0.52298042     158.5          158.5          158.5          0.228211       0.18136044     0.37700948     0.12626308     0.52298042   
     26580   0.74564692     158.5          158.5          158.5          0.29022422     0.2529597      0.53352502     0.084187944    0.74564692   
     26600   0.53415759     158.5          158.5          158.5         -0.14977214     0.018778087   -0.25255919    -0.21553531     0.53415759   
     26620   1.0104361      158.5          158.5          158.5         -0.037142751    0.01654083    -0.29704378     0.1690747      1.0104361    
     26640   0.20380151     158.5          158.5          158.5          0.093226577    0.11009568     0.13740366     0.032180395    0.20380151   
     26660   0.88190594     158.5          158.5          158.5          0.18236636     0.27763765     0.41755057    -0.14808913     0.88190594   
     26680   0.13282244     158.5          158.5          158.5          0.16245894     0.15346078     0.19082053     0.14309551     0.13282244   
     26700   1.0523952      158.5          158.5          158.5         -0.28429092    -0.31190082    -0.51352517    -0.027446784    1.0523952    
     26720   0.35452851     158.5          158.5          158.5         -0.067131853    0.057438136   -0.18322339    -0.075610304    0.35452851   
     26740   0.73487926     158.5          158.5          158.5          0.19465327     0.10336394     0.35400959     0.12658628     0.73487926   
     26760   0.45679514     158.5          158.5          158.5         -0.029337148   -0.34510302     0.13066688     0.12642469     0.45679514   
     26780   0.52063294     158.5          158.5          158.5         -0.12653903    -0.060368406   -0.25037426    -0.068874419    0.52063294   
     26800   0.65941543     158.5          158.5          158.5         -0.24335143    -0.1247973     -0.38644143    -0.21881557     0.65941543   
     26820   0.45583103     158.5          158.5          158.5          0.02502039    -0.20476522     0.18670163     0.093124762    0.45583103   
     26840   0.80988406     158.5          158.5          158.5          0.29143022     0.14787338     0.44230812     0.28410915     0.80988406   
     26860   0.23331877     158.5          158.5          158.5         -0.12295965     0.0060655964  -0.27531128    -0.099633264    0.23331877   
     26880   0.80339031     158.5          158.5          158.5         -0.1578178      0.029688075   -0.25304533    -0.25009615     0.80339031   
     26900   0.15526813     158.5          158.5          158.5          0.16855878     0.20275501     0.19765805     0.10526327     0.15526813   
     26920   1.1140811      158.5          158.5          158.5          0.18393024     0.16864543     0.0047475889   0.3783977      1.1140811    
     26940   0.32970373     158.5          158.5          158.5          0.2554218      0.26962684     0.15945591     0.33718264     0.32970373   
     26960   0.96186505     158.5          158.5          158.5         -0.10554262     0.085278164   -0.080076392   -0.32182963     0.96186505   
     26980   0.38029679     158.5          158.5          158.5         -0.15951188     0.055576929   -0.32577878    -0.20833379     0.38029679   
     27000   0.68438869     158.5          158.5          158.5          0.32545572     0.19836218     0.24523137     0.53277361     0.68438869   
     27020   0.89456524     158.5          158.5          158.5          0.10671353     0.0076688519   0.21267577     0.099795957    0.89456524   
     27040   0.56845732     158.5          158.5          158.5         -0.16748809     0.034194816   -0.11927855    -0.41738053     0.56845732   
     27060   1.1947679      158.5          158.5          158.5         -0.18710422     0.080702665   -0.11250579    -0.52950954     1.1947679    
     27080   0.47042807     158.5          158.5          158.5         -0.076654729    0.063277202    0.084080778   -0.37732217     0.47042807   
     27100   0.95740944     158.5          158.5          158.5          0.23234507     0.10153233     0.24108296     0.35441991     0.95740944   
     27120   0.25040392     158.5          158.5          158.5         -0.0335861      0.055616855   -0.15571119    -0.00066396791  0.25040392   
     27140   1.0885609      158.5          158.5          158.5         -0.32112518     0.040370707   -0.052960385   -0.95078588     1.0885609    
     27160   0.35657128     158.5          158.5          158.5          0.082662218    0.08010953     0.24299918    -0.075122058    0.35657128   
     27180   0.84207674     158.5          158.5          158.5          0.150131       0.0017538869  -0.1716386      0.62027772     0.84207674   
     27200   0.17064958     158.5          158.5          158.5          0.11648538     0.020005573   -0.045700469    0.37515105     0.17064958   
     27220   0.54579552     158.5          158.5          158.5         -0.017972827    0.10262274     0.16560039    -0.32214161     0.54579552   
     27240   0.41736775     158.5          158.5          158.5         -0.17576241    -0.011327045   -0.10379539    -0.41216481     0.41736775   
     27260   0.38172603     158.5          158.5          158.5          0.19043421     0.017089122   -0.011985885    0.56619939     0.38172603   
     27280   0.5659213      158.5          158.5          158.5          0.22107071     0.051598413    0.072642083    0.53897165     0.5659213    
     27300   0.15860882     158.5          158.5          158.5         -0.12355391    -0.018970907   -0.041227259   -0.31046357     0.15860882   
     27320   0.62893433     158.5          158.5          158.5         -0.10455891     0.094910699    0.012896882   -0.42148432     0.62893433   
     27340   0.080015557    158.5          158.5          158.5          0.012792701    0.0003096146   0.019091913    0.018976576    0.080015557  
     27360   0.74241975     158.5          158.5          158.5          0.14781748    -0.058526775    0.0032689601   0.49871027     0.74241975   
     27380   0.3244369      158.5          158.5          158.5          0.10595236     0.079358657    0.0006599761   0.23783845     0.3244369    
     27400   0.8990993      158.5          158.5          158.5         -0.30919111    -0.009187113    0.0097518075  -0.92813802     0.8990993    
     27420   0.32824628     158.5          158.5          158.5         -0.036887073    0.13401306     0.042782482   -0.28745676     0.32824628   
     27440   0.88804542     158.5          158.5          158.5          0.25496019     0.026092506    0.0474641      0.69132397     0.88804542   
     27460   0.84730217     158.5          158.5          158.5          0.049033241   -0.17198866     0.04998942     0.26909897     0.84730217   
     27480   1.0772654      158.5          158.5          158.5         -0.027276747    0.22616704     0.032076329   -0.34007361     1.0772654    
     27500   1.090592       158.5          158.5          158.5         -0.26972628     0.022170135   -0.0020833474  -0.82926562     1.090592     
     27520   0.59523499     158.5          158.5          158.5          0.027453003   -0.025890714    0.0091881427   0.099061582    0.59523499   
     27540   1.1344325      158.5          158.5          158.5          0.35774455     0.13196827     0.16327469     0.77799068     1.1344325    
     27560   0.15705436     158.5          158.5          158.5         -0.12919805    -0.074916078   -0.02431901    -0.28835906     0.15705436   
     27580   1.1922044      158.5          158.5          158.5         -0.21677033     0.074484373   -0.11091792    -0.61387744     1.1922044    
     27600   0.26193796     158.5          158.5          158.5          0.097583078    0.10415893     0.087098362    0.10149195     0.26193796   
     27620   1.005358       158.5          158.5          158.5          0.14761178     0.044596923    0.030371961    0.36786645     1.005358     
     27640   0.28351415     158.5          158.5          158.5          0.22155915     0.31107298    -0.0041711343   0.35777562     0.28351415   
     27660   0.5918031      158.5          158.5          158.5         -0.14075356     0.014170913   -0.11568106    -0.32075054     0.5918031    
     27680   0.4393163      158.5          158.5          158.5         -0.1100088     -0.10779936    -0.0016211078  -0.22060593     0.4393163    
     27700   0.56235277     158.5          158.5          158.5          0.30196673     0.31670917     0.10950218     0.47968883     0.56235277   
     27720   0.63767344     158.5          158.5          158.5          0.10604897     0.19843627    -0.15482357     0.27453422     0.63767344   
     27740   0.3253663      158.5          158.5          158.5         -0.054506916   -0.098097352    0.11035585    -0.17577924     0.3253663    
     27760   0.69066825     158.5          158.5          158.5         -0.12713588    -0.14181666    -0.012611305   -0.22697968     0.69066825   
     27780   0.22018579     158.5          158.5          158.5         -0.1032798     -0.0094968579  -0.28731623    -0.013026329    0.22018579   
     27800   0.87932554     158.5          158.5          158.5          0.22608689     0.18449139     0.38950469     0.10426459     0.87932554   
     27820   0.26585296     158.5          158.5          158.5         -0.038713949   -0.068504016    0.14822339    -0.19586122     0.26585296   
     27840   1.2352151      158.5          158.5          158.5         -0.3919767     -0.43589186    -0.4398218     -0.30021645     1.2352151    
     27860   0.25004517     158.5          158.5          158.5          0.031971354   -0.040949358    0.12961447     0.0072489495   0.25004517   
     27880   1.0223398      158.5          158.5          158.5          0.12970652     0.28431004     0.25621469    -0.15140518     1.0223398    
     27900   0.63155823     158.5          158.5          158.5          0.17615866     0.36917557     0.049142959    0.11015744     0.63155823   
     27920   1.2397683      158.5          158.5          158.5         -0.031099502   -0.14797278    -0.14328549     0.19795976     1.2397683    
     27940   1.3339636      158.5          158.5          158.5         -0.21670497    -0.40789357    -0.18766778    -0.054553568    1.3339636    
     27960   0.86335942     158.5          158.5          158.5          0.39418522     0.54272131     0.32344964     0.31638472     0.86335942   
     27980   1.2520605      158.5          158.5          158.5          0.33906206     0.5506167      0.36617371     0.10039578     1.2520605    
     28000   0.37786396     158.5          158.5          158.5         -0.066101979   -0.081068861   -0.086416272   -0.030820804    0.37786396   
     28020   0.9500471      158.5          158.5          158.5         -0.034712423   -0.25522329    -0.086838513    0.23792454     0.9500471    
     28040   0.31208865     158.5          158.5          158.5         -0.023424683   -0.095049549    0.09642136    -0.071645859    0.31208865   
     28060   0.88865038     158.5          158.5          158.5          0.18235998     0.47147946     0.12054921    -0.04494874     0.88865038   
     28080   0.25542441     158.5          158.5          158.5          0.13633724     0.29935478     0.018422284    0.091234661    0.25542441   
     28100   0.78754341     158.5          158.5          158.5         -0.35776493    -0.6776843     -0.33526337    -0.060347115    0.78754341   
     28120   0.21752775     158.5          158.5          158.5         -0.094312286   -0.13647351    -0.18937903     0.042915674    0.21752775   
     28140   0.65844191     158.5          158.5          158.5          0.14065992     0.46868149    -0.089704336    0.043002589    0.65844191   
     28160   0.65953178     158.5          158.5          158.5          0.0078344574   0.11546663    -0.049376019   -0.042587236    0.65953178   
     28180   0.4442243      158.5          158.5          158.5         -0.032012585   -0.13007336    -0.00094659067  0.034982196    0.4442243    
     28200   0.84895229     158.5          158.5          158.5         -0.21756456    -0.30506078    -0.36455762     0.016924714    0.84895229   
     28220   0.16024158     158.5          158.5          158.5          0.049690897    0.096602742    0.036255388    0.01621456     0.16024158   
     28240   0.87513953     158.5          158.5          158.5          0.33198198     0.48585707     0.43188891     0.078199967    0.87513953   
     28260   0.41546522     158.5          158.5          158.5         -0.058396748   -0.0035370002  -0.17285613     0.0012028845   0.41546522   
     28280   1.1378937      158.5          158.5          158.5         -0.11998683    -0.29495696    -0.014403922   -0.050599599    1.1378937    
     28300   0.37776025     158.5          158.5          158.5          0.070793187   -0.12107404     0.26699458     0.066459026    0.37776025   
     28320   0.97545839     158.5          158.5          158.5          0.1547845      0.36733322    -0.0070609709   0.10408126     0.97545839   
     28340   0.32388377     158.5          158.5          158.5          0.27547037     0.54716634     0.13591978     0.14332499     0.32388377   
     28360   1.1161286      158.5          158.5          158.5         -0.22090152    -0.57948536     0.007642068   -0.090861256    1.1161286    
     28380   0.67852484     158.5          158.5          158.5         -0.17201541    -0.31543887    -0.073942628   -0.12666475     0.67852484   
     28400   0.8736294      158.5          158.5          158.5          0.33555695     0.75739391     0.083553831    0.16572311     0.8736294    
     28420   0.86613958     158.5          158.5          158.5          0.075778961    0.028874462    0.059892489    0.13856993     0.86613958   
     28440   0.30355087     158.5          158.5          158.5         -0.078305346   -0.21766324     0.00082911361 -0.018081908    0.30355087   
     28460   0.81297228     158.5          158.5          158.5         -0.10590539     0.042869061   -0.060428869   -0.30015635     0.81297228   
     28480   0.27179087     158.5          158.5          158.5         -0.068265708   -0.07164598     0.002999112   -0.13615025     0.27179087   
     28500   0.84652445     158.5          158.5          158.5          0.24577037     0.22173396     0.073154944    0.44242219     0.84652445   
     28520   0.13180317     158.5          158.5          158.5          0.0055624778   0.12601586     0.0063745846  -0.11570301     0.13180317   
     28540   0.57299455     158.5          158.5          158.5         -0.24890792    -0.18474349    -0.051290401   -0.51068986     0.57299455   
     28560   0.18376306     158.5          158.5          158.5          0.00932359    -0.04707099     0.0039948204   0.07104694     0.18376306   
     28580   0.4676996      158.5          158.5          158.5          0.054228504    0.090463136    0.029744757    0.04247762     0.4676996    
     28600   0.38191425     158.5          158.5          158.5          0.1014877      0.24439619     0.036093605    0.023973297    0.38191425   
     28620   0.3870144      158.5          158.5          158.5         -0.059595219   -0.11146254    -0.020256967   -0.047066148    0.3870144    
     28640   0.4676741      158.5          158.5          158.5         -0.23569999    -0.29369333    -0.044940068   -0.36846657     0.4676741    
     28660   0.30771935     158.5          158.5          158.5          0.20702444     0.31942371     0.087566301    0.2140833      0.30771935   
     28680   0.55280788     158.5          158.5          158.5          0.21262595     0.12238837    -0.0015563896   0.51704588     0.55280788   
     28700   0.35561826     158.5          158.5          158.5         -0.081428997   -0.22263706    -0.078212859    0.056562928    0.35561826   
     28720   1.1252178      158.5          158.5          158.5         -0.0055932519   0.058263677    0.13298053    -0.20802396     1.1252178    
     28740   0.2365427      158.5          158.5          158.5         -0.012797571    0.015678544   -0.039942909   -0.014128348    0.2365427    
     28760   0.96648676     158.5          158.5          158.5          0.23594163     0.088678685   -0.088984282    0.70813049     0.96648676   
     28780   0.16786483     158.5          158.5          158.5          0.21495971     0.17433428     0.13106439     0.33948045     0.16786483   
     28800   1.1499288      158.5          158.5          158.5         -0.34359869    -0.057036872   -0.029543456   -0.94421574     1.1499288    
     28820   0.62841547     158.5          158.5          158.5         -0.058865955    0.010006293    0.055687926   -0.24229208     0.62841547   
     28840   0.71179101     158.5          158.5          158.5          0.15708165     0.12070169    -0.09130981     0.44185305     0.71179101   
     28860   0.81105915     158.5          158.5          158.5          0.013223603    0.090038725   -0.21492425     0.16455634     0.81105915   
     28880   0.56964013     158.5          158.5          158.5         -0.06672808     0.034832265    0.14262119    -0.37763769     0.56964013   
     28900   0.76014665     158.5          158.5          158.5         -0.30813544     0.019011514   -0.063952039   -0.87946581     0.76014665   
     28920   0.40409682     158.5          158.5          158.5          0.038525686    0.042377365   -0.079353215    0.15255291     0.40409682   
     28940   0.9899694      158.5          158.5          158.5          0.31019686     0.082358788    0.070183969    0.77804781     0.9899694    
     28960   0.31958834     158.5          158.5          158.5         -0.086949182    0.039055697   -0.067787847   -0.23211539     0.31958834   
     28980   0.87276973     158.5          158.5          158.5         -0.081671148    0.071571755    0.14495102    -0.46153621     0.87276973   
     29000   0.091672355    158.5          158.5          158.5          0.084035791    0.086951754    0.1110276      0.054128013    0.091672355  
     29020   0.8341993      158.5          158.5          158.5          0.14716641     2.3285211e-05  0.037833918    0.40364202     0.8341993    
     29040   0.47676595     158.5          158.5          158.5          0.27016253     0.094405687    0.17412301     0.5419589      0.47676595   
     29060   0.61766234     158.5          158.5          158.5         -0.13429226     0.072170254   -0.043097501   -0.43194953     0.61766234   
     29080   0.51728643     158.5          158.5          158.5         -0.15876516     0.022857196    0.0047885397  -0.50394122     0.51728643   
     29100   0.40502826     158.5          158.5          158.5          0.22053086     0.081882348    0.12559749     0.45411275     0.40502826   
     29120   0.61348849     158.5          158.5          158.5          0.055597082   -0.056001955   -0.076747307    0.29954051     0.61348849   
     29140   0.29129749     158.5          158.5          158.5         -0.076168187    0.041602746   -0.044544517   -0.22556279     0.29129749   
     29160   0.98418063     158.5          158.5          158.5         -0.18933989     0.081831614   -0.1313091     -0.51854218     0.98418063   
     29180   0.37021957     158.5          158.5          158.5         -0.11117098    -0.042966479   -0.14764123    -0.14290524     0.37021957   
     29200   0.91320049     158.5          158.5          158.5          0.28679429     0.14538555     0.16004323     0.5549541      0.91320049   
     29220   0.18808697     158.5          158.5          158.5         -0.022636341   -0.098097222    0.066127852   -0.035939653    0.18808697   
     29240   1.2973625      158.5          158.5          158.5         -0.3159692      0.082069284   -0.34023919    -0.68973769     1.2973625    
     29260   0.66603083     158.5          158.5          158.5          0.11239128     0.35805269    -0.041491868    0.020613022    0.66603083   
     29280   1.2789758      158.5          158.5          158.5          0.14983317    -0.26542319     0.25445087     0.46047184     1.2789758    
     29300   0.65836785     158.5          158.5          158.5          0.26519051     0.094639525    0.33730065     0.36363136     0.65836785   
     29320   1.0015144      158.5          158.5          158.5          0.011270756    0.28555882    -0.11928595    -0.1324606      1.0015144    
     29340   0.86798912     158.5          158.5          158.5         -0.29953683    -0.21264896    -0.51807484    -0.1678867      0.86798912   
     29360   0.41567299     158.5          158.5          158.5          0.25237663     0.098145347    0.28142223     0.37756232     0.41567299   
     29380   1.0558593      158.5          158.5          158.5          0.21317229     0.20425882     0.45023851    -0.014980454    1.0558593    
     29400   0.26380377     158.5          158.5          158.5         -0.090809207   -0.028323148   -0.16155723    -0.082547248    0.26380377   
     29420   0.87847151     158.5          158.5          158.5         -0.088938595   -0.05459926    -0.36453733     0.15232081     0.87847151   
     29440   0.12627355     158.5          158.5          158.5         -0.071934004    0.022033736   -0.05050837    -0.18732738     0.12627355   
     29460   0.57215944     158.5          158.5          158.5          0.18145559     0.13543101     0.39330114     0.015634614    0.57215944   
     29480   0.41732411     158.5          158.5          158.5          0.12229638     0.063524034    0.14588541     0.15747969     0.41732411   
     29500   0.67232228     158.5          158.5          158.5         -0.26121211    -0.10386636    -0.48404288    -0.19572711     0.67232228   
     29520   0.40224191     158.5          158.5          158.5          0.0098488209  -0.0064412712  -0.020416261    0.056403995    0.40224191   
     29540   0.52680712     158.5          158.5          158.5          0.11570394     0.11651757     0.1913979      0.039196345    0.52680712   
     29560   0.39289863     158.5          158.5          158.5          0.041712991    0.08274982     0.17342124    -0.13103208     0.39289863   
     29580   0.48709442     158.5          158.5          158.5          0.019563194   -0.046619366    0.030444328    0.07486462     0.48709442   
     29600   0.85292235     158.5          158.5          158.5         -0.26212994    -0.11004648    -0.6050563     -0.071287022    0.85292235   
     29620   0.35495451     158.5          158.5          158.5          0.049147465    0.12806396     0.044111518   -0.02473308     0.35495451   
     29640   0.94441935     158.5          158.5          158.5          0.29674104     0.12200192     0.72597309     0.042248103    0.94441935   
     29660   0.12511671     158.5          158.5          158.5         -0.11485917    -0.078201467   -0.19759161    -0.068784421    0.12511671   
     29680   1.0306398      158.5          158.5          158.5         -0.15350851     0.04267431    -0.59166137     0.088461537    1.0306398    
     29700   0.38070236     158.5          158.5          158.5          0.024363973    0.030139965    0.003782285    0.03916967     0.38070236   
     29720   1.0699189      158.5          158.5          158.5          0.17319364     0.087543627    0.45169573    -0.019658435    1.0699189    
     29740   0.54496379     158.5          158.5          158.5          0.28819035     0.477841       0.34042359     0.046306452    0.54496379   
     29760   0.80746893     158.5          158.5          158.5         -0.19096467    -0.071177952   -0.53299733     0.031281279    0.80746893   
     29780   0.60076252     158.5          158.5          158.5         -0.10883235    -0.093743631   -0.26650242     0.033749007    0.60076252   
     29800   0.53581828     158.5          158.5          158.5          0.29271984     0.43466632     0.40179302     0.041700175    0.53581828   
     29820   0.98310651     158.5          158.5          158.5          0.098250412    0.062597611    0.19448692     0.037666703    0.98310651   
     29840   0.46034309     158.5          158.5          158.5          0.0049128454  -0.062477191    0.077308059   -9.2331635e-05  0.46034309   
     29860   0.8879418      158.5          158.5          158.5         -0.19815874    -0.098238194   -0.48061619    -0.015621822    0.8879418    
     29880   0.2347498      158.5          158.5          158.5         -0.13536572    -0.14378969    -0.25230291    -0.010004556    0.2347498    
     29900   0.90718502     158.5          158.5          158.5          0.25402031     0.011234731    0.72966719     0.021159003    0.90718502   
     29920   0.37090554     158.5          158.5          158.5         -0.053001919   -0.1110303      0.021561688   -0.06953715     0.37090554   
     29940   1.0378282      158.5          158.5          158.5         -0.28597427    -0.092726061   -0.63842384    -0.1267729      1.0378282    
     29960   0.34729194     158.5          158.5          158.5          0.034663618    0.0070707951   0.11806082    -0.02114076     0.34729194   
     29980   0.79193809     158.5          158.5          158.5          0.073014374   -0.0010840587   0.27734523    -0.057218051    0.79193809   
     30000   0.45519045     158.5          158.5          158.5          0.17242567     0.2010603      0.067214893    0.24900183     0.45519045   
     30020   0.4506956      158.5          158.5          158.5         -0.0052183789   0.051571635   -0.15197821     0.084751433    0.4506956    
     30040   0.96872616     158.5          158.5          158.5         -0.19416788    -0.043426764   -0.28760441    -0.25147247     0.96872616   
     30060   0.51103241     158.5          158.5          158.5          0.27603993     0.17935246     0.20610502     0.44266233     0.51103241   
     30080   0.78713558     158.5          158.5          158.5          0.23680505     0.17901627     0.1269889      0.40440998     0.78713558   
     30100   0.23762322     158.5          158.5          158.5         -0.029727274    0.04122516    -0.0012933082  -0.12911367     0.23762322   
     30120   0.86688241     158.5          158.5          158.5         -0.063611457   -0.017022152   -0.16786343    -0.0059487914   0.86688241   
     30140   0.39654028     158.5          158.5          158.5         -0.094658602   -0.026105508   -0.23283899    -0.025031312    0.39654028   
     30160   1.0560453      158.5          158.5          158.5          0.21484275     0.18780594     0.36904147     0.087680819    1.0560453    
     30180   0.25384077     158.5          158.5          158.5          0.12066734     0.14027487     0.19862453     0.02310262     0.25384077   
     30200   1.0136329      158.5          158.5          158.5         -0.39583128    -0.15958526    -0.41918046    -0.60872811     1.0136329    
     30220   0.45996458     158.5          158.5          158.5         -0.053514239    0.16446222     0.020220643   -0.34522558     0.45996458   
     30240   0.5478313      158.5          158.5          158.5          0.12663159     0.14185369     0.20251726     0.035523815    0.5478313    
     30260   0.86962865     158.5          158.5          158.5          0.058744193   -0.14981234     0.019217595    0.30682733     0.86962865   
     30280   0.5459574      158.5          158.5          158.5          0.034227315    0.15271839    -0.016253347   -0.033783102    0.5459574    
     30300   0.9706667      158.5          158.5          158.5         -0.26060626     0.063182345   -0.10439213    -0.74060899     0.9706667    
     30320   0.13658438     158.5          158.5          158.5          0.090095524   -0.01133026     0.061257324    0.22035951     0.13658438   
     30340   0.82351752     158.5          158.5          158.5          0.3217716      0.042592505    0.11869062     0.80403168     0.82351752   
     30360   0.47305496     158.5          158.5          158.5         -0.058630976   -0.0090381758   0.012117014   -0.17897177     0.47305496   
     30380   1.0253446      158.5          158.5          158.5         -0.070269097    0.21101044    -0.017473001   -0.40434473     1.0253446    
     30400   0.31686948     158.5          158.5          158.5         -0.021306669   -0.052299125    0.029113127   -0.040734009    0.31686948   
     30420   0.8069127      158.5          158.5          158.5          0.13130443    -0.073802368    0.035642112    0.43207353     0.8069127    
     30440   0.37898849     158.5          158.5          158.5          0.24492381     0.18992826     0.042031164    0.50281202     0.37898849   
     30460   0.6095592      158.5          158.5          158.5         -0.22970963    -0.061291091    0.0078983389  -0.63573613     0.6095592    
     30480   0.58062026     158.5          158.5          158.5         -0.1301015      0.065725316    0.021436922   -0.47746674     0.58062026   
     30500   0.59863826     158.5          158.5          158.5          0.21569487     0.12624742     0.028691359    0.49214584     0.59863826   
     30520   0.71453193     158.5          158.5          158.5          0.054492011   -0.12501535    -0.069765042    0.35825643     0.71453193   
     30540   0.19730349     158.5          158.5          158.5          0.0034182596   0.085817673    0.055076058   -0.13063895     0.19730349   
     30560   0.80847886     158.5          158.5          158.5         -0.15923561     0.090108937    0.094543747   -0.66235951     0.80847886   
     30580   0.2434447      158.5          158.5          158.5         -0.066055902   -0.013815066   -0.083201034   -0.10115161     0.2434447    
     30600   1.1398933      158.5          158.5          158.5          0.29346997     0.091784058   -0.016492502    0.80511834     1.1398933    
     30620   0.2781259      158.5          158.5          158.5         -0.011110015    0.0040646077  -0.013541287   -0.023853365    0.2781259    
     30640   0.93317313     158.5          158.5          158.5         -0.24009563     0.025196743    0.073770531   -0.81925415     0.93317313   
     30660   0.58029311     158.5          158.5          158.5         -0.029176349    0.092824966    0.039840117   -0.22019413     0.58029311   
     30680   0.75508289     158.5          158.5          158.5          0.064164389    0.075781351   -0.16395496     0.28066678     0.75508289   
     30700   0.76451156     158.5          158.5          158.5          0.23514722     0.13108645     0.16336382     0.41099138     0.76451156   
     30720   0.94024503     158.5          158.5          158.5         -0.086416738    0.033807523   -0.027149953   -0.26590778     0.94024503   
     30740   1.0867117      158.5          158.5          158.5         -0.28970556    -0.032501623   -0.19251706    -0.64409801     1.0867117    
     30760   0.4853377      158.5          158.5          158.5          0.31946645     0.215396       0.29377315     0.44923019     0.4853377    
     30780   0.86291035     158.5          158.5          158.5          0.25922142     0.17869601    -0.076517286    0.67548552     0.86291035   
     30800   0.41010101     158.5          158.5          158.5         -0.014716281   -0.032594575   -0.16122234     0.14966808     0.41010101   
     30820   1.2094523      158.5          158.5          158.5         -0.022249982   -0.0032130472   0.12947091    -0.19300781     1.2094523    
     30840   0.23766163     158.5          158.5          158.5         -0.041245008   -0.042442738   -0.068996582   -0.012295705    0.23766163   
     30860   0.82715302     158.5          158.5          158.5          0.21100291     0.10375679    -0.0056038755   0.5348558      0.82715302   
     30880   0.21508789     158.5          158.5          158.5          0.12528309     0.19508822     0.12570093     0.055060127    0.21508789   
     30900   0.48196297     158.5          158.5          158.5         -0.25593355    -0.15376079    -0.083128535   -0.53091133     0.48196297   
     30920   0.43686076     158.5          158.5          158.5         -0.067917126   -0.10678321    -0.060395911   -0.036572252    0.43686076   
     30940   0.44764211     158.5          158.5          158.5          0.048811633    0.13455951     0.065713004   -0.053837613    0.44764211   
     30960   0.49782883     158.5          158.5          158.5          0.036012034    0.22762132     0.09558138    -0.2151666      0.49782883   
     30980   0.31367375     158.5          158.5          158.5         -0.045450723   -0.048650395   -0.029693631   -0.058008142    0.31367375   
     31000   0.52042044     158.5          158.5          158.5         -0.28819705    -0.32445769    -0.17095048    -0.36918299     0.52042044   
     31020   0.22977913     158.5          158.5          158.5          0.051842265    0.22919063     0.036665627   -0.11032946     0.22977913   
     31040   0.84366335     158.5          158.5          158.5          0.25766029     0.31102845     0.18139286     0.28055956     0.84366335   
     31060   0.28258801     158.5          158.5          158.5         -0.044343781   -0.22884661     0.030768484    0.065046782    0.28258801   
     31080   0.91915337     158.5          158.5          158.5         -0.029223829   -0.0098557693  -0.061724848   -0.01609087     0.91915337   
     31100   0.29114478     158.5          158.5          158.5          0.022242076   -0.059049036    0.040650626    0.085124637    0.29114478   
     31120   0.78905631     158.5          158.5          158.5          0.17845099    -0.018515283    0.28771324     0.26615501     0.78905631   
     31140   0.56764526     158.5          158.5          158.5          0.32113319     0.52056999     0.22746002     0.21536956     0.56764526   
     31160   0.88207713     158.5          158.5          158.5         -0.17534501    -0.21797035    -0.2414373     -0.066627379    0.88207713   
     31180   0.77277713     158.5          158.5          158.5         -0.14121414    -0.44239724     0.018879208   -0.00012438214  0.77277713   
     31200   0.39683085     158.5          158.5          158.5          0.21295049     0.36482667     0.18000424     0.094020556    0.39683085   
     31220   0.82836555     158.5          158.5          158.5          0.061692303    0.40624677    -0.22788042     0.0067105683   0.82836555   
     31240   0.36725032     158.5          158.5          158.5         -0.029397531   -0.087027676   -0.031233372    0.030068455    0.36725032   
     31260   1.144855       158.5          158.5          158.5         -0.25493184    -0.47909983    -0.2808121     -0.0048835755   1.144855     
     31280   0.40679748     158.5          158.5          158.5         -0.079123498    0.14091592    -0.39530526     0.017018838    0.40679748   
     31300   0.93758986     158.5          158.5          158.5          0.28157963     0.58690292     0.20748275     0.050353204    0.93758986   
     31320   0.32747978     158.5          158.5          158.5         -0.060709759   -0.16028757    -0.034272744    0.012431034    0.32747978   
     31340   0.79820444     158.5          158.5          158.5         -0.20089883    -0.28116964    -0.3526719      0.031145044    0.79820444   
     31360   0.38073916     158.5          158.5          158.5          0.030753779    0.038889704    0.0053305733   0.048041061    0.38073916   
     31380   0.95226227     158.5          158.5          158.5          0.081680219    0.062693233    0.2056297     -0.023282276    0.95226227   
     31400   0.49495279     158.5          158.5          158.5          0.2497703      0.48099501     0.23458477     0.033731124    0.49495279   
     31420   0.43590148     158.5          158.5          158.5         -0.047023574   -0.075682221   -0.10898643     0.043597933    0.43590148   
     31440   0.68194644     158.5          158.5          158.5         -0.25888756    -0.62633372    -0.14742024    -0.0029087019   0.68194644   
     31460   0.25925084     158.5          158.5          158.5          0.21350636     0.32525043     0.22678797     0.088480698    0.25925084   
     31480   1.0082989      158.5          158.5          158.5          0.16979947     0.48935919     0.059743293   -0.039704077    1.0082989    
     31500   0.23417354     158.5          158.5          158.5         -0.016417513   -0.090951575    0.02863554     0.013063497    0.23417354   
     31520   0.83154001     158.5          158.5          158.5         -0.09814767    -0.38435425    -0.058531957    0.1484432      0.83154001   
     31540   0.33595961     158.5          158.5          158.5         -0.087163869   -0.035018434   -0.099362825   -0.12711035     0.33595961   
     31560   0.6474367      158.5          158.5          158.5          0.23860216     0.47674068     0.19543976     0.043626044    0.6474367    
     31580   0.40460161     158.5          158.5          158.5          0.13306528     0.15217929     0.11105459     0.13596196     0.40460161   
     31600   0.89522915     158.5          158.5          158.5         -0.24929166    -0.41073441    -0.17253396    -0.16460662     0.89522915   
     31620   0.5915543      158.5          158.5          158.5         -0.015045183   -0.038143716   -0.030802576    0.023810742    0.5915543    
     31640   0.59639406     158.5          158.5          158.5          0.079034516    0.18587493     0.053306456   -0.0020778362   0.59639406   
     31660   0.60045049     158.5          158.5          158.5          0.10487833     0.28471152     0.13479905    -0.10487559     0.60045049   
     31680   0.56919716     158.5          158.5          158.5          0.0088871751   0.0098138725   0.10406035    -0.087212696    0.56919716   
     31700   1.3630422      158.5          158.5          158.5         -0.36901767    -0.49878092    -0.31276725    -0.29550484     1.3630422    
     31720   0.38240076     158.5          158.5          158.5          0.083681591    0.14175352     0.041075028    0.068216223    0.38240076   
     31740   1.1950368      158.5          158.5          158.5          0.30079788     0.44469351     0.36123357     0.09646657     1.1950368    
     31760   0.43559223     158.5          158.5          158.5         -0.11959759    -0.044661457   -0.20484101    -0.10929032     0.43559223   
     31780   1.1289016      158.5          158.5          158.5         -0.1201091     -0.1658029     -0.08112542    -0.11339899     1.1289016    
     31800   0.28726376     158.5          158.5          158.5          0.0036918069  -0.010792316    0.10640226    -0.084534519    0.28726376   
     31820   1.0168354      158.5          158.5          158.5          0.1815968      0.22380497    -0.032241291    0.35322672     1.0168354    
     31840   0.63432012     158.5          158.5          158.5          0.30124416     0.34637689     0.0041491415   0.55320645     0.63432012   
     31860   0.51135986     158.5          158.5          158.5         -0.14600392    -0.10596828    -0.08425689    -0.24778661     0.51135986   
     31880   0.46878811     158.5          158.5          158.5         -0.062114873   -0.055448859    0.1015806     -0.23247636     0.46878811   
     31900   0.26285958     158.5          158.5          158.5          0.20074964     0.23254271    -0.0019895721   0.37169578     0.26285958   
     31920   0.65833974     158.5          158.5          158.5          0.068817672    0.10086573    -0.15936524     0.26495253     0.65833974   
     31940   0.33505441     158.5          158.5          158.5          0.036906956   -0.028614093    0.16453391    -0.025198952    0.33505441   
     31960   0.53484616     158.5          158.5          158.5         -0.196449      -0.11463793     0.0013539732  -0.47606304     0.53484616   
     31980   0.2352888      158.5          158.5          158.5         -0.12776992    -0.06572833    -0.11629021    -0.20129124     0.2352888    
     32000   0.62835301     158.5          158.5          158.5          0.20559251     0.020191797    0.1346467      0.46193904     0.62835301   
     32020   0.18314978     158.5          158.5          158.5         -0.071406378   -0.099926633   -0.060407105   -0.053885398    0.18314978   
     32040   0.82640409     158.5          158.5          158.5         -0.22994805    -0.033244233   -0.058613895   -0.59798603     0.82640409   
     32060   0.45458369     158.5          158.5          158.5         -0.019221606    0.012663685    0.083324071   -0.15365258     0.45458369   
     32080   0.63399786     158.5          158.5          158.5          0.042577371   -0.10974705    -0.040522544    0.27800171     0.63399786   
     32100   0.60564912     158.5          158.5          158.5          0.25556192     0.22283572     0.035456329    0.50839372     0.60564912   
     32120   0.58147294     158.5          158.5          158.5         -0.035069897    0.19098632     0.063949852   -0.36014587     0.58147294   
     32140   1.5630802      158.5          158.5          158.5         -0.21607936     0.12362213     0.0046994957  -0.7765597      1.5630802    
     32160   0.75834257     158.5          158.5          158.5          0.36449896     0.38340262     0.070724089    0.63937018     0.75834257   
     32180   1.1796373      158.5          158.5          158.5          0.25216752     0.0041720235   0.072609877    0.67972066     1.1796373    
     32200   0.61413036     158.5          158.5          158.5          0.051670198    0.0918359      0.048328333    0.014846359    0.61413036   
     32220   1.182862       158.5          158.5          158.5         -0.061709782    0.31596446    -0.014209504   -0.48688431     1.182862     
     32240   0.28140937     158.5          158.5          158.5         -0.11708511    -0.098886702   -0.043112253   -0.20925637     0.28140937   
     32260   1.1750814      158.5          158.5          158.5          0.24492687     0.062774542    0.15360889     0.51839716     1.1750814    
     32280   0.47834034     158.5          158.5          158.5          0.10647311     0.052902906    0.093620532    0.17289591     0.47834034   
     32300   0.87214517     158.5          158.5          158.5         -0.32952634    -0.082386001   -0.21240438    -0.69378862     0.87214517   
     32320   0.44945596     158.5          158.5          158.5         -0.046101297    0.14364968     0.065609298   -0.34756287     0.44945596   
     32340   0.33604659     158.5          158.5          158.5          0.062399613    0.0035565798   0.12675272     0.056889543    0.33604659   
     32360   0.7853719      158.5          158.5          158.5          0.069031557   -0.048427159   -0.060526984    0.31604881     0.7853719    
     32380   0.48703895     158.5          158.5          158.5          0.01276127     0.0923499      0.040883482   -0.094949572    0.48703895   
     32400   0.73443695     158.5          158.5          158.5         -0.23062682     0.027081017   -0.058299078   -0.66066241     0.73443695   
     32420   0.3445818      158.5          158.5          158.5          0.070474593    0.013470358   -0.028623598    0.22657702     0.3445818    
     32440   0.64116106     158.5          158.5          158.5          0.21811985     0.042753563    0.10051274     0.51109325     0.64116106   
     32460   0.2697718      158.5          158.5          158.5         -0.038760818    0.05407354     0.073181449   -0.24353744     0.2697718    
     32480   0.91218844     158.5          158.5          158.5         -0.050134888    0.025541526   -0.077214646   -0.098731545    0.91218844   
     32500   0.50055763     158.5          158.5          158.5         -0.05168531     0.013005316   -0.29820319     0.13014194     0.50055763   
     32520   0.75548029     158.5          158.5          158.5          0.15964631     0.07445921     0.23198318     0.17249653     0.75548029   
     32540   0.45662489     158.5          158.5          158.5          0.28579117     0.11170323     0.43288761     0.31278268     0.45662489   
     32560   0.77632808     158.5          158.5          158.5         -0.24758858     0.051731871   -0.61148857    -0.18300904     0.77632808   
     32580   0.99001679     158.5          158.5          158.5         -0.11688942     0.0620046     -0.22608551    -0.18658734     0.99001679   
     32600   1.075783       158.5          158.5          158.5          0.28578598     0.14120344     0.58088816     0.13526632     1.075783     
     32620   1.2914779      158.5          158.5          158.5          0.13675418     0.1446957      0.040449856    0.22511699     1.2914779    
     32640   0.60332761     158.5          158.5          158.5          0.067932515    0.20920061    -0.097028884    0.091625817    0.60332761   
     32660   1.5496944      158.5          158.5          158.5         -0.19186092    -0.07178393    -0.2847863     -0.21901252     1.5496944    
     32680   0.11667184     158.5          158.5          158.5         -0.061569239   -0.031562491   -0.16652199     0.013376768    0.11667184   
     32700   1.2660595      158.5          158.5          158.5          0.29490953     0.24152179     0.49343196     0.14977482     1.2660595    
     32720   0.54107493     158.5          158.5          158.5         -0.038723211   -0.23059301     0.11665436    -0.0022309841   0.54107493   
     32740   0.69557113     158.5          158.5          158.5         -0.2038606     -0.15419815    -0.38071915    -0.076664513    0.69557113   
     32760   0.45144446     158.5          158.5          158.5         -0.065095161    0.075786483   -0.25471214    -0.016359829    0.45144446   
     32780   0.41748566     158.5          158.5          158.5          0.0072188166  -0.23384951     0.20197518     0.053530778    0.41748566   
     32800   0.50791983     158.5          158.5          158.5          0.15840214     0.0029265861   0.4148374      0.057442434    0.50791983   
     32820   0.66268424     158.5          158.5          158.5         -0.096600038    0.074411515   -0.32064899    -0.043562643    0.66268424   
     32840   0.55734991     158.5          158.5          158.5         -0.19082706    -0.098559288   -0.4524249     -0.021497004    0.55734991   
     32860   0.45855991     158.5          158.5          158.5          0.23189243     0.15770519     0.44013275     0.097839345    0.45855991   
     32880   0.73177365     158.5          158.5          158.5          0.14302775     0.20163653     0.26386505    -0.03641833     0.73177365   
     32900   0.14167063     158.5          158.5          158.5          0.024976667    0.17258881    -0.079892037   -0.017766767    0.14167063   
     32920   1.0770936      158.5          158.5          158.5         -0.0020830758   0.090426194   -0.21605133     0.1193759      1.0770936    
     32940   0.52927289     158.5          158.5          158.5         -0.053796553    0.063726824   -0.186954      -0.03816248     0.52927289   
     32960   0.91631908     158.5          158.5          158.5          0.29171291     0.3470048      0.50865485     0.019479065    0.91631908   
     32980   0.33261214     158.5          158.5          158.5          0.15693755     0.11698478     0.31511663     0.038711251    0.33261214   
     33000   0.74691651     158.5          158.5          158.5         -0.29663836    -0.21549941    -0.62332295    -0.0510927      0.74691651   
     33020   0.83446438     158.5          158.5          158.5         -0.062521855    0.044103461   -0.30764275     0.075973721    0.83446438   
     33040   1.0130409      158.5          158.5          158.5          0.050089778    0.11821256     0.25630565    -0.22424888     1.0130409    
     33060   0.95197473     158.5          158.5          158.5          0.099167028    0.15311008     0.34920189    -0.20481088     0.95197473   
     33080   0.61816963     158.5          158.5          158.5         -0.07034451    -0.012827772   -0.30163456     0.1034288      0.61816963   
     33100   1.2122452      158.5          158.5          158.5         -0.37516704    -0.20563072    -0.71589802    -0.20397237     1.2122452    
     33120   0.22655366     158.5          158.5          158.5          0.096966293    0.20365334     0.16213692    -0.074891382    0.22655366   
     33140   0.98716802     158.5          158.5          158.5          0.24257018     0.16356231     0.44405982     0.1200884      0.98716802   
     33160   0.45963442     158.5          158.5          158.5         -0.017029405   -0.085474648   -0.021307824    0.055694256    0.45963442   
     33180   0.82018919     158.5          158.5          158.5         -0.019737791    0.070703894   -0.20703677     0.077119498    0.82018919   
     33200   0.22166899     158.5          158.5          158.5         -0.035126537   -0.082044193   -0.064103701    0.040768283    0.22166899   
     33220   0.42570968     158.5          158.5          158.5          0.14441349    -0.04786228     0.27641751     0.20468524     0.42570968   
     33240   0.2883755      158.5          158.5          158.5          0.20935245     0.22681664     0.2490454      0.1521953      0.2883755    
     33260   0.51244615     158.5          158.5          158.5         -0.13891144    -0.10098531    -0.19505872    -0.12069028     0.51244615   
     33280   0.42837864     158.5          158.5          158.5         -0.073068322   -0.15379846    -0.11859513     0.053188628    0.42837864   
     33300   0.23128911     158.5          158.5          158.5          0.12231137     0.1259554      0.15215252     0.088826197    0.23128911   
     33320   0.54380235     158.5          158.5          158.5          0.053660741    0.11155817     0.090185916   -0.040761862    0.54380235   
     33340   0.18860692     158.5          158.5          158.5         -0.01237311    -0.043825938   -0.01167987     0.018386478    0.18860692   
     33360   0.63854698     158.5          158.5          158.5         -0.21018447    -0.11881889    -0.25664966    -0.25508486     0.63854698   
     33380   0.46177211     158.5          158.5          158.5         -0.051854062    0.15702368    -0.14020593    -0.17237994     0.46177211   
     33400   0.74037927     158.5          158.5          158.5          0.22835824     0.17341092     0.25757654     0.25408724     0.74037927   
     33420   0.25696836     158.5          158.5          158.5         -0.057793625   -0.21950992     0.017888273    0.028240771    0.25696836   
     33440   0.75744236     158.5          158.5          158.5         -0.15328209     0.14980997    -0.24801053    -0.36164571     0.75744236   
     33460   0.34223588     158.5          158.5          158.5         -0.023549818    0.11602181    -0.034714745   -0.15195652     0.34223588   
     33480   1.0304919      158.5          158.5          158.5          0.069783811   -0.2330124      0.16664526     0.27571858     1.0304919    
     33500   0.69904599     158.5          158.5          158.5          0.27152648     0.2269845      0.14343568     0.44415927     0.69904599   
     33520   0.45218933     158.5          158.5          158.5         -0.092434064    0.11985335    -0.12094452    -0.27621102     0.45218933   
     33540   1.1013319      158.5          158.5          158.5         -0.27575772    -0.15805588    -0.04007142    -0.62914586     1.1013319    
     33560   0.22992192     158.5          158.5          158.5          0.21833608     0.14048934     0.19180111     0.3227178      0.22992192   
     33580   1.0449733      158.5          158.5          158.5          0.17166654     0.11323227    -0.097039204    0.49880654     1.0449733    
     33600   0.47743547     158.5          158.5          158.5          0.03978174    -0.0056531059   0.11333831     0.011660014    0.47743547   
     33620   1.1237216      158.5          158.5          158.5         -0.10727405     0.025588143    0.18066042    -0.52807071     1.1237216    
     33640   0.38544425     158.5          158.5          158.5         -0.080043708    0.068590053   -0.13274822    -0.17597296     0.38544425   
     33660   0.68944764     158.5          158.5          158.5          0.31578124     0.082170405    0.13492384     0.73024947     0.68944764   
     33680   0.36527838     158.5          158.5          158.5          0.11447318     0.053430777    0.043179094    0.24680966     0.36527838   
     33700   1.0046991      158.5          158.5          158.5         -0.22265405     0.040094761   -0.039843877   -0.66821304     1.0046991    
     33720   0.59176358     158.5          158.5          158.5          0.012781026    0.040170407    0.17718453    -0.17901185     0.59176358   
     33740   0.60191668     158.5          158.5          158.5          0.025679217    0.042163449   -0.16966162     0.20453582     0.60191668   
     33760   0.63257446     158.5          158.5          158.5          0.11190181     0.043678463   -0.095984235    0.38801119     0.63257446   
     33780   0.32560089     158.5          158.5          158.5         -0.01306813     0.045609679    0.11338075    -0.19819482     0.32560089   
     33800   0.70626482     158.5          158.5          158.5         -0.31349644     0.012773711   -0.11992265    -0.83334037     0.70626482   
     33820   0.36312494     158.5          158.5          158.5          0.051020074    0.037568466   -0.013696789    0.12918854     0.36312494   
     33840   0.70352752     158.5          158.5          158.5          0.14887069     0.036349668   -0.02549519     0.43575759     0.70352752   
     33860   0.1315276      158.5          158.5          158.5         -0.062193721   -0.016741596   -0.085604598   -0.084234969    0.1315276    
     33880   0.54683939     158.5          158.5          158.5         -0.078630971    0.039110832    0.094334737   -0.36933848     0.54683939   
     33900   0.16666753     158.5          158.5          158.5         -0.066585641    0.035263353    0.0017155377  -0.23673581     0.16666753   
     33920   0.51095051     158.5          158.5          158.5          0.16271349     0.0042849251  -0.016673244    0.50052878     0.51095051   
     33940   0.4692219      158.5          158.5          158.5          0.21595484    -0.00113375     0.03360434     0.61539393     0.4692219    
     33960   0.34792806     158.5          158.5          158.5         -0.13034737    -0.0029383052  -0.012982958   -0.37512083     0.34792806   
     33980   0.52504169     158.5          158.5          158.5         -0.017885056    0.10419661     0.065441104   -0.22329289     0.52504169   
     34000   0.32373317     158.5          158.5          158.5          0.14905033    -0.04858516    -0.010267931    0.50600407     0.32373317   
     34020   0.68868777     158.5          158.5          158.5          0.11124109    -0.054347671   -0.023446221    0.41151717     0.68868777   
     34040   0.60140291     158.5          158.5          158.5          0.076839673    0.26662783     0.072414104   -0.10852292     0.60140291   
     34060   1.1666507      158.5          158.5          158.5         -0.29268162    -0.088613314   -0.02051797    -0.76891357     1.1666507    
     34080   0.26939075     158.5          158.5          158.5         -0.086676233   -0.087462186    0.016057414   -0.18862393     0.26939075   
     34100   1.1253045      158.5          158.5          158.5          0.27720605     0.44627524     0.087121034    0.29822189     1.1253045    
     34120   0.3364624      158.5          158.5          158.5         -0.084749751   -0.067940183    0.028477751   -0.21478682     0.3364624    
     34140   1.3802325      158.5          158.5          158.5         -0.2252109     -0.11761024    -0.054436848   -0.50358561     1.3802325    
     34160   0.75037643     158.5          158.5          158.5         -0.06319254     0.23646557    -0.036343959   -0.38969923     0.75037643   
     34180   0.75778978     158.5          158.5          158.5          0.089688308    0.099502398    0.023795142    0.14576738     0.75778978   
     34200   0.83604755     158.5          158.5          158.5          0.25415233     0.045833339    0.17174598     0.54487767     0.83604755   
     34220   0.4960845      158.5          158.5          158.5         -0.081069455    0.015052136   -0.036432678   -0.22182782     0.4960845    
     34240   0.76154056     158.5          158.5          158.5         -0.1583558     -0.057703962   -0.09404582    -0.32331761     0.76154056   
     34260   0.64979385     158.5          158.5          158.5          0.23330996     0.039223967    0.27821451     0.38249142     0.64979385   
     34280   0.89818978     158.5          158.5          158.5          0.16443072     0.062864238    0.088197687    0.34223024     0.89818978   
     34300   0.21315553     158.5          158.5          158.5          0.074063834    0.19268621    -0.0087721608   0.03827745     0.21315553   
     34320   0.75232523     158.5          158.5          158.5         -0.11539152    -0.20619846     0.069390196   -0.2093663      0.75232523   
     34340   0.17461675     158.5          158.5          158.5         -0.1258242     -0.20965171    -0.078800082   -0.0890208      0.17461675   
     34360   0.82926182     158.5          158.5          158.5          0.23036007     0.42473745     0.0094981806   0.25684459     0.82926182   
     34380   0.46501844     158.5          158.5          158.5          0.065375259    0.15172314    -0.035788489    0.080191122    0.46501844   
     34400   0.56487838     158.5          158.5          158.5         -0.23559999    -0.35068943    -0.12169641    -0.23441414     0.56487838   
     34420   0.53265434     158.5          158.5          158.5         -0.03349421    -0.022722763   -0.062598784   -0.015161084    0.53265434   
     34440   0.45996951     158.5          158.5          158.5          0.033528072    0.17612461    -0.18735258     0.11181218     0.45996951   
     34460   0.71148423     158.5          158.5          158.5          0.13262515     0.22050344     0.13291433     0.044457682    0.71148423   
     34480   0.59510901     158.5          158.5          158.5          0.016076863    0.0094188997   0.0078041997   0.03100749     0.59510901   
     34500   1.5252333      158.5          158.5          158.5         -0.31885307    -0.4533423     -0.45885795    -0.044358954    1.5252333    
     34520   0.35101719     158.5          158.5          158.5          0.14910993     0.2254114      0.1735542      0.0483642      0.35101719   
     34540   1.2154091      158.5          158.5          158.5          0.27938342     0.5371551      0.28837203     0.012623141    1.2154091    
     34560   0.47049905     158.5          158.5          158.5         -0.0012709192   0.10582147    -0.19387579     0.084241559    0.47049905   
     34580   1.6023132      158.5          158.5          158.5         -0.091859256   -0.27903337    -0.10332609     0.1067817      1.6023132    
     34600   0.83998272     158.5          158.5          158.5         -0.12136869    -0.1237787     -0.038920376   -0.201407       0.83998272   
     34620   0.94402198     158.5          158.5          158.5          0.25129222     0.44730086     0.21681446     0.089761337    0.94402198   
     34640   0.60666003     158.5          158.5          158.5          0.23227829     0.38478117     0.21153507     0.10051862     0.60666003   
     34660   0.82636041     158.5          158.5          158.5         -0.25427644    -0.34288488    -0.28204986    -0.13789458     0.82636041   
     34680   0.46235036     158.5          158.5          158.5         -0.032290348   -0.2016929     -0.084179719    0.18900157     0.46235036   
     34700   0.59547268     158.5          158.5          158.5          0.15031621     0.22092783     0.19161233     0.038408483    0.59547268   
     34720   0.88064803     158.5          158.5          158.5          0.12142851     0.41753138     0.073540782   -0.12678662     0.88064803   
     34740   0.19540285     158.5          158.5          158.5          0.083627184    0.10487098     0.020318118    0.12569246     0.19540285   
     34760   0.80302447     158.5          158.5          158.5         -0.20333746    -0.46545292    -0.14916322     0.00460376     0.80302447   
     34780   0.092266512    158.5          158.5          158.5         -0.018035109    0.023027391   -0.068941414   -0.0081913044   0.092266512  
     34800   0.82113935     158.5          158.5          158.5          0.21914224     0.41031878     0.19428493     0.052823001    0.82113935   
     34820   0.63049226     158.5          158.5          158.5         -0.050167698   -0.1312623      0.080441542   -0.099682333    0.63049226   
     34840   0.58015157     158.5          158.5          158.5         -0.13708833    -0.33645328    -0.076766051    0.0019543451   0.58015157   
     34860   0.56601607     158.5          158.5          158.5         -0.1452364     -0.19579311    -0.24244164     0.0025255553   0.56601607   
     34880   0.72681034     158.5          158.5          158.5          0.038726717   -0.0096127182   0.18274761    -0.056954735    0.72681034   
     34900   0.50506525     158.5          158.5          158.5          0.23332227     0.27699086     0.34343882     0.07953713     0.50506525   
     34920   0.80087449     158.5          158.5          158.5         -0.15811347    -0.046933798   -0.40993207    -0.017474548    0.80087449   
     34940   1.1817818      158.5          158.5          158.5         -0.16657239    -0.26055071    -0.14188955    -0.097276901    1.1817818    
     34960   0.49848883     158.5          158.5          158.5          0.26055034     0.26277372     0.37529965     0.14357764     0.49848883   
     34980   1.2072541      158.5          158.5          158.5          0.18896472     0.54820169    -0.22443174     0.24312421     1.2072541    
     35000   0.17300223     158.5          158.5          158.5          0.14031427     0.35636929    -0.056410403    0.12098393     0.17300223   
     35020   1.813013       158.5          158.5          158.5         -0.095899291   -0.077342294    0.077343618   -0.2876992      1.813013     
     35040   0.69451378     158.5          158.5          158.5         -0.032579328    0.20441527    -0.085913521   -0.21623973     0.69451378   
     35060   1.1255371      158.5          158.5          158.5          0.35402985     0.58317263     0.06281016     0.41610677     1.1255371    
     35080   0.62147731     158.5          158.5          158.5          0.079372356   -0.096482073    0.06611149     0.26848765     0.62147731   
     35100   0.71827183     158.5          158.5          158.5         -0.21496369    -0.23110309    -0.030282486   -0.3835055      0.71827183   
     35120   0.37082978     158.5          158.5          158.5         -0.086507428    0.04131992    -0.0094292753  -0.29141293     0.37082978   
     35140   0.52546657     158.5          158.5          158.5         -0.011868628   -0.22445871     0.021895694    0.16695713     0.52546657   
     35160   0.59209078     158.5          158.5          158.5          0.10933173    -0.10440584     0.029073069    0.40332796     0.59209078   
     35180   0.29999656     158.5          158.5          158.5         -0.08364893    -0.016882486    0.0028119548  -0.23687626     0.29999656   
     35200   0.60308559     158.5          158.5          158.5         -0.25778302    -0.23939416    -0.01119256    -0.52276234     0.60308559   
     35220   0.13021134     158.5          158.5          158.5          0.099682319    0.0042975961   0.01851253     0.27623683     0.13021134   
     35240   0.61839297     158.5          158.5          158.5          0.14686508     0.13210723     0.021648202    0.2868398      0.61839297   
     35260   0.43778247     158.5          158.5          158.5          0.018235166    0.096814786    0.0083724321  -0.05048172     0.43778247   
     35280   0.70263109     158.5          158.5          158.5         -0.009516556    0.084187028    0.0273804     -0.1401171      0.70263109   
     35300   0.38204546     158.5          158.5          158.5         -0.078858769    0.021951652    0.023107189   -0.28163515     0.38204546   
     35320   0.85677661     158.5          158.5          158.5          0.21212515     0.25361119     0.026252096    0.35651215     0.85677661   
     35340   0.43263427     158.5          158.5          158.5          0.25740891     0.15558727     0.035158481    0.58148098     0.43263427   
     35360   0.75495946     158.5          158.5          158.5         -0.18209928    -0.0072604388  -0.0025983408  -0.53643907     0.75495946   
     35380   1.2063182      158.5          158.5          158.5         -0.059706463    0.14468685     0.08224273    -0.40604897     1.2063182    
     35400   0.48684794     158.5          158.5          158.5          0.10951711     0.053429422   -0.016666251    0.29178816     0.48684794   
     35420   1.0708107      158.5          158.5          158.5          0.14777257     0.017770484   -0.039979134    0.46552636     1.0708107    
     35440   0.33034049     158.5          158.5          158.5          0.04557537     0.13880072     0.053205853   -0.055280467    0.33034049   
     35460   1.1636728      158.5          158.5          158.5         -0.35506469     0.028007992   -0.080080191   -1.0131219      1.1636728    
     35480   0.630011       158.5          158.5          158.5          0.0081678347   0.040854108    0.1606865     -0.1770371      0.630011     
     35500   1.0304818      158.5          158.5          158.5          0.26568642     0.090101988    0.035727597    0.67122968     1.0304818    
     35520   0.4248588      158.5          158.5          158.5         -0.061723401    0.062123052   -0.25375039     0.0064571317   0.4248588    
     35540   1.0611936      158.5          158.5          158.5         -0.084618515    0.052559793    0.24840533    -0.55482067     1.0611936    
     35560   0.22240153     158.5          158.5          158.5         -0.088982586    0.049009673   -0.018202349   -0.29775508     0.22240153   
     35580   0.72329445     158.5          158.5          158.5          0.077910276    0.036636656   -0.24443521     0.44152938     0.72329445   
     35600   0.75765135     158.5          158.5          158.5          0.25293555     0.048859174    0.27694373     0.43300375     0.75765135   
     35620   0.34240847     158.5          158.5          158.5         -0.13882395     0.022775266    0.013075936   -0.45232304     0.34240847   
     35640   0.75131416     158.5          158.5          158.5         -0.17914724     0.040180507   -0.22652917    -0.35109305     0.75131416   
     35660   0.15362359     158.5          158.5          158.5          0.14850139     0.064724244    0.11454554     0.2662344      0.15362359   
     35680   0.72906218     158.5          158.5          158.5          0.10992901    -0.0021482129   0.12804611     0.20388913     0.72906218   
     35700   0.45336338     158.5          158.5          158.5          0.083995874    0.037692564   -0.027215093    0.24151015     0.45336338   
     35720   0.73829837     158.5          158.5          158.5         -0.14293878     0.057085474   -0.17779782    -0.30810401     0.73829837   
     35740   0.35172373     158.5          158.5          158.5         -0.05205681     0.037190881    0.028496008   -0.22185732     0.35172373   
     35760   0.9448044      158.5          158.5          158.5          0.31597022     0.12805753     0.21554367     0.60430947     0.9448044    
     35780   0.45072515     158.5          158.5          158.5          0.069345968   -0.0042827923  -0.019337485    0.23165818     0.45072515   
     35800   1.1160354      158.5          158.5          158.5         -0.17235852     0.06572125    -0.13095468    -0.45184213     1.1160354    
     35820   1.2526779      158.5          158.5          158.5         -0.030744529    0.22370338    -0.10889912    -0.20703785     1.2526779    
     35840   1.1091193      158.5          158.5          158.5          0.018168445   -0.14254186     0.051811264    0.14523593     1.1091193    
     35860   1.0949886      158.5          158.5          158.5          0.27339862     0.024971449    0.42142757     0.37379685     1.0949886    
     35880   0.40107251     158.5          158.5          158.5         -0.052161432    0.011185508   -0.12200145    -0.045668356    0.40107251   
     35900   1.3322511      158.5          158.5          158.5         -0.43049919    -0.1535435     -0.67485376    -0.46310031     1.3322511    
     35920   0.527266       158.5          158.5          158.5          0.10222681     0.06859746     0.060871797    0.17721116     0.527266     
     35940   1.151542       158.5          158.5          158.5          0.15109526    -0.12237773     0.28547074     0.29019276     1.151542     
     35960   0.16330877     158.5          158.5          158.5         -0.0057185366   0.031141108    0.043926259   -0.092222977    0.16330877   
     35980   0.92844967     158.5          158.5          158.5         -0.085645096    0.12433346    -0.26199521    -0.11927354     0.92844967   
     36000   0.28196545     158.5          158.5          158.5         -0.099730813   -0.064456216   -0.23617267     0.0014364476   0.28196545   
     36020   0.56364989     158.5          158.5          158.5          0.24433834     0.18259506     0.45904712     0.091372824    0.56364989   
     36040   0.6271273      158.5          158.5          158.5          0.23930805     0.25561383     0.51535169    -0.053041355    0.6271273    
     36060   0.47544459     158.5          158.5          158.5         -0.12703319    -0.010040708   -0.29319636    -0.077862499    0.47544459   
     36080   0.55226562     158.5          158.5          158.5         -0.0024159184   0.01543406    -0.15440096     0.13171914     0.55226562   
     36100   0.3019913      158.5          158.5          158.5          0.094212808    0.1423913      0.3021619     -0.16191478     0.3019913    
     36120   0.6091381      158.5          158.5          158.5          0.13543878     0.12767967     0.30687956    -0.028242901    0.6091381    
     36140   0.45984169     158.5          158.5          158.5          0.062969654    0.016731486   -0.061379178    0.23355665     0.45984169   
     36160   0.98627803     158.5          158.5          158.5         -0.33118002    -0.18063161    -0.63908595    -0.17382251     0.98627803   
     36180   0.14883652     158.5          158.5          158.5         -0.038710268    0.029129375   -0.15460763     0.0093474451   0.14883652   
     36200   1.1846032      158.5          158.5          158.5          0.22451085     0.26843927     0.23881513     0.16627816     1.1846032    
     36220   0.51596147     158.5          158.5          158.5         -0.11474341     0.00042572822 -0.13955746    -0.20509851     0.51596147   
     36240   0.9843901      158.5          158.5          158.5         -0.16481149    -0.13315826    -0.43901491     0.077738711    0.9843901    
     36260   1.0174514      158.5          158.5          158.5         -0.13635354     0.050717707   -0.53830476     0.078526446    1.0174514    
     36280   0.93369803     158.5          158.5          158.5          0.10598151     0.16235555     0.2180954     -0.062506431    0.93369803   
     36300   1.0177759      158.5          158.5          158.5          0.37404555     0.19633613     0.82656117     0.099239354    1.0177759    
     36320   0.46415272     158.5          158.5          158.5         -0.11076561    -0.068665794   -0.30711678     0.043485734    0.46415272   
     36340   1.0377221      158.5          158.5          158.5         -0.15192645    -0.075659371   -0.39031403     0.010194065    1.0377221    
     36360   0.54920115     158.5          158.5          158.5          0.21997349    -0.021562079    0.57966817     0.10181437     0.54920115   
     36380   1.0760336      158.5          158.5          158.5          0.16919761     0.016364146    0.42539339     0.065835292    1.0760336    
     36400   0.18811962     158.5          158.5          158.5          0.15064767     0.29108059     0.12256084     0.038301592    0.18811962   
     36420   0.78565313     158.5          158.5          158.5         -0.17456939    -0.25471568    -0.21370935    -0.055283127    0.78565313   
     36440   0.17623597     158.5          158.5          158.5         -0.13047238    -0.19549984    -0.15258376    -0.043333526    0.17623597   
     36460   0.57322901     158.5          158.5          158.5          0.24212491     0.4227781      0.18995551     0.11364111     0.57322901   
     36480   0.38097359     158.5          158.5          158.5          0.032633898   -0.012635257    0.060828536    0.049708415    0.38097359   
     36500   0.49863656     158.5          158.5          158.5         -0.17099077    -0.226294      -0.17161591    -0.11506239     0.49863656   
     36520   0.46763325     158.5          158.5          158.5         -0.065751879    0.11641847    -0.25822313    -0.055450979    0.46763325   
     36540   0.28709926     158.5          158.5          158.5         -0.0077912279   0.042824233   -0.1117676      0.045569684    0.28709926   
     36560   0.60332347     158.5          158.5          158.5          0.17804054     0.050024791    0.33258203     0.1515148      0.60332347   
     36580   0.30561515     158.5          158.5          158.5         -0.031782309    0.057785861   -0.14491441    -0.0082183761   0.30561515   
     36600   0.96677944     158.5          158.5          158.5         -0.26834129    -0.070451793   -0.48652236    -0.24804972     0.96677944   
     36620   0.21782533     158.5          158.5          158.5          0.10895117     0.031289239    0.26787342     0.027690854    0.21782533   
     36640   0.91458043     158.5          158.5          158.5          0.14709432     0.099478667    0.14929969     0.19250461     0.91458043   
     36660   0.42284111     158.5          158.5          158.5          0.05592473     0.12360818    -0.15997038     0.20413639     0.42284111   
     36680   0.89223777     158.5          158.5          158.5         -0.081948373   -0.020321568    0.06963802    -0.29516157     0.89223777   
     36700   0.74708841     158.5          158.5          158.5         -0.18720657    -0.036132771   -0.035487731   -0.4899992      0.74708841   
     36720   1.0515405      158.5          158.5          158.5          0.27782656     0.14454135     0.12961678     0.55932153     1.0515405    
     36740   0.64462118     158.5          158.5          158.5          0.28722576     0.1510831      0.20472264     0.50587153     0.64462118   
     36760   0.70985392     158.5          158.5          158.5         -0.22261765     0.056828337   -0.022499374   -0.7021819      0.70985392   
     36780   0.92101484     158.5          158.5          158.5         -0.043841782    0.098066628    0.04675882    -0.27635079     0.92101484   
     36800   0.43784117     158.5          158.5          158.5          0.1423341      0.10903629     0.046455057    0.27151096     0.43784117   
     36820   1.3781216      158.5          158.5          158.5          0.22042665     0.079023506    0.20374377     0.37851269     1.3781216    
     36840   0.14491334     158.5          158.5          158.5          0.13453898     0.1052137      0.10746932     0.19093392     0.14491334   
     36860   1.066404       158.5          158.5          158.5         -0.27831062     0.005172197   -0.17943353    -0.66067051     1.066404     
     36880   0.25174993     158.5          158.5          158.5         -0.047784514    0.052537399    0.02098333    -0.21687427     0.25174993   
     36900   0.58151848     158.5          158.5          158.5          0.17633509    -0.0070565776   0.042835595    0.49322627     0.58151848   
     36920   0.44298117     158.5          158.5          158.5         -0.031379434   -0.1298557     -0.080217355    0.11593475     0.44298117   
     36940   0.52330786     158.5          158.5          158.5         -0.1190033      0.077806031   -0.049624438   -0.3851915      0.52330786   
     36960   0.36237624     158.5          158.5          158.5         -0.18865029    -0.023224886   -0.040013897   -0.50271208     0.36237624   
     36980   0.29090038     158.5          158.5          158.5          0.025898957   -0.084270638   -0.01518612     0.17715363     0.29090038   
     37000   0.39837378     158.5          158.5          158.5          0.19972411     0.055109873    0.02884853     0.51521391     0.39837378   
     37020   0.23816637     158.5          158.5          158.5         -0.11756339    -0.073749627    0.0037435139  -0.28268407     0.23816637   
     37040   0.61007451     158.5          158.5          158.5         -0.11974416     0.11134732    -0.018030818   -0.45254899     0.61007451   
     37060   0.16198208     158.5          158.5          158.5          0.14150261     0.14358909     0.012694764    0.26822398     0.16198208   
     37080   0.70171279     158.5          158.5          158.5          0.14428853    -0.16758968     0.032266293    0.56818897     0.70171279   
     37100   0.24451536     158.5          158.5          158.5          0.17612742     0.12627477     0.024885651    0.37722185     0.24451536   
     37120   1.0394348      158.5          158.5          158.5         -0.10857451     0.23085492     0.015449898   -0.57202835     1.0394348    
     37140   0.54623611     158.5          158.5          158.5         -0.091608146   -0.039043247    0.021054805   -0.256836       0.54623611   
     37160   1.2831355      158.5          158.5          158.5          0.3655188      0.087286507    0.050525342    0.95874456     1.2831355    
     37180   0.86770854     158.5          158.5          158.5          0.10602527     0.076751636    0.0032752842   0.23804888     0.86770854   
     37200   0.54635168     158.5          158.5          158.5         -0.18037383     0.10686579     0.034582076   -0.68256935     0.54635168   
     37220   1.070684       158.5          158.5          158.5         -0.19469176     0.066498472    0.065411974   -0.71598573     1.070684     
     37240   0.5083788      158.5          158.5          158.5         -0.05995353     0.060228513   -0.1134384     -0.1266507      0.5083788    
     37260   1.2898901      158.5          158.5          158.5          0.23083637     0.19373098    -0.052996484    0.55177462     1.2898901    
     37280   0.39723932     158.5          158.5          158.5         -0.062069149    0.006538756   -0.06886345    -0.12388275     0.39723932   
     37300   0.93302138     158.5          158.5          158.5         -0.31230375    -0.035132809   -0.050826564   -0.85095188     0.93302138   
     37320   0.31831648     158.5          158.5          158.5          0.089751675    0.11094429     0.10625885     0.052051887    0.31831648   
     37340   0.79511585     158.5          158.5          158.5          0.1301252      0.054212451   -0.086232712    0.42239585     0.79511585   
     37360   0.25802916     158.5          158.5          158.5          0.11573394     0.069778305    0.020386708    0.2570368      0.25802916   
     37380   0.81708804     158.5          158.5          158.5         -0.028325873   -0.016201778    0.15401485    -0.22279069     0.81708804   
     37400   0.44151654     158.5          158.5          158.5         -0.16894218    -0.084954737   -0.022377436   -0.39949438     0.44151654   
     37420   0.38439438     158.5          158.5          158.5          0.21752281     0.12971477     0.15403993     0.36881373     0.38439438   
     37440   0.54595002     158.5          158.5          158.5          0.2202436      0.16242716     0.029957817    0.46834581     0.54595002   
     37460   0.28158718     158.5          158.5          158.5         -0.12967328    -0.042386546   -0.057354407   -0.28927889     0.28158718   
     37480   0.91093963     158.5          158.5          158.5         -0.085679274   -0.079639373    0.18041977    -0.35781822     0.91093963   
     37500   0.27096736     158.5          158.5          158.5          0.023971277    0.041504744   -0.09398742     0.12439651     0.27096736   
     37520   0.77130695     158.5          158.5          158.5          0.18098262     0.16849039    -0.073714551    0.44817202     0.77130695   
     37540   0.34806458     158.5          158.5          158.5          0.072322892    0.13914529     0.16307495    -0.085251568    0.34806458   
     37560   1.0942052      158.5          158.5          158.5         -0.3286644     -0.28528186    -0.19139823    -0.5093131      1.0942052    
     37580   0.42562714     158.5          158.5          158.5          0.0058403102  -0.11378342    -0.1125164      0.24382074     0.42562714   
     37600   1.3560878      158.5          158.5          158.5          0.24872134     0.39961124     0.15149288     0.1950599      1.3560878    
     37620   0.76040673     158.5          158.5          158.5          0.048732855    0.20570441     0.081295794   -0.14080164     0.76040673   
     37640   0.87646612     158.5          158.5          158.5         -0.049321585   -0.22979095    -0.12894121     0.21076741     0.87646612   
     37660   0.83619759     158.5          158.5          158.5         -0.27161293    -0.3363183     -0.22585598    -0.25266451     0.83619759   
     37680   0.60671701     158.5          158.5          158.5          0.05456208     0.15497797     0.12132015    -0.11261187     0.60671701   
     37700   1.3453634      158.5          158.5          158.5          0.3140749      0.23987594     0.29759538     0.40475339     1.3453634    
     37720   0.45554759     158.5          158.5          158.5         -0.1397508     -0.24916642    -0.12043419    -0.049651782    0.45554759   
     37740   1.0044516      158.5          158.5          158.5         -0.19487841    -0.13444783    -0.28954946    -0.16063796     1.0044516    
     37760   0.19343512     158.5          158.5          158.5          0.076464752    0.099801008    0.063083722    0.066509527    0.19343512   
     37780   0.86322026     158.5          158.5          158.5          0.1369527      0.13432139     0.2213226      0.055214128    0.86322026   
     37800   0.27148732     158.5          158.5          158.5          0.18717794     0.50861672     0.055401175   -0.0024840801   0.27148732   
     37820   0.75225913     158.5          158.5          158.5         -0.12290881    -0.059480672   -0.2594702     -0.049775563    0.75225913   
     37840   0.50608599     158.5          158.5          158.5         -0.074843802   -0.19156045    -0.050145226    0.01717427     0.50608599   
     37860   0.4413227      158.5          158.5          158.5          0.28743275     0.59147539     0.2246642      0.046158661    0.4413227    
     37880   0.47538327     158.5          158.5          158.5          0.093126208    0.35247949    -0.062859026   -0.010241835    0.47538327   
     37900   0.39853668     158.5          158.5          158.5         -0.058545343   -0.21939399     0.025142653    0.018615309    0.39853668   
     37920   0.75919459     158.5          158.5          158.5         -0.1061475     -0.21784375    -0.11840425     0.017805486    0.75919459   
     37940   0.46783108     158.5          158.5          158.5         -0.06192953     0.039154453   -0.23886437     0.013921323    0.46783108   
     37960   0.77056857     158.5          158.5          158.5          0.22556791     0.17952213     0.47388978     0.023291834    0.77056857   
     37980   0.21613534     158.5          158.5          158.5         -0.072531483   -0.35711282     0.11186572     0.027652652    0.21613534   
     38000   1.1842393      158.5          158.5          158.5         -0.39448535    -0.65140571    -0.54613994     0.014089599    1.1842393    
     38020   0.23159611     158.5          158.5          158.5          0.02775515    -0.11378499     0.16837632     0.028674119    0.23159611   
     38040   1.1920539      158.5          158.5          158.5          0.094485675   -0.03100857     0.27367643     0.040789169    1.1920539    
     38060   0.56054742     158.5          158.5          158.5          0.12017079     0.33890154    -0.0050509836   0.026661801    0.56054742   
     38080   0.74576062     158.5          158.5          158.5         -0.068347412   -0.035688622   -0.17801174     0.0086581222   0.74576062   
     38100   0.78184954     158.5          158.5          158.5         -0.20392157    -0.42077902    -0.17028041    -0.020705296    0.78184954   
     38120   0.53691159     158.5          158.5          158.5          0.33437495     0.72913814     0.20110097     0.072885727    0.53691159   
     38140   1.1227982      158.5          158.5          158.5          0.31246523     0.79256619     0.16383949    -0.019009993    1.1227982    
     38160   0.7407819      158.5          158.5          158.5         -0.046837495   -0.079207841   -0.031463534   -0.02984111     0.7407819    
     38180   0.99117666     158.5          158.5          158.5         -0.0050219064   0.024868744   -0.073599327    0.033664863    0.99117666   
     38200   0.37963931     158.5          158.5          158.5         -0.028109326    0.20396157     0.011538169   -0.29982772     0.37963931   
     38220   0.88590366     158.5          158.5          158.5          0.20042044     0.24194103     0.13950028     0.21981999     0.88590366   
     38240   0.1854056      158.5          158.5          158.5          0.13098009     0.061772202    0.038379959    0.29278811     0.1854056    
     38260   0.79413633     158.5          158.5          158.5         -0.30167343    -0.34348465    -0.11984283    -0.44169282     0.79413633   
     38280   0.35429013     158.5          158.5          158.5         -0.06259483    -0.15228087    -0.033901159   -0.0016024617   0.35429013   
     38300   0.43060078     158.5          158.5          158.5          0.10224783    -0.031678509   -0.0062490829   0.34467108     0.43060078   
     38320   0.31069106     158.5          158.5          158.5         -0.019097342    0.0040430131  -0.0080386046  -0.053296435    0.31069106   
     38340   0.31772664     158.5          158.5          158.5         -0.061035215   -0.077248309   -0.026327895   -0.079529442    0.31772664   
     38360   0.48465468     158.5          158.5          158.5         -0.18284778    -0.34219308    -0.1090128     -0.097337445    0.48465468   
     38380   0.29207453     158.5          158.5          158.5          0.050183487    0.087384561    0.0129602      0.050205701    0.29207453   
     38400   0.57754366     158.5          158.5          158.5          0.23209837     0.36080824     0.11283118     0.22265569     0.57754366   
     38420   0.14598988     158.5          158.5          158.5         -0.07287989    -0.11032166    -0.069086129   -0.039231879    0.14598988   
     38440   0.77007414     158.5          158.5          158.5         -0.096738196   -0.12246759     0.042622549   -0.21036955     0.77007414   
     38460   0.23094847     158.5          158.5          158.5          0.05763591     0.17568349     0.13843297    -0.14120873     0.23094847   
     38480   0.9172017      158.5          158.5          158.5          0.15099241     0.23404472    -0.050306746    0.26923926     0.9172017    
     38500   0.57954919     158.5          158.5          158.5          0.24022218     0.18529623     0.10695831     0.42841201     0.57954919   
     38520   0.75330256     158.5          158.5          158.5         -0.19960898    -0.11592412     0.038075532   -0.52097835     0.75330256   
     38540   0.41964051     158.5          158.5          158.5         -0.14958567    -0.061833669    0.020904971   -0.4078283      0.41964051   
     38560   0.70872782     158.5          158.5          158.5          0.30670624     0.22672068     0.12864591     0.56475214     0.70872782   
     38580   0.82563066     158.5          158.5          158.5          0.10281369     0.15960469    -0.17522613     0.32406252     0.82563066   
     38600   0.67088202     158.5          158.5          158.5         -0.05634274    -0.0078556224   0.042974422   -0.20414702     0.67088202   
     38620   1.0080531      158.5          158.5          158.5         -0.13008341    -0.051090756    0.15682163    -0.49598109     1.0080531    
     38640   0.19893153     158.5          158.5          158.5         -0.058264182    0.067937278   -0.15808       -0.084649819    0.19893153   
     38660   1.1300421      158.5          158.5          158.5          0.24352147     0.13092477    -0.010151809    0.60979145     1.1300421    
     38680   0.32462488     158.5          158.5          158.5         -0.0063995091   0.072534119    0.026910556   -0.1186432      0.32462488   
     38700   1.0215596      158.5          158.5          158.5         -0.28958444    -0.0096702984   0.018840877   -0.8779239      1.0215596    
     38720   0.69901068     158.5          158.5          158.5          0.0076755698   0.039035533   -0.0011270765  -0.014881747    0.69901068   
     38740   0.73284451     158.5          158.5          158.5          0.055908331    0.034980355   -0.12349971     0.25624434     0.73284451   
     38760   0.34926068     158.5          158.5          158.5          0.12632848     0.14816679     0.076989528    0.15382913     0.34926068   
     38780   0.64382902     158.5          158.5          158.5         -0.088207728    0.027671188    0.044562596   -0.33685697     0.64382902   
     38800   0.64929759     158.5          158.5          158.5         -0.25403343    -0.092075333   -0.076656222   -0.59336874     0.64929759   
     38820   0.62358584     158.5          158.5          158.5          0.23190838     0.20575668     0.09378726     0.3961812      0.62358584   
     38840   0.70130456     158.5          158.5          158.5          0.22643627     0.0082329775   0.029977496    0.64109834     0.70130456   
     38860   0.19993354     158.5          158.5          158.5         -0.065739264   -0.11924317    -0.053154911   -0.024819716    0.19993354   
     38880   0.90259192     158.5          158.5          158.5         -0.00072363261  0.22924789     0.018001339   -0.24942012     0.90259192   
     38900   0.24267046     158.5          158.5          158.5          0.021223698   -0.030128161    0.00060627538  0.09319298     0.24267046   
     38920   0.82570335     158.5          158.5          158.5          0.22771724    -0.087482733    0.043547862    0.72708658     0.82570335   
     38940   0.34261713     158.5          158.5          158.5          0.16990928     0.14371815     0.048599555    0.31741014     0.34261713   
     38960   0.76995108     158.5          158.5          158.5         -0.27624978     0.014766623   -0.082271437   -0.76124453     0.76995108   
     38980   0.26913104     158.5          158.5          158.5         -0.055010171    0.091622403   -0.023072258   -0.23358066     0.26913104   
     39000   0.62392838     158.5          158.5          158.5          0.11998456    -0.054465747    0.05581405     0.35860539     0.62392838   
     39020   0.79507659     158.5          158.5          158.5          0.0015336425  -0.13901224     0.0096451248   0.13396804     0.79507659   
     39040   0.74183651     158.5          158.5          158.5         -0.084605197    0.14107644    -0.10326421    -0.29162783     0.74183651   
     39060   1.06695        158.5          158.5          158.5         -0.34181701    -0.049959549   -0.22993254    -0.74555894     1.06695      
     39080   0.30767201     158.5          158.5          158.5          0.046600958   -0.01002556    -0.081474795    0.23130323     0.30767201   
     39100   1.2023322      158.5          158.5          158.5          0.30495531     0.1106219      0.21204442     0.59219961     1.2023322    
     39120   0.79522654     158.5          158.5          158.5         -0.13742251     0.012469417    0.00036670408 -0.42510366     0.79522654   
     39140   1.2071479      158.5          158.5          158.5         -0.079199303    0.17515391    -0.17681143    -0.23594039     1.2071479    
     39160   0.66887649     158.5          158.5          158.5          0.10332436     0.14089181     0.099672284    0.06940897     0.66887649   
     39180   1.3724061      158.5          158.5          158.5          0.20479372     0.14631872     0.48290822    -0.014845785    1.3724061    
     39200   0.29697503     158.5          158.5          158.5          0.33693958     0.17789542     0.47434149     0.35858184     0.29697503   
     39220   0.71952402     158.5          158.5          158.5         -0.13089257     0.015477281   -0.19843577    -0.20971923     0.71952402   
     39240   0.5912737      158.5          158.5          158.5         -0.1287833      0.014817643   -0.017395501   -0.38377205     0.5912737    
     39260   0.5016004      158.5          158.5          158.5          0.23924768     0.10009505     0.36599363     0.25165436     0.5016004    
     39280   0.75162273     158.5          158.5          158.5          0.068482904    0.057658999   -0.052828531    0.20061825     0.75162273   
     39300   0.12968984     158.5          158.5          158.5         -0.048201372    0.005838404   -0.069518351   -0.080924169    0.12968984   
     39320   0.62606793     158.5          158.5          158.5         -0.18559997    -0.068022798   -0.25694365    -0.23183347     0.62606793   
     39340   0.3118411      158.5          158.5          158.5         -0.091295973    0.026184916   -0.37676982     0.076696991    0.3118411    
     39360   0.67179615     158.5          158.5          158.5          0.20840976     0.13768869     0.21021292     0.27732767     0.67179615   
     39380   0.32356271     158.5          158.5          158.5         -0.036066457   -0.023130084    0.040058146   -0.12512743     0.32356271   
     39400   0.75145921     158.5          158.5          158.5         -0.23588529    -0.057900396   -0.53762865    -0.11212683     0.75145921   
     39420   0.20790096     158.5          158.5          158.5          0.017069477    0.091602175   -0.17194398     0.13155023     0.20790096   
     39440   0.61915168     158.5          158.5          158.5          0.049830602   -0.043931901    0.24847958    -0.055055877    0.61915168   
     39460   0.4672029      158.5          158.5          158.5          0.1697261      0.14235158     0.30493397     0.061892767    0.4672029    
     39480   0.66115732     158.5          158.5          158.5         -0.014043715    0.10742907    -0.19940739     0.049847171    0.66115732   
     39500   0.85463216     158.5          158.5          158.5         -0.23428804    -0.32112309    -0.28059503    -0.101146       0.85463216   
     39520   0.27058443     158.5          158.5          158.5          0.22941183     0.1074824      0.5290773      0.0516758      0.27058443   
     39540   0.79751344     158.5          158.5          158.5          0.22385324     0.31749159     0.27426071     0.079807416    0.79751344   
     39560   0.50057412     158.5          158.5          158.5         -0.071406123   -0.16067293    -0.06024271     0.0066972748   0.50057412   
     39580   1.0838281      158.5          158.5          158.5         -0.055192883   -0.15633998    -0.018612291    0.0093736236   1.0838281    
     39600   0.47736368     158.5          158.5          158.5         -0.034875828    0.040754801   -0.15650497     0.011122682    0.47736368   
     39620   1.0948422      158.5          158.5          158.5          0.23986958     0.2820435      0.40584115     0.031724081    1.0948422    
     39640   0.31145332     158.5          158.5          158.5          0.1657236      0.015456192    0.44415336     0.037561244    0.31145332   
     39660   0.78708621     158.5          158.5          158.5         -0.29965886    -0.26969712    -0.65851433     0.029234886    0.78708621   
     39680   0.66087563     158.5          158.5          158.5          0.0070868403   0.19226876    -0.24403821     0.07302997     0.66087563   
     39700   0.74613381     158.5          158.5          158.5          0.14183532     0.040809921    0.41422729    -0.029531257    0.74613381   
     39720   0.87139023     158.5          158.5          158.5          0.055826774    0.042854054    0.1784688     -0.053842528    0.87139023   
     39740   0.48545445     158.5          158.5          158.5          0.0042439179   0.19535866    -0.3429007      0.16027379     0.48545445   
     39760   0.76584646     158.5          158.5          158.5         -0.33261924    -0.23728403    -0.70591533    -0.054658359    0.76584646   
     39780   0.40960363     158.5          158.5          158.5         -0.011784433    0.0063132631   0.019949522   -0.061616084    0.40960363   
     39800   0.93650061     158.5          158.5          158.5          0.25079924     0.31474        0.22642498     0.21123273     0.93650061   
     39820   0.26840001     158.5          158.5          158.5         -0.09337189    -0.017788305   -0.18575799    -0.076569378    0.26840001   
     39840   0.89204657     158.5          158.5          158.5         -0.1155108     -0.12246543    -0.15527692    -0.068790043    0.89204657   
     39860   0.15077425     158.5          158.5          158.5         -0.021984929   -0.0088518224  -0.093257216    0.036154252    0.15077425   
     39880   0.39818748     158.5          158.5          158.5          0.11617057     0.12903198     0.19557112     0.023908608    0.39818748   
     39900   0.34772587     158.5          158.5          158.5          0.21013397     0.13460366     0.47690416     0.018894101    0.34772587   
     39920   0.34666418     158.5          158.5          158.5         -0.10350846    -0.05683047    -0.13754825    -0.11614666     0.34666418   
     39940   0.41378752     158.5          158.5          158.5         -0.054243494   -0.032433294   -0.15756943     0.027272242    0.41378752   
     39960   0.23596657     158.5          158.5          158.5          0.18259446     0.14145567     0.36955576     0.036771948    0.23596657   
     39980   0.32843949     158.5          158.5          158.5          0.065028725    0.097771552    0.22006766    -0.12275303     0.32843949   
     40000   0.23767936     158.5          158.5          158.5          0.027814054   -0.019549706   -0.058615125    0.16160699     0.23767936   
     40020   0.54714234     158.5          158.5          158.5         -0.13963514    -0.077569728   -0.2452553     -0.096080376    0.54714234   
     40040   0.23945306     158.5          158.5          158.5         -0.1027172     -0.0034456005  -0.088097807   -0.21660819     0.23945306   
     40060   0.84326263     158.5          158.5          158.5          0.20388899     0.054766216    0.13654181     0.42035893     0.84326263   
     40080   0.20924498     158.5          158.5          158.5         -0.067522012   -0.10535569    -0.18223765     0.085027309    0.20924498   
     40100   0.74768997     158.5          158.5          158.5         -0.28899159    -0.11808606    -0.36753286    -0.38135583     0.74768997   
     40120   0.50868728     158.5          158.5          158.5         -0.034384679   -0.010257783   -0.14870901     0.055812753    0.50868728   
     40140   0.88781928     158.5          158.5          158.5          0.041756111   -0.10297107     0.028930712    0.19930869     0.88781928   
     40160   0.83279479     158.5          158.5          158.5          0.22300038     0.15559599     0.3075118      0.20589334     0.83279479   
     40180   0.46589633     158.5          158.5          158.5         -0.036273241    0.10442315    -0.083482817   -0.12976006     0.46589633   
     40200   0.88964067     158.5          158.5          158.5         -0.23489742    -0.061147502   -0.26023758    -0.38330716     0.88964067   
     40220   0.41924761     158.5          158.5          158.5          0.264994       0.35614555     0.19664525     0.24219121     0.41924761   
     40240   1.192164       158.5          158.5          158.5          0.23749579     0.1055477      0.21344993     0.39348973     1.192164     
     40260   0.40066697     158.5          158.5          158.5          0.04821213     0.025818335    0.057236284    0.061581769    0.40066697   
     40280   1.1791334      158.5          158.5          158.5         -0.03652254     0.29058136    -0.085678252   -0.31447073     1.1791334    
     40300   0.4336532      158.5          158.5          158.5         -0.12778567    -0.025526324   -0.10317804    -0.25465264     0.4336532    
     40320   0.64775444     158.5          158.5          158.5          0.24838578     0.043500188    0.19057884     0.5110783      0.64775444   
     40340   0.40765069     158.5          158.5          158.5          0.16260691     0.061626857    0.12782538     0.2983685      0.40765069   
     40360   0.8719775      158.5          158.5          158.5         -0.31358818    -0.068441146   -0.18935499    -0.68296839     0.8719775    
     40380   0.58989802     158.5          158.5          158.5         -0.058374118    0.11027018     0.059049697   -0.34444223     0.58989802   
     40400   0.49569473     158.5          158.5          158.5          0.069595482   -0.045770078    0.10921685     0.14533967     0.49569473   
     40420   0.48207789     158.5          158.5          158.5          0.060554318   -0.068154622   -0.071403235    0.32122081     0.48207789   
     40440   0.26707939     158.5          158.5          158.5          0.013869896    0.083081842    0.047218429   -0.088690582    0.26707939   
     40460   0.83203033     158.5          158.5          158.5         -0.24480816     0.018774905    0.0054873897  -0.75868678     0.83203033   
     40480   0.17218735     158.5          158.5          158.5          0.042350162    0.0085161316  -0.00082686122  0.11936122     0.17218735   
     40500   0.7001017      158.5          158.5          158.5          0.22469386     0.011086978   -0.0022515456   0.66524616     0.7001017    
     40520   0.22206303     158.5          158.5          158.5         -0.048822873    0.0048097552  -0.025057138   -0.12622124     0.22206303   
     40540   0.48553559     158.5          158.5          158.5         -0.069019186    0.058735732    0.12294113    -0.38873442     0.48553559   
     40560   0.29837164     158.5          158.5          158.5         -0.068108959    0.017654766   -0.088663525   -0.13331812     0.29837164   
     40580   0.61425705     158.5          158.5          158.5          0.11105451     0.0021627186  -0.047398675    0.37839947     0.61425705   
     40600   0.44298502     158.5          158.5          158.5          0.25229164     0.038354356    0.17155158     0.54696899     0.44298502   
     40620   0.55197333     158.5          158.5          158.5         -0.19174945     0.035012266   -0.14919103    -0.46106959     0.55197333   
     40640   0.49949248     158.5          158.5          158.5         -0.12659337     0.047725126    0.068758451   -0.49626369     0.49949248   
     40660   0.45913684     158.5          158.5          158.5          0.24577196     0.061827868    0.1901024      0.48538561     0.45913684   
     40680   1.3577266      158.5          158.5          158.5          0.093033562    0.077362225   -0.30182614     0.5035646      1.3577266    
     40700   0.41212768     158.5          158.5          158.5          0.092092513    0.098947258    0.099816525    0.077513757    0.41212768   
     40720   1.357559       158.5          158.5          158.5         -0.17736281     0.043797331    0.1836821     -0.75956787     1.357559     
     40740   0.45807718     158.5          158.5          158.5         -0.11612786     0.058384412   -0.11829993    -0.28846807     0.45807718   
     40760   1.2027227      158.5          158.5          158.5          0.34161146     0.16079881     0.044769144    0.81926642     1.2027227    
     40780   0.38863631     158.5          158.5          158.5          0.0011261614  -0.027967771   -0.095772618    0.12711887     0.38863631   
     40800   1.1238876      158.5          158.5          158.5         -0.24448041    -0.041895367   -0.028111297   -0.66343456     1.1238876    
     40820   0.800212       158.5          158.5          158.5         -0.080616518    0.049006462    0.082579963   -0.37343598     0.800212     
     40840   0.6939208      158.5          158.5          158.5          0.0095115982  -0.15634166    -0.054041845    0.2389183      0.6939208    
     40860   0.55448191     158.5          158.5          158.5          0.20723669     0.011741097    0.020205033    0.58976394     0.55448191   
     40880   0.34117887     158.5          158.5          158.5         -0.10382447     0.070067983    0.0093209286  -0.39086232     0.34117887   
     40900   0.81993582     158.5          158.5          158.5         -0.25983973    -0.092096306   -0.054469221   -0.63295366     0.81993582   
     40920   0.36035991     158.5          158.5          158.5          0.21723389     0.14853911     0.049068178    0.45409437     0.36035991   
     40940   0.7857834      158.5          158.5          158.5          0.19259873     0.18279128     0.096777262    0.29822764     0.7857834    
     40960   0.22442405     158.5          158.5          158.5          0.047600289    0.22796841     0.036057047   -0.12122459     0.22442405   
     40980   0.76115797     158.5          158.5          158.5         -0.026175677    0.1358575     -0.03946256    -0.17492198     0.76115797   
     41000   0.20155682     158.5          158.5          158.5         -0.075414703   -0.019742969   -0.045847925   -0.16065321     0.20155682   
     41020   0.83892543     158.5          158.5          158.5          0.25689697     0.3738788      0.10831488     0.28849723     0.83892543   
     41040   0.40028547     158.5          158.5          158.5          0.17814731     0.13247217     0.12044404     0.28152573     0.40028547   
     41060   0.65472943     158.5          158.5          158.5         -0.25093835    -0.30218274    -0.12935805    -0.32127425     0.65472943   
     41080   0.57962554     158.5          158.5          158.5         -0.0947631      0.034611112   -0.10289778    -0.21600263     0.57962554   
     41100   0.31726417     158.5          158.5          158.5          0.025769807   -0.12124821     0.068689545    0.12986809     0.31726417   
     41120   1.0365548      158.5          158.5          158.5          0.081957765   -0.19401252     0.22813924     0.21174657     1.0365548    
     41140   0.53907258     158.5          158.5          158.5         -0.016509933    0.018327425   -0.039924332   -0.027932892    0.53907258   
     41160   1.0895269      158.5          158.5          158.5         -0.37389277    -0.46640548    -0.35594662    -0.29932622     1.0895269    
     41180   0.44361693     158.5          158.5          158.5          0.025944952   -0.18134434     0.23871154     0.020467652    0.44361693   
     41200   0.86263636     158.5          158.5          158.5          0.26734534     0.35246729     0.24651231     0.20305642     0.86263636   
     41220   0.27187111     158.5          158.5          158.5         -0.025077297    0.18074455    -0.29648108     0.04050464     0.27187111   
     41240   1.1457737      158.5          158.5          158.5         -0.021224204   -0.097077946    0.044191843   -0.010786508    1.1457737    
     41260   0.52673079     158.5          158.5          158.5         -0.026667396   -0.016474437   -0.12874115     0.065213397    0.52673079   
     41280   0.89908716     158.5          158.5          158.5          0.19182285     0.56789542    -0.13933886     0.146912       0.89908716   
     41300   0.50873702     158.5          158.5          158.5          0.34550248     0.52697598     0.39323997     0.11629148     0.50873702   
     41320   0.48257163     158.5          158.5          158.5         -0.16662751    -0.29563306    -0.17196244    -0.032287033    0.48257163   
     41340   0.91002923     158.5          158.5          158.5         -0.15365567    -0.17136889    -0.37849852     0.088900414    0.91002923   
     41360   0.36192879     158.5          158.5          158.5          0.18619182     0.3061961      0.18223632     0.070143028    0.36192879   
     41380   1.0351378      158.5          158.5          158.5          0.091463353    0.16842992     0.24733609    -0.14137594     1.0351378    
     41400   0.28203152     158.5          158.5          158.5          0.038189858    0.056413273   -0.0011071451   0.059263447    0.28203152   
     41420   0.89169587     158.5          158.5          158.5         -0.27514672    -0.49048861    -0.34702728     0.012075725    0.89169587   
     41440   0.17093913     158.5          158.5          158.5         -0.10876409    -0.26923033    -0.027332313   -0.029729638    0.17093913   
     41460   0.91020524     158.5          158.5          158.5          0.28229113     0.48130576     0.29980195     0.065765667    0.91020524   
     41480   0.47461849     158.5          158.5          158.5         -0.023376705    0.13977364    -0.0023568753  -0.20754687     0.47461849   
     41500   0.75862471     158.5          158.5          158.5         -0.17468378    -0.42818411    -0.20966316     0.11379593     0.75862471   
     41520   0.42789418     158.5          158.5          158.5         -0.029769483   -0.1921369     -0.08708601     0.18991446     0.42789418   
     41540   0.53035975     158.5          158.5          158.5          0.02309083     0.24650637     0.14263409    -0.31986797     0.53035975   
     41560   0.72497277     158.5          158.5          158.5          0.26968558     0.47368033     0.22562304     0.10975337     0.72497277   
     41580   0.59058195     158.5          158.5          158.5         -0.026213638   -0.11765744    -0.14564221     0.18465874     0.59058195   
     41600   1.0528356      158.5          158.5          158.5         -0.28483408    -0.47106752    -0.15156919    -0.23186554     1.0528356    
     41620   0.43755571     158.5          158.5          158.5          0.21082995     0.31382178     0.24828385     0.070384234    0.43755571   
     41640   1.2360459      158.5          158.5          158.5          0.18535112     0.40946767    -0.0036614587   0.15024715     1.2360459    
     41660   0.081177662    158.5          158.5          158.5          0.068816164    0.11994707     0.084430188    0.002071229    0.081177662  
     41680   1.4572092      158.5          158.5          158.5         -0.11691721    -0.2983701      0.10966818    -0.1620497      1.4572092    
     41700   0.72781023     158.5          158.5          158.5         -0.13103309    -0.15605296    -0.17940594    -0.057640357    0.72781023   
     41720   1.185204       158.5          158.5          158.5          0.37155629     0.57240044     0.23280564     0.30946279     1.185204     
     41740   0.60264937     158.5          158.5          158.5          0.20411431     0.26728758     0.1935203      0.15153503     0.60264937   
     41760   0.65465425     158.5          158.5          158.5         -0.24952239    -0.30488873    -0.19733968    -0.24633876     0.65465425   
     41780   0.7886225      158.5          158.5          158.5         -0.02437106    -0.027320158    0.092021673   -0.13781469     0.7886225    
     41800   0.52360996     158.5          158.5          158.5          0.03664622     0.029904481   -0.038568282    0.11860246     0.52360996   
     41820   0.74700472     158.5          158.5          158.5          0.13094727     0.25122771    -0.095609454    0.23722355     0.74700472   
     41840   0.30729002     158.5          158.5          158.5          0.019286778    0.1601509     -0.02421947    -0.078071093    0.30729002   
     41860   0.75078123     158.5          158.5          158.5         -0.34074165    -0.39046379    -0.15431703    -0.47744413     0.75078123   
     41880   0.064260358    158.5          158.5          158.5          0.0036105547   0.019130373    0.0073927912  -0.015691501    0.064260358  
     41900   0.71787332     158.5          158.5          158.5          0.18255553     0.37848493    -0.053002778    0.22218445     0.71787332   
     41920   0.25510195     158.5          158.5          158.5         -0.045610702   -0.037978624   -0.090165463   -0.0086880203   0.25510195   
     41940   0.69604312     158.5          158.5          158.5         -0.084578692   -0.16707625     0.097066033   -0.18372586     0.69604312   
     41960   0.29969725     158.5          158.5          158.5         -0.092821196   -0.025690961   -0.013717321   -0.23905531     0.29969725   
     41980   0.40196834     158.5          158.5          158.5          0.16299075     0.16867253     0.0092900755   0.31100965     0.40196834   
     42000   0.5743497      158.5          158.5          158.5          0.28924676     0.078073888    0.097904162    0.69176223     0.5743497    
     42020   0.58725694     158.5          158.5          158.5         -0.12859469    -0.17034522     0.031288634   -0.24672749     0.58725694   
     42040   0.8421777      158.5          158.5          158.5         -0.05773403     0.081999764    0.042763346   -0.2979652      0.8421777    
     42060   0.39540899     158.5          158.5          158.5          0.20356501     0.010642744    0.042338382    0.55771391     0.39540899   
     42080   0.95619699     158.5          158.5          158.5          0.13668953    -0.081780945    0.029646958    0.46220259     0.95619699   
     42100   0.2119479      158.5          158.5          158.5          0.11386566     0.34877071     0.033002527   -0.040176255    0.2119479    
     42120   1.1138851      158.5          158.5          158.5         -0.30104979    -0.12139922     0.021027243   -0.8027774      1.1138851    
     42140   0.45018193     158.5          158.5          158.5         -0.15015103    -0.11038521     0.016190531   -0.3562584      0.45018193   
     42160   1.2360592      158.5          158.5          158.5          0.28382704     0.43643353     0.023011919    0.39203566     1.2360592    
     42180   0.38778038     158.5          158.5          158.5         -0.055424421   -0.07102709    -0.005908272   -0.089337902    0.38778038   
     42200   0.76882936     158.5          158.5          158.5         -0.237973      -0.070482684    0.033265967   -0.67670229     0.76882936   
     42220   0.5732854      158.5          158.5          158.5         -0.089161568    0.19881207     0.036609777   -0.50290655     0.5732854    
     42240   0.72950843     158.5          158.5          158.5          0.025966865   -0.0029661994  -0.096198988    0.17706578     0.72950843   
     42260   0.97452432     158.5          158.5          158.5          0.29573851     0.023627174    0.092338342    0.77125002     0.97452432   
     42280   0.24928997     158.5          158.5          158.5         -0.018711152    0.056067259    0.056054796   -0.16825551     0.24928997   
     42300   1.0604373      158.5          158.5          158.5         -0.23695856     0.058477378   -0.0043522653  -0.76500078     1.0604373    
     42320   0.17041953     158.5          158.5          158.5          0.21655638     0.075301157    0.2053544      0.36901358     0.17041953   
     42340   0.94170151     158.5          158.5          158.5          0.19417725    -0.0042930041  -0.00098053684  0.58780528     0.94170151   
     42360   0.35115779     158.5          158.5          158.5          0.1127366      0.047107601    0.053222023    0.23788019     0.35115779   
     42380   0.93697259     158.5          158.5          158.5         -0.089715144    0.055310868    0.16990096    -0.49435726     0.93697259   
     42400   0.35751895     158.5          158.5          158.5         -0.18143466     0.035592327   -0.089432726   -0.49046359     0.35751895   
     42420   0.63161585     158.5          158.5          158.5          0.26193628     0.052897742    0.030704416    0.70220669     0.63161585   
     42440   0.36190701     158.5          158.5          158.5          0.12222255     0.049233755   -0.032830394    0.35026429     0.36190701   
     42460   0.76311452     158.5          158.5          158.5         -0.27567198     0.034608231   -0.12850907    -0.7331151      0.76311452   
     42480   0.75385291     158.5          158.5          158.5         -0.052059416    0.037823323    0.01329064    -0.20729221     0.75385291   
     42500   0.41623994     158.5          158.5          158.5          0.026041126    0.048515714   -0.19972323     0.2293309      0.41623994   
     42520   0.89290698     158.5          158.5          158.5          0.15370635     0.048300674    0.096209878    0.31660851     0.89290698   
     42540   0.16854905     158.5          158.5          158.5          0.046080867    0.073532997    0.082008289   -0.017298683    0.16854905   
     42560   1.250327       158.5          158.5          158.5         -0.34704475     0.050824454   -0.47971296    -0.61224573     1.250327     
     42580   0.36730651     158.5          158.5          158.5          0.085449387    0.066046392    0.15579459     0.034507175    0.36730651   
     42600   1.2902185      158.5          158.5          158.5          0.27096412     0.047259293    0.33949455     0.42613854     1.2902185    
     42620   0.45882399     158.5          158.5          158.5          0.016787007    0.1144493     -0.17329104     0.10920276     0.45882399   
     42640   1.0543778      158.5          158.5          158.5         -0.083150745    0.14751214    -0.106437      -0.29052738     1.0543778    
     42660   0.64957013     158.5          158.5          158.5         -0.21095055    -0.21306749    -0.15339391    -0.26639024     0.64957013   
     42680   0.89563151     158.5          158.5          158.5          0.20826074     0.17498654     0.19203366     0.25776202     0.89563151   
     42700   0.94611402     158.5          158.5          158.5          0.36095798     0.33768986     0.44949143     0.29569266     0.94611402   
     42720   0.63881962     158.5          158.5          158.5         -0.19473531    -0.34537455    -0.13147549    -0.10735589     0.63881962   
     42740   0.95031358     158.5          158.5          158.5         -0.11399461     0.040261349   -0.27314388    -0.10910129     0.95031358   
     42760   0.21542211     158.5          158.5          158.5          0.15832618     0.24452285     0.14543004     0.085025649    0.21542211   
     42780   0.80948444     158.5          158.5          158.5          0.14204736    -0.1638459      0.43203337     0.1579546      0.80948444   
     42800   0.19425653     158.5          158.5          158.5          0.12149114     0.064777651    0.20927852     0.090417235    0.19425653   
     42820   0.86975809     158.5          158.5          158.5         -0.19240173     0.027412738   -0.5046607     -0.099957235    0.86975809   
     42840   0.16324461     158.5          158.5          158.5         -0.077082559   -0.097858121   -0.12686337    -0.006526185    0.16324461   
     42860   0.59600161     158.5          158.5          158.5          0.21695509     0.10791256     0.44781116     0.095141551    0.59600161   
     42880   0.27194066     158.5          158.5          158.5         -0.014996388    0.11610342    -0.013687921   -0.14740466     0.27194066   
     42900   0.53507122     158.5          158.5          158.5         -0.16050587    -0.015310855   -0.42470928    -0.041497479    0.53507122   
     42920   0.5751023      158.5          158.5          158.5         -0.14683052    -0.12719964    -0.35688631     0.043594373    0.5751023    
     42940   0.449033       158.5          158.5          158.5         -0.010629706    0.080992006    0.053408512   -0.16628964     0.449033     
     42960   0.70773664     158.5          158.5          158.5          0.23080688     0.29644714     0.39484964     0.0011238707   0.70773664   
     42980   0.28234266     158.5          158.5          158.5         -0.10973885    -0.090426248   -0.21743802    -0.021352272    0.28234266   
     43000   0.94381169     158.5          158.5          158.5         -0.26752379    -0.19466618    -0.63542812     0.027522924    0.94381169   
     43020   0.4239596      158.5          158.5          158.5          0.24592113     0.22204787     0.28784187     0.22787364     0.4239596    
     43040   1.551128       158.5          158.5          158.5          0.25092286     0.30192606     0.63485109    -0.18400856     1.551128     
     43060   0.34376647     158.5          158.5          158.5          0.19869984     0.23493907     0.33044289     0.03071758     0.34376647   
     43080   1.4262198      158.5          158.5          158.5         -0.052156951   -0.032395752   -0.44604669     0.32197159     1.4262198    
     43100   0.39852468     158.5          158.5          158.5         -0.14355223     0.037544112   -0.35961524    -0.10858555     0.39852468   
     43120   1.0924113      158.5          158.5          158.5          0.3570259      0.46716051     0.6159027     -0.011985505    1.0924113    
     43140   0.94694518     158.5          158.5          158.5          0.21085849     0.046267397    0.44246331     0.14384476     0.94694518   
     43160   0.65171752     158.5          158.5          158.5         -0.23137143    -0.22630253    -0.46463987    -0.0031718802   0.65171752   
     43180   1.1625426      158.5          158.5          158.5         -0.14413151     0.065319191   -0.45306644    -0.044647278    1.1625426    
     43200   0.36513288     158.5          158.5          158.5         -0.050382168   -0.23690569     0.066162285    0.019596906    0.36513288   
     43220   0.93219107     158.5          158.5          158.5          0.16202547    -0.14819859     0.43627387     0.19800113     0.93219107   
     43240   0.34700611     158.5          158.5          158.5         -0.0061518167   0.036173827   -0.055991064    0.0013617873   0.34700611   
     43260   1.1382841      158.5          158.5          158.5         -0.38099676    -0.32682318    -0.60146316    -0.21470395     1.1382841    
     43280   0.3064903      158.5          158.5          158.5          0.060888362   -0.022664757    0.15052246     0.05480738     0.3064903    
     43300   0.76777066     158.5          158.5          158.5          0.20965092     0.14409001     0.30143193     0.18343082     0.76777066   
     43320   0.19202381     158.5          158.5          158.5          0.039501791    0.058726018   -0.020229122    0.080008479    0.19202381   
     43340   0.80870442     158.5          158.5          158.5         -0.0050929651   0.12703699    -0.038210711   -0.10410518     0.80870442   
     43360   0.48201697     158.5          158.5          158.5         -0.12897575     0.030123723   -0.27266809    -0.14438289     0.48201697   
     43380   0.58400495     158.5          158.5          158.5          0.18586785     0.20855246     0.08356194     0.26548914     0.58400495   
     43400   0.62187615     158.5          158.5          158.5          0.30487861     0.17879418     0.43710902     0.29873263     0.62187615   
     43420   0.31507948     158.5          158.5          158.5         -0.15710332    -0.060206473   -0.21563842    -0.19546508     0.31507948   
     43440   0.81264053     158.5          158.5          158.5         -0.13006697     0.11750147    -0.33169547    -0.17600692     0.81264053   
     43460   0.18588774     158.5          158.5          158.5          0.10143057     0.058807162    0.14835753     0.097127029    0.18588774   
     43480   1.1592503      158.5          158.5          158.5          0.13609304    -0.047597439    0.27484513     0.18103142     1.1592503    
     43500   0.27189234     158.5          158.5          158.5          0.10935291     0.1433333     -0.014414675    0.19914009     0.27189234   
     43520   1.0994527      158.5          158.5          158.5         -0.32669972    -0.0081756434  -0.34503112    -0.62689241     1.0994527    
     43540   0.34451251     158.5          158.5          158.5         -0.087670877    0.024355808    0.21194002    -0.49930846     0.34451251   
     43560   1.1533506      158.5          158.5          158.5          0.32973657     0.15245653     0.24382221     0.59293096     1.1533506    
     43580   1.0156634      158.5          158.5          158.5          0.01952502     0.10714098    -0.30140352     0.25283761     1.0156634    
     43600   1.1448164      158.5          158.5          158.5         -0.099951519    0.10081814     0.22706958    -0.62774228     1.1448164    
     43620   0.92619437     158.5          158.5          158.5         -0.15137047     0.11393217     0.039680678   -0.60772426     0.92619437   
     43640   0.79512805     158.5          158.5          158.5          0.011245401    0.040949752   -0.26479003     0.25757648     0.79512805   
     43660   1.0263609      158.5          158.5          158.5          0.33371039     0.13463901     0.22450205     0.64199012     1.0263609    
     43680   0.21243836     158.5          158.5          158.5         -0.083850415    0.056789213    0.053640207   -0.36198067     0.21243836   
     43700   1.074404       158.5          158.5          158.5         -0.2796615      0.00094527398 -0.11118114    -0.72874863     1.074404     
     43720   0.20979074     158.5          158.5          158.5          0.12196288     0.10737417     0.060141108    0.19837336     0.20979074   
     43740   0.80542016     158.5          158.5          158.5          0.13451626    -0.042168159    0.021041547    0.4246754      0.80542016   
     43760   0.10661106     158.5          158.5          158.5          0.11268935     0.018179472   -0.0067687818   0.32665736     0.10661106   
     43780   0.63827814     158.5          158.5          158.5         -0.094914675    0.11492322     0.0016296982  -0.40129694     0.63827814   
     43800   0.43403189     158.5          158.5          158.5         -0.11943759     0.0028526531   0.012437459   -0.37360288     0.43403189   
     43820   0.5809136      158.5          158.5          158.5          0.28773617     0.1000565      0.022952301    0.74019972     0.5809136    
     43840   0.49860099     158.5          158.5          158.5          0.16462157    -0.044033736    1.9526109e-05  0.53787892     0.49860099   
     43860   0.38159917     158.5          158.5          158.5         -0.13726241     0.03816336     0.015052013   -0.46500261     0.38159917   
     43880   0.70277057     158.5          158.5          158.5         -0.0713824      0.22617259     0.021787799   -0.46210759     0.70277057   
     43900   0.31480277     158.5          158.5          158.5         -0.033278483   -0.16820771     0.01684273     0.051529535    0.31480277   
     43920   0.97076451     158.5          158.5          158.5          0.19304854    -0.066003696    0.019569805    0.62557951     0.97076451   
     43940   0.30040436     158.5          158.5          158.5          0.030501602    0.077209473    0.023601188   -0.0093058558   0.30040436   
     43960   1.2255067      158.5          158.5          158.5         -0.44671366    -0.12858461    -0.0036898534  -1.2078665      1.2255067    
     43980   0.15804989     158.5          158.5          158.5         -0.0026288669   0.065312531    0.049860088   -0.12305922     0.15804989   
     44000   1.0181561      158.5          158.5          158.5          0.1795442     -0.097326394    0.069840102    0.56611888     1.0181561    
     44020   0.57207944     158.5          158.5          158.5          0.015008422   -0.041440959   -0.047382617    0.13384884     0.57207944   
     44040   1.1281916      158.5          158.5          158.5         -0.042404638    0.22582587     0.021299844   -0.37433963     1.1281916    
     44060   0.76953194     158.5          158.5          158.5         -0.17978713    -0.013369828    0.00031954586 -0.52631112     0.76953194   
     44080   0.58624986     158.5          158.5          158.5          0.2415861      0.2002795      0.030802734    0.49367606     0.58624986   
     44100   0.96361195     158.5          158.5          158.5          0.38181431     0.39476817     0.012467479    0.73820728     0.96361195   
     44120   0.37272602     158.5          158.5          158.5         -0.10156063    -0.0025810276  -0.098717876   -0.20338298     0.37272602   
     44140   1.0163877      158.5          158.5          158.5         -0.034132059    0.011262428    0.088686998   -0.2023456      1.0163877    
     44160   0.32784443     158.5          158.5          158.5          0.076965253    0.16192472    -0.15438082     0.22335185     0.32784443   
     44180   0.66482245     158.5          158.5          158.5          0.12539442     0.11327832    -0.02004989     0.28295484     0.66482245   
     44200   0.12847126     158.5          158.5          158.5          0.12522702     0.049663647    0.2578405      0.068176918    0.12847126   
     44220   0.48940634     158.5          158.5          158.5         -0.25255882    -0.17622158    -0.225783      -0.35567188     0.48940634   
     44240   0.16003414     158.5          158.5          158.5         -0.11419824    -0.10427319    -0.072724671   -0.16559685     0.16003414   
     44260   0.50450003     158.5          158.5          158.5          0.16069981     0.081543155    0.30388568     0.096670583    0.50450003   
     44280   0.31621856     158.5          158.5          158.5         -0.030750878    0.020581053   -0.087294041   -0.025539647    0.31621856   
     44300   0.28738831     158.5          158.5          158.5         -0.10711983    -0.10794513    -0.072971818   -0.14044254     0.28738831   
     44320   0.43334495     158.5          158.5          158.5         -0.14610074    -0.19492476     0.053633867   -0.29701134     0.43334495   
     44340   0.1706547      158.5          158.5          158.5         -0.0045938984   0.032803222   -0.020660374   -0.025924543    0.1706547    
     44360   0.71319434     158.5          158.5          158.5          0.25951324     0.31589688     0.099004266    0.36363858     0.71319434   
     44380   0.23053179     158.5          158.5          158.5         -0.038112956   -0.034338831   -0.0088523257  -0.07114771     0.23053179   
     44400   0.7947714      158.5          158.5          158.5         -0.17430505    -0.25562051    -0.11022831    -0.15706634     0.7947714    
     44420   0.18106023     158.5          158.5          158.5          0.12801681     0.10395592    -0.052771943    0.33286646     0.18106023   
     44440   0.78894161     158.5          158.5          158.5          0.14749123     0.28841715     0.033608702    0.12044783     0.78894161   
     44460   0.39495427     158.5          158.5          158.5          0.20820797     0.29766875     0.23252767     0.09442749     0.39495427   
     44480   0.97411838     158.5          158.5          158.5         -0.10811669    -0.26106678    -0.1885747      0.1252914      0.97411838   
     44500   0.58339874     158.5          158.5          158.5         -0.21541347    -0.32292826    -0.26674625    -0.056565906    0.58339874   
     44520   0.70975608     158.5          158.5          158.5          0.30166139     0.49882877     0.28975248     0.11640293     0.70975608   
     44540   0.70955772     158.5          158.5          158.5          0.15472682     0.3203402      0.19154063    -0.047700369    0.70955772   
     44560   0.52484547     158.5          158.5          158.5         -0.16638999    -0.31360715    -0.16817923    -0.017383578    0.52484547   
     44580   1.0580486      158.5          158.5          158.5         -0.080941338   -0.18393951    -0.18630719     0.12742268     1.0580486    
     44600   0.52091215     158.5          158.5          158.5         -0.028148396    0.093946635    0.0032609038  -0.18165273     0.52091215   
     44620   1.1912396      158.5          158.5          158.5          0.22366921     0.40261345     0.2746207     -0.0062265067   1.1912396    
     44640   0.074760601    158.5          158.5          158.5          0.062295247    0.17321497    -0.031825202    0.045495978    0.074760601  
     44660   1.1206677      158.5          158.5          158.5         -0.36323143    -0.52516945    -0.51499189    -0.049532937    1.1206677    
     44680   0.31044933     158.5          158.5          158.5          0.0040448161  -0.09433298     0.066716346    0.039751083    0.31044933   
     44700   0.9123486      158.5          158.5          158.5          0.13635187     0.33099485     0.12765789    -0.049597124    0.9123486    
     44720   0.58334046     158.5          158.5          158.5          0.057735405    0.34699666    -0.16611559    -0.007674853    0.58334046   
     44740   0.49644487     158.5          158.5          158.5         -0.046892936   -0.18979877    -0.002581019    0.051700981    0.49644487   
     44760   0.56962557     158.5          158.5          158.5         -0.24354117    -0.56023451    -0.15502644    -0.015362565    0.56962557   
     44780   0.25781016     158.5          158.5          158.5          0.13913809     0.33798644     0.056306233    0.023121593    0.25781016   
     44800   0.5392845      158.5          158.5          158.5          0.2567766      0.48898545     0.25581402     0.02553033     0.5392845    
     44820   0.28843866     158.5          158.5          158.5         -0.097483039   -0.31487422     0.043680263   -0.021255164    0.28843866   
     44840   0.5472052      158.5          158.5          158.5         -0.042059275   -0.18099489     0.050682765    0.0041343006   0.5472052    
     44860   0.069325281    158.5          158.5          158.5          0.058705541    0.092526585    0.070505266    0.013084772    0.069325281  
     44880   0.46402533     158.5          158.5          158.5          0.12192369     0.13422191     0.21782547     0.013723696    0.46402533   
     44900   0.13047983     158.5          158.5          158.5          0.15255397     0.22010586     0.21848936     0.019066688    0.13047983   
     44920   0.51600642     158.5          158.5          158.5         -0.17901482    -0.26570899    -0.24459855    -0.026736909    0.51600642   
     44940   0.24290735     158.5          158.5          158.5         -0.09274603    -0.22559506    -0.044043036   -0.0085999935   0.24290735   
     44960   0.37092064     158.5          158.5          158.5          0.16571868     0.31882822     0.13778233     0.040545484    0.37092064   
     44980   0.46175588     158.5          158.5          158.5         -0.015778385    0.23845266    -0.29602324     0.010235418    0.46175588   
     45000   0.45773179     158.5          158.5          158.5         -0.10858165    -0.13537333    -0.15252587    -0.037845757    0.45773179   
     45020   0.88636743     158.5          158.5          158.5         -0.25673793    -0.48473862    -0.18063948    -0.10483568     0.88636743   
     45040   0.52906849     158.5          158.5          158.5         -0.044093308    0.20370001    -0.2771442     -0.058835734    0.52906849   
     45060   1.1606401      158.5          158.5          158.5          0.32214643     0.71665596     0.1346763      0.11510702     1.1606401    
     45080   0.17763689     158.5          158.5          158.5         -0.083967486   -0.29312504     0.015350268    0.025872319    0.17763689   
     45100   1.076596       158.5          158.5          158.5         -0.22626816    -0.38770865    -0.14344141    -0.14765442     1.076596     
     45120   0.33097046     158.5          158.5          158.5          0.14878946     0.28987217     0.085570169    0.070926029    0.33097046   
     45140   1.2902861      158.5          158.5          158.5          0.17657009     0.040616377    0.20436576     0.28472812     1.2902861    
     45160   0.55548527     158.5          158.5          158.5          0.29268406     0.2809519      0.17571056     0.42138972     0.55548527   
     45180   0.79339958     158.5          158.5          158.5         -0.040520956   -0.03995125    -0.022445493   -0.059166126    0.79339958   
     45200   0.61478661     158.5          158.5          158.5         -0.21559523    -0.45802309    -0.055017074   -0.13374553     0.61478661   
     45220   0.55140136     158.5          158.5          158.5          0.28792571     0.28794869     0.11358352     0.46224493     0.55140136   
     45240   0.86894101     158.5          158.5          158.5          0.15774667     0.36279191     0.076440274    0.034007814    0.86894101   
     45260   0.29652054     158.5          158.5          158.5         -0.11691939    -0.11574183    -0.029212757   -0.20580359     0.29652054   
     45280   1.0426148      158.5          158.5          158.5         -0.15282383    -0.24816036    -0.035448523   -0.1748626      1.0426148    
     45300   0.17317302     158.5          158.5          158.5         -0.10227979     0.05512961     0.028086315   -0.39005531     0.17317302   
     45320   0.70583009     158.5          158.5          158.5          0.18023134     0.33901118     0.094876586    0.10680624     0.70583009   
     45340   0.24979327     158.5          158.5          158.5          0.03087612    -0.0081561563  -0.027416915    0.12820143     0.24979327   
     45360   0.80292529     158.5          158.5          158.5         -0.30051907    -0.22642755    -0.048394565   -0.62673508     0.80292529   
     45380   0.39330521     158.5          158.5          158.5          0.021954898    0.11697016     0.13916538    -0.19027085     0.39330521   
     45400   0.57220372     158.5          158.5          158.5          0.12590422     0.083119976   -0.091518882    0.38611157     0.57220372   
     45420   0.3009872      158.5          158.5          158.5          0.092212897    0.059618412   -0.081780676    0.29880095     0.3009872    
     45440   0.60311976     158.5          158.5          158.5          0.0053298563   0.047009967    0.20260168    -0.23362208     0.60311976   
     45460   0.6934388      158.5          158.5          158.5         -0.23382249    -0.13339177    -0.076137613   -0.49193807     0.6934388    
     45480   0.48028924     158.5          158.5          158.5          0.17410637     0.088438408   -0.040794954    0.47467565     0.48028924   
     45500   1.1464118      158.5          158.5          158.5          0.35170355     0.23162978     0.12850378     0.69497708     1.1464118    
     45520   0.24106303     158.5          158.5          158.5         -0.12121856     0.029042984   -0.125723      -0.26697568     0.24106303   
     45540   1.4620885      158.5          158.5          158.5         -0.1508694      0.02323729     0.1558682     -0.63171369     1.4620885    
     45560   0.19908208     158.5          158.5          158.5          0.046551852    0.11217156     0.044694343   -0.017210349    0.19908208   
     45580   1.5947875      158.5          158.5          158.5          0.21892121     0.10694744    -0.13083325     0.68064943     1.5947875    
     45600   0.78059626     158.5          158.5          158.5          0.2729408      0.19135893     0.13818942     0.48927404     0.78059626   
     45620   1.1162922      158.5          158.5          158.5         -0.29120565     0.054412952    0.0014002014  -0.92943011     1.1162922    
     45640   0.63781648     158.5          158.5          158.5         -0.11808809     0.08899575     0.018419335   -0.46167936     0.63781648   
     45660   0.64691592     158.5          158.5          158.5          0.25736455     0.08465266     0.080893846    0.60654713     0.64691592   
     45680   0.82692289     158.5          158.5          158.5          0.052762071   -0.088565539   -0.043932755    0.29078451     0.82692289   
     45700   0.45781075     158.5          158.5          158.5         -0.011246434    0.1243053     -0.0073822287  -0.15066237     0.45781075   
     45720   0.89555653     158.5          158.5          158.5         -0.2067441      0.077084344   -0.056805474   -0.64051116     0.89555653   
     45740   0.30575057     158.5          158.5          158.5         -0.079919494   -0.12098203    -0.018774418   -0.10000203     0.30575057   
     45760   0.74506883     158.5          158.5          158.5          0.26540559     0.097416788    0.055628656    0.64317132     0.74506883   
     45780   0.13703864     158.5          158.5          158.5         -0.071641132   -0.025496996   -0.055084895   -0.13434151     0.13703864   
     45800   0.94323472     158.5          158.5          158.5         -0.24780183     0.0066387351  -0.10467154    -0.64537269     0.94323472   
     45820   0.28706886     158.5          158.5          158.5          0.052248721    0.15115894    -0.0031897109   0.0087769347   0.28706886   
     45840   0.83990226     158.5          158.5          158.5          0.1145112     -0.099583046    0.08946912     0.35364753     0.83990226   
     45860   0.29322675     158.5          158.5          158.5          0.21713614     0.018631931    0.18667576     0.44610074     0.29322675   
     45880   0.6249552      158.5          158.5          158.5         -0.08619099     0.083296909   -0.071067214   -0.27080266     0.6249552    
     45900   0.72771333     158.5          158.5          158.5         -0.16867131     0.060456461   -0.19320724    -0.37326314     0.72771333   
     45920   0.53540729     158.5          158.5          158.5          0.33143601     0.14384525     0.23655001     0.61391279     0.53540729   
     45940   1.0074346      158.5          158.5          158.5          0.18844819    -0.16272642     0.22843736     0.49963362     1.0074346    
     45960   0.32137189     158.5          158.5          158.5         -0.046923857    0.093115861   -0.054221827   -0.1796656      0.32137189   
     45980   0.97778484     158.5          158.5          158.5         -0.098597067    0.1890682     -0.22301765    -0.26184175     0.97778484   
     46000   0.28772992     158.5          158.5          158.5         -0.11915069    -0.20069524    -0.1513372     -0.005419634    0.28772992   
     46020   1.1358436      158.5          158.5          158.5          0.23900336     0.16718678     0.39979949     0.15002382     1.1358436    
     46040   0.47598923     158.5          158.5          158.5          0.063490616    0.21252092     0.18128645    -0.20333552     0.47598923   
     46060   1.2609729      158.5          158.5          158.5         -0.42497672    -0.11579742    -0.66578707    -0.49334568     1.2609729    
     46080   0.35573807     158.5          158.5          158.5         -0.058834482    0.065112281   -0.10922532    -0.13239041     0.35573807   
     46100   0.81138042     158.5          158.5          158.5          0.095992425    0.15908204     0.34603716    -0.21714193     0.81138042   
     46120   0.69384973     158.5          158.5          158.5          0.11094797     0.10345438     0.18311452     0.046275011    0.69384973   
     46140   0.48948897     158.5          158.5          158.5          0.00033530737  0.0010139469  -0.14421697     0.14420895     0.48948897   
     46160   0.92600621     158.5          158.5          158.5         -0.21378668    -0.057671163   -0.37336829    -0.21032058     0.92600621   
     46180   0.26836394     158.5          158.5          158.5          0.16085374     0.1029286      0.17775279     0.20187983     0.26836394   
     46200   0.56822557     158.5          158.5          158.5          0.25969005     0.17044467     0.34214011     0.26648536     0.56822557   
     46220   0.17039616     158.5          158.5          158.5         -0.028062093   -0.0067641209  -0.043106677   -0.034315482    0.17039616   
     46240   0.61542558     158.5          158.5          158.5         -0.039654718   -0.032480717   -0.21555086     0.12906743     0.61542558   
     46260   0.21967686     158.5          158.5          158.5         -0.022879152    0.052769453   -0.19650115     0.07509424     0.21967686   
     46280   0.55068407     158.5          158.5          158.5          0.13206983     0.075431532    0.33678632    -0.016008362    0.55068407   
     46300   0.17619566     158.5          158.5          158.5          0.16279543     0.059134725    0.38058998     0.048661592    0.17619566   
     46320   0.47000156     158.5          158.5          158.5         -0.2480598     -0.10774814    -0.57350707    -0.062924176    0.47000156   
     46340   0.35277942     158.5          158.5          158.5         -0.12796572    -0.086744164   -0.28579968    -0.011353315    0.35277942   
     46360   0.49223144     158.5          158.5          158.5          0.1494312     -0.0081671621   0.48974916    -0.03328841     0.49223144   
     46380   0.71637085     158.5          158.5          158.5          0.023602996   -0.010113457    0.16598317    -0.085060723    0.71637085   
     46400   0.36805558     158.5          158.5          158.5         -0.039199743    0.023089075   -0.19236109     0.051672784    0.36805558   
     46420   0.91769979     158.5          158.5          158.5         -0.23303839    -0.25551235    -0.44007517    -0.0035276528   0.91769979   
     46440   0.13767577     158.5          158.5          158.5         -0.027974974   -0.052153206   -0.027439955   -0.0043317627   0.13767577   
     46460   1.3153518      158.5          158.5          158.5          0.34465529     0.41303467     0.58974499     0.031186214    1.3153518    
     46480   0.44631832     158.5          158.5          158.5         -0.0080145286  -0.13860309     0.085151545    0.029407956    0.44631832   
     46500   1.250624       158.5          158.5          158.5         -0.17991171    -0.10052576    -0.47477789     0.035568527    1.250624     
     46520   0.42214967     158.5          158.5          158.5          0.022842449    0.29088721    -0.26468273     0.042322866    0.42214967   
     46540   0.80209855     158.5          158.5          158.5          0.11528522    -0.001016161    0.29970297     0.047168838    0.80209855   
     46560   0.77567393     158.5          158.5          158.5          0.27562964     0.15966665     0.6170047      0.050217568    0.77567393   
     46580   0.75624074     158.5          158.5          158.5         -0.12218921     0.1052629     -0.48470942     0.012878873    0.75624074   
     46600   0.88070524     158.5          158.5          158.5         -0.22502004    -0.067722564   -0.61114143     0.0038038832   0.88070524   
     46620   0.6750571      158.5          158.5          158.5          0.29161853     0.17068838     0.62439069     0.079776513    0.6750571    
     46640   0.71956105     158.5          158.5          158.5          0.14830385     0.15504434     0.23578215     0.054085054    0.71956105   
     46660   0.16552465     158.5          158.5          158.5         -0.031334422    0.097410948   -0.25578926     0.064375048    0.16552465   
     46680   0.99357054     158.5          158.5          158.5         -0.0800088     -0.05559562    -0.16494787    -0.019482907    0.99357054   
     46700   0.29281714     158.5          158.5          158.5         -0.090789243   -0.046475066   -0.10497116    -0.1209215      0.29281714   
     46720   0.91043543     158.5          158.5          158.5          0.23483482     0.20174504     0.31559695     0.18716248     0.91043543   
     46740   0.14466718     158.5          158.5          158.5          0.074222425    0.037651977    0.20524247    -0.020227175    0.14466718   
     46760   0.60555425     158.5          158.5          158.5         -0.28675679    -0.19648717    -0.36628194    -0.29750126     0.60555425   
     46780   0.43319406     158.5          158.5          158.5         -0.048281814   -0.0026897029  -0.15553734     0.013381604    0.43319406   
     46800   0.50087371     158.5          158.5          158.5          0.042478506    0.076369533    0.14999746    -0.098931473    0.50087371   
     46820   0.52179336     158.5          158.5          158.5          0.097247581    0.067764788    0.33828194    -0.11430399     0.52179336   
     46840   0.33876773     158.5          158.5          158.5         -0.037418579   -0.020539834   -0.13278123     0.041065322    0.33876773   
     46860   0.54196058     158.5          158.5          158.5         -0.27628979    -0.12498615    -0.4656754     -0.23820782     0.54196058   
     46880   0.14873609     158.5          158.5          158.5          0.12501231     0.093603183    0.26832386     0.013109897    0.14873609   
     46900   0.66113708     158.5          158.5          158.5          0.23179694     0.1340197      0.28052382     0.28084729     0.66113708   
     46920   0.30409444     158.5          158.5          158.5         -0.036897593   -0.046631742   -0.21796626     0.15390522     0.30409444   
     46940   0.86395049     158.5          158.5          158.5         -0.0078840551   0.0031005717  -0.089385304    0.062632567    0.86395049   
     46960   0.17646655     158.5          158.5          158.5         -0.0099091664   0.013041898   -0.048013868    0.0052444712   0.17646655   
     46980   0.74430934     158.5          158.5          158.5          0.20414518     0.026977903    0.113037       0.47242063     0.74430934   
     47000   0.54573945     158.5          158.5          158.5          0.27913758     0.17589037     0.24642769     0.41509467     0.54573945   
     47020   1.1061344      158.5          158.5          158.5         -0.26209704    -0.037016001   -0.19742501    -0.55185011     1.1061344    
     47040   0.7830586      158.5          158.5          158.5         -0.11920551     0.0058626155  -0.17986869    -0.18361046     0.7830586    
     47060   0.75783021     158.5          158.5          158.5          0.17339182     0.11982245     0.12816712     0.27218588     0.75783021   
     47080   1.2441958      158.5          158.5          158.5          0.043758107    0.077764036    0.13433612    -0.080825834    1.2441958    
     47100   0.26037512     158.5          158.5          158.5         -0.035033958    0.11677643    -0.014115538   -0.20776276     0.26037512   
     47120   1.3403802      158.5          158.5          158.5         -0.33574712    -0.060378914   -0.1209605     -0.82590193     1.3403802    
     47140   0.51293255     158.5          158.5          158.5         -0.060817586    0.11059678    -0.032915746   -0.26013379     0.51293255   
     47160   1.192373       158.5          158.5          158.5          0.32338106     0.18070968     0.11443053     0.67500296     1.192373     
     47180   0.36076099     158.5          158.5          158.5         -0.0350573     -0.20306232     0.036415718    0.061474698    0.36076099   
     47200   0.74199514     158.5          158.5          158.5         -0.1430382      0.15071936    -0.0089455506  -0.57088841     0.74199514   
     47220   0.32633947     158.5          158.5          158.5          0.032715271    0.17448068     0.056515684   -0.13285055     0.32633947   
     47240   0.76204247     158.5          158.5          158.5          0.1176852     -0.1563758      0.038500288    0.47093112     0.76204247   
     47260   0.50676732     158.5          158.5          158.5          0.28298409     0.080994674    0.078176416    0.68978117     0.50676732   
     47280   0.46099391     158.5          158.5          158.5         -0.051480415    0.085422738    0.042285042   -0.28214903     0.46099391   
     47300   0.63787635     158.5          158.5          158.5         -0.20942735    -0.013795737    0.016712909   -0.63119921     0.63787635   
     47320   0.1502107      158.5          158.5          158.5          0.18616522     0.070101777    0.07588803     0.41250584     0.1502107    
     47340   0.73140999     158.5          158.5          158.5          0.11627843    -0.0099243112  -0.078972012    0.43773161     0.73140999   
     47360   0.2301394      158.5          158.5          158.5         -0.028446851    0.01013359    -0.00066872919 -0.094805414    0.2301394    
     47380   0.93979967     158.5          158.5          158.5         -0.15764745     0.045757117    0.092792535   -0.61149201     0.93979967   
     47400   0.28126254     158.5          158.5          158.5         -0.14120629     0.00027628922 -0.088609005   -0.33528614     0.28126254   
     47420   0.70212027     158.5          158.5          158.5          0.24527256     0.051968428    0.029671599    0.65417767     0.70212027   
     47440   0.43921997     158.5          158.5          158.5          0.068544748    0.097117646   -0.10805213     0.21656873     0.43921997   
     47460   1.3874432      158.5          158.5          158.5         -0.32309101     0.051388645   -0.023847975   -0.99681369     1.3874432    
     47480   0.99799071     158.5          158.5          158.5          0.042628487    0.07958816     0.35081048    -0.30251317     0.99799071   
     47500   1.3349302      158.5          158.5          158.5          0.11583011     0.17930053    -0.32081979     0.48900957     1.3349302    
     47520   1.3651171      158.5          158.5          158.5          0.24305379     0.24537579    -0.10192352     0.5857091      1.3651171    
     47540   0.67805439     158.5          158.5          158.5          0.086183216    0.18550361     0.35904457    -0.28599854     0.67805439   
     47560   1.2868869      158.5          158.5          158.5         -0.36601704    -0.13785684    -0.21972747    -0.74046682     1.2868869    
     47580   0.4192462      158.5          158.5          158.5          0.16375784     0.085106459   -0.046054046    0.4522211      0.4192462    
     47600   1.4654717      158.5          158.5          158.5          0.29401781     0.3696265      0.21276952     0.2996574      1.4654717    
     47620   0.45760037     158.5          158.5          158.5         -0.031313245   -0.020806286   -0.0088503206  -0.064283127    0.45760037   
     47640   1.083503       158.5          158.5          158.5         -0.085102273   -0.16310861    -0.083425103   -0.0087731089   1.083503     
     47660   0.24071953     158.5          158.5          158.5         -0.092271204   -0.0021838791  -0.0280475     -0.24658223     0.24071953   
     47680   0.71287329     158.5          158.5          158.5          0.1919663      0.22925419     0.12307304     0.22357167     0.71287329   
     47700   0.63117059     158.5          158.5          158.5          0.23730361     0.10611907     0.10461516     0.50117659     0.63117059   
     47720   0.60883796     158.5          158.5          158.5         -0.20424553    -0.22282413    -0.096330496   -0.29358195     0.60883796   
     47740   0.75581087     158.5          158.5          158.5         -0.042035237    0.088672209   -0.054475071   -0.16030285     0.75581087   
     47760   0.27753076     158.5          158.5          158.5          0.12136134     0.015544593    0.10039045     0.24814898     0.27753076   
     47780   0.51610088     158.5          158.5          158.5          0.055656693    0.024841331    0.08496295     0.057165799    0.51610088   
     47800   0.37504245     158.5          158.5          158.5          0.045320395    0.3069837     -0.060410925   -0.11061159     0.37504245   
     47820   0.81413376     158.5          158.5          158.5         -0.26081307    -0.32406232    -0.18787063    -0.27050627     0.81413376   
     47840   0.36723985     158.5          158.5          158.5         -0.070965725   -0.1662269      0.0054545708  -0.052124843    0.36723985   
     47860   0.82366687     158.5          158.5          158.5          0.25051155     0.61634853     0.068941909    0.066244203    0.82366687   
     47880   0.11273976     158.5          158.5          158.5         -0.06800528     0.0093668481  -0.12563014    -0.087752546    0.11273976   
     47900   0.97129494     158.5          158.5          158.5         -0.17819743    -0.41802238    -0.077843365   -0.038726543    0.97129494   
     47920   0.47132154     158.5          158.5          158.5         -0.025312706    0.022420898   -0.067954802   -0.030404213    0.47132154   
     47940   0.9878473      158.5          158.5          158.5          0.13328912     0.35669373     0.011178764    0.031994853    0.9878473    
     47960   1.0207701      158.5          158.5          158.5          0.33957064     0.3117775      0.55006188     0.15687256     1.0207701    
     47980   0.56242729     158.5          158.5          158.5         -0.081789705   -0.25243857     0.0021939213   0.00487553     0.56242729   
     48000   1.0928399      158.5          158.5          158.5         -0.17719543    -0.29265845    -0.2637295      0.024801653    1.0928399    
     48020   0.49849819     158.5          158.5          158.5          0.31954359     0.34242149     0.53086791     0.085341372    0.49849819   
     48040   1.4429115      158.5          158.5          158.5          0.19091429     0.29744866     0.27342175     0.0018724442   1.4429115    
     48060   0.64534647     158.5          158.5          158.5          0.084451572    0.25462782    -0.035240552    0.033967444    0.64534647   
     48080   1.1254873      158.5          158.5          158.5         -0.14384276    -0.35878549    -0.14153195     0.068789151    1.1254873    
     48100   0.26097677     158.5          158.5          158.5         -0.19233248    -0.3379987     -0.18776663    -0.051232125    0.26097677   
     48120   0.72367789     158.5          158.5          158.5          0.19331896     0.53897432     0.012688072    0.028294477    0.72367789   
     48140   0.36574487     158.5          158.5          158.5          0.017583049    0.18936477    -0.071005838   -0.065609787    0.36574487   
     48160   0.6034619      158.5          158.5          158.5         -0.24888951    -0.48849733    -0.17963144    -0.07853977     0.6034619    
     48180   0.52788476     158.5          158.5          158.5         -0.03624989    -0.094776473   -0.10499458     0.091021387    0.52788476   
     48200   0.37196563     158.5          158.5          158.5          0.020807385    0.20275942    -0.031722899   -0.10861436     0.37196563   
     48220   0.3563885      158.5          158.5          158.5          0.11981636     0.22267703     0.16959839    -0.032826348    0.3563885    
     48240   0.24663989     158.5          158.5          158.5          0.027181051   -0.047123072    0.010436505    0.11822972     0.24663989   
     48260   0.78797474     158.5          158.5          158.5         -0.2045975     -0.38057665    -0.17634459    -0.056871271    0.78797474   
     48280   0.31772691     158.5          158.5          158.5          0.15143478     0.18341515     0.1117142      0.159175       0.31772691   
     48300   0.75161495     158.5          158.5          158.5          0.23288663     0.38431567     0.21710383     0.097240381    0.75161495   
     48320   0.15647236     158.5          158.5          158.5          0.015002579    0.067486159    0.036311832   -0.058790254    0.15647236   
     48340   0.81439262     158.5          158.5          158.5         -0.042102661   -0.22685505    -0.1112856      0.21183266     0.81439262   
     48360   0.51190213     158.5          158.5          158.5         -0.11352789    -0.21066663    -0.14302697     0.013109942    0.51190213   
     48380   0.83296616     158.5          158.5          158.5          0.20601734     0.43407392     0.21823982    -0.034261713    0.83296616   
     48400   0.69237691     158.5          158.5          158.5          0.23853311     0.38032279     0.22974631     0.10553023     0.69237691   
     48420   0.90545415     158.5          158.5          158.5         -0.32595585    -0.48050275    -0.33922867    -0.15813613     0.90545415   
     48440   0.59660995     158.5          158.5          158.5         -0.11132248    -0.23446012     0.030969188   -0.13047652     0.59660995   
     48460   0.44709473     158.5          158.5          158.5          0.12813277     0.21803262     0.25341613    -0.087050435    0.44709473   
     48480   1.181466       158.5          158.5          158.5          0.068165625    0.28383147    -0.19230607     0.11297148     1.181466     
     48500   0.61304082     158.5          158.5          158.5          0.096480262    0.11642358     0.064915874    0.10810133     0.61304082   
     48520   1.2786496      158.5          158.5          158.5         -0.25163115    -0.38212223     0.043349647   -0.41612088     1.2786496    
     48540   0.09995908     158.5          158.5          158.5         -0.039612221    0.027076421   -0.083665647   -0.062247436    0.09995908   
     48560   0.89742158     158.5          158.5          158.5          0.28022579     0.36739517     0.030022469    0.44325973     0.89742158   
     48580   0.54159737     158.5          158.5          158.5         -0.034919562   -0.022331963   -0.020373766   -0.062052957    0.54159737   
     48600   0.62927053     158.5          158.5          158.5         -0.073820266   -0.10066993     0.11924047    -0.24003134     0.62927053   
     48620   0.58294019     158.5          158.5          158.5         -0.071152231    0.0052190524  -0.10239719    -0.11627856     0.58294019   
     48640   0.48674286     158.5          158.5          158.5          0.041607117    0.044899351   -0.057724932    0.13764693     0.48674286   
     48660   0.27068936     158.5          158.5          158.5          0.21103079     0.12941133     0.16752552     0.33615552     0.27068936   
     48680   0.23239676     158.5          158.5          158.5         -0.10037011     0.01000827    -0.11944913    -0.19166948     0.23239676   
     48700   0.3886719      158.5          158.5          158.5         -0.12495824    -0.053270649   -0.033111859   -0.28849222     0.3886719    
     48720   0.26753168     158.5          158.5          158.5          0.15008642     0.060530374    0.14819137     0.24153752     0.26753168   
     48740   0.50936774     158.5          158.5          158.5          0.067096924    0.081155662   -0.1140001      0.23413521     0.50936774   
     48760   0.071600212    158.5          158.5          158.5          0.042332716    0.093992892   -0.013968063    0.04697332     0.071600212  
     48780   0.44428314     158.5          158.5          158.5         -0.085880122   -0.064812386    0.097865929   -0.29069391     0.44428314   
     48800   0.23200562     158.5          158.5          158.5         -0.10931319    -0.061192297   -0.045969046   -0.22077824     0.23200562   
     48820   0.56543089     158.5          158.5          158.5          0.20045222     0.15769333     0.0064814517   0.43718187     0.56543089   
     48840   0.34969081     158.5          158.5          158.5          0.043526886   -0.066011064   -0.001802427    0.19839415     0.34969081   
     48860   0.52601655     158.5          158.5          158.5         -0.18623468    -0.1339506      0.00069138856 -0.42544483     0.52601655   
     48880   0.42344512     158.5          158.5          158.5         -0.074763813    0.07854735     0.035162857   -0.33800165     0.42344512   
     48900   0.27808444     158.5          158.5          158.5         -0.021610566   -0.13577785    -0.020679378    0.091625533    0.27808444   
     48920   0.70430536     158.5          158.5          158.5          0.15583986    -0.045743657    0.016951612    0.49631162     0.70430536   
     48940   0.47490548     158.5          158.5          158.5         -0.0097494511   0.1178244      0.0074246492  -0.1544974      0.47490548   
     48960   0.98438199     158.5          158.5          158.5         -0.28479712    -0.071740548    0.0056432865  -0.78829409     0.98438199   
     48980   0.25632504     158.5          158.5          158.5          0.16895276     0.16178224     0.031809658    0.31326638     0.25632504   
     49000   0.66877781     158.5          158.5          158.5          0.2291741      0.086902671    0.041040939    0.5595787      0.66877781   
     49020   0.66829274     158.5          158.5          158.5          0.039361952    0.064487311    0.035012592    0.018585952    0.66829274   
     49040   1.1165028      158.5          158.5          158.5          0.032337395    0.33150292     0.001207203   -0.23569794     1.1165028    
     49060   0.63105142     158.5          158.5          158.5         -0.09113834     0.011715633   -0.0093809986  -0.27574965     0.63105142   
     49080   1.2150366      158.5          158.5          158.5          0.20500828     0.056959196    0.037761456    0.5203042      1.2150366    
     49100   0.53506555     158.5          158.5          158.5          0.26271894     0.1527681      0.10822389     0.52716483     0.53506555   
     49120   0.50162957     158.5          158.5          158.5         -0.24108366    -0.020843277   -0.017313109   -0.6850946      0.50162957   
     49140   0.98673504     158.5          158.5          158.5         -0.11468532     0.090801673   -0.053416325   -0.38144132     0.98673504   
     49160   0.48708089     158.5          158.5          158.5          0.036513716   -0.020220358    0.025655504    0.104106       0.48708089   
     49180   1.1793219      158.5          158.5          158.5          0.061880871   -0.028153426    0.11830005     0.095495989    1.1793219    
     49200   0.34930802     158.5          158.5          158.5          0.062738346    0.074793154    0.053948053    0.059473831    0.34930802   
     49220   0.62997053     158.5          158.5          158.5         -0.30309946     0.002698568   -0.20483693    -0.70716001     0.62997053   
     49240   0.28556968     158.5          158.5          158.5         -0.052357314    0.045731894    0.094176983   -0.29698082     0.28556968   
     49260   0.55789643     158.5          158.5          158.5          0.2198476      0.043489683    0.17403575     0.44201738     0.55789643   
     49280   0.36318993     158.5          158.5          158.5         -0.012691227   -0.02360765    -0.17563048     0.16116445     0.36318993   
     49300   0.51495917     158.5          158.5          158.5         -0.0096279052   0.024347003    0.074674024   -0.12790474     0.51495917   
     49320   0.26159464     158.5          158.5          158.5         -0.034090935    0.0194341     -0.03181279    -0.089894115    0.26159464   
     49340   0.2312507      158.5          158.5          158.5          0.043402421    0.0033340903  -0.18475745     0.31163063     0.2312507    
     49360   0.40085824     158.5          158.5          158.5          0.23946182     0.030466613    0.25432432     0.43359454     0.40085824   
     49380   0.29146002     158.5          158.5          158.5         -0.063166136    0.0059476768  -0.0013555299  -0.19409055     0.29146002   
     49400   0.58339095     158.5          158.5          158.5         -0.14202665     0.00092436111 -0.28885964    -0.13814468     0.58339095   
     49420   0.20754516     158.5          158.5          158.5          0.12483608     0.031655682    0.10319356     0.239659       0.20754516   
     49440   0.53454979     158.5          158.5          158.5          0.056028044    0.040049978    0.18196603    -0.05393188     0.53454979   
     49460   0.29518716     158.5          158.5          158.5          0.056239359    0.042057354    0.028794594    0.097866129    0.29518716   
     49480   1.0286266      158.5          158.5          158.5         -0.18293257    -0.0027269649  -0.29738673    -0.24868402     1.0286266    
     49500   0.58423986     158.5          158.5          158.5         -0.16949797     0.00084896791 -0.041570655   -0.46777223     0.58423986   
     49520   1.1144061      158.5          158.5          158.5          0.29009706     0.097323176    0.45412413     0.31884389     1.1144061    
     49540   0.67744761     158.5          158.5          158.5          0.02790177     0.053127793   -0.094102901    0.12468042     0.67744761   
     49560   0.46075148     158.5          158.5          158.5         -0.19394619    -0.050028784   -0.15830808    -0.37350172     0.46075148   
     49580   0.84699942     158.5          158.5          158.5         -0.031967271    0.062124711   -0.009450966   -0.14857556     0.84699942   
     49600   0.73280224     158.5          158.5          158.5         -0.025334853    0.025936406   -0.18872529     0.086784328    0.73280224   
     49620   1.035775       158.5          158.5          158.5          0.25940613     0.12530626     0.45424928     0.19866287     1.035775     
     49640   0.51809564     158.5          158.5          158.5          0.07490387     0.028845252    0.19968142    -0.0038150593   0.51809564   
     49660   0.84234439     158.5          158.5          158.5         -0.32385635    -0.092418565   -0.71275006    -0.16640043     0.84234439   
     49680   0.24283639     158.5          158.5          158.5          0.10925667     0.20788922     0.049505259    0.070375524    0.24283639   
     49700   0.97573888     158.5          158.5          158.5          0.17063084    -0.026603264    0.45161396     0.08688182     0.97573888   
     49720   0.38816612     158.5          158.5          158.5          0.065138623    0.069860045    0.10591835     0.019637475    0.38816612   
     49740   0.88924962     158.5          158.5          158.5         -0.014710118    0.28392095    -0.30304821    -0.025003092    0.88924962   
     49760   0.60976182     158.5          158.5          158.5         -0.14614899    -0.15734573    -0.26612982    -0.014971415    0.60976182   
     49780   0.26463156     158.5          158.5          158.5          0.18549381     0.1131079      0.37277417     0.07059937     0.26463156   
     49800   0.52839662     158.5          158.5          158.5          0.20945781     0.29356276     0.31997393     0.014836755    0.52839662   
     49820   0.5201469      158.5          158.5          158.5         -0.16105863    -0.12290774    -0.33654237    -0.0237258      0.5201469    
     49840   0.81849771     158.5          158.5          158.5         -0.037002609   -0.0091591831  -0.17918471     0.077336065    0.81849771   
     49860   0.4374788      158.5          158.5          158.5          0.015133769    0.054081169    0.036785058   -0.045464919    0.4374788    
     49880   0.55043427     158.5          158.5          158.5          0.064455689   -0.031139678    0.26475315    -0.040246403    0.55043427   
     49900   0.30318674     158.5          158.5          158.5          0.075059547   -0.052451584    0.13192232     0.14570791     0.30318674   
     49920   1.124887       158.5          158.5          158.5         -0.33902284    -0.20625732    -0.71554559    -0.095265623    1.124887     
     49940   0.42766507     158.5          158.5          158.5         -0.05531131     0.03384795    -0.16906543    -0.030716448    0.42766507   
     49960   1.2486654      158.5          158.5          158.5          0.27693176     0.13167186     0.60118226     0.097941174    1.2486654    
     49980   0.78461658     158.5          158.5          158.5         -0.046930737    0.039708449    0.023870246   -0.20437091     0.78461658   
     50000   0.7835231      158.5          158.5          158.5         -0.087275151    0.0073370228  -0.42790573     0.15874326     0.7835231    
     50020   0.64406071     158.5          158.5          158.5         -0.061074128    0.0059145586  -0.32024438     0.13110744     0.64406071   
     50040   0.92520099     158.5          158.5          158.5          0.11948637     0.23506289     0.20884194    -0.085445719    0.92520099   
     50060   1.4956537      158.5          158.5          158.5          0.43199981     0.26083107     0.6884444      0.34672395     1.4956537    
     50080   0.77275239     158.5          158.5          158.5         -0.016951008   -0.041311479   -0.11903125     0.10948971     0.77275239   
     50100   0.94602782     158.5          158.5          158.5         -0.12459464    -0.018474548   -0.38347603     0.028166662    0.94602782   
     50120   0.25636357     158.5          158.5          158.5          0.17293274     0.058519587    0.21636296     0.24391566     0.25636357   
     50140   0.80624674     158.5          158.5          158.5          0.076709016   -0.057016469    0.24669643     0.040447089    0.80624674   
     50160   0.35256466     158.5          158.5          158.5          0.11537333     0.23640767     0.10251174     0.0072005729   0.35256466   
     50180   0.66508708     158.5          158.5          158.5         -0.14023071    -0.056387087   -0.29032636    -0.073978674    0.66508708   
     50200   0.58199596     158.5          158.5          158.5         -0.22164882    -0.21584556    -0.28879373    -0.16030718     0.58199596   
     50220   0.44630598     158.5          158.5          158.5          0.17583368     0.37724357     0.14266092     0.0075965636   0.44630598   
     50240   0.26536562     158.5          158.5          158.5         -0.0033823281   0.04064456     0.0085414962  -0.059333041    0.26536562   
     50260   0.50467286     158.5          158.5          158.5         -0.19158331    -0.21915875    -0.18809573    -0.16749545     0.50467286   
     50280   0.68024135     158.5          158.5          158.5         -0.049351852    0.17806964    -0.16111853    -0.16500667     0.68024135   
     50300   0.56933791     158.5          158.5          158.5         -0.037355779    0.013959699   -0.079441197   -0.046585839    0.56933791   
     50320   0.63737874     158.5          158.5          158.5          0.20192004    -0.0050001015   0.30760859     0.30315164     0.63737874   
     50340   0.094530808    158.5          158.5          158.5          0.062751617    0.068888232    0.061812801    0.057553817    0.094530808  
     50360   1.1069751      158.5          158.5          158.5         -0.2427657     -0.048925616   -0.24798515    -0.43138634     1.1069751    
     50380   0.36041688     158.5          158.5          158.5          0.18180189     0.10160942     0.26449196     0.17930428     0.36041688   
     50400   1.0235713      158.5          158.5          158.5          0.20758572    -0.076872544    0.28939825     0.41023145     1.0235713    
     50420   0.76402967     158.5          158.5          158.5          0.10981824     0.078083351    0.062761856    0.18860952     0.76402967   
     50440   0.80544002     158.5          158.5          158.5          0.013758858    0.099867837    0.1387632     -0.19735446     0.80544002   
     50460   0.54088435     158.5          158.5          158.5         -0.21381057    -0.1233993     -0.019166816   -0.49886559     0.54088435   
     50480   0.5789049      158.5          158.5          158.5          0.20570395     0.15367398     0.040986611    0.42245125     0.5789049    
     50500   0.88985815     158.5          158.5          158.5          0.22749915     0.14951514     0.030398963    0.50258333     0.88985815   
     50520   1.1153079      158.5          158.5          158.5         -0.25280162    -0.0051691857  -0.13902913    -0.61420655     1.1153079    
     50540   0.90733595     158.5          158.5          158.5         -0.066622985    0.066094024    0.092041468   -0.35800445     0.90733595   
     50560   0.29847344     158.5          158.5          158.5          0.010636098    0.073924633   -0.1114552      0.069438858    0.29847344   
     50580   0.9103396      158.5          158.5          158.5          0.068939871    0.05992362    -0.13288377     0.27977977     0.9103396    
     50600   0.29728478     158.5          158.5          158.5          0.097150238    0.036458469    0.086547045    0.1684452      0.29728478   
     50620   0.70675308     158.5          158.5          158.5         -0.21172154     0.014299428   -0.10984466    -0.5396194      0.70675308   
     50640   0.46432965     158.5          158.5          158.5         -0.031015163    0.013564907    0.032906776   -0.13951717     0.46432965   
     50660   0.39445294     158.5          158.5          158.5          0.14187651     0.016166364    0.031217586    0.37824559     0.39445294   
     50680   0.21460163     158.5          158.5          158.5         -0.0067268238   0.014205611   -0.11942487     0.085038785    0.21460163   
     50700   0.30640851     158.5          158.5          158.5         -0.018477244    0.029549751    0.10222414    -0.18720562     0.30640851   
     50720   0.36406168     158.5          158.5          158.5         -0.10252374     0.011308175    0.0079972155  -0.32687662     0.36406168   
     50740   0.40146704     158.5          158.5          158.5          0.047400603   -0.0078332788  -0.047577116    0.1976122      0.40146704   
     50760   0.49875814     158.5          158.5          158.5          0.23567742     0.031099702    0.095912981    0.58001959     0.49875814   
     50780   0.14913743     158.5          158.5          158.5         -0.081338523   -0.0065151547  -0.044605187   -0.19289523     0.14913743   
     50800   0.54464721     158.5          158.5          158.5         -0.11438692     0.039532946    0.06172393    -0.44441763     0.54464721   
     50820   0.33189628     158.5          158.5          158.5          0.11391879     0.078916986    0.10082805     0.16201133     0.33189628   
     50840   0.725698       158.5          158.5          158.5          0.08194412    -0.063906625   -0.1115523      0.42129129     0.725698     
     50860   0.56428788     158.5          158.5          158.5          0.13170441     0.044393974    0.035054345    0.3156649      0.56428788   
     50880   0.80829787     158.5          158.5          158.5         -0.11543146     0.13095444     0.056294093   -0.5335429      0.80829787   
     50900   0.23080465     158.5          158.5          158.5         -0.17336761    -0.040861235   -0.018075481   -0.4611661      0.23080465   
     50920   0.63146702     158.5          158.5          158.5          0.19993913     0.046190709    0.0062603582   0.54736633     0.63146702   
     50940   0.74190381     158.5          158.5          158.5          0.011196058    0.043821038    0.007022946   -0.017255811    0.74190381   
     50960   0.85459062     158.5          158.5          158.5         -0.13291473     0.081861453    0.025858181   -0.50646382     0.85459062   
     50980   1.0823159      158.5          158.5          158.5         -0.10043622     0.035636528    0.012541817   -0.349487       1.0823159    
     51000   0.30591564     158.5          158.5          158.5         -0.093824914   -0.05132857     0.021591245   -0.25173742     0.30591564   
     51020   0.86382123     158.5          158.5          158.5          0.19951086     0.29003403     0.057403491    0.25109506     0.86382123   
     51040   0.57809457     158.5          158.5          158.5          0.013179912   -0.036015092    0.025724846    0.049829981    0.57809457   
     51060   0.87495992     158.5          158.5          158.5         -0.22510847    -0.18435886    -0.013359649   -0.47760689     0.87495992   
     51080   0.98243739     158.5          158.5          158.5          0.20792172     0.34025683     0.065091023    0.21841731     0.98243739   
     51100   0.95501754     158.5          158.5          158.5          0.16366739    -0.10627514     0.097849735    0.49942757     0.95501754   
     51120   0.20535401     158.5          158.5          158.5          0.11043324    -0.090824172    0.10025045     0.32187345     0.20535401   
     51140   0.75854519     158.5          158.5          158.5          0.052628166    0.22404655     0.042430782   -0.10859283     0.75854519   
     51160   0.54591761     158.5          158.5          158.5         -0.15695897    -0.19096159    -0.054569173   -0.22534616     0.54591761   
     51180   0.74268057     158.5          158.5          158.5          0.18822647     0.021124095    0.18559935     0.35795597     0.74268057   
     51200   0.79719631     158.5          158.5          158.5          0.19424349     0.28364876     0.023039349    0.27604235     0.79719631   
     51220   0.2390276      158.5          158.5          158.5         -0.16238769    -0.062073567   -0.18620874    -0.23888076     0.2390276    
     51240   0.60910588     158.5          158.5          158.5         -0.096704619   -0.12489752     0.030394749   -0.19561109     0.60910588   
     51260   0.24032915     158.5          158.5          158.5         -0.069580354    0.0073512346  -0.15755371    -0.058538585    0.24032915   
     51280   0.50898452     158.5          158.5          158.5          0.056579827    0.22231341    -0.16409009     0.11151616     0.50898452   
     51300   0.39674621     158.5          158.5          158.5          0.059156064    0.044270094    0.053688077    0.079510022    0.39674621   
     51320   0.52176832     158.5          158.5          158.5         -0.23778328    -0.24667385    -0.20440771    -0.26226829     0.52176832   
     51340   0.14882292     158.5          158.5          158.5         -0.030349497    0.068629461   -0.1068537     -0.052824249    0.14882292   
     51360   0.28577521     158.5          158.5          158.5          0.13266827     0.14562897     0.096719254    0.15565658     0.28577521   
     51380   0.35597796     158.5          158.5          158.5          0.0072118137  -0.036154598    0.023923787    0.033866252    0.35597796   
     51400   0.47606212     158.5          158.5          158.5          0.051811877    0.046274517    0.092725625    0.01643549     0.47606212   
     51420   0.57809348     158.5          158.5          158.5         -0.080629641   -0.12721489    -0.0051589097  -0.10951512     0.57809348   
     51440   0.29150842     158.5          158.5          158.5          0.054018373    0.011995402    0.15033883    -0.00027911527  0.29150842   
     51460   0.54823759     158.5          158.5          158.5          0.31019489     0.38526747     0.27345084     0.27186635     0.54823759   
     51480   0.7066199      158.5          158.5          158.5         -0.077970151   -0.035575284   -0.10866598    -0.089669191    0.7066199    
     51500   0.99721438     158.5          158.5          158.5         -0.099174215   -0.25055359     0.14324501    -0.19021406     0.99721438   
     51520   0.65348374     158.5          158.5          158.5          0.11718766     0.10181318     0.15531721     0.094432598    0.65348374   
     51540   1.4754721      158.5          158.5          158.5          0.080496686    0.31557071    -0.2101946      0.13611395     1.4754721    
     51560   0.25274423     158.5          158.5          158.5          0.14783442     0.22940917     0.20076097     0.013333131    0.25274423   
     51580   0.67820305     158.5          158.5          158.5         -0.19346206    -0.32524903    -0.14250917    -0.11262798     0.67820305   
     51600   0.7951579      158.5          158.5          158.5         -0.18594189    -0.35841804    -0.30965117     0.11024355     0.7951579    
     51620   0.85135107     158.5          158.5          158.5          0.23141534     0.39427846     0.13278223     0.16718533     0.85135107   
     51640   1.1833813      158.5          158.5          158.5          0.018600384    0.25982277     0.079705531   -0.28372714     1.1833813    
     51660   0.45061239     158.5          158.5          158.5         -0.077918287   -0.21936157    -0.13008032     0.11568704     0.45061239   
     51680   0.61654236     158.5          158.5          158.5         -0.098288344   -0.30867558    -0.17567978     0.18949033     0.61654236   
     51700   0.57777074     158.5          158.5          158.5         -0.096337982    0.0063466976  -0.038871654   -0.25648899     0.57777074   
     51720   0.72062455     158.5          158.5          158.5          0.2350449      0.39353437     0.25112483     0.060475509    0.72062455   
     51740   0.42946937     158.5          158.5          158.5          0.047083928    0.025280951    0.057276418    0.058694416    0.42946937   
     51760   0.9738118      158.5          158.5          158.5         -0.24235657    -0.36342543    -0.28875404    -0.074890234    0.9738118    
     51780   0.25810791     158.5          158.5          158.5          0.072953478    0.073674503    0.014171537    0.13101439     0.25810791   
     51800   0.46134105     158.5          158.5          158.5          0.11571787     0.18660376     0.19011754    -0.029567698    0.46134105   
     51820   0.32932826     158.5          158.5          158.5          0.10669178     0.270852       0.049108112    0.00011524122  0.32932826   
     51840   0.63481328     158.5          158.5          158.5          0.011482381    0.077720352   -0.15574921     0.112476       0.63481328   
     51860   0.76727935     158.5          158.5          158.5         -0.13609351    -0.2994877     -0.1192474      0.010454569    0.76727935   
     51880   0.37305761     158.5          158.5          158.5          0.1998711      0.32750847     0.20435579     0.067749041    0.37305761   
     51900   0.46799644     158.5          158.5          158.5          0.19088543     0.48487886     0.0071597579   0.080617667    0.46799644   
     51920   0.58375358     158.5          158.5          158.5         -0.1403215     -0.23131862    -0.1622934     -0.027352477    0.58375358   
     51940   1.0355684      158.5          158.5          158.5         -0.04072769    -0.26180099     0.14275947    -0.0031415537   1.0355684    
     51960   0.66580569     158.5          158.5          158.5         -0.071990963   -0.0031950411  -0.22825233     0.01547448     0.66580569   
     51980   1.5624996      158.5          158.5          158.5          0.11684305     0.17487069     0.099751411    0.075907046    1.5624996    
     52000   0.70551997     158.5          158.5          158.5          0.15600498    -0.038970265    0.44612434     0.060860868    0.70551997   
     52020   1.0393372      158.5          158.5          158.5         -0.42056124    -0.58738361    -0.44799476    -0.22630536     1.0393372    
     52040   0.48546792     158.5          158.5          158.5         -0.080320207   -0.077062074   -0.06762861    -0.096269938    0.48546792   
     52060   0.93148303     158.5          158.5          158.5          0.18620582     0.010149938    0.31531615     0.23315138     0.93148303   
     52080   1.2449085      158.5          158.5          158.5          0.0017326599  -0.0060640791  -0.040578365    0.051840424    1.2449085    
     52100   0.8364578      158.5          158.5          158.5          0.05995523     0.29352689    -0.020467218   -0.093193982    0.8364578    
     52120   0.71272107     158.5          158.5          158.5         -0.13027164    -0.14380693    -0.044311882   -0.20269611     0.71272107   
     52140   0.45596236     158.5          158.5          158.5          0.07574462     0.16296116     0.014608034    0.049664668    0.45596236   
     52160   0.69509053     158.5          158.5          158.5          0.32790035     0.5870351      0.071686058    0.32497989     0.69509053   
     52180   0.39555655     158.5          158.5          158.5         -0.030961547    0.024125385   -0.013972715   -0.10303731     0.39555655   
     52200   1.018071       158.5          158.5          158.5         -0.010612546    0.11117933    -0.013149292   -0.12986768     1.018071     
     52220   0.46529503     158.5          158.5          158.5          0.077319956    0.30547974     0.0036738324  -0.077193701    0.46529503   
     52240   0.50742971     158.5          158.5          158.5          0.050466778    0.0016924485   0.040864931    0.10884295     0.50742971   
     52260   0.27363554     158.5          158.5          158.5          0.16590975     0.051092872    0.038407971    0.4082284      0.27363554   
     52280   0.56185348     158.5          158.5          158.5         -0.20612269    -0.14138386     0.00085268963 -0.47783691     0.56185348   
     52300   0.77932945     158.5          158.5          158.5         -0.20357393    -0.14068118     0.00048644802 -0.47052706     0.77932945   
     52320   0.8047513      158.5          158.5          158.5          0.19620764     0.0057385726   0.0094099421   0.57347442     0.8047513    
     52340   0.5529618      158.5          158.5          158.5         -0.020399955   -0.2016103     -0.011827018    0.15223746     0.5529618    
     52360   0.59590073     158.5          158.5          158.5         -0.11673371    -0.02532665     0.024267042   -0.34914152     0.59590073   
     52380   0.73716372     158.5          158.5          158.5         -0.13114984    -0.056841772    0.041858259   -0.37846602     0.73716372   
     52400   0.40659608     158.5          158.5          158.5         -0.065369253   -0.14639948    -0.027520686   -0.022187594    0.40659608   
     52420   1.4149635      158.5          158.5          158.5          0.28888872     0.27704439     0.015078044    0.57454371     1.4149635    
     52440   0.56488214     158.5          158.5          158.5          0.053677964    0.039505946    0.029713342    0.091814604    0.56488214   
     52460   1.0002416      158.5          158.5          158.5         -0.19149496    -0.039846282    0.055532953   -0.59017156     1.0002416    
     52480   0.35399524     158.5          158.5          158.5          0.14299737     0.19519613     0.10059127     0.13320471     0.35399524   
     52500   0.68456721     158.5          158.5          158.5          0.11181303     0.12609811    -0.19653502     0.40587599     0.68456721   
     52520   1.1752064      158.5          158.5          158.5          0.2014025      0.12792007     0.091801215    0.3844862      1.1752064    
     52540   1.0893925      158.5          158.5          158.5          0.059119576    0.078040629    0.10498918    -0.0056710851   1.0893925    
     52560   0.89313579     158.5          158.5          158.5         -0.22469925     0.047402679   -0.26429236    -0.45720806     0.89313579   
     52580   0.77539181     158.5          158.5          158.5          0.17721942     0.078147708    0.24796476     0.20554578     0.77539181   
     52600   0.51216837     158.5          158.5          158.5          0.1441371      0.067496479    0.1010775      0.26383733     0.51216837   
     52620   0.34954895     158.5          158.5          158.5         -0.14678487     0.037675684   -0.27126686    -0.20676343     0.34954895   
     52640   0.93215344     158.5          158.5          158.5         -0.022014889    0.037943999    0.16765185    -0.27164051     0.93215344   
     52660   0.50091809     158.5          158.5          158.5         -0.051280902    0.024873418    0.032942373   -0.2116585      0.50091809   
     52680   0.5928951      158.5          158.5          158.5          0.081402475    0.00231278    -0.10407142     0.34596607     0.5928951    
     52700   0.20256267     158.5          158.5          158.5          0.090475671    0.036964012    0.11252032     0.12194268     0.20256267   
     52720   0.47398759     158.5          158.5          158.5         -0.23535019     0.01524501    -0.018307202   -0.70298837     0.47398759   
     52740   0.43377896     158.5          158.5          158.5         -0.031887504    0.044888783   -0.025615777   -0.11493552     0.43377896   
     52760   0.65801063     158.5          158.5          158.5          0.11612957     0.010526657    0.020176278    0.31768576     0.65801063   
     52780   0.507318       158.5          158.5          158.5          0.020118243   -0.045900319    0.11016803    -0.0039129775   0.507318     
     52800   0.43581926     158.5          158.5          158.5          0.021178606    0.10142522     0.04517163    -0.083061036    0.43581926   
     52820   0.61985799     158.5          158.5          158.5         -0.18796896     0.018146804   -0.28914743    -0.29290624     0.61985799   
     52840   0.21717785     158.5          158.5          158.5          0.075172039    0.036480705    0.10261099     0.086424417    0.21717785   
     52860   1.1226163      158.5          158.5          158.5          0.33572153     0.16125205     0.33470789     0.51120464     1.1226163    
     52880   0.8808156      158.5          158.5          158.5         -0.084327852   -0.016222679   -0.24397139     0.0072105181   0.8808156    
     52900   0.95436006     158.5          158.5          158.5         -0.047652807    0.20367015    -0.10702259    -0.23960598     0.95436006   
     52920   0.50089301     158.5          158.5          158.5          0.11219806     0.19121919     0.11165486     0.033720132    0.50089301   
     52940   0.6561144      158.5          158.5          158.5          0.075411476   -0.066847715    0.08741414     0.205668       0.6561144    
     52960   0.86683703     158.5          158.5          158.5          0.24288925     0.2851392      0.24355826     0.19997029     0.86683703   
     52980   1.4636504      158.5          158.5          158.5         -0.10988377     0.010933394   -0.2182972     -0.12228752     1.4636504    
     53000   0.70450688     158.5          158.5          158.5         -0.17483314    -0.090432936   -0.25801132    -0.17605516     0.70450688   
     53020   1.0320411      158.5          158.5          158.5          0.19152809     0.095806932    0.28870157     0.19007576     1.0320411    
     53040   0.82202958     158.5          158.5          158.5         -0.054136595   -0.25866784     0.0044495105   0.091808546    0.82202958   
     53060   0.1894477      158.5          158.5          158.5         -0.078461128   -0.054805724   -0.2019898      0.021412139    0.1894477    
     53080   0.96788085     158.5          158.5          158.5         -0.1384316      0.059889979   -0.36550147    -0.10968331     0.96788085   
     53100   0.70533049     158.5          158.5          158.5         -0.11617869    -0.20510988    -0.15856372     0.015137527    0.70533049   
     53120   0.74662751     158.5          158.5          158.5          0.21537592     0.063138817    0.31848468     0.26450426     0.74662751   
     53140   0.34642305     158.5          158.5          158.5         -0.0068145931   0.10255528     0.048951027   -0.17195009     0.34642305   
     53160   0.38740878     158.5          158.5          158.5         -0.162045      -0.038914794   -0.33819829    -0.10902192     0.38740878   
     53180   0.4597042      158.5          158.5          158.5          0.12904021     0.082199415    0.055505138    0.24941607     0.4597042    
     53200   0.89129346     158.5          158.5          158.5          0.078535887    0.149901       0.31616205    -0.23045539     0.89129346   
     53220   0.48491367     158.5          158.5          158.5          0.17918853     0.17450148     0.39521199    -0.032147883    0.48491367   
     53240   0.62101777     158.5          158.5          158.5          0.062389368    0.042079879   -0.080206253    0.22529448     0.62101777   
     53260   0.68494445     158.5          158.5          158.5         -0.1876795     -0.066680277   -0.3428853     -0.15347291     0.68494445   
     53280   0.21038263     158.5          158.5          158.5          0.18926942     0.15324245     0.38453858     0.030027243    0.21038263   
     53300   0.70457197     158.5          158.5          158.5          0.15158937     0.14754251     0.27070291     0.036522693    0.70457197   
     53320   0.6696506      158.5          158.5          158.5         -0.11056585    -0.02657161    -0.225747      -0.079378951    0.6696506    
     53340   0.96473607     158.5          158.5          158.5         -0.067058369   -0.050445332   -0.2462902      0.095560421    0.96473607   
     53360   0.41484587     158.5          158.5          158.5         -0.12159534    -0.008049141   -0.28748642    -0.069250453    0.41484587   
     53380   0.44062142     158.5          158.5          158.5          0.088352901    0.25002741     0.022459586   -0.0074282919   0.44062142   
     53400   0.50334125     158.5          158.5          158.5          0.052321807    0.020535171    0.1156592      0.020771045    0.50334125   
     53420   1.1907883      158.5          158.5          158.5         -0.29086459    -0.25346981    -0.57801282    -0.041111133    1.1907883    
     53440   0.63506187     158.5          158.5          158.5          0.023470749    0.23113553    -0.23006877     0.069345487    0.63506187   
     53460   0.84664358     158.5          158.5          158.5          0.14403148     0.07740452     0.36892082    -0.014230912    0.84664358   
     53480   0.84412609     158.5          158.5          158.5          0.037312132   -0.14469131     0.25460943     0.0020182707   0.84412609   
     53500   0.39689579     158.5          158.5          158.5          0.093006408    0.27618607    -0.07932725     0.082160404    0.39689579   
     53520   0.75510033     158.5          158.5          158.5         -0.15871515    -0.17140274    -0.28614255    -0.018600175    0.75510033   
     53540   0.90494395     158.5          158.5          158.5          0.074570378   -0.18101616     0.32112143     0.083605859    0.90494395   
     53560   1.0913776      158.5          158.5          158.5          0.33315866     0.43706182     0.46490487     0.097509279    1.0913776    
     53580   0.68995998     158.5          158.5          158.5         -0.056828678   -0.029957326   -0.11188268    -0.028646034    0.68995998   
     53600   0.67736469     158.5          158.5          158.5         -0.066759176   -0.21159545     0.037193616   -0.025875696    0.67736469   
     53620   0.26103438     158.5          158.5          158.5          0.019998035    0.017450476    0.036724597    0.0058190305   0.26103438   
     53640   1.1053495      158.5          158.5          158.5          0.056698273    0.16222412    -0.098225123    0.10609583     1.1053495    
     53660   0.63351736     158.5          158.5          158.5          0.19927465     0.11891366     0.3789235      0.099986795    0.63351736   
     53680   0.66109418     158.5          158.5          158.5         -0.13986076    -0.14682987    -0.13073895    -0.14201345     0.66109418   
     53700   0.82109435     158.5          158.5          158.5         -0.14943877     0.0019069129  -0.36356833    -0.086654902    0.82109435   
     53720   0.18395639     158.5          158.5          158.5          0.1468891      0.16137026     0.13201201     0.14728503     0.18395639   
     53740   0.44695036     158.5          158.5          158.5         -0.027656305   -0.054916295   -0.015900791   -0.012151827    0.44695036   
     53760   0.4540933      158.5          158.5          158.5         -0.010614805    0.051001314   -0.13763393     0.054788203    0.4540933    
     53780   0.57620756     158.5          158.5          158.5         -0.070777047    0.0036489038  -0.1227963     -0.093183748    0.57620756   
     53800   0.48613628     158.5          158.5          158.5         -0.099820382   -0.056299471   -0.045666312   -0.19749536     0.48613628   
     53820   0.35219063     158.5          158.5          158.5          0.18964078     0.11174001     0.12975574     0.32742658     0.35219063   
     53840   0.12702429     158.5          158.5          158.5         -0.0059025668   0.04116798    -0.16255135     0.10367567     0.12702429   
     53860   0.72818308     158.5          158.5          158.5         -0.1878895     -0.055036093   -0.077368295   -0.4312641      0.72818308   
     53880   0.41120651     158.5          158.5          158.5          0.085651869    0.036725499    0.19860148     0.021628628    0.41120651   
     53900   0.76610147     158.5          158.5          158.5          0.075356822    0.035879917   -0.070284185    0.26047474     0.76610147   
     53920   0.6923414      158.5          158.5          158.5          0.16866723     0.082893549    0.23650433     0.18660382     0.6923414    
     53940   0.44659021     158.5          158.5          158.5          0.0061289859   0.071913679    0.20735639    -0.26088311     0.44659021   
     53960   0.73256839     158.5          158.5          158.5         -0.19969842     0.055775157   -0.22231853    -0.43255189     0.73256839   
     53980   0.81088723     158.5          158.5          158.5          0.28933606     0.16982975     0.27978067     0.41839777     0.81088723   
     54000   1.3649867      158.5          158.5          158.5          0.19200786     0.094365132    0.2007307      0.28092776     1.3649867    
     54020   0.99207304     158.5          158.5          158.5         -0.063533325    0.035190991   -0.11933971    -0.10645125     0.99207304   
     54040   0.99370231     158.5          158.5          158.5         -0.0051874398   0.18048625     0.014851806   -0.21090038     0.99370231   
     54060   0.37064157     158.5          158.5          158.5         -0.20348641    -0.05525976    -0.055580658   -0.49961882     0.37064157   
     54080   0.95819243     158.5          158.5          158.5          0.10389585     0.0024131979   0.0094246712   0.29984968     0.95819243   
     54100   0.78474817     158.5          158.5          158.5          0.14442718     0.10765645     0.00748892     0.31813617     0.78474817   
     54120   0.91042472     158.5          158.5          158.5         -0.28975217    -0.12419854    -0.077692911   -0.66736504     0.91042472   
     54140   1.0046825      158.5          158.5          158.5         -0.044226703    0.12944967    -0.031874152   -0.23025563     1.0046825    
     54160   0.46938785     158.5          158.5          158.5          0.06068697     0.029909973    0.015514157    0.13663678     0.46938785   
     54180   0.29025516     158.5          158.5          158.5          0.029834337   -0.13131787     0.033825474    0.1869954      0.29025516   
     54200   0.55304487     158.5          158.5          158.5          0.066825194    0.14094079     0.029747182    0.029787608    0.55304487   
     54220   0.76013793     158.5          158.5          158.5         -0.14439333     0.041549208   -0.0058863719  -0.46884283     0.76013793   
     54240   0.59543635     158.5          158.5          158.5          0.10506487     0.059275562    0.0034374254   0.25248162     0.59543635   
     54260   0.73704027     158.5          158.5          158.5          0.27488442     0.030894408    0.015492359    0.77826651     0.73704027   
     54280   0.14322577     158.5          158.5          158.5         -0.036194834   -0.070887719    0.020197156   -0.057893941    0.14322577   
     54300   0.80692498     158.5          158.5          158.5          0.00064499369  0.2029893      0.040178422   -0.24123274     0.80692498   
     54320   0.48938766     158.5          158.5          158.5          0.0067794064  -0.033321238    0.010483684    0.043175773    0.48938766   
     54340   0.76723961     158.5          158.5          158.5          0.070058733   -0.075211549   -0.030332707    0.31572045     0.76723961   
     54360   0.99602048     158.5          158.5          158.5          0.20595073     0.26459774     0.052095969    0.30115849     0.99602048   
     54380   0.67672679     158.5          158.5          158.5         -0.24595595    -0.051286277   -0.020224114   -0.66635746     0.67672679   
     54400   0.56240739     158.5          158.5          158.5         -0.21177792     0.0055066601  -0.0013209192  -0.63951951     0.56240739   
     54420   1.0016745      158.5          158.5          158.5          0.23178112     0.33188279     0.063103867    0.3003567      1.0016745    
     54440   1.6251908      158.5          158.5          158.5         -0.0012736597   0.12380461    -0.29623962     0.16861403     1.6251908    
     54460   1.8030847      158.5          158.5          158.5          0.020481762    0.089041241   -0.019022437   -0.008573518    1.8030847    
     54480   1.7620908      158.5          158.5          158.5         -0.10472991     0.062108061   -0.017540062   -0.35875773     1.7620908    
     54500   0.62203062     158.5          158.5          158.5         -0.10711517     0.058085466   -0.26724733    -0.11218364     0.62203062   
     54520   1.1238649      158.5          158.5          158.5          0.24678399     0.21972702     0.27170816     0.2489168      1.1238649    
     54540   0.50168374     158.5          158.5          158.5          0.05273958     0.096817409    0.016444948    0.044956383    0.50168374   
     54560   0.80607947     158.5          158.5          158.5         -0.11856086    -0.15110174    -0.091378258   -0.11320258     0.80607947   
     54580   1.1572725      158.5          158.5          158.5          0.092606957    0.11643979     0.21046427    -0.049083193    1.1572725    
     54600   0.83471691     158.5          158.5          158.5          0.053440255    0.1505127      0.060877636   -0.051069568    0.83471691   
     54620   0.46156103     158.5          158.5          158.5          0.18838317     0.14756535     0.073617285    0.34396686     0.46156103   
     54640   0.34794315     158.5          158.5          158.5          0.0093559421   0.030592354    0.096047843   -0.098572371    0.34794315   
     54660   0.63353057     158.5          158.5          158.5         -0.23228457    -0.1768757     -0.083766051   -0.43621197     0.63353057   
     54680   0.81276672     158.5          158.5          158.5          0.16454566     0.10324317     0.019755398    0.37063842     0.81276672   
     54700   0.95853732     158.5          158.5          158.5          0.12916255     0.17447172     0.065653302    0.14736263     0.95853732   
     54720   0.34131088     158.5          158.5          158.5         -0.07139888     0.047912893    0.042240417   -0.30434995     0.34131088   
     54740   0.85205487     158.5          158.5          158.5         -0.018423645   -0.10453233    -0.070223988    0.11948538     0.85205487   
     54760   0.43227119     158.5          158.5          158.5         -0.11885249    -0.25887922    -0.11100133     0.013323067    0.43227119   
     54780   0.63513116     158.5          158.5          158.5          0.11957267     0.30781285     0.11640372    -0.065498555    0.63513116   
     54800   0.88139829     158.5          158.5          158.5          0.1512532      0.24279897     0.12048975     0.090470873    0.88139829   
     54820   1.1046946      158.5          158.5          158.5         -0.24513327    -0.55107251    -0.16108505    -0.023242254    1.1046946    
     54840   0.57546241     158.5          158.5          158.5         -0.024897008   -0.011680906   -0.11976027     0.056750147    0.57546241   
     54860   0.39551198     158.5          158.5          158.5          0.068943127    0.20980059     0.04566264    -0.048633852    0.39551198   
     54880   0.66350288     158.5          158.5          158.5          0.028144762   -0.13206967     0.1812876      0.035216354    0.66350288   
     54900   1.2641479      158.5          158.5          158.5          0.087411214    0.10588078     0.031949578    0.12440328     1.2641479    
     54920   1.5941669      158.5          158.5          158.5         -0.21543228    -0.10801618    -0.50769946    -0.030581209    1.5941669    
     54940   0.61609209     158.5          158.5          158.5          0.13818653     0.17323528     0.22429674     0.017027578    0.61609209   
     54960   1.4002596      158.5          158.5          158.5          0.31804802     0.50582548     0.39731524     0.051003342    1.4002596    
     54980   0.87114931     158.5          158.5          158.5         -0.1246071      0.087155312   -0.5117161      0.050739472    0.87114931   
     55000   0.50712313     158.5          158.5          158.5          0.029511221   -0.0040155181   0.037364818    0.055184363    0.50712313   
     55020   0.94986996     158.5          158.5          158.5          0.037637412   -0.010416766    0.096735145    0.026593857    0.94986996   
     55040   1.05382        158.5          158.5          158.5          0.061844038    0.3584801     -0.19351495     0.020566966    1.05382      
     55060   0.67145693     158.5          158.5          158.5          0.22882422     0.47087036     0.18288316     0.032719137    0.67145693   
     55080   0.52099294     158.5          158.5          158.5         -0.12255987    -0.36299632    -0.019983089    0.015299796    0.52099294   
     55100   0.19272857     158.5          158.5          158.5         -0.12520819    -0.19878973    -0.17285601    -0.0039788477   0.19272857   
     55120   0.44373152     158.5          158.5          158.5          0.087176009    0.19276655     0.049414268    0.01934721     0.44373152   
     55140   0.83957834     158.5          158.5          158.5         -0.035181985   -0.20848035     0.09809626     0.0048381328   0.83957834   
     55160   0.37663613     158.5          158.5          158.5          0.038936906   -0.044565956    0.10805812     0.053318557    0.37663613   
     55180   0.71678392     158.5          158.5          158.5         -0.14620846    -0.1610582     -0.21605873    -0.061508448    0.71678392   
     55200   0.35241197     158.5          158.5          158.5         -0.13517476    -0.35037905    -0.044394789   -0.010750446    0.35241197   
     55220   0.26623779     158.5          158.5          158.5          0.19530727     0.15290618     0.25978356     0.17323207     0.26623779   
     55240   0.61517547     158.5          158.5          158.5         -0.014868698    0.14056206    -0.088933381   -0.096234769    0.61517547   
     55260   0.85000326     158.5          158.5          158.5         -0.077782814   -0.040026567   -0.12815702    -0.06516485     0.85000326   
     55280   0.84067017     158.5          158.5          158.5          0.10885326     0.09531143     0.069085501    0.16216284     0.84067017   
     55300   0.70142981     158.5          158.5          158.5          0.014226288    0.21957402     0.027018921   -0.20391407     0.70142981   
     55320   0.18195062     158.5          158.5          158.5          0.21100693     0.42705488     0.10027817     0.10568775     0.18195062   
     55340   0.94013518     158.5          158.5          158.5          0.023323332   -0.063771609    0.018678775    0.11506283     0.94013518   
     55360   1.2829631      158.5          158.5          158.5         -0.15767189    -0.066046827   -0.029855028   -0.37711383     1.2829631    
     55380   0.8186655      158.5          158.5          158.5          0.22512323     0.52972403     0.079174201    0.066471461    0.8186655    
     55400   1.3840089      158.5          158.5          158.5          0.098502006   -0.026239485    0.040787585    0.28095792     1.3840089    
     55420   0.74495442     158.5          158.5          158.5         -0.051116011   -0.13251049    -0.0063822253  -0.014455321    0.74495442   
     55440   0.50743422     158.5          158.5          158.5         -0.051387141    0.072879409    0.054158201   -0.28119903     0.50743422   
     55460   0.61892218     158.5          158.5          158.5         -0.17154609    -0.1804063     -0.09413657    -0.24009539     0.61892218   
     55480   1.0235182      158.5          158.5          158.5          0.1384934      0.013352203   -0.013899189    0.4160272      1.0235182    
     55500   1.0242373      158.5          158.5          158.5          0.087075745    0.048333829    0.052655851    0.16023755     1.0242373    
     55520   1.0069351      158.5          158.5          158.5         -0.2296639     -0.14730794    -0.1407724     -0.40091137     1.0069351    
     55540   0.39730738     158.5          158.5          158.5          0.030588018   -0.033451072    0.12978718    -0.0045720497   0.39730738   
     55560   0.42596368     158.5          158.5          158.5          0.037737875    0.10178701    -0.040088526    0.051515137    0.42596368   
     55580   0.94867218     158.5          158.5          158.5          0.04683356     0.12842109    -0.11971863     0.13179821     0.94867218   
     55600   0.6485552      158.5          158.5          158.5          0.14798148     0.026244404    0.20761528     0.21008476     0.6485552    
     55620   1.0671227      158.5          158.5          158.5         -0.1449376     -0.067148446   -0.041030701   -0.32663366     1.0671227    
     55640   0.79613186     158.5          158.5          158.5          0.028663232    0.083118834   -0.011588494    0.014459354    0.79613186   
     55660   0.25929868     158.5          158.5          158.5          0.21226714     0.11736138     0.12791368     0.39152637     0.25929868   
     55680   0.46860977     158.5          158.5          158.5         -0.061038729    0.047887045   -0.084537947   -0.14646529     0.46860977   
     55700   0.85507324     158.5          158.5          158.5          0.0087493568   0.0047767026   0.065711636   -0.044240268    0.85507324   
     55720   0.73537815     158.5          158.5          158.5         -0.018997436    0.0085195038   0.0042570083  -0.069768819    0.73537815   
     55740   1.1052494      158.5          158.5          158.5          0.05509255     0.069038779   -0.017745807    0.11398468     1.1052494    
     55760   0.37048706     158.5          158.5          158.5          0.20417695     0.087643034    0.066139852    0.45874797     0.37048706   
     55780   0.5475358      158.5          158.5          158.5         -0.19499515    -0.0037897669  -0.10373824    -0.47745744     0.5475358    
     55800   1.1064523      158.5          158.5          158.5         -0.10175604     0.10676537     0.13833956    -0.55037307     1.1064523    
     55820   0.68388119     158.5          158.5          158.5          0.185513       0.12193774     0.13154366     0.30305761     0.68388119   
     55840   1.7296381      158.5          158.5          158.5         -0.039030425   -0.088443225   -0.20494776     0.17629971     1.7296381    
     55860   1.371301       158.5          158.5          158.5          0.10749894     0.26311742     0.12256067    -0.063181276    1.371301     
     55880   0.67498861     158.5          158.5          158.5         -0.11044967     0.15275854     0.063666134   -0.54777368     0.67498861   
     55900   0.58209973     158.5          158.5          158.5         -0.13917013    -0.14471537    -0.063590816   -0.20920419     0.58209973   
     55920   0.76651199     158.5          158.5          158.5          0.27424315     0.22238143     0.14314802     0.45720002     0.76651199   
     55940   1.1348882      158.5          158.5          158.5         -0.032054713   -0.055232711    0.00033267389 -0.041264103    1.1348882    
     55960   1.4236763      158.5          158.5          158.5         -0.1222065      0.010385081   -0.028942079   -0.34806249     1.4236763    
     55980   0.55663139     158.5          158.5          158.5          0.09101161     0.20546334     0.042836506    0.024734986    0.55663139   
     56000   0.6127079      158.5          158.5          158.5         -0.026448343   -0.096436549   -0.020787595    0.037879115    0.6127079    
     56020   0.49418546     158.5          158.5          158.5          0.14260569     0.11199183     0.12114537     0.19467986     0.49418546   
     56040   0.35784593     158.5          158.5          158.5          0.0020423741   0.096123866    0.0085115667  -0.09850831     0.35784593   
     56060   0.91187692     158.5          158.5          158.5         -0.099587434   -0.073602168   -0.059368807   -0.16579133     0.91187692   
     56080   0.79964209     158.5          158.5          158.5          0.19162446     0.15900676     0.15567312     0.2601935      0.79964209   
     56100   0.44962423     158.5          158.5          158.5          0.050548083   -0.0026330246   0.13297969     0.021297585    0.44962423   
     56120   0.26589485     158.5          158.5          158.5         -0.024368971    0.0035686638  -0.053862356   -0.022813219    0.26589485   
     56140   0.43914126     158.5          158.5          158.5          0.0045211007   0.091326517   -0.097500183    0.019736967    0.43914126   
     56160   0.69925084     158.5          158.5          158.5         -0.15570897    -0.074703701   -0.073580441   -0.31884277     0.69925084   
     56180   1.1151031      158.5          158.5          158.5          0.14754568     0.040293824    0.14182497     0.26051824     1.1151031    
     56200   0.54981544     158.5          158.5          158.5          0.10140526     0.021422591   -0.02499323     0.30778641     0.54981544   
     56220   0.72847504     158.5          158.5          158.5         -0.26551846    -0.063354563   -0.27932659    -0.45387423     0.72847504   
     56240   0.84715253     158.5          158.5          158.5         -0.0029870822   0.062827189   -0.069135519   -0.002652916    0.84715253   
     56260   0.52229265     158.5          158.5          158.5          0.017719434   -0.022982172   -0.1730906      0.24923107     0.52229265   
     56280   1.081951       158.5          158.5          158.5          0.059731201    0.092876307    0.094300187   -0.0079828903   1.081951     
     56300   1.5404281      158.5          158.5          158.5          0.10206313     0.18212026     0.21024597    -0.086176851    1.5404281    
     56320   1.2465938      158.5          158.5          158.5         -0.16700434    -0.078495825   -0.36416906    -0.058348119    1.2465938    
     56340   0.54796772     158.5          158.5          158.5          0.14489328     0.11391619     0.17633805     0.1444256      0.54796772   
     56360   0.38756565     158.5          158.5          158.5          0.2257368      0.1592806      0.59686711    -0.078937311    0.38756565   
     56380   0.85556543     158.5          158.5          158.5         -0.063314034    0.019455895   -0.13742477    -0.071973225    0.85556543   
     56400   1.4202073      158.5          158.5          158.5          0.080882684    0.067522957    0.019247657    0.15587744     1.4202073    
     56420   0.64828222     158.5          158.5          158.5          0.016861526   -0.095336878    0.23575131    -0.08982985     0.64828222   
     56440   0.71507241     158.5          158.5          158.5          0.04631396     0.059628895    0.12544977    -0.046136787    0.71507241   
     56460   0.51513703     158.5          158.5          158.5          0.098425185    0.21343531    -0.027915253    0.1097555      0.51513703   
     56480   0.15278928     158.5          158.5          158.5         -0.16829952    -0.17154005    -0.30509002    -0.028268485    0.15278928   
     56500   0.45740166     158.5          158.5          158.5         -0.064054405   -0.069732215   -0.10206939    -0.020361611    0.45740166   
     56520   0.65239239     158.5          158.5          158.5          0.095693003    0.25098045     0.00038277559  0.035715784    0.65239239   
     56540   0.51732142     158.5          158.5          158.5         -0.040969478   -0.044203409   -0.062542256   -0.01616277     0.51732142   
     56560   0.51374427     158.5          158.5          158.5         -0.0029111414  -0.07305146     0.050807059    0.013510977    0.51374427   
     56580   0.21769067     158.5          158.5          158.5         -0.099561495    0.045005858   -0.36794217     0.024251822    0.21769067   
     56600   0.33338752     158.5          158.5          158.5         -0.050306028    0.037140005   -0.20731148     0.019253389    0.33338752   
     56620   1.1053427      158.5          158.5          158.5          0.16796591     0.00071007032  0.48798184     0.015205829    1.1053427    
     56640   0.62360656     158.5          158.5          158.5         -0.00047473604  0.017655548   -0.020706868    0.0016271122   0.62360656   
     56660   0.96878802     158.5          158.5          158.5         -0.048836652    0.11016061    -0.25845783     0.001787268    0.96878802   
     56680   1.0036097      158.5          158.5          158.5          0.06997502    -0.08321293     0.26348558     0.029652412    1.0036097    
     56700   0.29223606     158.5          158.5          158.5          0.012247254   -0.18887102     0.17560913     0.050003654    0.29223606   
     56720   0.6995355      158.5          158.5          158.5          0.22402827     0.40881327     0.19529215     0.067979402    0.6995355    
     56740   1.2271238      158.5          158.5          158.5         -0.02023596    -0.10751501     0.028344705    0.018462425    1.2271238    
     56760   1.4257121      158.5          158.5          158.5         -0.15732371    -0.30298668    -0.088036561   -0.08094788     1.4257121    
     56780   1.3422739      158.5          158.5          158.5          0.22738986     0.40362657     0.15432385     0.12421916     1.3422739    
     56800   0.43037168     158.5          158.5          158.5          0.032407935    0.12899149    -0.10282493     0.07105724     0.43037168   
     56820   0.63012066     158.5          158.5          158.5         -0.10651441    -0.16149819    -0.042739961   -0.11530507     0.63012066   
     56840   1.2442861      158.5          158.5          158.5          0.0027839567   0.069247795   -0.11983971     0.058943784    1.2442861    
     56860   0.6509533      158.5          158.5          158.5         -0.072639156    0.043004559   -0.24531983    -0.015602195    0.6509533    
     56880   1.2794586      158.5          158.5          158.5          0.17934754     0.12451801     0.36500632     0.048518294    1.2794586    
     56900   0.93661818     158.5          158.5          158.5          0.026568397    0.026451618   -0.0037042423   0.056957817    0.93661818   
     56920   0.49951235     158.5          158.5          158.5         -0.19173242    -0.075772482   -0.45344303    -0.045981766    0.49951235   
     56940   0.34984577     158.5          158.5          158.5          0.061600875    0.05063307     0.13557699    -0.0014074391   0.34984577   
     56960   0.49489679     158.5          158.5          158.5         -0.0047672482   0.044040073    0.04262127    -0.10096309     0.49489679   
     56980   0.70658953     158.5          158.5          158.5          0.037971164    0.033201387   -0.12000046     0.20071257     0.70658953   
     57000   0.86284465     158.5          158.5          158.5          0.051014997    0.0055316079   0.074671887    0.072841497    0.86284465   
     57020   0.47018945     158.5          158.5          158.5         -0.15924285    -0.025400761   -0.075697826   -0.37662996     0.47018945   
     57040   0.21478478     158.5          158.5          158.5          0.10653431     0.052950761    0.059866227    0.20678594     0.21478478   
     57060   0.41147452     158.5          158.5          158.5          0.10383588     0.045924085    0.09476132     0.17082223     0.41147452   
     57080   0.34738537     158.5          158.5          158.5         -0.087758453    0.011329754    0.0030197244  -0.27762484     0.34738537   
     57100   0.524699       158.5          158.5          158.5          0.052965102    0.032989855    0.04307033     0.082835123    0.524699     
     57120   0.50974637     158.5          158.5          158.5         -0.013050047   -0.037784081   -0.03655213     0.035186072    0.50974637   
     57140   0.18010316     158.5          158.5          158.5          0.036388684    0.05024086     0.10062799    -0.041702802    0.18010316   
     57160   0.13588763     158.5          158.5          158.5          0.084428732    0.069197913    0.10306034     0.081027949    0.13588763   
     57180   0.34797035     158.5          158.5          158.5         -0.11795643    -0.067649429   -0.19057438    -0.09564548     0.34797035   
     57200   0.30328142     158.5          158.5          158.5          0.00092141261  0.015697733    0.026308141   -0.039241636    0.30328142   
     57220   0.54403302     158.5          158.5          158.5          0.069547822    0.016640555    0.12021807     0.071784846    0.54403302   
     57240   0.35057192     158.5          158.5          158.5         -0.042360579   -0.094653074   -0.10606238     0.073633717    0.35057192   
     57260   0.14650474     158.5          158.5          158.5          0.022434094    0.053823893   -0.032414932    0.045893321    0.14650474   
     57280   0.64156858     158.5          158.5          158.5         -0.16024483    -0.017007405   -0.085784599   -0.37794247     0.64156858   
     57300   0.51314797     158.5          158.5          158.5         -0.027369735   -0.10298652    -0.045766421    0.066643733    0.51314797   
     57320   0.90964822     158.5          158.5          158.5          0.21080629     0.091111309    0.081246738    0.46006082     0.90964822   
     57340   1.1815068      158.5          158.5          158.5         -0.088414197   -0.0068210836  -0.011979099   -0.24644241     1.1815068    
     57360   0.54248787     158.5          158.5          158.5         -0.025467929    0.12059509    -0.018825477   -0.1781734      0.54248787   
     57380   0.30184731     158.5          158.5          158.5          0.09373661     0.11024864     0.037446723    0.13351447     0.30184731   
     57400   0.71289287     158.5          158.5          158.5         -0.018918972   -0.11280509     0.071237066   -0.015188887    0.71289287   
     57420   0.91084586     158.5          158.5          158.5          0.18947662     0.19853764     0.095916764    0.27397546     0.91084586   
     57440   1.6852284      158.5          158.5          158.5         -0.020300998    0.10375423    -0.087554732   -0.077102496    1.6852284    
     57460   1.0039686      158.5          158.5          158.5         -0.054489571    0.029564292   -0.047756818   -0.14527619     1.0039686    
     57480   0.60365787     158.5          158.5          158.5          0.18701413     0.17725968     0.081558234    0.30222447     0.60365787   
     57500   0.95367362     158.5          158.5          158.5         -0.037850403   -0.08236941     0.053759842   -0.08494164     0.95367362   
     57520   0.58640865     158.5          158.5          158.5         -0.025317934    0.10234454     0.015694208   -0.19399255     0.58640865   
     57540   1.0792807      158.5          158.5          158.5          0.01171168     0.058680078    0.0074075346  -0.030952572    1.0792807    
     57560   1.5455623      158.5          158.5          158.5         -0.10801965    -0.12062404    -0.0050381187  -0.19839678     1.5455623    
     57580   1.006668       158.5          158.5          158.5          0.16253527     0.1254125      0.10887192     0.25332137     1.006668     
     57600   0.46850633     158.5          158.5          158.5         -0.04031684     0.02085017    -0.039693777   -0.10210691     0.46850633   
     57620   0.44080542     158.5          158.5          158.5         -0.19910887    -0.011251831   -0.033772018   -0.55230276     0.44080542   
     57640   0.45445599     158.5          158.5          158.5          0.089968414    0.11229013     0.18188229    -0.024267178    0.45445599   
     57660   0.98876734     158.5          158.5          158.5          0.0082432256  -0.0030436878  -0.12951113     0.15728449     0.98876734   
     57680   0.82110592     158.5          158.5          158.5          0.08310835     0.0075127137  -0.062232791    0.30404513     0.82110592   
     57700   0.44751761     158.5          158.5          158.5          0.079017759    0.051397729    0.16285885     0.022796695    0.44751761   
     57720   0.55910516     158.5          158.5          158.5         -0.15289402    -0.0072127883  -0.067673239   -0.38379602     0.55910516   
     57740   0.2430742      158.5          158.5          158.5          0.084272819    0.028844361    0.045178837    0.17879526     0.2430742    
     57760   0.41270522     158.5          158.5          158.5          0.11526503     0.038845313    0.036463933    0.27048585     0.41270522   
     57780   0.82244759     158.5          158.5          158.5         -0.053069536   -0.019678266   -0.053620453   -0.085909889    0.82244759   
     57800   0.66432437     158.5          158.5          158.5          0.043748778    0.0084789148   0.13137062    -0.0086031956   0.66432437   
     57820   0.3190399      158.5          158.5          158.5         -0.062977402    0.025481916   -0.085458919   -0.1289552      0.3190399    
     57840   0.34407746     158.5          158.5          158.5          0.04741198     0.059049582   -0.04806139     0.13124775     0.34407746   
     57860   0.3757783      158.5          158.5          158.5          0.10392831     0.040712072    0.099018488    0.17205436     0.3757783    
     57880   1.3963187      158.5          158.5          158.5         -0.19895204    -0.016986781   -0.14310266    -0.43676667     1.3963187    
     57900   1.4412653      158.5          158.5          158.5          0.065487346    0.029693913    0.09266654     0.074101584    1.4412653    
     57920   0.8467021      158.5          158.5          158.5          0.10217593     0.064135715   -0.0081032142   0.25049529     0.8467021    
     57940   1.3796943      158.5          158.5          158.5         -0.1237909      0.062487764   -0.17845289    -0.25540757     1.3796943    
     57960   0.8241591      158.5          158.5          158.5          0.1256969      0.08342764     0.15258222     0.14108086     0.8241591    
     57980   0.46015253     158.5          158.5          158.5         -0.11841835    -0.044724607   -0.038851745   -0.27167871     0.46015253   
     58000   1.454971       158.5          158.5          158.5          0.0039348661   0.19298702    -0.027182887   -0.15399953     1.454971     
     58020   1.5041756      158.5          158.5          158.5          0.26103496     0.20821545     0.094357182    0.48053224     1.5041756    
     58040   1.3367684      158.5          158.5          158.5         -0.095295076   -0.22225532    -0.017996845   -0.045633061    1.3367684    
     58060   0.82329526     158.5          158.5          158.5         -0.0049406182   0.18549871     0.028054924   -0.22837549     0.82329526   
     58080   0.072392279    158.5          158.5          158.5          0.044429444    0.11866473     0.031675394   -0.017051797    0.072392279  
     58100   0.88222991     158.5          158.5          158.5         -0.0565303     -0.13297393    -0.054732971    0.018115999    0.88222991   
     58120   0.95489552     158.5          158.5          158.5          0.18984675     0.27000399     0.11410534     0.18543091     0.95489552   
     58140   0.71681096     158.5          158.5          158.5         -0.056323622    0.050959185   -0.01211961    -0.20781044     0.71681096   
     58160   1.0869751      158.5          158.5          158.5         -0.042886716   -0.085515997   -0.059523324    0.016379174    1.0869751    
     58180   0.47369806     158.5          158.5          158.5          0.14658978     0.21956133     0.078006329    0.14220169     0.47369806   
     58200   0.200345       158.5          158.5          158.5         -0.068188183    0.015145027   -0.023586039   -0.19612354     0.200345     
     58220   0.56255479     158.5          158.5          158.5          0.033775052   -0.049928538    0.061634289    0.089619406    0.56255479   
     58240   0.78990739     158.5          158.5          158.5         -0.0046382184  -0.089285743    0.013247445    0.062123643    0.78990739   
     58260   1.0841077      158.5          158.5          158.5         -0.13490179    -0.0584726     -0.19846253    -0.14777023     1.0841077    
     58280   0.79432859     158.5          158.5          158.5          0.17825481     0.19851983     0.17206524     0.16417935     0.79432859   
     58300   0.14606592     158.5          158.5          158.5         -0.023492302   -0.21880263     0.09865455     0.049671174    0.14606592   
     58320   0.93519814     158.5          158.5          158.5         -0.18111157    -0.15181494    -0.28335181    -0.10816796     0.93519814   
     58340   1.0976749      158.5          158.5          158.5          0.098857361    0.20612227     0.02199627     0.068453542    1.0976749    
     58360   1.3319746      158.5          158.5          158.5         -0.0032097548  -0.23934227     0.14993645     0.079776554    1.3319746    
     58380   2.0367631      158.5          158.5          158.5          0.15476628     0.38056042     0.088956135   -0.0052177225   2.0367631    
     58400   1.8657904      158.5          158.5          158.5          0.066764627    0.40656193    -0.22298614     0.016718088    1.8657904    
     58420   1.0652913      158.5          158.5          158.5         -0.14705126    -0.39860441    -0.15478027     0.1122309      1.0652913    
     58440   0.30577932     158.5          158.5          158.5          0.26032766     0.35966015     0.26951869     0.15180415     0.30577932   
     58460   0.71886399     158.5          158.5          158.5          0.071866766    0.39777844    -0.2281477      0.04596956     0.71886399   
     58480   1.6738817      158.5          158.5          158.5         -0.049838558   -0.011556518   -0.070142297   -0.067816858    1.6738817    
     58500   1.1810086      158.5          158.5          158.5          0.18393374     0.23367063     0.22974569     0.088384911    1.1810086    
     58520   0.88542167     158.5          158.5          158.5         -0.018791421    0.21280813    -0.19491971    -0.074262681    0.88542167   
     58540   1.0176738      158.5          158.5          158.5          0.043033307    0.1227967     -0.019183277    0.025486499    1.0176738    
     58560   0.42530867     158.5          158.5          158.5          0.069340764   -0.15347304     0.16441023     0.1970851      0.42530867   
     58580   0.49394659     158.5          158.5          158.5         -0.19311051    -0.25826818    -0.16437784    -0.15668552     0.49394659   
     58600   1.112641       158.5          158.5          158.5          0.021127657    0.14150219    -0.087940451    0.0098212332   1.112641     
     58620   0.96159682     158.5          158.5          158.5          0.056704926   -0.11493067     0.074593664    0.21045178     0.96159682   
     58640   0.75289531     158.5          158.5          158.5         -0.066803452   -0.087988995    0.002269887   -0.11469125     0.75289531   
     58660   0.44414107     158.5          158.5          158.5          0.038310188    0.14539099     0.013588369   -0.044048794    0.44414107   
     58680   0.24218369     158.5          158.5          158.5         -0.12000708    -0.2607746     -0.11341694     0.014170305    0.24218369   
     58700   0.84971085     158.5          158.5          158.5          0.013627061   -0.0050690687  -0.019017226    0.064967476    0.84971085   
     58720   0.93510544     158.5          158.5          158.5          0.16591314     0.3160244      0.19907165    -0.017356623    0.93510544   
     58740   0.63498895     158.5          158.5          158.5         -0.050622929   -0.0077622413  -0.065097505   -0.079009042    0.63498895   
     58760   1.0208228      158.5          158.5          158.5          0.031189533   -0.027982927   -0.032435392    0.15398692     1.0208228    
     58780   0.28175586     158.5          158.5          158.5          0.038983263    0.12120128     0.1013051     -0.10555658     0.28175586   
     58800   0.32444888     158.5          158.5          158.5         -0.019715479    0.10323802     0.028567083   -0.19095154     0.32444888   
     58820   1.0542164      158.5          158.5          158.5          0.20560343     0.13708844     0.13293166     0.34679018     1.0542164    
     58840   0.95882921     158.5          158.5          158.5         -0.040618647    0.00094004475  0.020683235   -0.14347922     0.95882921   
     58860   1.2146903      158.5          158.5          158.5         -0.056546161    0.052584601   -0.007984037   -0.21423905     1.2146903    
     58880   0.70607154     158.5          158.5          158.5          0.17921766     0.15320991     0.063655158    0.32078791     0.70607154   
     58900   0.25348173     158.5          158.5          158.5         -0.091356118    0.0033233102  -0.23487622    -0.042515445    0.25348173   
     58920   1.4678524      158.5          158.5          158.5         -0.059689807   -0.079694559    0.08860174    -0.1879766      1.4678524    
     58940   1.1274374      158.5          158.5          158.5          0.050977948    0.058997857    0.1025271     -0.0085911105   1.1274374    
     58960   1.2475421      158.5          158.5          158.5         -0.075284309    0.11257797    -0.20538918    -0.13304172     1.2475421    
     58980   1.9451047      158.5          158.5          158.5          0.17427482     0.13081527     0.031438033    0.36057116     1.9451047    
     59000   0.60064952     158.5          158.5          158.5         -0.065792428    0.020221194   -0.083050381   -0.1345481      0.60064952   
     59020   0.36230344     158.5          158.5          158.5         -0.083059946    0.071671559    0.00015653278 -0.32100793     0.36230344   
     59040   0.63901782     158.5          158.5          158.5          0.10900252     0.081627808    0.11235632     0.13302344     0.63901782   
     59060   0.61306851     158.5          158.5          158.5         -0.054958748   -0.063778433   -0.10572119     0.0046233784   0.61306851   
     59080   0.89735533     158.5          158.5          158.5          0.077400248    0.11546915     0.05006037     0.066671223    0.89735533   
     59100   0.54563926     158.5          158.5          158.5          0.045994919    0.043811179    0.056629329    0.037544248    0.54563926   
     59120   0.21944905     158.5          158.5          158.5         -0.13144322    -0.15223179    -0.075010506   -0.16708736     0.21944905   
     59140   0.47195845     158.5          158.5          158.5          0.13317477     0.15833362     0.079699709    0.16149097     0.47195845   
     59160   0.46663536     158.5          158.5          158.5          0.042756948    0.019645397    0.033186547    0.0754389      0.46663536   
     59180   0.57632568     158.5          158.5          158.5         -0.049697461   -0.13496701    -0.062504374    0.048378998    0.57632568   
     59200   0.90119842     158.5          158.5          158.5          0.099608884    0.1666956      0.020176918    0.11195414     0.90119842   
     59220   0.46927978     158.5          158.5          158.5         -0.076547598    0.023383358    0.01455901    -0.26758516     0.46927978   
     59240   0.16726161     158.5          158.5          158.5          0.041424974   -0.040489705    0.027164542    0.13760008     0.16726161   
     59260   0.51732016     158.5          158.5          158.5          0.06520473     0.07866248     0.022592019    0.094359689    0.51732016   
     59280   0.81444991     158.5          158.5          158.5         -0.14218964     0.030840196   -0.001676561   -0.45573255     0.81444991   
     59300   1.1438279      158.5          158.5          158.5          0.093998552    0.088868281    0.0096678419   0.18345953     1.1438279    
     59320   0.99920496     158.5          158.5          158.5          0.022755433   -0.11766991     0.011797377    0.17413884     0.99920496   
     59340   0.32295853     158.5          158.5          158.5         -0.045536265    0.047206106    0.025849687   -0.20966459     0.32295853   
     59360   0.85677491     158.5          158.5          158.5          0.066113135    0.24585811     0.040166272   -0.087684979    0.85677491   
     59380   0.93255374     158.5          158.5          158.5         -0.17617343    -0.15466256     0.0040618135  -0.37791954     0.93255374   
     59400   0.71019216     158.5          158.5          158.5          0.073931863    0.12310307    -0.027578236    0.12627075     0.71019216   
     59420   1.4650395      158.5          158.5          158.5          0.15592946     0.15816957     0.025878149    0.28374065     1.4650395    
     59440   1.0934976      158.5          158.5          158.5         -0.13212327    -0.15017698     0.041548486   -0.28774132     1.0934976    
     59460   0.33171931     158.5          158.5          158.5          0.10288237     0.17602994     0.10140214     0.031215033    0.33171931   
     59480   0.44473827     158.5          158.5          158.5          0.071850575    0.076865638    0.0049600752   0.13372601     0.44473827   
     59500   0.55155377     158.5          158.5          158.5         -0.026413825   -0.0096996376   0.051233187   -0.12077502     0.55155377   
     59520   1.2542683      158.5          158.5          158.5          0.16905306     0.1554267      0.19340839     0.15832407     1.2542683    
     59540   1.1760903      158.5          158.5          158.5         -0.048819055   -0.015401756   -0.096982919   -0.034072488    1.1760903    
     59560   0.35403969     158.5          158.5          158.5          0.017108008    0.027889628    0.035501592   -0.012067197    0.35403969   
     59580   0.83590455     158.5          158.5          158.5          0.080556469    0.10432907     0.22841199    -0.091071651    0.83590455   
     59600   0.60179722     158.5          158.5          158.5         -0.086966754    0.036301872   -0.29691178    -0.00029034999  0.60179722   
     59620   0.40493028     158.5          158.5          158.5          0.048563105    0.033913805   -0.055465938    0.16724145     0.40493028   
     59640   1.2715682      158.5          158.5          158.5         -0.0081946826   0.0062413728   0.16536021    -0.19618563     1.2715682    
     59660   0.90730172     158.5          158.5          158.5         -0.078470669    0.027052921   -0.19262571    -0.06983922     0.90730172   
     59680   0.58509165     158.5          158.5          158.5          0.1384417      0.077245985   -0.042831713    0.38091082     0.58509165   
     59700   0.40932599     158.5          158.5          158.5         -0.10987507     0.027007414   -0.08546999    -0.27116265     0.40932599   
     59720   0.25740755     158.5          158.5          158.5         -0.098169387    0.039881501   -0.18585676    -0.1485329      0.25740755   
     59740   1.1474394      158.5          158.5          158.5          0.10122704     0.09087818    -0.069135868    0.28193882     1.1474394    
     59760   1.0887987      158.5          158.5          158.5         -0.028589406   -0.063391545    0.035828495   -0.058205169    1.0887987    
     59780   0.56402532     158.5          158.5          158.5          0.11935013     0.03914511     0.36600214    -0.047096874    0.56402532   
     59800   0.97716975     158.5          158.5          158.5          0.054217098    0.14336264    -0.044312818    0.063601474    0.97716975   
     59820   0.53987787     158.5          158.5          158.5         -0.11663282    -0.080568996   -0.21102157    -0.058307887    0.53987787   
     59840   0.38413061     158.5          158.5          158.5          0.17322242     0.016887629    0.443806       0.058973627    0.38413061   
     59860   1.0520855      158.5          158.5          158.5          0.050918433    0.10578559     0.051800391   -0.004830682    1.0520855    
     59880   1.040992       158.5          158.5          158.5         -0.024574036    0.091640131   -0.12795726    -0.037404976    1.040992     
     59900   0.96887966     158.5          158.5          158.5          0.092300113   -0.041721286    0.26064571     0.057975917    0.96887966   
     59920   0.4904675      158.5          158.5          158.5         -0.089055764   -0.12555861    -0.17520753     0.03359885     0.4904675    
     59940   0.19647495     158.5          158.5          158.5          0.067822231    0.32377378    -0.16666679     0.046359703    0.19647495   
     59960   1.1146414      158.5          158.5          158.5          0.034187574   -0.019889444    0.10451305     0.017939114    1.1146414    
     59980   1.2922705      158.5          158.5          158.5         -0.16059682    -0.3115896     -0.1500206     -0.020180271    1.2922705    
     60000   0.86787345     158.5          158.5          158.5          0.17197829     0.46752726     0.020232865    0.028174734    0.86787345   
     60020   1.3256058      158.5          158.5          158.5         -0.01311632     0.0048336397  -0.071763353    0.027580754    1.3256058    
     60040   0.7844637      158.5          158.5          158.5         -0.12957916    -0.25500364    -0.13808529     0.0043514379   0.7844637    
     60060   0.22658444     158.5          158.5          158.5          0.11028933     0.33054986    -0.1033033      0.10362142     0.22658444   
     60080   0.8556153      158.5          158.5          158.5         -0.11082714    -0.062769043   -0.26123446    -0.0084779159   0.8556153    
     60100   1.0225578      158.5          158.5          158.5          0.074901922   -0.037607922    0.26421509    -0.0019014      1.0225578    
     60120   1.0903466      158.5          158.5          158.5          0.15283003     0.17012011     0.23140275     0.056967227    1.0903466    
     60140   0.85895943     158.5          158.5          158.5         -0.081799608    0.003783782   -0.17596474    -0.073217863    0.85895943   
     60160   0.21381171     158.5          158.5          158.5          0.085434204    0.022709081    0.19021681     0.043376724    0.21381171   
     60180   0.55376681     158.5          158.5          158.5         -0.012712092    0.0097805489   0.011402599   -0.059319425    0.55376681   
     60200   0.73723624     158.5          158.5          158.5         -0.00038807906  0.073064867   -0.11357898     0.039349877    0.73723624   
     60220   0.59097186     158.5          158.5          158.5          0.17269732     0.082698053    0.30328621     0.1321077      0.59097186   
     60240   1.0086234      158.5          158.5          158.5         -0.11948256    -0.063441634   -0.06659479    -0.22841126     1.0086234    
     60260   0.56627893     158.5          158.5          158.5          0.011684014    0.01986563    -0.13714984     0.15233626     0.56627893   
     60280   0.075188006    158.5          158.5          158.5          0.098586077    0.082784595    0.086786274    0.12618736     0.075188006  
     60300   0.5503853      158.5          158.5          158.5         -0.11382813     0.031007935   -0.033102612   -0.3393897      0.5503853    
     60320   0.58728486     158.5          158.5          158.5          0.076932955    0.017528108    0.006188087    0.20708267     0.58728486   
     60340   0.93836777     158.5          158.5          158.5         -0.01934459    -0.076644084   -0.10816252     0.12677284     0.93836777   
     60360   0.94431692     158.5          158.5          158.5         -0.10121658     0.03800944    -0.081761275   -0.25989791     0.94431692   
     60380   0.21152433     158.5          158.5          158.5          0.14388146     0.10917736     0.074526361    0.24794065     0.21152433   
     60400   0.82039585     158.5          158.5          158.5         -0.13019471    -0.14365364    -0.2528154      0.0058848928   0.82039585   
     60420   0.99258117     158.5          158.5          158.5         -0.025940198    0.050342094    0.0067271745  -0.13488986     0.99258117   
     60440   0.77842853     158.5          158.5          158.5          0.13284403     0.15604164     0.17354732     0.068943133    0.77842853   
     60460   1.9881606      158.5          158.5          158.5         -0.041364666   -0.090357136   -0.11883987     0.085103007    1.9881606    
     60480   1.2905724      158.5          158.5          158.5          0.16393355     0.2741096      0.12492332     0.092767734    1.2905724    
     60500   0.47566698     158.5          158.5          158.5          0.025263028    0.16809461     0.013129607   -0.10543513     0.47566698   
     60520   0.66466694     158.5          158.5          158.5         -0.074938464   -0.070745026   -0.0044305716  -0.14963979     0.66466694   
     60540   0.51451261     158.5          158.5          158.5          0.20929109     0.24761467     0.16597178     0.21428682     0.51451261   
     60560   1.3083239      158.5          158.5          158.5         -0.052703206    0.01016395    -0.15661386    -0.011659706    1.3083239    
     60580   1.1368922      158.5          158.5          158.5          0.02937939     0.048018627    0.0096431431   0.030476399    1.1368922    
     60600   0.52708522     158.5          158.5          158.5          0.13476551     0.13964295     0.15618108     0.10847249     0.52708522   
     60620   0.64269686     158.5          158.5          158.5         -0.12185354    -0.073335895   -0.13616295    -0.15606176     0.64269686   
     60640   0.31479803     158.5          158.5          158.5          0.05245926     0.081749864    0.020667291    0.054960624    0.31479803   
     60660   0.38570604     158.5          158.5          158.5          0.038118927    0.016584312    0.1221415     -0.024369027    0.38570604   
     60680   0.93130532     158.5          158.5          158.5         -0.11522249    -0.080631092   -0.084234985   -0.1808014      0.93130532   
     60700   0.7738293      158.5          158.5          158.5          0.080379776    0.097796084    0.044253688    0.099089555    0.7738293    
     60720   0.45293098     158.5          158.5          158.5         -0.038637506   -0.0086269152   0.058600688   -0.16588629     0.45293098   
     60740   0.30334496     158.5          158.5          158.5         -0.051669839    0.0078954441  -0.023497848   -0.13940711     0.30334496   
     60760   0.29421156     158.5          158.5          158.5          0.061536397    0.047117954    0.019815279    0.11767596     0.29421156   
     60780   0.87701809     158.5          158.5          158.5         -0.099905505    0.029178916   -0.071419313   -0.25747612     0.87701809   
     60800   1.0710425      158.5          158.5          158.5          0.094687558    0.053588891    0.086604414    0.14386937     1.0710425    
     60820   0.62808738     158.5          158.5          158.5          0.1035951      0.023026393   -0.028591274    0.31635019     0.62808738   
     60840   0.71687036     158.5          158.5          158.5         -0.10091408     0.039920406   -0.099511026   -0.24315161     0.71687036   
     60860   0.67799987     158.5          158.5          158.5          0.11211366     0.092682438    0.27418431    -0.030525754    0.67799987   
     60880   0.32529476     158.5          158.5          158.5         -0.017628553    0.074754176   -0.10463591    -0.023003928    0.32529476   
     60900   1.2268809      158.5          158.5          158.5         -0.0026963399   0.050687279   -0.1294613      0.070685006    1.2268809    
     60920   1.436037       158.5          158.5          158.5          0.22794214     0.072599822    0.26688823     0.34433838     1.436037     
     60940   0.96948915     158.5          158.5          158.5         -0.093049159    0.063014505   -0.14941112    -0.19275086     0.96948915   
     60960   0.65152445     158.5          158.5          158.5          0.036536771    0.10510405    -0.0062915095   0.010797773    0.65152445   
     60980   0.14149064     158.5          158.5          158.5          0.095845886    0.09281451     0.10795808     0.086765068    0.14149064   
     61000   1.0877878      158.5          158.5          158.5         -0.16726078    -0.07814498    -0.10281301    -0.32082436     1.0877878    
     61020   1.4093226      158.5          158.5          158.5          0.087012583    0.16729595     0.064065493    0.029676309    1.4093226    
     61040   0.65513289     158.5          158.5          158.5          0.032353162    0.01141317    -0.011557761    0.097204078    0.65513289   
     61060   1.0336563      158.5          158.5          158.5         -0.10391491    -0.08680026    -0.079405715   -0.14553876     1.0336563    
     61080   0.63748718     158.5          158.5          158.5          0.079308528    0.13759117     0.044963165    0.055371251    0.63748718   
     61100   0.059616014    158.5          158.5          158.5         -0.097667903   -0.077877476   -0.023502158   -0.19162407     0.059616014  
     61120   0.50542606     158.5          158.5          158.5          0.026371808   -0.0066721365  -0.027231769    0.11301933     0.50542606   
     61140   0.5412535      158.5          158.5          158.5          0.084377882    0.12270089     0.047047909    0.083384844    0.5412535    
     61160   0.50217208     158.5          158.5          158.5         -0.084373711   -0.052113354   -0.0041989735  -0.19680881     0.50217208   
     61180   0.4709279      158.5          158.5          158.5          0.095265531    0.072085025    0.0090953416   0.20461623     0.4709279    
     61200   0.033261482    158.5          158.5          158.5          0.014083734    0.03191786     0.015345136   -0.0050117941   0.033261482  
     61220   0.3771862      158.5          158.5          158.5         -0.085233079   -0.0019917661   0.0093101172  -0.26301759     0.3771862    
     61240   0.73540187     158.5          158.5          158.5          0.14755403     0.1598751      0.029309238    0.25347776     0.73540187   
     61260   0.4542339      158.5          158.5          158.5         -0.013006891   -0.064370832    0.0076565293   0.017693629    0.4542339    
     61280   0.67404913     158.5          158.5          158.5          0.001670254    0.10436897     0.0080678428  -0.10742605     0.67404913   
     61300   0.57685096     158.5          158.5          158.5          0.081882779    0.11996267     0.026877238    0.098808433    0.57685096   
     61320   0.19213807     158.5          158.5          158.5         -0.1309561     -0.27927855    -0.018049708   -0.095540031    0.19213807   
     61340   0.60023668     158.5          158.5          158.5          0.060493844    0.16638819     0.041705803   -0.02661246     0.60023668   
     61360   0.8835395      158.5          158.5          158.5          0.017700793    0.074204728    0.03093922    -0.052041569    0.8835395    
     61380   1.0116639      158.5          158.5          158.5         -0.095733109   -0.28995386    -0.025936866    0.028691399    1.0116639    
     61400   0.89505        158.5          158.5          158.5          0.11896197     0.1754852      0.059105049    0.12229567     0.89505      
     61420   0.22540416     158.5          158.5          158.5         -0.11162949    -0.047797323   -0.1113704     -0.17572075     0.22540416   
     61440   0.56620566     158.5          158.5          158.5         -0.023765976   -0.14035922     0.086582691   -0.017521403    0.56620566   
     61460   1.1506512      158.5          158.5          158.5          0.13470362     0.19578951     0.07798756     0.13033377     1.1506512    
     61480   0.83324273     158.5          158.5          158.5         -0.093811927    0.030507537   -0.27779993    -0.034143391    0.83324273   
     61500   1.0866209      158.5          158.5          158.5          0.10242591     0.071481947    0.21873303     0.017062749    1.0866209    
     61520   1.143414       158.5          158.5          158.5          0.038129367   -0.005626147    0.14686544    -0.02685119     1.143414     
     61540   0.28045216     158.5          158.5          158.5         -0.096612771    0.062541539   -0.36702625     0.014646399    0.28045216   
     61560   0.42881911     158.5          158.5          158.5          0.17992434     0.30946081     0.11750974     0.11280248     0.42881911   
     61580   0.83696586     158.5          158.5          158.5          0.0047201128  -0.13836645     0.10857653     0.043950259    0.83696586   
     61600   1.0120656      158.5          158.5          158.5         -0.01435638     0.13493055    -0.20482199     0.026822293    1.0120656    
     61620   1.1809753      158.5          158.5          158.5          0.14514376     0.34903193     0.034928254    0.051471089    1.1809753    
     61640   0.45877092     158.5          158.5          158.5         -0.068291616   -0.22363078     0.050992638   -0.032236705    0.45877092   
     61660   0.37306589     158.5          158.5          158.5          0.037611178    0.023323795    0.027943931    0.061565807    0.37306589   
     61680   0.76903841     158.5          158.5          158.5         -0.013650643    0.049612601   -0.14872528     0.058160745    0.76903841   
     61700   0.44843994     158.5          158.5          158.5         -0.094635091   -0.19100437     0.018661105   -0.11156201     0.44843994   
     61720   0.77935335     158.5          158.5          158.5          0.10736235     0.073023081    0.19600339     0.053060568    0.77935335   
     61740   0.78450117     158.5          158.5          158.5         -0.044662595    0.019761508   -0.15109729    -0.0026520009   0.78450117   
     61760   0.15718254     158.5          158.5          158.5         -0.066666903   -0.10904505    -0.05425271    -0.036702953    0.15718254   
     61780   0.29737585     158.5          158.5          158.5          0.087819715    0.0082638112   0.1621666      0.093028733    0.29737585   
     61800   0.34350536     158.5          158.5          158.5         -0.084670622   -0.025733883   -0.1406948     -0.087583186    0.34350536   
     61820   0.42414173     158.5          158.5          158.5          0.029317616    0.087199525    0.002205042   -0.0014517191   0.42414173   
     61840   0.72868811     158.5          158.5          158.5          0.068042863   -0.0092893585   0.12387753     0.089540419    0.72868811   
     61860   0.28237035     158.5          158.5          158.5         -0.07812409    -0.073782304   -0.071369965   -0.08922        0.28237035   
     61880   0.25016096     158.5          158.5          158.5          0.079070266    0.16738491     0.00079086893  0.069035015    0.25016096   
     61900   0.59869178     158.5          158.5          158.5          0.020542035    0.0080970647   0.029378966    0.024150074    0.59869178   
     61920   0.45509591     158.5          158.5          158.5         -0.033485212   -0.0098545053  -0.013576343   -0.077024788    0.45509591   
     61940   1.0332379      158.5          158.5          158.5          0.14639609     0.2349408      0.11856265     0.085684809    1.0332379    
     61960   1.309489       158.5          158.5          158.5         -0.071681045   -0.022799427   -0.11843367    -0.073810043    1.309489     
     61980   0.49978775     158.5          158.5          158.5          0.068423935    0.069969074   -0.0023888461   0.13769158     0.49978775   
     62000   0.42745127     158.5          158.5          158.5          0.092716428    0.13562894     0.12579643     0.016723919    0.42745127   
     62020   0.52380014     158.5          158.5          158.5         -0.1874742     -0.20637868    -0.14088542    -0.2151585      0.52380014   
     62040   1.056614       158.5          158.5          158.5          0.095838099    0.043961409   -0.04291964     0.28647253     1.056614     
     62060   1.4836786      158.5          158.5          158.5          0.038314973    0.11089566     0.0044747445  -0.00042548751  1.4836786    
     62080   0.86151793     158.5          158.5          158.5         -0.051043503    0.03907878    -0.024828367   -0.16738092     0.86151793   
     62100   0.79116093     158.5          158.5          158.5          0.15605578     0.17345974     0.059914451    0.23479314     0.79116093   
     62120   0.82287539     158.5          158.5          158.5         -0.15583122    -0.18945736    -0.19185827    -0.086178021    0.82287539   
     62140   0.28677457     158.5          158.5          158.5         -0.032554462   -0.060478462    0.023909724   -0.061094649    0.28677457   
     62160   0.86584867     158.5          158.5          158.5          0.15219422     0.23610173     0.056757925    0.16372299     0.86584867   
     62180   1.177079       158.5          158.5          158.5         -0.098291312   -0.0058362977  -0.19478927    -0.094248362    1.177079     
     62200   0.68212644     158.5          158.5          158.5          0.071810317   -0.019111496    0.20590696     0.028635488    0.68212644   
     62220   0.40669885     158.5          158.5          158.5          0.021456643    0.016095496    0.017139731    0.031134704    0.40669885   
     62240   0.25880957     158.5          158.5          158.5         -0.048522188    0.043327704   -0.18317103    -0.0057232362   0.25880957   
     62260   0.45650822     158.5          158.5          158.5          0.14196087     0.10816986     0.23102378     0.086688977    0.45650822   
     62280   0.9435863      158.5          158.5          158.5         -0.059199905   -0.14490884    -0.0018834044  -0.030807466    0.9435863    
     62300   0.64436257     158.5          158.5          158.5          0.033765707    0.087858457   -0.031885723    0.045324387    0.64436257   
     62320   0.45695456     158.5          158.5          158.5          0.12583199     0.14024539     0.13321468     0.10403589     0.45695456   
     62340   0.5981331      158.5          158.5          158.5         -0.1379718     -0.20051534    -0.10582654    -0.10757353     0.5981331    
     62360   0.23458193     158.5          158.5          158.5          0.062400789    0.1707526      0.043832822   -0.027383052    0.23458193   
     62380   0.60180628     158.5          158.5          158.5          0.025845289    0.079359882    0.02263729    -0.024461306    0.60180628   
     62400   1.2496942      158.5          158.5          158.5         -0.097921582   -0.19622138    -0.11086814     0.013324772    1.2496942    
     62420   0.81161265     158.5          158.5          158.5          0.1818934      0.31598797     0.054183565    0.17550868     0.81161265   
     62440   0.79128114     158.5          158.5          158.5         -0.070695166    0.092096526   -0.0151101     -0.28907192     0.79128114   
     62460   0.43785008     158.5          158.5          158.5         -0.13097586    -0.19181598     0.021957903   -0.22306949     0.43785008   
     62480   0.63529774     158.5          158.5          158.5          0.11202241     0.27643209     0.081294696   -0.021659559    0.63529774   
     62500   2.0125089      158.5          158.5          158.5         -0.094624377    0.068570513   -0.0056282928  -0.34681535     2.0125089    
     62520   1.081535       158.5          158.5          158.5          0.17472506     0.13553245     0.028026225    0.3606165      1.081535     
     62540   0.9710789      158.5          158.5          158.5          0.050739286   -0.019528173    0.026997576    0.14474846     0.9710789    
     62560   1.4833187      158.5          158.5          158.5         -0.11916622     0.039155448    0.04454236    -0.44119648     1.4833187    
     62580   0.17174422     158.5          158.5          158.5          0.17056263     0.18328155     0.054852411    0.27355394     0.17174422   
     62600   0.52136517     158.5          158.5          158.5          0.038301351   -0.17291262     0.033639027    0.25417765     0.52136517   
     62620   0.94484381     158.5          158.5          158.5          0.0050268782   0.0654432     -0.0071047103  -0.043257855    0.94484381   
     62640   0.72952201     158.5          158.5          158.5          0.10491921     0.20926679     0.024340846    0.081149999    0.72952201   
     62660   0.83339441     158.5          158.5          158.5         -0.10667017    -0.17341617    -0.023219447   -0.12337489     0.83339441   
     62680   0.22727489     158.5          158.5          158.5          0.080214973    0.084965417    0.036457729    0.11922177     0.22727489   
     62700   0.2041202      158.5          158.5          158.5          0.055129516    0.13492205     0.031399687   -0.00093319483  0.2041202    
     62720   0.92016217     158.5          158.5          158.5         -0.15689751    -0.081002126   -0.088424077   -0.30126633     0.92016217   
     62740   0.61168094     158.5          158.5          158.5          0.083828186    0.078952631    0.029178047    0.14335388     0.61168094   
     62760   0.71006073     158.5          158.5          158.5          0.021512294    0.031904721   -0.055001579    0.087633738    0.71006073   
     62780   0.80127239     158.5          158.5          158.5         -0.073289877   -0.037468275   -0.056242791   -0.12615856     0.80127239   
     62800   0.2811226      158.5          158.5          158.5          0.045924193    0.082573715    0.11164618    -0.056447317    0.2811226    
     62820   0.41792879     158.5          158.5          158.5         -0.11162549     0.064306442   -0.17050503    -0.22867787     0.41792879   
     62840   0.81840383     158.5          158.5          158.5          0.049333408    0.031524882    0.01876893     0.097706412    0.81840383   
     62860   0.97000931     158.5          158.5          158.5          0.13241236     0.032437971    0.21454926     0.15024985     0.97000931   
     62880   1.0642727      158.5          158.5          158.5         -0.068748531    0.05711284    -0.17254373    -0.090814702    1.0642727    
     62900   0.487858       158.5          158.5          158.5          0.10687924     0.079879625    0.1022549      0.13850321     0.487858     
     62920   0.34677727     158.5          158.5          158.5          0.0043671174   0.088858063    0.15854231    -0.23429902     0.34677727   
     62940   1.1489897      158.5          158.5          158.5         -0.021518916    0.059705801   -0.012197185   -0.11206537     1.1489897    
     62960   1.0232534      158.5          158.5          158.5          0.21031693     0.071573766    0.087162712    0.4722143      1.0232534    
     62980   0.85632574     158.5          158.5          158.5         -0.099678542    0.02665455    -0.067184857   -0.25850532     0.85632574   
     63000   1.4265533      158.5          158.5          158.5         -0.038167497    0.061920657    0.090815052   -0.2672382      1.4265533    
     63020   0.56163382     158.5          158.5          158.5          0.15949452     0.15852744     0.020415955    0.29954017     0.56163382   
     63040   0.2727007      158.5          158.5          158.5         -0.076729623   -0.032899849   -0.11608057    -0.081208453    0.2727007    
     63060   0.64850129     158.5          158.5          158.5          0.064457518    0.038630047    0.16617261    -0.011430105    0.64850129   
     63080   0.63326943     158.5          158.5          158.5         -0.026850336    0.080989288   -0.11813801    -0.04340229     0.63326943   
     63100   0.75741208     158.5          158.5          158.5         -0.069051497   -0.041506378   -0.13013237    -0.035515741    0.75741208   
     63120   0.47019225     158.5          158.5          158.5          0.11967139     0.025927072    0.20437022     0.12871688     0.47019225   
     63140   0.083831795    158.5          158.5          158.5         -0.058487072   -0.0044950554  -0.12309849    -0.047867671    0.083831795  
     63160   0.37115513     158.5          158.5          158.5         -0.066841751    0.060272688   -0.19020211    -0.070595826    0.37115513   
     63180   0.3317314      158.5          158.5          158.5          0.042391514    0.0031965937   0.11298263     0.010995316    0.3317314    
     63200   0.45482025     158.5          158.5          158.5         -0.049805016   -0.11951887    -0.019109913   -0.010786271    0.45482025   
     63220   0.61275763     158.5          158.5          158.5          0.10491059     0.19464233     0.034951792    0.085137637    0.61275763   
     63240   0.20400158     158.5          158.5          158.5         -0.0045595602  -0.022617247    0.027073867   -0.0181353      0.20400158   
     63260   0.19768749     158.5          158.5          158.5         -0.13117587    -0.21740475    -0.099801839   -0.07632103     0.19768749   
     63280   0.45042005     158.5          158.5          158.5          0.13495891     0.26954132     0.082306281    0.053029119    0.45042005   
     63300   0.6003298      158.5          158.5          158.5          0.019969745   -0.005813657    0.053680174    0.01204272     0.6003298    
     63320   1.0641274      158.5          158.5          158.5         -0.011493127   -0.20691882     0.098664813    0.073774621    1.0641274    
     63340   0.77725119     158.5          158.5          158.5          0.11741303     0.24880419     0.079402769    0.024032146    0.77725119   
     63360   0.31383541     158.5          158.5          158.5         -0.10228932    -0.045254645   -0.18366502    -0.077948285    0.31383541   
     63380   0.88555338     158.5          158.5          158.5          0.1043062     -0.066813576    0.25801905     0.12171312     0.88555338   
     63400   0.72365927     158.5          158.5          158.5          0.06432408     0.10069027     0.069597045    0.022684922    0.72365927   
     63420   0.92746195     158.5          158.5          158.5         -0.11112741     0.094734803   -0.35606639    -0.072050631    0.92746195   
     63440   1.6703257      158.5          158.5          158.5          0.093861803    0.013377407    0.18120238     0.087005623    1.6703257    
     63460   0.99535155     158.5          158.5          158.5         -0.056953382   -0.099287199   -0.020438076   -0.051134873    0.99535155   
     63480   0.50501117     158.5          158.5          158.5         -0.0038585759   0.22024722    -0.15563742    -0.076185531    0.50501117   
     63500   0.34695441     158.5          158.5          158.5          0.080633558    0.14015929    -0.0055154875   0.10725687     0.34695441   
     63520   0.79256032     158.5          158.5          158.5         -0.23079716    -0.16554024    -0.38660191    -0.14024933     0.79256032   
     63540   1.2724656      158.5          158.5          158.5          0.089098474    0.11263076     0.081287254    0.07337741     1.2724656    
     63560   1.0312736      158.5          158.5          158.5          0.18466414     0.17049983     0.31115961     0.072332975    1.0312736    
     63580   0.62464702     158.5          158.5          158.5         -0.069306519    0.0055138954  -0.013833      -0.19960045     0.62464702   
     63600   0.77093186     158.5          158.5          158.5          0.043540186    0.01111056    -0.067089227    0.18659922     0.77093186   
     63620   0.34455441     158.5          158.5          158.5         -0.033935534   -0.0088611859  -0.17039129     0.077445871    0.34455441   
     63640   0.45152356     158.5          158.5          158.5          0.035267341    0.085014346    0.15368881    -0.13290114     0.45152356   
     63660   0.89690111     158.5          158.5          158.5          0.17066554     0.12670143     0.30618238     0.079112807    0.89690111   
     63680   0.70290939     158.5          158.5          158.5         -0.067232445   -0.028008792   -0.18120426     0.0075157133   0.70290939   
     63700   0.38491125     158.5          158.5          158.5         -0.0243075      0.020961616   -0.085212377   -0.00867174     0.38491125   
     63720   0.22404747     158.5          158.5          158.5          0.049728906    0.086134716    0.089232015   -0.026180013    0.22404747   
     63740   0.24773642     158.5          158.5          158.5         -0.040276584   -0.11338175    -0.0021603542  -0.0052876508   0.24773642   
     63760   0.56626441     158.5          158.5          158.5          0.054072288    0.03994456     0.02570928     0.096563024    0.56626441   
     63780   0.6658357      158.5          158.5          158.5         -0.07873571     0.030493684   -0.18212413    -0.084576687    0.6658357    
     63800   0.32864408     158.5          158.5          158.5         -0.065170432   -0.13356622    -0.07169972     0.0097546425   0.32864408   
     63820   0.4187371      158.5          158.5          158.5          0.1031503      0.018957023    0.15324188     0.13725199     0.4187371    
     63840   0.27918777     158.5          158.5          158.5         -0.080102622   -0.015727632   -0.097376024   -0.12720421     0.27918777   
     63860   0.31130737     158.5          158.5          158.5         -0.034731551   -0.0095394285  -0.099439878    0.0047846529   0.31130737   
     63880   0.97029655     158.5          158.5          158.5          0.080415676    0.052039078    0.07180696     0.11740099     0.97029655   
     63900   0.89658106     158.5          158.5          158.5         -0.039394895    0.026279542    0.0034205782  -0.14788481     0.89658106   
     63920   0.5657187      158.5          158.5          158.5          0.1582767      0.20607309     0.19325877     0.07549824     0.5657187    
     63940   0.57025806     158.5          158.5          158.5          0.0019964798  -0.058490326   -0.03207218     0.096551946    0.57025806   
     63960   0.34176812     158.5          158.5          158.5         -0.13730016    -0.052637166   -0.25125696    -0.10800636     0.34176812   
     63980   1.2640879      158.5          158.5          158.5          0.16805733     0.40296748     0.013144874    0.088059629    1.2640879    
     64000   1.5657815      158.5          158.5          158.5          0.087878765   -0.046632821    0.22212565     0.088143464    1.5657815    
     64020   0.70381242     158.5          158.5          158.5          0.051226365    0.027413391    0.092279744    0.03398596     0.70381242   
     64040   1.4383962      158.5          158.5          158.5          0.020936017    0.20714804    -0.1549653      0.010625312    1.4383962    
     64060   0.59699981     158.5          158.5          158.5         -0.16276395    -0.12343427    -0.16889678    -0.1959608      0.59699981   
     64080   0.35427366     158.5          158.5          158.5          0.18999735     0.084036752    0.34152084     0.14443446     0.35427366   
     64100   1.0789417      158.5          158.5          158.5          0.048010074    0.14075339    -0.057981529    0.061258365    1.0789417    
     64120   1.016527       158.5          158.5          158.5         -0.15822357    -0.081751879   -0.15380991    -0.23910894     1.016527     
     64140   0.98072604     158.5          158.5          158.5          0.079376707    0.016345857    0.28611375    -0.06432949     0.98072604   
     64160   0.5320336      158.5          158.5          158.5         -0.034037214    0.030017851   -0.15098524     0.018855747    0.5320336    
     64180   0.088143588    158.5          158.5          158.5          0.024194767    0.052429053   -0.098547688    0.11870294     0.088143588  
     64200   0.63424793     158.5          158.5          158.5          0.075588159    0.044965216    0.25058807    -0.06878881     0.63424793   
     64220   0.81520112     158.5          158.5          158.5         -0.16468804    -0.0069074603  -0.18180305    -0.30535361     0.81520112   
     64240   0.56373075     158.5          158.5          158.5          0.076353509    0.0099179792  -0.028736651    0.2478792      0.56373075   
     64260   0.71607125     158.5          158.5          158.5          0.10584746     0.026998914    0.17136207     0.11918139     0.71607125   
     64280   0.35925074     158.5          158.5          158.5         -0.08793463     0.026615971   -0.049714298   -0.24070556     0.35925074   
     64300   0.27985396     158.5          158.5          158.5          0.027817968    0.049216611   -0.025322653    0.059559947    0.27985396   
     64320   0.60115173     158.5          158.5          158.5         -0.051789576    0.028021578   -0.073109948   -0.11028036     0.60115173   
     64340   0.88721023     158.5          158.5          158.5          0.07956557     0.030333799    0.10836077     0.10000214     0.88721023   
     64360   0.93085443     158.5          158.5          158.5          0.19878441     0.03827037     0.03186575     0.52621711     0.93085443   
     64380   0.89693736     158.5          158.5          158.5         -0.15003767     0.035609939   -0.23494228    -0.25078065     0.89693736   
     64400   0.38097135     158.5          158.5          158.5          0.047898673    0.20972681     0.23443356    -0.30046435     0.38097135   
     64420   1.0269986      158.5          158.5          158.5          0.095888558    0.11180531     0.045228046    0.13063232     1.0269986    
     64440   1.9530553      158.5          158.5          158.5         -0.052272047   -0.07425702    -0.12860276     0.046043639    1.9530553    
     64460   0.98090587     158.5          158.5          158.5          0.21623215     0.22053343     0.20851629     0.21964673     0.98090587   
     64480   1.6289899      158.5          158.5          158.5         -0.13824792     0.092252922   -0.047777949   -0.45921874     1.6289899    
     64500   1.3054089      158.5          158.5          158.5         -0.093096757    0.028916467   -0.064553614   -0.24365312     1.3054089    
     64520   0.28980116     158.5          158.5          158.5          0.22468272     0.14631023     0.08655927     0.44117866     0.28980116   
     64540   0.57107968     158.5          158.5          158.5         -0.08228575    -0.15438749     0.030066421   -0.12253618     0.57107968   
     64560   0.83972069     158.5          158.5          158.5         -0.07035001     0.081244339    0.027766362   -0.32006073     0.83972069   
     64580   0.8706368      158.5          158.5          158.5          0.012108455    0.1074693      0.0054198492  -0.07656379     0.8706368    
     64600   0.989292       158.5          158.5          158.5         -0.016366839   -0.13223286    -0.0025789702   0.085711315    0.989292     
     64620   0.26372644     158.5          158.5          158.5          0.19320031     0.17977604     0.0378007      0.36202418     0.26372644   
     64640   0.4784107      158.5          158.5          158.5         -0.082365243    0.042770057    0.011912025   -0.30177781     0.4784107    
     64660   0.82518666     158.5          158.5          158.5         -0.098978833   -0.028565593    0.0037040289  -0.27207493     0.82518666   
     64680   0.41230238     158.5          158.5          158.5          0.19597395     0.21814679     0.020102186    0.34967287     0.41230238   
     64700   1.0798285      158.5          158.5          158.5          0.052214767    0.029215742   -0.028576173    0.15600473     1.0798285    
     64720   0.68107912     158.5          158.5          158.5          0.058629944    0.070879241    0.067150472    0.037860118    0.68107912   
     64740   0.3153102      158.5          158.5          158.5         -0.019032759    0.072203509    0.047544545   -0.17684633     0.3153102    
     64760   0.50962532     158.5          158.5          158.5         -0.17471678    -0.050319997   -0.14797424    -0.32585611     0.50962532   
     64780   0.58729167     158.5          158.5          158.5          0.17699861     0.09185521     0.163366       0.27577461     0.58729167   
     64800   1.0400375      158.5          158.5          158.5          0.047939504   -0.061645027    0.097255991    0.10820755     1.0400375    
     64820   1.3027105      158.5          158.5          158.5         -0.16046291     0.040243265   -0.26323478    -0.25839723     1.3027105    
     64840   0.4817097      158.5          158.5          158.5          0.0468556      0.13484528     0.087608444   -0.081886924    0.4817097    
     64860   1.0117216      158.5          158.5          158.5         -0.046012533   -0.15005437     0.11939728    -0.10738051     1.0117216    
     64880   1.2381658      158.5          158.5          158.5          0.069066922    0.15310433    -0.1012443      0.15534074     1.2381658    
     64900   0.68139297     158.5          158.5          158.5          0.13133741     0.18954926     0.026404715    0.17805825     0.68139297   
     64920   1.9770415      158.5          158.5          158.5         -0.21343982    -0.11632848    -0.091726707   -0.43226427     1.9770415    
     64940   1.7002526      158.5          158.5          158.5          0.16541482     0.18225697     0.14170717     0.17228033     1.7002526    
     64960   1.2266984      158.5          158.5          158.5          0.17953847     0.29252233    -0.085502819    0.3315959      1.2266984    
     64980   0.61514362     158.5          158.5          158.5         -0.019482772    0.10585221    -0.035657527   -0.128643       0.61514362   
     65000   0.33933646     158.5          158.5          158.5          0.10018133     0.041340123    0.13208046     0.1271234      0.33933646   
     65020   0.59013449     158.5          158.5          158.5         -0.11571416    -0.13622885    -0.24139775     0.030484126    0.59013449   
     65040   0.69811676     158.5          158.5          158.5          0.059250605    0.11466158     0.037855543    0.025234695    0.69811676   
     65060   0.59529924     158.5          158.5          158.5          0.21409202     0.28383352     0.27649565     0.08194689     0.59529924   
     65080   0.49239631     158.5          158.5          158.5         -0.16459116    -0.1784889     -0.17506649    -0.1402181      0.49239631   
     65100   0.51916894     158.5          158.5          158.5         -0.069689712   -0.16370937    -0.1329716      0.087611837    0.51916894   
     65120   0.11887386     158.5          158.5          158.5          0.059931339    0.087408178    0.079449979    0.012935859    0.11887386   
     65140   0.62915038     158.5          158.5          158.5         -0.016388264    0.091986307    0.036829029   -0.17798013     0.62915038   
     65160   0.7286747      158.5          158.5          158.5          0.12146056     0.12805297     0.11521748     0.12111124     0.7286747    
     65180   0.62460046     158.5          158.5          158.5         -0.13889043    -0.19218625    -0.17183241    -0.052652628    0.62460046   
     65200   0.42211806     158.5          158.5          158.5         -0.072735638   -0.085426461   -0.084559695   -0.048220757    0.42211806   
     65220   0.32865174     158.5          158.5          158.5          0.20357511     0.28578799     0.21519024     0.1097471      0.32865174   
     65240   0.61637224     158.5          158.5          158.5         -0.072127497   -0.036787652   -0.036326373   -0.14326847     0.61637224   
     65260   1.247674       158.5          158.5          158.5          0.0097558591  -0.024881974   -0.08307375     0.1372233      1.247674     
     65280   0.73311142     158.5          158.5          158.5          0.0081437201  -0.047704225   -0.012654551    0.084789936    0.73311142   
     65300   1.0636846      158.5          158.5          158.5         -0.078142025   -0.039134017   -0.019468874   -0.17582319     1.0636846    
     65320   1.1636356      158.5          158.5          158.5          0.29727143     0.55743679     0.18522113     0.14915637     1.1636356    
     65340   0.1159058      158.5          158.5          158.5         -0.033724032   -0.12926761    -0.018980108    0.047075625    0.1159058    
     65360   0.94000679     158.5          158.5          158.5         -0.17335805    -0.41025918    -0.051848705   -0.057966281    0.94000679   
     65380   1.1239906      158.5          158.5          158.5          0.19532622     0.41433511     0.10791825     0.06372529     1.1239906    
     65400   1.0667785      158.5          158.5          158.5          0.029136373    0.1838985     -0.12701577     0.030526396    1.0667785    
     65420   0.84081493     158.5          158.5          158.5          0.085635905   -0.030400696    0.22527503     0.062033387    0.84081493   
     65440   0.35960163     158.5          158.5          158.5          0.018570624    0.032130975    0.011481176    0.012099721    0.35960163   
     65460   0.35443973     158.5          158.5          158.5         -0.17567712    -0.21395276    -0.26440658    -0.048672024    0.35443973   
     65480   0.70069445     158.5          158.5          158.5          0.15440896     0.15369171     0.24680259     0.062732565    0.70069445   
     65500   0.47976231     158.5          158.5          158.5          0.056945233    0.13480922    -0.0016581781   0.037684658    0.47976231   
     65520   0.48358714     158.5          158.5          158.5         -0.081695913    0.013639228   -0.20941102    -0.049315951    0.48358714   
     65540   0.56190576     158.5          158.5          158.5         -0.0035896535  -0.087199987    0.097908742   -0.021477715    0.56190576   
     65560   0.081663855    158.5          158.5          158.5         -0.096346398   -0.16437773    -0.083718449   -0.040943019    0.081663855  
     65580   0.36827261     158.5          158.5          158.5          0.074313389    0.29827678    -0.067094989   -0.0082416285   0.36827261   
     65600   0.4622672      158.5          158.5          158.5          0.064782667    0.12254067     0.020114801    0.051692533    0.4622672    
     65620   0.59227155     158.5          158.5          158.5         -0.19190196    -0.40463374    -0.087696957   -0.083375173    0.59227155   
     65640   0.50109308     158.5          158.5          158.5          0.085512411    0.20807725     0.039450751    0.0090092276   0.50109308   
     65660   0.23046072     158.5          158.5          158.5          0.09818769     0.18410238     0.040521172    0.06993952     0.23046072   
     65680   0.23466476     158.5          158.5          158.5         -0.026605312   -0.22230096     0.051196492    0.091288529    0.23466476   
     65700   0.73705903     158.5          158.5          158.5          0.076956638    0.11601526     0.048075871    0.066778779    0.73705903   
     65720   0.66283734     158.5          158.5          158.5         -0.09364852    -0.026752207   -0.10346675    -0.15072661     0.66283734   
     65740   0.57829066     158.5          158.5          158.5          0.088409675   -0.034424012    0.074397537    0.2252555      0.57829066   
     65760   0.74241368     158.5          158.5          158.5          0.20032933     0.1825431      0.099142473    0.31930242     0.74241368   
     65780   0.37231135     158.5          158.5          158.5         -0.13473703     0.0025410366  -0.035159485   -0.37159264     0.37231135   
     65800   0.47437884     158.5          158.5          158.5         -0.032536605   -0.051332134   -0.0017595517  -0.04451813     0.47437884   
     65820   0.8217476      158.5          158.5          158.5          0.021022431   -0.07855922     0.01674587     0.12488064     0.8217476    
     65840   1.1249715      158.5          158.5          158.5          0.009179612    0.20347976     0.045024038   -0.22096497     1.1249715    
     65860   0.89819792     158.5          158.5          158.5          0.17064467     0.30786049     0.030224552    0.17384896     0.89819792   
     65880   0.75436505     158.5          158.5          158.5         -0.23129614    -0.30041032    -0.038626876   -0.35485123     0.75436505   
     65900   0.27772415     158.5          158.5          158.5         -0.12126971     0.08003438     0.09314772    -0.53699122     0.27772415   
     65920   1.0840267      158.5          158.5          158.5          0.19923067     0.33863926     0.096666808    0.16238594     1.0840267    
     65940   1.127149       158.5          158.5          158.5         -0.020369046   -0.10010021    -0.19081184     0.22980491     1.127149     
     65960   0.61213016     158.5          158.5          158.5          0.094896817    0.059688149    0.092502447    0.13249985     0.61213016   
     65980   1.2780393      158.5          158.5          158.5         -0.0054952497   0.069194751    0.1537725     -0.239453       1.2780393    
     66000   0.45678933     158.5          158.5          158.5         -0.090952138   -0.049578267   -0.15107808    -0.072200067    0.45678933   
     66020   0.32551937     158.5          158.5          158.5          0.25788955     0.1278385      0.10049462     0.54533554     0.32551937   
     66040   0.48589622     158.5          158.5          158.5         -0.014760509    0.027496724   -0.003562172   -0.06821608     0.48589622   
     66060   0.56687367     158.5          158.5          158.5         -0.11959825    -0.032819336   -0.0058126344  -0.32016277     0.56687367   
     66080   0.57764549     158.5          158.5          158.5          0.089377036    0.037708751    0.12489859     0.10552377     0.57764549   
     66100   0.4398861      158.5          158.5          158.5         -0.0071039813   0.029900733   -0.1522293      0.10101662     0.4398861    
     66120   0.047487755    158.5          158.5          158.5          0.069470328    0.031349648    0.026457691    0.15060365     0.047487755  
     66140   0.43239539     158.5          158.5          158.5         -0.047174563    0.0020642968   0.051655778   -0.19524376     0.43239539   
     66160   0.41317055     158.5          158.5          158.5         -0.16051213    -0.0041646921  -0.11075317    -0.36661853     0.41317055   
     66180   0.42203407     158.5          158.5          158.5          0.16684217     0.023569846    0.11075074     0.36620594     0.42203407   
     66200   0.55850406     158.5          158.5          158.5          0.027341556    0.014905651   -0.076268892    0.14338791     0.55850406   
     66220   0.21942512     158.5          158.5          158.5         -0.10704298     0.013461569   -0.072100391   -0.26249012     0.21942512   
     66240   0.34874659     158.5          158.5          158.5          0.030351427    0.029310386    0.16688328    -0.10513938     0.34874659   
     66260   0.45402077     158.5          158.5          158.5         -0.088421405    0.031387112   -0.12515382    -0.17149751     0.45402077   
     66280   0.74279983     158.5          158.5          158.5          0.15747389     0.06361807     0.033326255    0.37547734     0.74279983   
     66300   0.7745406      158.5          158.5          158.5          0.14379853     0.022285522    0.10406187     0.30504819     0.7745406    
     66320   0.80920257     158.5          158.5          158.5         -0.2396585     -0.017561058   -0.12016092    -0.58125351     0.80920257   
     66340   0.26732023     158.5          158.5          158.5          0.056351496    0.12540995     0.1261945     -0.082549962    0.26732023   
     66360   0.64606427     158.5          158.5          158.5          0.0746298      0.050132052   -0.026073239    0.19983059     0.64606427   
     66380   0.84720651     158.5          158.5          158.5          0.029235007   -0.0017633534  -0.049676304    0.13914468     0.84720651   
     66400   0.68866271     158.5          158.5          158.5          0.10209096     0.091405277    0.22617254    -0.011304941    0.68866271   
     66420   1.1580593      158.5          158.5          158.5         -0.20141899    -0.00036405936 -0.15587792    -0.44801499     1.1580593    
     66440   0.67984251     158.5          158.5          158.5          0.10539019     0.14776419    -0.040306384    0.20871276     0.67984251   
     66460   0.32578165     158.5          158.5          158.5          0.23043751     0.047003723    0.24086814     0.40344067     0.32578165   
     66480   0.46477567     158.5          158.5          158.5         -0.13724504    -0.16478058    -0.010637962   -0.23631659     0.46477567   
     66500   0.93447505     158.5          158.5          158.5          0.023081983    0.31295225    -0.053963271   -0.18974303     0.93447505   
     66520   0.76548371     158.5          158.5          158.5         -0.0022758087  -0.0073478404  -0.021287135    0.021807549    0.76548371   
     66540   1.0052233      158.5          158.5          158.5          0.015390966   -0.23392828     0.083842101    0.19625908     1.0052233    
     66560   0.29891248     158.5          158.5          158.5          0.19069134     0.35730431     0.11755442     0.097215298    0.29891248   
     66580   0.73500684     158.5          158.5          158.5         -0.22993194    -0.034358155   -0.26715645    -0.38828121     0.73500684   
     66600   0.66867444     158.5          158.5          158.5         -0.10177533    -0.11970033    -0.10860654    -0.077019109    0.66867444   
     66620   0.49850017     158.5          158.5          158.5          0.18363026     0.20292271     0.19897452     0.14899354     0.49850017   
     66640   1.0344748      158.5          158.5          158.5         -0.014105204   -0.0061187295   0.047907948   -0.08410483     1.0344748    
     66660   0.68733973     158.5          158.5          158.5          0.01176239    -0.021147725   -0.013613347    0.070048242    0.68733973   
     66680   0.3466262      158.5          158.5          158.5         -0.091579264    0.0044736584  -0.20355386    -0.075657589    0.3466262    
     66700   0.36641821     158.5          158.5          158.5         -0.033450668    0.050394565   -0.0094041186  -0.14134245     0.36641821   
     66720   0.57009022     158.5          158.5          158.5          0.26961003     0.12394528     0.33928699     0.34559781     0.57009022   
     66740   0.7157321      158.5          158.5          158.5         -0.037938376   -0.063665987   -0.093696312    0.043547171    0.7157321    
     66760   0.93543681     158.5          158.5          158.5         -0.06383036     0.025869195   -0.11620485    -0.10115543     0.93543681   
     66780   0.25376756     158.5          158.5          158.5          0.13828762     0.070057022    0.12138484     0.223421       0.25376756   
     66800   0.6727546      158.5          158.5          158.5         -0.0047114442  -0.015841727   -0.01322731     0.014934704    0.6727546    
     66820   0.54095618     158.5          158.5          158.5          0.13323692     0.13004513     0.20755729     0.062108343    0.54095618   
     66840   0.5256984      158.5          158.5          158.5         -0.037263776    0.021121642   -0.10475265    -0.028160316    0.5256984    
     66860   1.1971758      158.5          158.5          158.5         -0.23543856    -0.13291856    -0.44419401    -0.12920313     1.1971758    
     66880   0.95136222     158.5          158.5          158.5          0.19498004     0.10022988     0.35615524     0.128555       0.95136222   
     66900   0.60011265     158.5          158.5          158.5          0.04490117     0.086588373    0.2348632     -0.18674806     0.60011265   
     66920   0.41263066     158.5          158.5          158.5         -0.1361493      0.039456149   -0.34669846    -0.10120559     0.41263066   
     66940   0.79190289     158.5          158.5          158.5         -0.026577545    0.069271958   -0.25863232     0.10962773     0.79190289   
     66960   1.1749216      158.5          158.5          158.5         -0.10746702    -0.2575451     -0.020715425   -0.044140525    1.1749216    
     66980   1.4263959      158.5          158.5          158.5          0.23684402     0.27602425     0.40430257     0.030205252    1.4263959    
     67000   0.48726369     158.5          158.5          158.5          0.15970509     0.31538875     0.12971749     0.034009045    0.48726369   
     67020   1.0698055      158.5          158.5          158.5         -0.25100907    -0.250851      -0.51972239     0.017546193    1.0698055    
     67040   0.53073985     158.5          158.5          158.5          0.10789226     0.19290649     0.057113483    0.073656794    0.53073985   
     67060   0.4321175      158.5          158.5          158.5          0.093038895    0.18457004     0.086331409    0.0082152312   0.4321175    
     67080   0.72467947     158.5          158.5          158.5          0.072651522    0.023108417    0.1891692      0.0056769442   0.72467947   
     67100   0.70338663     158.5          158.5          158.5          0.1066883      0.16653366     0.13818251     0.015348721    0.70338663   
     67120   0.50430829     158.5          158.5          158.5         -0.19531534    -0.070938124   -0.50154621    -0.013461675    0.50430829   
     67140   0.20504383     158.5          158.5          158.5          0.070402628    0.063196316    0.11777369     0.03023788     0.20504383   
     67160   0.34653507     158.5          158.5          158.5          0.16097798     0.01182154     0.43735975     0.033752654    0.34653507   
     67180   0.46778852     158.5          158.5          158.5         -0.16104627    -0.16271721    -0.30884903    -0.011572573    0.46778852   
     67200   0.83297157     158.5          158.5          158.5         -0.019454165    0.095952518   -0.16760488     0.013289864    0.83297157   
     67220   0.33396253     158.5          158.5          158.5         -0.007441246   -0.10424923     0.12223145    -0.040305965    0.33396253   
     67240   0.46429921     158.5          158.5          158.5          0.010284333   -0.063672256    0.073395284    0.02112997     0.46429921   
     67260   0.47918976     158.5          158.5          158.5          0.14020596     0.21026509     0.12013478     0.090218013    0.47918976   
     67280   0.49257615     158.5          158.5          158.5         -0.20753909    -0.22647565    -0.28302609    -0.11311552     0.49257615   
     67300   0.69701105     158.5          158.5          158.5         -0.018163451   -0.042290417    0.013766178   -0.025966113    0.69701105   
     67320   0.98170217     158.5          158.5          158.5          0.1905866      0.2839747      0.13264934     0.15513576     0.98170217   
     67340   0.57551756     158.5          158.5          158.5         -0.014788026   -0.03598653     0.018833423   -0.027210971    0.57551756   
     67360   0.44907701     158.5          158.5          158.5          0.059688937    0.011294413    0.1736508     -0.0058783968   0.44907701   
     67380   0.5179972      158.5          158.5          158.5         -0.13884732     0.0053819766  -0.38941524    -0.03250869     0.5179972    
     67400   0.52607986     158.5          158.5          158.5         -0.040082464    0.060271443   -0.14089176    -0.039627081    0.52607986   
     67420   1.4120919      158.5          158.5          158.5          0.34783798     0.17374656     0.61568374     0.25408365     1.4120919    
     67440   0.50727276     158.5          158.5          158.5         -0.048258651    0.034121646   -0.2032315      0.024333902    0.50727276   
     67460   0.77353344     158.5          158.5          158.5         -0.14425139    -0.020617025   -0.33040781    -0.081729338    0.77353344   
     67480   0.66308683     158.5          158.5          158.5          0.086262962    0.091523153    0.21997117    -0.052705441    0.66308683   
     67500   0.52818585     158.5          158.5          158.5          0.0078510997   0.059370799    0.017646438   -0.053463938    0.52818585   
     67520   0.74337106     158.5          158.5          158.5          0.18974064     0.072599887    0.006620188    0.49000184     0.74337106   
     67540   0.96534141     158.5          158.5          158.5         -0.037672891    0.063117129   -0.024815891   -0.15131991     0.96534141   
     67560   0.77038858     158.5          158.5          158.5         -0.20077732     0.0051733625  -0.079292392   -0.52821293     0.77038858   
     67580   0.51877777     158.5          158.5          158.5          0.20080368     0.069012383    0.098294295    0.43510438     0.51877777   
     67600   0.31350414     158.5          158.5          158.5          0.032264683   -0.015197436    0.021137819    0.090853667    0.31350414   
     67620   0.53476647     158.5          158.5          158.5         -0.082709021    0.099590505    0.016426501   -0.36414407     0.53476647   
     67640   1.0997215      158.5          158.5          158.5         -0.037905837    0.078043129   -0.011795662   -0.17996498     1.0997215    
     67660   0.51763674     158.5          158.5          158.5         -0.11693475    -0.15392468    -0.034986502   -0.16189307     0.51763674   
     67680   0.74535883     158.5          158.5          158.5          0.16564646     0.19967345     0.089755813    0.20751011     0.74535883   
     67700   0.38422561     158.5          158.5          158.5          0.038364185    0.049450509    0.024440302    0.041201745    0.38422561   
     67720   0.45494146     158.5          158.5          158.5         -0.23203013    -0.176346      -0.053175691   -0.46656869     0.45494146   
     67740   0.41985498     158.5          158.5          158.5          0.11118006     0.23907648     0.025572644    0.06889105     0.41985498   
     67760   0.67793829     158.5          158.5          158.5          0.095407597   -0.03497582     0.036349003    0.28484961     0.67793829   
     67780   0.45098213     158.5          158.5          158.5          0.059427503   -0.13896185     0.019963763    0.2972806      0.45098213   
     67800   0.36501826     158.5          158.5          158.5          0.074977475    0.19499217     0.014833437    0.015106817    0.36501826   
     67820   0.34598598     158.5          158.5          158.5         -0.1515332     -0.0063072893  -0.004085357   -0.44420697     0.34598598   
     67840   0.20665779     158.5          158.5          158.5          0.10377297     0.014290783    0.043907553    0.25312056     0.20665779   
     67860   0.67836733     158.5          158.5          158.5          0.17138049     0.038672534    0.02555415     0.44991478     0.67836733   
     67880   0.50755965     158.5          158.5          158.5         -0.099981533   -0.044374493   -0.057582312   -0.19798779     0.50755965   
     67900   0.53726025     158.5          158.5          158.5         -0.027224803    0.1240006      0.037691802   -0.24336681     0.53726025   
     67920   0.48055221     158.5          158.5          158.5         -0.083216007   -0.075084043    0.017685466   -0.19224944     0.48055221   
     67940   0.47775473     158.5          158.5          158.5          0.024183668   -0.053628106   -0.019588519    0.14576763     0.47775473   
     67960   0.48960268     158.5          158.5          158.5          0.16249444     0.17106555     0.036831205    0.27958656     0.48960268   
     67980   1.3608659      158.5          158.5          158.5         -0.31279774    -0.055002133   -0.07610444    -0.80728664     1.3608659    
     68000   0.87798363     158.5          158.5          158.5         -0.050262327    0.063218924    0.079956677   -0.29396258     0.87798363   
     68020   0.75730784     158.5          158.5          158.5          0.22370683     0.11303209     0.084110739    0.47397766     0.75730784   
     68040   0.5494948      158.5          158.5          158.5         -0.012625934    0.06555338    -0.24233897     0.13890779     0.5494948    
     68060   0.52761147     158.5          158.5          158.5          0.10512177     0.15747883     0.18841584    -0.030529344    0.52761147   
     68080   1.3200477      158.5          158.5          158.5         -0.082648534    0.082768118    0.058755552   -0.38946927     1.3200477    
     68100   0.68734421     158.5          158.5          158.5          0.029664388    0.090058377   -0.23303432     0.23196911     0.68734421   
     68120   1.0357765      158.5          158.5          158.5          0.36701759     0.16048208     0.17815494     0.76241576     1.0357765    
     68140   0.83255167     158.5          158.5          158.5         -0.083536996    0.052460622   -0.010241025   -0.29283058     0.83255167   
     68160   0.47484775     158.5          158.5          158.5         -0.093583731   -0.0041779784   0.0027028752  -0.27927609     0.47484775   
     68180   0.27037852     158.5          158.5          158.5          0.0620184      0.051823472   -0.016612316    0.15084404     0.27037852   
     68200   0.87938059     158.5          158.5          158.5         -0.0083324986   0.066197408   -0.074297598   -0.016897306    0.87938059   
     68220   0.55820351     158.5          158.5          158.5          0.16441443     0.12971805     0.17391928     0.18960595     0.55820351   
     68240   0.73292677     158.5          158.5          158.5         -0.13241411    -0.088619889   -0.1226952     -0.18592726     0.73292677   
     68260   0.32953123     158.5          158.5          158.5         -0.18109542    -0.071320001   -0.071583673   -0.40038258     0.32953123   
     68280   0.28238169     158.5          158.5          158.5          0.19445267     0.22015605     0.23445152     0.12875043     0.28238169   
     68300   0.74189183     158.5          158.5          158.5         -0.04041012    -0.048987629   -0.10306658     0.030823843    0.74189183   
     68320   0.474383       158.5          158.5          158.5         -0.049678617   -0.030299116    0.00078452257 -0.11952126     0.474383     
     68340   0.75259235     158.5          158.5          158.5          0.01528589     0.10153382     0.082383501   -0.13805965     0.75259235   
     68360   0.73859426     158.5          158.5          158.5         -0.10290976    -0.129356      -0.14644201    -0.032931269    0.73859426   
     68380   0.49563977     158.5          158.5          158.5          0.25020105     0.20770066     0.12828556     0.41461693     0.49563977   
     68400   0.34257869     158.5          158.5          158.5          0.06919926     0.23676862     0.13206908    -0.16123992     0.34257869   
     68420   1.4559141      158.5          158.5          158.5         -0.25592176    -0.30581841    -0.17995258    -0.2819943      1.4559141    
     68440   1.4493417      158.5          158.5          158.5          0.18298611     0.072250848    0.016589735    0.46011775     1.4493417    
     68460   1.9855562      158.5          158.5          158.5          0.11690327     0.28471612     0.16600941    -0.10001573     1.9855562    
     68480   0.79901588     158.5          158.5          158.5          0.18323435     0.40280864     0.15701306    -0.010118651    0.79901588   
     68500   0.80706984     158.5          158.5          158.5          0.010893096   -0.2011353      0.070115566    0.16369902     0.80706984   
     68520   1.0680579      158.5          158.5          158.5         -0.2874829     -0.45729426    -0.33381179    -0.071342639    1.0680579    
     68540   0.54781747     158.5          158.5          158.5          0.2285315      0.52670157     0.083892486    0.075000457    0.54781747   
     68560   0.97465389     158.5          158.5          158.5          0.21433184     0.24473841     0.33963738     0.05861973     0.97465389   
     68580   0.85068112     158.5          158.5          158.5         -0.12717439    -0.29384649    -0.077809247   -0.0098674213   0.85068112   
     68600   0.79940072     158.5          158.5          158.5          0.017003699    0.11459507    -0.081824406    0.018240432    0.79940072   
     68620   0.16269657     158.5          158.5          158.5         -0.067605705   -0.12844198    -0.10955124     0.0351761      0.16269657   
     68640   0.51969509     158.5          158.5          158.5          0.057181911    0.068501139    0.063107865    0.03993673     0.51969509   
     68660   0.5283433      158.5          158.5          158.5          0.1406216      0.40854471    -0.0012737138   0.014593806    0.5283433    
     68680   0.99317801     158.5          158.5          158.5         -0.24837923    -0.36797682    -0.35794752    -0.01921334     0.99317801   
     68700   0.56721282     158.5          158.5          158.5         -0.02402191    -0.15270865     0.077742611    0.0029003074   0.56721282   
     68720   0.34700234     158.5          158.5          158.5          0.13568322     0.36346801     0.010612109    0.03296953     0.34700234   
     68740   0.55264045     158.5          158.5          158.5         -0.055670527    0.09675989    -0.2700876      0.0063161309   0.55264045   
     68760   0.59617949     158.5          158.5          158.5          0.011893195   -0.14391589     0.12778529     0.051810177    0.59617949   
     68780   0.7223204      158.5          158.5          158.5         -0.11427491    -0.26489572    -0.08133935     0.0034103336   0.7223204    
     68800   1.0437803      158.5          158.5          158.5          0.053547099    0.21552125    -0.029382753   -0.025497205    1.0437803    
     68820   0.84058591     158.5          158.5          158.5          0.33149871     0.49642549     0.36054631     0.13752432     0.84058591   
     68840   0.32555874     158.5          158.5          158.5         -0.11765934    -0.34205361     0.0030994471  -0.014023862    0.32555874   
     68860   0.90455704     158.5          158.5          158.5         -0.039000186   -0.093789125   -0.13430172     0.11109028     0.90455704   
     68880   0.56187303     158.5          158.5          158.5          0.17630925     0.19279372     0.14609744     0.19003659     0.56187303   
     68900   1.9401777      158.5          158.5          158.5          0.076685723    0.091149007    0.16981845    -0.030910291    1.9401777    
     68920   1.0346792      158.5          158.5          158.5          0.28975491     0.54195163     0.1362875      0.19102559     1.0346792    
     68940   0.8693288      158.5          158.5          158.5         -0.1951055     -0.24630592    -0.14197917    -0.19703142     0.8693288    
     68960   1.0329305      158.5          158.5          158.5         -0.28589843    -0.46846751    -0.14337568    -0.24585212     1.0329305    
     68980   0.56947551     158.5          158.5          158.5          0.24532475     0.43514823     0.18280215     0.11802388     0.56947551   
     69000   0.68530729     158.5          158.5          158.5         -0.021092254    0.16125585     0.061613063   -0.28614568     0.68530729   
     69020   0.68472946     158.5          158.5          158.5         -0.085557901   -0.11875762    -0.061968475   -0.07594761     0.68472946   
     69040   0.70327071     158.5          158.5          158.5         -0.063797874   -0.10704405    -0.01059938    -0.073750192    0.70327071   
     69060   0.32338508     158.5          158.5          158.5         -0.10605278    -0.016702455   -0.0091298397  -0.29232604     0.32338508   
     69080   0.35916225     158.5          158.5          158.5          0.20830018     0.24767515     0.10390209     0.2733233      0.35916225   
     69100   0.18227395     158.5          158.5          158.5          0.01691576    -0.010030463   -0.064790904    0.12556865     0.18227395   
     69120   0.79638237     158.5          158.5          158.5         -0.17153227    -0.16281097    -0.058925658   -0.29286018     0.79638237   
     69140   0.52207063     158.5          158.5          158.5          0.15436142     0.1205719      0.14554006     0.19697229     0.52207063   
     69160   0.54977977     158.5          158.5          158.5          0.066332847    0.12378263    -0.19121197     0.26642788     0.54977977   
     69180   0.33757592     158.5          158.5          158.5          0.11679285     0.13148563     0.04370025     0.17519268     0.33757592   
     69200   0.53758997     158.5          158.5          158.5          0.043150444   -0.011974876    0.15790196    -0.016475756    0.53758997   
     69220   0.62396528     158.5          158.5          158.5         -0.23585324    -0.1472834     -0.2946033     -0.26567302     0.62396528   
     69240   0.87220689     158.5          158.5          158.5          0.21725855     0.19688858     0.16803373     0.28685335     0.87220689   
     69260   1.0111499      158.5          158.5          158.5          0.1642208      0.12080492     0.12074206     0.25111543     1.0111499    
     69280   0.49766188     158.5          158.5          158.5         -0.20902162    -0.05972099    -0.2575267     -0.30981716     0.49766188   
     69300   0.85102961     158.5          158.5          158.5         -0.028669336    0.022798771    0.19287466    -0.30168144     0.85102961   
     69320   0.30332252     158.5          158.5          158.5         -0.099032277   -0.027437513   -0.025490039   -0.24416928     0.30332252   
     69340   1.2404715      158.5          158.5          158.5          0.12384904     0.084479428   -0.071039263    0.35810696     1.2404715    
     69360   1.0893222      158.5          158.5          158.5          0.18024434     0.085328973    0.095831288    0.35957275     1.0893222    
     69380   1.0573325      158.5          158.5          158.5         -0.30440796    -0.11485158    -0.084720409   -0.71365189     1.0573325    
     69400   0.86897221     158.5          158.5          158.5          0.028565106    0.12510689     0.098465374   -0.13787694     0.86897221   
     69420   0.6792294      158.5          158.5          158.5          0.14250814     0.13497492     0.013705905    0.27884361     0.6792294    
     69440   0.44757778     158.5          158.5          158.5          0.0077088113  -0.10300153    -0.038378984    0.16450695     0.44757778   
     69460   0.85594505     158.5          158.5          158.5          0.086890815    0.15896776     0.085022612    0.016682078    0.85594505   
     69480   1.0804802      158.5          158.5          158.5         -0.19597163     0.037060266   -0.02256792    -0.60240723     1.0804802    
     69500   0.50725887     158.5          158.5          158.5          0.054539422    0.014632665    0.011961769    0.13702383     0.50725887   
     69520   0.6906168      158.5          158.5          158.5          0.31286461     0.15306552     0.059451069    0.72607724     0.6906168    
     69540   0.14638594     158.5          158.5          158.5         -0.12493631    -0.10322807     0.022787368   -0.29436824     0.14638594   
     69560   0.83929549     158.5          158.5          158.5         -0.08909501     0.1450184      0.015632091   -0.42793552     0.83929549   
     69580   0.53808064     158.5          158.5          158.5          0.069864618    0.12966878    -0.018443719    0.098368797    0.53808064   
     69600   0.75164333     158.5          158.5          158.5          0.069123484   -0.15109626     0.018759556    0.33970716     0.75164333   
     69620   0.53366765     158.5          158.5          158.5          0.18090095     0.12946515     0.070401145    0.34283655     0.53366765   
     69640   0.51091868     158.5          158.5          158.5         -0.1542376      0.04085549    -0.035336617   -0.46823166     0.51091868   
     69660   0.2192287      158.5          158.5          158.5         -0.13485327     0.0097972307  -0.035939223   -0.3784178      0.2192287    
     69680   0.53804899     158.5          158.5          158.5          0.18903702     0.053956104    0.050081474    0.46307348     0.53804899   
     69700   0.63459988     158.5          158.5          158.5         -0.0044431382  -0.17261892     0.033351496    0.12593801     0.63459988   
     69720   0.40496535     158.5          158.5          158.5         -0.027717359    0.10908858     0.013833679   -0.20607433     0.40496535   
     69740   0.5289323      158.5          158.5          158.5         -0.10418815     0.080136014   -0.082321912   -0.31037854     0.5289323    
     69760   0.12044488     158.5          158.5          158.5         -0.13126821    -0.16502917    -0.053239025   -0.17553645     0.12044488   
     69780   0.64695226     158.5          158.5          158.5          0.20586355     0.13145828     0.20487244     0.28125994     0.64695226   
     69800   0.54820514     158.5          158.5          158.5         -0.012738444    0.017013689   -0.018406658   -0.036822364    0.54820514   
     69820   0.81789907     158.5          158.5          158.5         -0.20457255    -0.051269394   -0.22630094    -0.3361473      0.81789907   
     69840   0.64414275     158.5          158.5          158.5          0.14057448     0.15748159     0.14703098     0.11721086     0.64414275   
     69860   0.77888176     158.5          158.5          158.5          0.07137447    -0.038343358    0.054654557    0.19781221     0.77888176   
     69880   0.31929207     158.5          158.5          158.5          0.16376296     0.029725572   -0.020371336    0.48193464     0.31929207   
     69900   0.83563078     158.5          158.5          158.5          0.054983916    0.13480099     0.038111689   -0.007960934    0.83563078   
     69920   1.3688573      158.5          158.5          158.5         -0.2158828      0.00086343338 -0.24324189    -0.40526996     1.3688573    
     69940   1.0991499      158.5          158.5          158.5          0.31103337     0.11001368     0.13838234     0.68470409     1.0991499    
     69960   1.0026858      158.5          158.5          158.5          0.21154026     0.1389644      0.21737821     0.27827817     1.0026858    
     69980   0.28956488     158.5          158.5          158.5         -0.14510667     0.064628912   -0.060191742   -0.43975717     0.28956488   
     70000   1.1134921      158.5          158.5          158.5         -0.053350264    0.034688845   -0.17498451    -0.01975513     1.1134921    
     70020   0.63557862     158.5          158.5          158.5         -0.15598706     0.0024098967  -0.32774771    -0.14262336     0.63557862   
     70040   1.0950979      158.5          158.5          158.5          0.16709187     0.041601224    0.50927941    -0.049605009    1.0950979    
     70060   0.59953751     158.5          158.5          158.5          0.1300664      0.024723859    0.31577022     0.049705134    0.59953751   
     70080   0.96584776     158.5          158.5          158.5         -0.3777552     -0.1428825     -0.69892945    -0.29145366     0.96584776   
     70100   0.24154445     158.5          158.5          158.5         -0.013861321   -0.018175262    0.046217755   -0.069626457    0.24154445   
     70120   0.37455983     158.5          158.5          158.5          0.12346533     0.021821788    0.30790405     0.040670144    0.37455983   
     70140   0.64733689     158.5          158.5          158.5          0.022520807    0.056840259   -0.039346232    0.050068392    0.64733689   
     70160   0.58191653     158.5          158.5          158.5          0.093707741    0.14818116     0.079135459    0.053806604    0.58191653   
     70180   0.70680911     158.5          158.5          158.5         -0.15922924    -0.13024791    -0.30265947    -0.044780329    0.70680911   
     70200   0.16154767     158.5          158.5          158.5          0.07377646     0.1449313     -0.001919478    0.078317561    0.16154767   
     70220   0.44811251     158.5          158.5          158.5          0.28598758     0.28714253     0.44851743     0.12230279     0.44811251   
     70240   0.55273818     158.5          158.5          158.5         -0.096315478   -0.1044982     -0.13380276    -0.050645479    0.55273818   
     70260   0.83274272     158.5          158.5          158.5         -0.024641689    0.17137962    -0.24285186    -0.0024528247   0.83274272   
     70280   0.52797078     158.5          158.5          158.5          0.029228895    0.14654878    -0.098195755    0.039333662    0.52797078   
     70300   1.0599521      158.5          158.5          158.5          0.05627988    -0.19273624     0.32421954     0.037356336    1.0599521    
     70320   0.22368314     158.5          158.5          158.5          0.24954818     0.24234833     0.44080953     0.065486697    0.22368314   
     70340   1.1160594      158.5          158.5          158.5         -0.31275515    -0.12628783    -0.83909048     0.027112875    1.1160594    
     70360   1.1594437      158.5          158.5          158.5         -0.17594199    -0.2122425     -0.38331634     0.067732882    1.1594437    
     70380   1.5642344      158.5          158.5          158.5          0.34466992     0.17534581     0.75938284     0.099281089    1.5642344    
     70400   1.8103263      158.5          158.5          158.5         -0.0088593377   0.035836191    0.058214611   -0.12062881     1.8103263    
     70420   0.49599739     158.5          158.5          158.5         -0.0060453093   0.0029754328  -0.12677532     0.10566396     0.49599739   
     70440   1.0497288      158.5          158.5          158.5         -0.13654237    -0.14258589    -0.37733356     0.11029233     1.0497288    
     70460   0.52859551     158.5          158.5          158.5         -0.11549039     0.034183658   -0.21666411    -0.16399071     0.52859551   
     70480   1.2058186      158.5          158.5          158.5          0.355018       0.33609619     0.5992325      0.12972529     1.2058186    
     70500   0.63688626     158.5          158.5          158.5          0.011481976   -0.012308879    0.11839071    -0.071635907    0.63688626   
     70520   1.1597817      158.5          158.5          158.5         -0.2388542     -0.15860259    -0.5095711     -0.04838891     1.1597817    
     70540   0.44955563     158.5          158.5          158.5          0.079474686    0.069409928   -0.061141136    0.23015527     0.44955563   
     70560   0.52354183     158.5          158.5          158.5          0.059056015    0.13574335     0.22171958    -0.18029489     0.52354183   
     70580   0.35845553     158.5          158.5          158.5          0.16023097     0.15507902     0.25565525     0.069958657    0.35845553   
     70600   0.81869883     158.5          158.5          158.5         -0.03828666    -0.10873553    -0.20155004     0.19542558     0.81869883   
     70620   0.85208152     158.5          158.5          158.5         -0.21040955    -0.13065531    -0.3383735     -0.16219986     0.85208152   
     70640   0.53340341     158.5          158.5          158.5          0.25473643     0.2584752      0.34068025     0.16505384     0.53340341   
     70660   0.48980144     158.5          158.5          158.5          0.15122758     0.024798589    0.21323999     0.21564417     0.48980144   
     70680   0.34125176     158.5          158.5          158.5         -0.11392697    -0.1341012     -0.17724672    -0.030432983    0.34125176   
     70700   0.92276884     158.5          158.5          158.5         -0.0035577379   0.15589545    -0.10491942    -0.061649239    0.92276884   
     70720   0.52428398     158.5          158.5          158.5         -0.081245653   -0.095960524   -0.037975134   -0.1098013      0.52428398   
     70740   1.1565521      158.5          158.5          158.5          0.17754265     0.043309565    0.20746308     0.28185531     1.1565521    
     70760   0.36278307     158.5          158.5          158.5          0.14493866     0.30632781     0.086173433    0.042314733    0.36278307   
     70780   0.89453322     158.5          158.5          158.5         -0.40191842    -0.19112343    -0.39390129    -0.62073054     0.89453322   
     70800   0.5429206      158.5          158.5          158.5         -0.025237046    0.057576969    0.0052169784  -0.13850509     0.5429206    
     70820   1.0827595      158.5          158.5          158.5          0.15961902     0.1793407      0.12723165     0.17228471     1.0827595    
     70840   1.5954266      158.5          158.5          158.5          0.021653258    0.01179053    -0.069186538    0.12235578     1.5954266    
     70860   1.2749681      158.5          158.5          158.5          0.065475097    0.16581659     0.13660107    -0.10599236     1.2749681    
     70880   1.2821402      158.5          158.5          158.5         -0.29240806    -0.067317328   -0.11463811    -0.69526873     1.2821402    
     70900   0.65710506     158.5          158.5          158.5          0.11466926     0.16418957     0.041625833    0.13819238     0.65710506   
     70920   0.99983873     158.5          158.5          158.5          0.39877684     0.1744802      0.22620266     0.79564765     0.99983873   
     70940   0.49447709     158.5          158.5          158.5         -0.095645104   -0.11158836    -0.007314572   -0.16803238     0.49447709   
     70960   1.2239511      158.5          158.5          158.5          0.012446754    0.10115569     0.18205131    -0.24586674     1.2239511    
     70980   0.47761913     158.5          158.5          158.5          0.067093244    0.026946157    0.12373285     0.050600724    0.47761913   
     71000   0.64662944     158.5          158.5          158.5          0.081791949   -0.043137164   -0.050677953    0.33919096     0.64662944   
     71020   0.19841362     158.5          158.5          158.5          0.22603224     0.085452911    0.13906451     0.4535793      0.19841362   
     71040   0.52075894     158.5          158.5          158.5         -0.21621589     0.026214721   -0.060410127   -0.61445228     0.52075894   
     71060   0.60005832     158.5          158.5          158.5         -0.15550837     0.0046838479  -0.0058343706  -0.46537458     0.60005832   
     71080   0.67605154     158.5          158.5          158.5          0.20675062     0.028651175    0.079909292    0.51169138     0.67605154   
     71100   0.65935011     158.5          158.5          158.5         -0.031708585    0.015759075   -0.26989232     0.1590075      0.65935011   
     71120   0.35910927     158.5          158.5          158.5         -0.071422071    0.036758134    0.033110568   -0.28413491     0.35910927   
     71140   0.6905312      158.5          158.5          158.5         -0.19693965     0.045317909    0.047128538   -0.6832654      0.6905312    
     71160   0.35790236     158.5          158.5          158.5         -0.10297281     0.034695677   -0.18413882    -0.15947529     0.35790236   
     71180   1.2415427      158.5          158.5          158.5          0.32967243     0.055014156    0.11267235     0.82133078     1.2415427    
     71200   0.57798328     158.5          158.5          158.5         -0.030049855    0.041009758   -0.1068127     -0.02434662     0.57798328   
     71220   1.0868794      158.5          158.5          158.5         -0.21183008     0.049792547    0.06018481    -0.7454676      1.0868794    
     71240   0.27551696     158.5          158.5          158.5          0.1491855      0.10803843     0.21015027     0.12936778     0.27551696   
     71260   0.88400102     158.5          158.5          158.5          0.076872598   -0.0057131702  -0.25736173     0.49369269     0.88400102   
     71280   0.97963567     158.5          158.5          158.5          0.27829435     0.12979306     0.11473368     0.59035633     0.97963567   
     71300   1.2448009      158.5          158.5          158.5          0.036313645    0.089123326    0.17181738    -0.15199977     1.2448009    
     71320   1.2212354      158.5          158.5          158.5         -0.2727288     -0.17785124    -0.16222597    -0.47810919     1.2212354    
     71340   0.81100778     158.5          158.5          158.5          0.27729149     0.24834349     0.074289293    0.50924168     0.81100778   
     71360   0.86383643     158.5          158.5          158.5          0.13755428     0.17321966     0.092229079    0.1472141      0.86383643   
     71380   0.25005756     158.5          158.5          158.5         -0.1154523     -0.14470838    -0.017902584   -0.18374593     0.25005756   
     71400   1.0998758      158.5          158.5          158.5         -0.059151909    0.061762371   -0.029007826   -0.21021027     1.0998758    
     71420   0.67752866     158.5          158.5          158.5         -0.10682734     0.031941443   -0.0051203338  -0.34730312     0.67752866   
     71440   0.73252229     158.5          158.5          158.5          0.17041502     0.097917622    0.052771846    0.36055559     0.73252229   
     71460   0.20952214     158.5          158.5          158.5          0.077199909    0.019194784    0.026714946    0.18569        0.20952214   
     71480   0.43032193     158.5          158.5          158.5         -0.25071631    -0.089166471   -0.062362796   -0.60061968     0.43032193   
     71500   0.27344633     158.5          158.5          158.5          0.0092930102   0.12661202    -0.0066232165  -0.092109773    0.27344633   
     71520   0.5318383      158.5          158.5          158.5          0.067550845   -0.090003323    0.052367477    0.24028838     0.5318383    
     71540   0.4654541      158.5          158.5          158.5          0.048553439    0.065238581    0.013659491    0.066762245    0.4654541    
     71560   0.35563366     158.5          158.5          158.5          0.036491283    0.209853      -0.015154754   -0.085224399    0.35563366   
     71580   0.50276409     158.5          158.5          158.5         -0.23186334    -0.34892756    -0.057762234   -0.28890022     0.50276409   
     71600   0.070889539    158.5          158.5          158.5          0.073855415    0.034899056    0.04589804     0.14076915     0.070889539  
     71620   0.72034507     158.5          158.5          158.5          0.25146283     0.39877144     0.093112721    0.26250432     0.72034507   
     71640   0.52879803     158.5          158.5          158.5         -0.09404115    -0.23813552    -0.0029013242  -0.041086603    0.52879803   
     71660   0.84529845     158.5          158.5          158.5         -0.042025935   -0.11539397     0.017677557   -0.028361393    0.84529845   
     71680   0.3079124      158.5          158.5          158.5          0.010962477    0.10850882    -0.0047543986  -0.070866989    0.3079124    
     71700   0.46468571     158.5          158.5          158.5          0.10692239     0.054101293    0.076641187    0.1900247      0.46468571   
     71720   0.51741082     158.5          158.5          158.5          0.23650874     0.14517808     0.29289819     0.27144995     0.51741082   
     71740   1.1397974      158.5          158.5          158.5         -0.20605262    -0.16303794    -0.25019962    -0.20492031     1.1397974    
     71760   0.81036057     158.5          158.5          158.5         -0.088777722   -0.029873484   -0.12439095    -0.11206873     0.81036057   
     71780   0.86981415     158.5          158.5          158.5          0.23252156     0.22108877     0.28863586     0.18784005     0.86981415   
     71800   0.81758449     158.5          158.5          158.5         -0.023434839    0.070260441   -0.20288695     0.062321994    0.81758449   
     71820   0.38840432     158.5          158.5          158.5         -0.0094234247   0.17544576    -0.16725367    -0.036462366    0.38840432   
     71840   1.0941466      158.5          158.5          158.5         -0.24119075    -0.38935252    -0.22796421    -0.10625553     1.0941466    
     71860   0.85689678     158.5          158.5          158.5         -0.12696086    -0.11615584    -0.28359801     0.018871276    0.85689678   
     71880   1.5098004      158.5          158.5          158.5          0.33239181     0.70054668     0.084214284    0.21241446     1.5098004    
     71900   0.4134325      158.5          158.5          158.5         -0.074594896   -0.037360799   -0.13497668    -0.051447204    0.4134325    
     71920   0.82067226     158.5          158.5          158.5         -0.22771901    -0.47443152    -0.14348988    -0.065235642    0.82067226   
     71940   0.35529482     158.5          158.5          158.5          0.10030539     0.087519881    0.060936867    0.15245941     0.35529482   
     71960   1.0637348      158.5          158.5          158.5          0.065212268    0.22414571     0.076534938   -0.10504385     1.0637348    
     71980   0.86542352     158.5          158.5          158.5          0.26217575     0.3877801      0.40774228    -0.0089951334   0.86542352   
     72000   0.62588735     158.5          158.5          158.5          0.01927335    -0.10065031     0.070118599    0.088351761    0.62588735   
     72020   0.76608806     158.5          158.5          158.5         -0.19545961    -0.40488551    -0.16155267    -0.019940638    0.76608806   
     72040   0.22750028     158.5          158.5          158.5          0.22120676     0.29295857     0.29044313     0.080218588    0.22750028   
     72060   0.40275157     158.5          158.5          158.5          0.10316423     0.25955263     0.1381151     -0.088175033    0.40275157   
     72080   0.33601178     158.5          158.5          158.5         -0.036555191   -0.030497064   -0.092197848    0.013029338    0.33601178   
     72100   0.61531143     158.5          158.5          158.5         -0.045370744   -0.20378882    -0.043513041    0.11118963     0.61531143   
     72120   0.25476895     158.5          158.5          158.5         -0.13169859    -0.15622164    -0.088731133   -0.15014301     0.25476895   
     72140   0.34895294     158.5          158.5          158.5          0.12585355     0.27630821     0.078509531    0.022742918    0.34895294   
     72160   0.082145111    158.5          158.5          158.5          0.030134189    0.075857928    0.0101087      0.0044359402   0.082145111  
     72180   0.570718       158.5          158.5          158.5         -0.27208649    -0.43068793    -0.25480779    -0.13076375     0.570718     
     72200   0.47051778     158.5          158.5          158.5          0.015096369   -0.042456292   -0.069339799    0.1570852      0.47051778   
     72220   0.4518269      158.5          158.5          158.5          0.061162945    0.191566       0.093512414   -0.10158958     0.4518269    
     72240   0.46812051     158.5          158.5          158.5          0.049882299    0.19044772     0.10349247    -0.14429329     0.46812051   
     72260   0.34329879     158.5          158.5          158.5          0.051939695   -0.030994884   -0.022436213    0.20925018     0.34329879   
     72280   0.74473325     158.5          158.5          158.5         -0.25146376    -0.42150552    -0.26293298    -0.069952777    0.74473325   
     72300   0.58231826     158.5          158.5          158.5          0.14775861     0.24458503     0.1001307      0.098560091    0.58231826   
     72320   1.1944314      158.5          158.5          158.5          0.32755826     0.57510134     0.27079926     0.13677417     1.1944314    
     72340   0.58379253     158.5          158.5          158.5         -0.055378794    0.015107102   -0.060515046   -0.12072844     0.58379253   
     72360   0.89372122     158.5          158.5          158.5         -0.03277344    -0.17006061    -0.14475589     0.21649618     0.89372122   
     72380   0.16792213     158.5          158.5          158.5         -0.06129355    -0.048034431   -0.171967       0.036120785    0.16792213   
     72400   1.0225527      158.5          158.5          158.5          0.13197203     0.23717019     0.20634207    -0.047596177    1.0225527    
     72420   0.96994255     158.5          158.5          158.5          0.28388797     0.43082254     0.23407275     0.18676861     0.96994255   
     72440   0.99713061     158.5          158.5          158.5         -0.25637974    -0.26828191    -0.40750139    -0.093355923    0.99713061   
     72460   0.970253       158.5          158.5          158.5         -0.13125788    -0.31105805     0.070941719   -0.1536573      0.970253     
     72480   0.5075175      158.5          158.5          158.5          0.17890593     0.18647239     0.30864808     0.041597317    0.5075175    
     72500   0.7624206      158.5          158.5          158.5         -0.0060001201   0.18027793    -0.3131197      0.11484141     0.7624206    
     72520   0.51746924     158.5          158.5          158.5          0.04996986    -0.011407254    0.11970665     0.041610187    0.51746924   
     72540   1.3572378      158.5          158.5          158.5         -0.18597693    -0.31909283     0.087568332   -0.32640629     1.3572378    
     72560   0.66320026     158.5          158.5          158.5         -0.096847294   -0.030319748   -0.21206244    -0.048159695    0.66320026   
     72580   0.96385464     158.5          158.5          158.5          0.30748332     0.35187895     0.16727242     0.40329858     0.96385464   
     72600   0.16932253     158.5          158.5          158.5         -0.057728234   -0.19356784     0.040512139   -0.020128997    0.16932253   
     72620   0.85091773     158.5          158.5          158.5         -0.20879008    -0.19406502    -0.060698846   -0.37160638     0.85091773   
     72640   0.61647753     158.5          158.5          158.5          0.028345962    0.20524948    -0.00071741374 -0.11949418     0.61647753   
     72660   0.93184519     158.5          158.5          158.5          0.054200021   -0.055047461   -0.016023266    0.23367079     0.93184519   
     72680   0.66590902     158.5          158.5          158.5          0.23686753     0.20426515     0.10053258     0.40580488     0.66590902   
     72700   0.54148141     158.5          158.5          158.5         -0.072278429    0.12056245    -0.064999122   -0.27239861     0.54148141   
     72720   0.4918169      158.5          158.5          158.5         -0.21610951    -0.1195473     -0.053400307   -0.47538091     0.4918169    
     72740   0.37776386     158.5          158.5          158.5          0.27111815     0.27126426     0.11164415     0.43044605     0.37776386   
     72760   0.89198781     158.5          158.5          158.5          0.137852       0.17817729    -0.03948992     0.27486864     0.89198781   
     72780   0.47410517     158.5          158.5          158.5         -0.0064110501   0.084208323   -0.02161312    -0.081828353    0.47410517   
     72800   0.95325999     158.5          158.5          158.5         -0.021848317    0.08828468     0.041386992   -0.19521662     0.95325999   
     72820   0.15930267     158.5          158.5          158.5         -0.1469441     -0.13154052     0.0029708518  -0.31226263     0.15930267   
     72840   0.69515536     158.5          158.5          158.5          0.21046166     0.17406481     0.032069403    0.42525076     0.69515536   
     72860   0.67892536     158.5          158.5          158.5          0.10136691    -0.03440318     0.027181802    0.31132212     0.67892536   
     72880   1.1878559      158.5          158.5          158.5         -0.35266841    -0.28365345    -0.011427445   -0.76292434     1.1878559    
     72900   1.1981467      158.5          158.5          158.5         -0.014488138    0.15761581     0.017037534   -0.21811776     1.1981467    
     72920   1.0607517      158.5          158.5          158.5          0.01664377    -0.2215104      0.036603061    0.23483865     1.0607517    
     72940   0.61539595     158.5          158.5          158.5          0.09271635    -0.1457252      0.057400557    0.36647369     0.61539595   
     72960   0.6262861      158.5          158.5          158.5          0.03375207     0.27585127     0.062648517   -0.23724358     0.6262861    
     72980   1.5179844      158.5          158.5          158.5         -0.39107203    -0.10131351    -0.03848234    -1.0334202      1.5179844    
     73000   0.88310525     158.5          158.5          158.5          0.22341084     0.13563736     0.11074983     0.42384532     0.88310525   
     73020   1.5308771      158.5          158.5          158.5          0.36642435     0.1528424      0.021807401    0.92462324     1.5308771    
     73040   0.44377729     158.5          158.5          158.5         -0.049803634   -0.013645742   -0.15072167     0.014956505    0.44377729   
     73060   1.0600017      158.5          158.5          158.5          0.03823572     0.15983829     0.18769393    -0.23282506     1.0600017    
     73080   0.26028997     158.5          158.5          158.5         -0.033713639    0.064512997   -0.12674557    -0.038908347    0.26028997   
     73100   0.76703942     158.5          158.5          158.5          0.15653469     0.021378638   -0.13453656     0.582762       0.76703942   
     73120   0.71755772     158.5          158.5          158.5          0.28098925     0.056910294    0.29364447     0.49241298     0.71755772   
     73140   0.72731096     158.5          158.5          158.5         -0.23584092     0.013083768   -0.15023156    -0.57037496     0.72731096   
     73160   0.50260318     158.5          158.5          158.5         -0.11635858     0.031602611   -0.10407421    -0.27660413     0.50260318   
     73180   0.19027608     158.5          158.5          158.5          0.12791446     0.046795651    0.18891534     0.14803239     0.19027608   
     73200   0.64884914     158.5          158.5          158.5         -0.029162546    0.035223683   -0.017844503   -0.10486682     0.64884914   
     73220   0.6254405      158.5          158.5          158.5          0.0080771798   0.019052876    0.043002314   -0.037823651    0.6254405    
     73240   0.99312945     158.5          158.5          158.5         -0.24369681     0.0043139511  -0.11473659    -0.62066779     0.99312945   
     73260   0.38958012     158.5          158.5          158.5         -0.075517233    0.03077147     0.063583642   -0.32090681     0.38958012   
     73280   0.6994116      158.5          158.5          158.5          0.28095506     0.062807647    0.25192434     0.52813318     0.6994116    
     73300   0.26610657     158.5          158.5          158.5         -0.099366743    0.032604666   -0.19907268    -0.13163222     0.26610657   
     73320   0.97264919     158.5          158.5          158.5         -0.12974171     0.013783013    0.014883418   -0.41789157     0.97264919   
     73340   0.68427622     158.5          158.5          158.5          0.082355169    0.082309573    0.024908333    0.1398476      0.68427622   
     73360   1.2390396      158.5          158.5          158.5          0.071638489    0.03406767    -0.20755771     0.38840551     1.2390396    
     73380   0.60398867     158.5          158.5          158.5          0.32723793     0.12578583     0.43889754     0.41703042     0.60398867   
     73400   0.40922969     158.5          158.5          158.5         -0.083147489    0.070606582   -0.11050056    -0.20954849     0.40922969   
     73420   0.88205777     158.5          158.5          158.5         -0.27026073     0.033736197   -0.58019936    -0.26431904     0.88205777   
     73440   0.69444553     158.5          158.5          158.5          0.31386677     0.21445133     0.37729291     0.34985607     0.69444553   
     73460   1.5014035      158.5          158.5          158.5          0.14320916    -0.052335546    0.35349147     0.12847156     1.5014035    
     73480   0.50594411     158.5          158.5          158.5         -0.0010668315   0.10316948    -0.12159957     0.015229599    0.50594411   
     73500   1.0939292      158.5          158.5          158.5         -0.097532133    0.18798863    -0.33648707    -0.14409796     1.0939292    
     73520   0.41289545     158.5          158.5          158.5         -0.16598883    -0.27786171    -0.14849801    -0.07160676     0.41289545   
     73540   0.81665987     158.5          158.5          158.5          0.27083168     0.14826213     0.46042529     0.20380761     0.81665987   
     73560   0.58986314     158.5          158.5          158.5          0.091222978    0.085321836    0.15610115     0.03224595     0.58986314   
     73580   1.0598004      158.5          158.5          158.5         -0.26760883    -0.24215083    -0.44879646    -0.11187921     1.0598004    
     73600   0.60164581     158.5          158.5          158.5          0.0077550706   0.072195101   -0.065745793    0.016815903    0.60164581   
     73620   0.35639369     158.5          158.5          158.5          0.00071653325 -0.069756164    0.086930268   -0.015024504    0.35639369   
     73640   0.2436895      158.5          158.5          158.5          0.069635444   -0.082124614    0.21215129     0.078879662    0.2436895    
     73660   0.32787648     158.5          158.5          158.5          0.015786302    0.029574013   -0.043673602    0.061458495    0.32787648   
     73680   0.66305855     158.5          158.5          158.5         -0.24782894    -0.11752594    -0.46187617    -0.16408472     0.66305855   
     73700   0.2988299      158.5          158.5          158.5          0.10405594     0.093421843    0.16339392     0.055352058    0.2988299    
     73720   0.45696036     158.5          158.5          158.5          0.18538959     0.045599273    0.38632191     0.12424758     0.45696036   
     73740   0.11336555     158.5          158.5          158.5         -0.090967815   -0.031370551   -0.12879004    -0.11274286     0.11336555   
     73760   0.58522843     158.5          158.5          158.5         -0.020573531    0.1361197     -0.2110375      0.013197209    0.58522843   
     73780   0.35183218     158.5          158.5          158.5         -0.021799392    0.006659606   -0.091415557    0.019357776    0.35183218   
     73800   0.83040975     158.5          158.5          158.5          0.16556896     0.15261531     0.3710707     -0.02697912     0.83040975   
     73820   0.5562308      158.5          158.5          158.5          0.26180574     0.2904438      0.44990397     0.045069452    0.5562308    
     73840   0.58533431     158.5          158.5          158.5         -0.2386266     -0.1309994     -0.51673441    -0.068145972    0.58533431   
     73860   0.44754414     158.5          158.5          158.5         -0.061440389   -0.043604202   -0.29512783     0.15441086     0.44754414   
     73880   0.55306462     158.5          158.5          158.5          0.17715985     0.23564784     0.33455591    -0.038724184    0.55306462   
     73900   1.2755907      158.5          158.5          158.5          0.025516756    0.075727924    0.24457606    -0.24375371     1.2755907    
     73920   0.7964248      158.5          158.5          158.5          0.068448086    0.016406076   -0.042520407    0.23145859     0.7964248    
     73940   1.1933986      158.5          158.5          158.5         -0.34165793    -0.18953143    -0.7699729     -0.065469472    1.1933986    
     73960   0.26926252     158.5          158.5          158.5         -0.12013555     0.0077905764  -0.23939       -0.12880723     0.26926252   
     73980   0.99383221     158.5          158.5          158.5          0.30898805     0.30810741     0.48968722     0.12916952     0.99383221   
     74000   0.555841       158.5          158.5          158.5         -0.12592459    -0.041934016   -0.11020964    -0.22563012     0.555841     
     74020   1.270353       158.5          158.5          158.5         -0.14587378    -0.1495391     -0.36691748     0.078835246    1.270353     
     74040   0.85663934     158.5          158.5          158.5          0.040559736    0.10251188    -0.10519706     0.12436439     0.85663934   
     74060   0.86392789     158.5          158.5          158.5          0.059670679    0.046458581    0.23222874    -0.099675281    0.86392789   
     74080   0.44119833     158.5          158.5          158.5          0.32548897     0.17116809     0.57027218     0.23502664     0.44119833   
     74100   0.47393564     158.5          158.5          158.5         -0.07623852    -0.074855327   -0.19552747     0.041667234    0.47393564   
     74120   0.90667218     158.5          158.5          158.5         -0.16282513    -0.16214723    -0.27328648    -0.053041676    0.90667218   
     74140   0.73388207     158.5          158.5          158.5          0.29003099     0.13348494     0.48942132     0.2471867      0.73388207   
     74160   0.94171494     158.5          158.5          158.5          0.11160846     0.00486584     0.30116204     0.028797502    0.94171494   
     74180   0.21638517     158.5          158.5          158.5          0.026661513    0.12997648    -0.035989572   -0.014002371    0.21638517   
     74200   0.69156547     158.5          158.5          158.5         -0.12653351    -0.11691524    -0.22234424    -0.040341041    0.69156547   
     74220   0.18025139     158.5          158.5          158.5         -0.16949439    -0.19732915    -0.20330218    -0.10785184     0.18025139   
     74240   0.79847897     158.5          158.5          158.5          0.21822801     0.40268682     0.17409096     0.07790626     0.79847897   
     74260   0.42678374     158.5          158.5          158.5          0.017512047    0.011654976    0.03607141     0.0048097561   0.42678374   
     74280   0.5897544      158.5          158.5          158.5         -0.25670984    -0.24737945    -0.31136239    -0.21138769     0.5897544    
     74300   0.33122653     158.5          158.5          158.5         -0.007387497    0.22489694    -0.14967761    -0.097381817    0.33122653   
     74320   0.21748997     158.5          158.5          158.5         -0.0017597144  -0.025194906   -0.017187205    0.037102968    0.21748997   
     74340   0.48363217     158.5          158.5          158.5          0.10798358    -0.046369496    0.19197807     0.17834216     0.48363217   
     74360   0.47615597     158.5          158.5          158.5          0.033309362    0.13954811    -0.012992759   -0.026627262    0.47615597   
     74380   0.7661629      158.5          158.5          158.5         -0.23269807    -0.11608833    -0.27404755    -0.30795833     0.7661629    
     74400   0.30087578     158.5          158.5          158.5          0.15346131     0.011216862    0.29294626     0.15622081     0.30087578   
     74420   0.53377262     158.5          158.5          158.5          0.22198808     0.092019544    0.25875603     0.31518868     0.53377262   
     74440   0.35962056     158.5          158.5          158.5         -0.046875972    0.026916854   -0.17300192     0.0054571464   0.35962056   
     74460   1.3841048      158.5          158.5          158.5         -0.0082717261   0.016216963    0.19990022    -0.24093236     1.3841048    
     74480   0.85909257     158.5          158.5          158.5         -0.092828966   -0.10822106     0.04881792    -0.21908376     0.85909257   
     74500   1.351498       158.5          158.5          158.5          0.23193989     0.16827147     0.01321463     0.51433358     1.351498     
     74520   0.48756961     158.5          158.5          158.5          0.29785265     0.1737551      0.23978505     0.48001782     0.48756961   
     74540   0.93454536     158.5          158.5          158.5         -0.36444302    -0.037642479   -0.2074339     -0.84825267     0.93454536   
     74560   0.84017379     158.5          158.5          158.5         -0.062641808    0.077316147    0.048353294   -0.31359487     0.84017379   
     74580   0.77907568     158.5          158.5          158.5          0.19565086     0.11126659     0.017071112    0.45861489     0.77907568   
     74600   1.4899028      158.5          158.5          158.5          0.061862983    0.060866467   -0.13707801     0.26180049     1.4899028    
     74620   0.63247106     158.5          158.5          158.5          0.098533522    0.04020385     0.16687289     0.088523827    0.63247106   
     74640   1.1182458      158.5          158.5          158.5         -0.28441561     0.045544909   -0.14951712    -0.74927462     1.1182458    
     74660   0.085674349    158.5          158.5          158.5         -0.060175979    0.063634702   -0.069899486   -0.17426315     0.085674349  
     74680   0.81114738     158.5          158.5          158.5          0.28024873     0.068566269    0.077924756    0.69425515     0.81114738   
     74700   0.63413632     158.5          158.5          158.5         -0.090802159   -0.045515462   -0.16767305    -0.059217967    0.63413632   
     74720   0.98368677     158.5          158.5          158.5         -0.12217882     0.058941364    0.04391351    -0.46939133     0.98368677   
     74740   0.46991533     158.5          158.5          158.5         -0.036531027    0.062808106    0.029577004   -0.20197819     0.46991533   
     74760   0.50494856     158.5          158.5          158.5          0.020955282   -0.043133161   -0.11435383     0.22035284     0.50494856   
     74780   0.33109752     158.5          158.5          158.5          0.24707797     0.097880016    0.089359679    0.55399421     0.33109752   
     74800   0.57945219     158.5          158.5          158.5         -0.14071021    -0.025107193    0.025582737   -0.42260619     0.57945219   
     74820   0.77544115     158.5          158.5          158.5         -0.1432766      0.042450903   -0.016496201   -0.45578451     0.77544115   
     74840   0.65790834     158.5          158.5          158.5          0.28763032     0.18504895     0.054135082    0.62370692     0.65790834   
     74860   0.80791711     158.5          158.5          158.5          0.092923399   -0.17768278    -0.034690118    0.49114309     0.80791711   
     74880   0.077147348    158.5          158.5          158.5          0.048472633    0.08723744     0.052692506    0.0054879523   0.077147348  
     74900   1.2598404      158.5          158.5          158.5         -0.085841438    0.28291351     0.075269125   -0.61570695     1.2598404    
     74920   0.79442749     158.5          158.5          158.5         -0.13982833    -0.22751767     0.012047559   -0.20401488     0.79442749   
     74940   2.10482        158.5          158.5          158.5          0.41579503     0.20712581     0.044737902    0.99552138     2.10482      
     74960   1.0919196      158.5          158.5          158.5          0.073658004    0.23665432     0.01384929    -0.029529595    1.0919196    
     74980   1.4555958      158.5          158.5          158.5         -0.38241214    -0.052515761    0.021762443   -1.1164831      1.4555958    
     75000   0.84510314     158.5          158.5          158.5         -0.039685862    0.15566855     0.086294211   -0.36102034     0.84510314   
     75020   0.80267594     158.5          158.5          158.5         -0.035642908    0.02824204    -0.065932819   -0.069237944    0.80267594   
     75040   1.0093769      158.5          158.5          158.5          0.18707689     0.23961319    -0.020634235    0.34225172     1.0093769    
     75060   0.96492146     158.5          158.5          158.5         -0.023380847    0.017519208   -0.0046230676  -0.083038682    0.96492146   
     75080   1.268483       158.5          158.5          158.5         -0.32364452    -0.1797023     -0.1103518     -0.68087946     1.268483     
     75100   0.36444291     158.5          158.5          158.5          0.21625532     0.25260809     0.12881293     0.26734494     0.36444291   
     75120   0.5475039      158.5          158.5          158.5          0.19168981     0.048137124    0.098102726    0.42882959     0.5475039    
     75140   0.26385967     158.5          158.5          158.5         -0.032677744   -0.072133838   -0.010125263   -0.01577413     0.26385967   
     75160   1.163949       158.5          158.5          158.5          0.04068318     0.049332714    0.16829628    -0.095579456    1.163949     
     75180   0.61612059     158.5          158.5          158.5         -0.069964412   -0.14632183    -0.0039434177  -0.059627987    0.61612059   
     75200   0.81514605     158.5          158.5          158.5          0.22771377     0.16589703     0.16325487     0.35398941     0.81514605   
     75220   0.2472448      158.5          158.5          158.5          0.21290457     0.25739789     0.12186378     0.25945205     0.2472448    
     75240   0.6380694      158.5          158.5          158.5         -0.30745223    -0.27318687    -0.23303413    -0.41613569     0.6380694    
     75260   0.66048578     158.5          158.5          158.5         -0.038123749   -0.12185444     0.11697417    -0.10949098     0.66048578   
     75280   0.81372444     158.5          158.5          158.5          0.12396689     0.21695396    -0.095761298    0.25070802     0.81372444   
     75300   1.0957379      158.5          158.5          158.5          0.039502301    0.19952395    -0.23259348     0.15157643     1.0957379    
     75320   0.57417316     158.5          158.5          158.5          0.019978426   -0.049951822    0.15483943    -0.044952333    0.57417316   
     75340   0.9699511      158.5          158.5          158.5         -0.36567762    -0.42377579    -0.40322489    -0.27003219     0.9699511    
     75360   0.24908969     158.5          158.5          158.5          0.01886875     0.04833938    -0.20746338     0.21573025     0.24908969   
     75380   1.625965       158.5          158.5          158.5          0.35233753     0.57554145     0.29958483     0.18188632     1.625965     
     75400   1.1303345      158.5          158.5          158.5         -0.094820066    0.013273919   -0.036977435   -0.26075668     1.1303345    
     75420   1.9835677      158.5          158.5          158.5         -0.063847303   -0.29664039    -0.14041529     0.24551376     1.9835677    
     75440   0.73775154     158.5          158.5          158.5         -0.0072725456   0.01666933    -0.018745804   -0.019741162    0.73775154   
     75460   1.0812041      158.5          158.5          158.5          0.10383571     0.40203534     0.22253982    -0.31306803     1.0812041    
     75480   0.77576085     158.5          158.5          158.5          0.36489267     0.47524442     0.27882282     0.34061077     0.77576085   
     75500   0.88037522     158.5          158.5          158.5         -0.19869764    -0.31029182    -0.25254149    -0.033259598    0.88037522   
     75520   1.1132139      158.5          158.5          158.5         -0.17092021    -0.24181081    -0.20642851    -0.064521314    1.1132139    
     75540   0.7196235      158.5          158.5          158.5          0.24638887     0.35040059     0.23773718     0.15102886     0.7196235    
     75560   0.72568906     158.5          158.5          158.5          0.057389237    0.18389028     0.13126588    -0.14298844     0.72568906   
     75580   0.1056716      158.5          158.5          158.5          0.016245815    0.081519437   -0.059599717    0.026817724    0.1056716    
     75600   0.65202937     158.5          158.5          158.5         -0.12248534    -0.26211886    -0.19170929     0.08637213     0.65202937   
     75620   0.43683112     158.5          158.5          158.5         -0.085964029   -0.20846807    -0.0063880647  -0.043035951    0.43683112   
     75640   0.9695659      158.5          158.5          158.5          0.28896821     0.56181925     0.26706027     0.038025099    0.9695659    
     75660   0.33353453     158.5          158.5          158.5          0.019285706    0.14483733    -0.042578021   -0.04440219     0.33353453   
     75680   0.62563972     158.5          158.5          158.5         -0.21606639    -0.51024986    -0.15190396     0.013954661    0.62563972   
     75700   0.33570221     158.5          158.5          158.5          0.011708692   -0.078695242    0.028505549    0.085315769    0.33570221   
     75720   0.70454585     158.5          158.5          158.5         -0.0064051528   0.1717557     -0.13826686    -0.052704296    0.70454585   
     75740   0.91467196     158.5          158.5          158.5          0.19339914     0.24093369     0.33216849     0.0070952351   0.91467196   
     75760   0.84366784     158.5          158.5          158.5         -0.032790001   -0.1956415      0.083904257    0.013367238    0.84366784   
     75780   1.2972167      158.5          158.5          158.5         -0.39598668    -0.56178568    -0.58024254    -0.045931805    1.2972167    
     75800   0.2312979      158.5          158.5          158.5          0.21478858     0.25035331     0.31812984     0.07588259     0.2312979    
     75820   0.88573933     158.5          158.5          158.5          0.1866292      0.17653799     0.2738031      0.1095465      0.88573933   
     75840   0.73727943     158.5          158.5          158.5         -0.087840002    0.034495101   -0.31580678     0.017791676    0.73727943   
     75860   1.9095111      158.5          158.5          158.5          0.016034947    0.13298203    -0.006461418   -0.078415772    1.9095111    
     75880   1.0040929      158.5          158.5          158.5         -0.089973183   -0.17415783    -0.090233706   -0.0055280159   1.0040929    
     75900   1.2519149      158.5          158.5          158.5          0.3134352      0.59075392     0.10429906     0.24525262     1.2519149    
     75920   0.43016014     158.5          158.5          158.5          0.2596831      0.52342433     0.074345859    0.18127912     0.43016014   
     75940   0.89684724     158.5          158.5          158.5         -0.29967637    -0.41623434    -0.17333108    -0.30946369     0.89684724   
     75960   0.74786259     158.5          158.5          158.5          0.054525208    0.16619702     0.040043647   -0.042665043    0.74786259   
     75980   0.89808098     158.5          158.5          158.5          0.1183208      0.27315129    -0.0039580404   0.085769144    0.89808098   
     76000   1.0185414      158.5          158.5          158.5          0.073876778   -0.02955792     0.048492592    0.20269566     1.0185414    
     76020   0.46317742     158.5          158.5          158.5          0.061768115    0.0088675732   0.047336706    0.12910007     0.46317742   
     76040   0.70822438     158.5          158.5          158.5         -0.35220641    -0.38370929    -0.10089077    -0.57201917     0.70822438   
     76060   0.097094807    158.5          158.5          158.5         -0.0043460363  -0.080090076    0.026921368    0.040130599    0.097094807  
     76080   0.86187445     158.5          158.5          158.5          0.21943791     0.070045669    0.079235368    0.50903269     0.86187445   
     76100   0.56957532     158.5          158.5          158.5         -0.13006221    -0.18526619    -0.016912796   -0.18800763     0.56957532   
     76120   0.79099382     158.5          158.5          158.5         -0.070752935    0.0094888088  -0.02162396    -0.20012365     0.79099382   
     76140   0.31779024     158.5          158.5          158.5         -0.061648648   -0.10430789    -0.007331683   -0.073306368    0.31779024   
     76160   0.30350476     158.5          158.5          158.5          0.053571722    0.029037887    0.036244627    0.095432651    0.30350476   
     76180   0.35096897     158.5          158.5          158.5          0.23653818     0.33330008     0.04147847     0.33483599     0.35096897   
     76200   0.56621332     158.5          158.5          158.5         -0.13262614    -0.13129532    -0.0034487025  -0.26313439     0.56621332   
     76220   0.59937794     158.5          158.5          158.5         -0.065384724    0.028677126    0.0093440811  -0.23417538     0.59937794   
     76240   0.3744768      158.5          158.5          158.5          0.19389497     0.3010357      0.039782936    0.24086628     0.3744768    
     76260   0.40558014     158.5          158.5          158.5          0.045109033   -0.040453755    0.0010189903   0.17476186     0.40558014   
     76280   0.15822154     158.5          158.5          158.5          0.068104898    0.082498467    0.038736094    0.083080135    0.15822154   
     76300   0.82678543     158.5          158.5          158.5         -0.15287964     0.014993026    0.023300614   -0.49693257     0.82678543   
     76320   0.52510532     158.5          158.5          158.5         -0.099076955   -0.083592687   -0.051918926   -0.16171925     0.52510532   
     76340   1.1573557      158.5          158.5          158.5          0.31659937     0.11144354     0.05429558     0.78405898     1.1573557    
     76360   0.36679462     158.5          158.5          158.5         -0.049997434   -0.058771283   -0.058839942   -0.032381078    0.36679462   
     76380   0.80912909     158.5          158.5          158.5         -0.26446471    -0.057937055    0.013035024   -0.7484921      0.80912909   
     76400   0.54629125     158.5          158.5          158.5          0.014784178    0.033364646    0.16892336    -0.15793547     0.54629125   
     76420   1.1575062      158.5          158.5          158.5         -0.00087626285 -0.01269339    -0.21639048     0.22645508     1.1575062    
     76440   1.4722188      158.5          158.5          158.5          0.26539207     0.21240032    -0.025883717    0.60965961     1.4722188    
     76460   1.0334899      158.5          158.5          158.5         -0.040383123    0.016818459    0.15881026    -0.29677809     1.0334899    
     76480   1.251856       158.5          158.5          158.5         -0.33879812    -0.024333494   -0.061093876   -0.93096698     1.251856     
     76500   0.28981584     158.5          158.5          158.5          0.23846076     0.14799913     0.099090515    0.46829263     0.28981584   
     76520   1.0047983      158.5          158.5          158.5          0.14047569     0.11396995    -0.10826695     0.41572409     1.0047983    
     76540   0.76264189     158.5          158.5          158.5         -0.015957249    0.052584978    0.041486896   -0.14194362     0.76264189   
     76560   1.4444431      158.5          158.5          158.5         -0.0083622826   0.024021583    0.10858067    -0.15768911     1.4444431    
     76580   0.79341273     158.5          158.5          158.5         -0.14706206     0.027987629   -0.2509821     -0.21819172     0.79341273   
     76600   0.74013999     158.5          158.5          158.5          0.24749138     0.072138909    0.20746011     0.46287513     0.74013999   
     76620   0.11157658     158.5          158.5          158.5          0.15613179     0.049428628    0.097963121    0.32100363     0.11157658   
     76640   0.71445833     158.5          158.5          158.5         -0.27441231    -0.00097494689 -0.27677561    -0.54548638     0.71445833   
     76660   0.72157413     158.5          158.5          158.5          0.055736733    0.086951781    0.16098196    -0.080723541    0.72157413   
     76680   0.68284246     158.5          158.5          158.5          0.10614714     0.00070224486  0.033745273    0.28399391     0.68284246   
     76700   0.64429245     158.5          158.5          158.5          0.085123823   -0.043580972   -0.08872611     0.38767855     0.64429245   
     76720   0.20950208     158.5          158.5          158.5          0.065308053    0.11233627     0.12341172    -0.039823835    0.20950208   
     76740   0.71003258     158.5          158.5          158.5         -0.29370719    -0.017145632   -0.13617702    -0.72779892     0.71003258   
     76760   0.34679448     158.5          158.5          158.5          0.048203416    0.036729458   -0.0025302543   0.11041104     0.34679448   
     76780   1.0616284      158.5          158.5          158.5          0.24807929     0.046996684    0.2152204      0.48202077     1.0616284    
     76800   0.68674997     158.5          158.5          158.5         -0.1360124     -0.13770571    -0.027521515   -0.24280998     0.68674997   
     76820   1.1650101      158.5          158.5          158.5         -0.10520962     0.21178528    -0.098439003   -0.42897515     1.1650101    
     76840   0.23101692     158.5          158.5          158.5         -0.14775769    -0.0045099165  -0.14993005    -0.28883312     0.23101692   
     76860   1.0629171      158.5          158.5          158.5          0.096749506   -0.15423745     0.2187887      0.22569727     1.0629171    
     76880   1.43075        158.5          158.5          158.5          0.37879981     0.29317185     0.33709018     0.5061374      1.43075      
     76900   1.9901543      158.5          158.5          158.5         -0.27419082    -0.01561544    -0.33781166    -0.46914536     1.9901543    
     76920   1.7305463      158.5          158.5          158.5         -0.044349138    0.20290122    -0.14082277    -0.19512587     1.7305463    
     76940   0.81164045     158.5          158.5          158.5          0.31529727     0.23906595     0.3541384      0.35268745     0.81164045   
     76960   1.0861697      158.5          158.5          158.5          0.042379955   -0.06567451     0.24236275    -0.049548379    1.0861697    
     76980   0.47734426     158.5          158.5          158.5          0.16024992     0.28347823     0.11516358     0.082107955    0.47734426   
     77000   1.1161426      158.5          158.5          158.5         -0.12422837     0.095568638   -0.35913986    -0.1091139      1.1161426    
     77020   0.8600691      158.5          158.5          158.5         -0.058278401    0.0033811639  -0.028148711   -0.15006766     0.8600691    
     77040   1.3654391      158.5          158.5          158.5          0.36089929     0.18367481     0.58235324     0.31666982     1.3654391    
     77060   0.38415996     158.5          158.5          158.5         -0.067200939   -0.047256761   -0.11713503    -0.037211023    0.38415996   
     77080   0.58154632     158.5          158.5          158.5         -0.20955608    -0.066214901   -0.45723709    -0.10521625     0.58154632   
     77100   0.3876248      158.5          158.5          158.5         -0.01801093     0.029625156   -0.16669349     0.083035544    0.3876248    
     77120   0.9434297      158.5          158.5          158.5         -0.0525449     -0.044381868   -0.030400728   -0.082852106    0.9434297    
     77140   1.004965       158.5          158.5          158.5          0.20687626     0.14913037     0.30682619     0.16467221     1.004965     
     77160   0.59623926     158.5          158.5          158.5         -0.11289848    -0.014545771   -0.25431814    -0.069831534    0.59623926   
     77180   0.81604442     158.5          158.5          158.5         -0.28830819    -0.16239162    -0.63215281    -0.070380131    0.81604442   
     77200   0.29048548     158.5          158.5          158.5          0.2173112      0.1351704      0.26927696     0.24748624     0.29048548   
     77220   0.82118165     158.5          158.5          158.5          0.08502101     0.12165424     0.36031497    -0.22690618     0.82118165   
     77240   0.64020009     158.5          158.5          158.5          0.028017401    0.063963448    0.017479151    0.0026096038   0.64020009   
     77260   1.5116979      158.5          158.5          158.5          0.016652477    0.0034301537  -0.19193945     0.23846672     1.5116979    
     77280   0.80317921     158.5          158.5          158.5         -0.1588766     -0.14365082    -0.14812864    -0.18485034     0.80317921   
     77300   0.76570498     158.5          158.5          158.5          0.35531054     0.3111513      0.67874408     0.076036241    0.76570498   
     77320   0.25893216     158.5          158.5          158.5          0.1976197      0.27021499     0.21819556     0.10444856     0.25893216   
     77340   1.7857619      158.5          158.5          158.5         -0.34022072    -0.41063192    -0.61564568     0.0056154257   1.7857619    
     77360   1.690407       158.5          158.5          158.5          0.11565294     0.083995492    0.099242043    0.16372129     1.690407     
     77380   1.6308607      158.5          158.5          158.5          0.10686976     0.23720306     0.15655317    -0.073146944    1.6308607    
     77400   1.5960683      158.5          158.5          158.5          0.15672151     0.2024628      0.23787744     0.029824286    1.5960683    
     77420   1.075731       158.5          158.5          158.5          0.04782022    -0.0049992795   0.029838229    0.11862171     1.075731     
     77440   0.87354338     158.5          158.5          158.5         -0.37193477    -0.26429379    -0.76958336    -0.08192717     0.87354338   
     77460   0.27240616     158.5          158.5          158.5          0.11033749     0.2821266      0.0064574705   0.042428395    0.27240616   
     77480   0.97457782     158.5          158.5          158.5          0.19878586     0.098153009    0.41206699     0.086137565    0.97457782   
     77500   0.70110223     158.5          158.5          158.5         -0.11745155    -0.14980694    -0.16961803    -0.032929689    0.70110223   
     77520   0.92012994     158.5          158.5          158.5         -0.00082783912  0.16908715    -0.15208797    -0.019482696    0.92012994   
     77540   0.16658782     158.5          158.5          158.5         -0.089806155   -0.1186465     -0.079731097   -0.071040867    0.16658782   
     77560   0.42209494     158.5          158.5          158.5          0.054147035   -0.032121836    0.1361319      0.058431043    0.42209494   
     77580   0.60958723     158.5          158.5          158.5          0.20577247     0.28457605     0.13499551     0.19774584     0.60958723   
     77600   0.7743264      158.5          158.5          158.5         -0.21269986    -0.1215162     -0.30912944    -0.20745395     0.7743264    
     77620   0.8975088      158.5          158.5          158.5         -0.051514849   -0.12020641     0.08912159    -0.12345973     0.8975088    
     77640   0.59340566     158.5          158.5          158.5          0.1906028      0.15699799     0.18884678     0.22596363     0.59340566   
     77660   0.44161985     158.5          158.5          158.5          0.013974791    0.078785783   -0.11763445     0.080773037    0.44161985   
     77680   0.38755448     158.5          158.5          158.5          0.080352852    0.033578707    0.26156998    -0.054090125    0.38755448   
     77700   1.0592664      158.5          158.5          158.5         -0.16476237    -0.070225921   -0.1132789     -0.31078228     1.0592664    
     77720   0.9624299      158.5          158.5          158.5         -0.00031658672  0.028037472   -0.084070555    0.055083323    0.9624299    
     77740   1.5558033      158.5          158.5          158.5          0.40594753     0.20934575     0.50003578     0.50846106     1.5558033    
     77760   0.4179054      158.5          158.5          158.5         -0.069273883    0.053295131   -0.089198285   -0.17191849     0.4179054    
     77780   1.0882708      158.5          158.5          158.5         -0.17723236     0.013899456   -0.19198175    -0.35361477     1.0882708    
     77800   0.54435822     158.5          158.5          158.5          0.045121424    0.093130366    0.099793212   -0.057559306    0.54435822   
     77820   1.2526807      158.5          158.5          158.5         -0.025589748    0.023613345   -0.075958036   -0.024424554    1.2526807    
     77840   1.2770843      158.5          158.5          158.5          0.27136657     0.077269356    0.089586732    0.64724363     1.2770843    
     77860   1.1863907      158.5          158.5          158.5         -0.12872903     0.018150823   -0.11602659    -0.28831133     1.1863907    
     77880   1.0156592      158.5          158.5          158.5         -0.32783049    -0.059797985   -0.11629829    -0.80739519     1.0156592    
     77900   0.26964691     158.5          158.5          158.5          0.2025358      0.11730428     0.083268139    0.40703497     0.26964691   
     77920   0.49747178     158.5          158.5          158.5          0.024364004   -0.12641389    -0.04583812     0.24534403     0.49747178   
     77940   0.44532344     158.5          158.5          158.5         -0.046264936    0.0074834316  -0.0076527335  -0.1386255      0.44532344   
     77960   0.80794777     158.5          158.5          158.5         -0.010627486    0.16140871     0.010223109   -0.20351427     0.80794777   
     77980   0.42502618     158.5          158.5          158.5         -0.083681771   -0.10568483    -0.0093767581  -0.13598373     0.42502618   
     78000   0.42018191     158.5          158.5          158.5          0.22797258     0.083131537    0.062969632    0.53781657     0.42018191   
     78020   0.098044613    158.5          158.5          158.5          0.078189237    0.035544625    0.041936504    0.15708658     0.098044613  
     78040   0.51111199     158.5          158.5          158.5         -0.17399356    -0.0088400261  -0.035454894   -0.47768576     0.51111199   
     78060   0.54367982     158.5          158.5          158.5          0.11692554     0.21667516     0.017182502    0.11691896     0.54367982   
     78080   0.6949023      158.5          158.5          158.5          0.063882616   -0.14050057     0.016935746    0.31521267     0.6949023    
     78100   0.38914435     158.5          158.5          158.5          0.092725534   -0.030458301    0.0081780886   0.30045681     0.38914435   
     78120   0.28422561     158.5          158.5          158.5          0.023588205    0.21615454     0.016725418   -0.16211535     0.28422561   
     78140   0.57365907     158.5          158.5          158.5         -0.32049498    -0.17089701     0.0051806625  -0.7957686      0.57365907   
     78160   0.45391553     158.5          158.5          158.5          0.11333701     0.098209053    0.015700601    0.22610139     0.45391553   
     78180   1.139036       158.5          158.5          158.5          0.18321268     0.079320816    0.005665978    0.46465124     1.139036     
     78200   0.62999964     158.5          158.5          158.5         -0.18506525    -0.20903856    -0.021172328   -0.32498487     0.62999964   
     78220   1.0025714      158.5          158.5          158.5         -0.064751495    0.20524918     0.056823244   -0.45632692     1.0025714    
     78240   0.29274459     158.5          158.5          158.5         -0.13267707     0.026221949    0.031362504   -0.45561565     0.29274459   
     78260   0.6412247      158.5          158.5          158.5          0.12111203    -0.036993746   -0.0093464334   0.40967626     0.6412247    
     78280   0.91286895     158.5          158.5          158.5          0.26232693     0.15819509     0.040694106    0.58809159     0.91286895   
     78300   1.4859787      158.5          158.5          158.5         -0.25743348    -0.048947895    0.0015755666  -0.72492812     1.4859787    
     78320   0.9838175      158.5          158.5          158.5          0.019439205    0.096838769    0.12042718    -0.15894833     0.9838175    
     78340   0.59355778     158.5          158.5          158.5          0.23788466     0.056765046    0.062473901    0.59441502     0.59355778   
     78360   0.52434535     158.5          158.5          158.5          0.043709686    0.043322367   -0.13796852     0.22577521     0.52434535   
     78380   0.70078959     158.5          158.5          158.5          0.12093721     0.14874025     0.20925149     0.0048198809   0.70078959   
     78400   1.2983691      158.5          158.5          158.5         -0.19921989    -0.084226549    0.016594721   -0.53002785     1.2983691    
     78420   0.74070713     158.5          158.5          158.5          0.018125966    0.030214274   -0.082974582    0.10713821     0.74070713   
     78440   1.2152202      158.5          158.5          158.5          0.33698134     0.22085773     0.13656447     0.65352181     1.2152202    
     78460   0.35369405     158.5          158.5          158.5         -0.14227808    -0.01786102    -0.16858644    -0.24038677     0.35369405   
     78480   0.56458823     158.5          158.5          158.5         -0.14442667    -0.076515331    0.063375676   -0.42014035     0.56458823   
     78500   0.34124593     158.5          158.5          158.5          0.037175236    0.023749462    0.032405739    0.055370508    0.34124593   
     78520   0.81401726     158.5          158.5          158.5         -0.0011137563   0.066316943   -0.20277703     0.13311882     0.81401726   
     78540   0.5813293      158.5          158.5          158.5          0.17257026     0.097475423    0.15726865     0.26296671     0.5813293    
     78560   0.40810101     158.5          158.5          158.5         -0.11636492    -0.085567118   -0.072054938   -0.19147271     0.40810101   
     78580   0.24053553     158.5          158.5          158.5         -0.16890623    -0.11589806    -0.13295904    -0.2578616      0.24053553   
     78600   0.19155044     158.5          158.5          158.5          0.14868459     0.12727088     0.1455396      0.1732433      0.19155044   
     78620   0.46634597     158.5          158.5          158.5          0.020171642    0.046289381   -0.089610125    0.10383567     0.46634597   
     78640   0.3575537      158.5          158.5          158.5         -0.005813111   -0.041077333   -0.019535344    0.043173345    0.3575537    
     78660   0.5429434      158.5          158.5          158.5         -0.044837947   -0.027995887    0.069648964   -0.17616692     0.5429434    
     78680   0.21068354     158.5          158.5          158.5         -0.10469654    -0.039642907   -0.093846584   -0.18060012     0.21068354   
     78700   0.32250621     158.5          158.5          158.5          0.22072363     0.16065499     0.085482188    0.41603371     0.32250621   
     78720   0.22905009     158.5          158.5          158.5          0.037122624    0.06504094     0.055693144   -0.0093662119   0.22905009   
     78740   0.8812881      158.5          158.5          158.5         -0.21111835    -0.14240423    -0.069162565   -0.42178825     0.8812881    
     78760   0.77061932     158.5          158.5          158.5          0.1295907      0.073860277    0.066377388    0.24853444     0.77061932   
     78780   0.72695706     158.5          158.5          158.5          0.066255925    0.15511245     0.0044969715   0.039158356    0.72695706   
     78800   0.27649187     158.5          158.5          158.5          0.12126181     0.26123934     0.16028295    -0.05773685     0.27649187   
     78820   0.43698861     158.5          158.5          158.5          0.027190817   -0.012629354    0.016262365    0.07793944     0.43698861   
     78840   0.99612457     158.5          158.5          158.5         -0.29180009    -0.4284015     -0.20330967    -0.24368911     0.99612457   
     78860   0.75136104     158.5          158.5          158.5          0.18152269     0.3280097      0.085214325    0.13134405     0.75136104   
     78880   1.1026852      158.5          158.5          158.5          0.19564765     0.27910665     0.15053259     0.15730369     1.1026852    
     78900   0.62529428     158.5          158.5          158.5         -0.17874369    -0.35490672    -0.094896576   -0.086427768    0.62529428   
     78920   0.89099005     158.5          158.5          158.5         -0.073217932   -0.12750636    -0.14710016     0.054952722    0.89099005   
     78940   0.21945219     158.5          158.5          158.5         -0.16346359    -0.21311462    -0.1102766     -0.16699955     0.21945219   
     78960   1.1049914      158.5          158.5          158.5          0.1379084      0.044513105    0.21957984     0.14963225     1.1049914    
     78980   1.0239958      158.5          158.5          158.5          0.22846182     0.31768509     0.21527259     0.15242778     1.0239958    
     79000   1.4803054      158.5          158.5          158.5         -0.32187235    -0.32519813    -0.44285919    -0.19755974     1.4803054    
     79020   0.68489115     158.5          158.5          158.5          0.04931502    -0.00062456105  0.054099474    0.094470149    0.68489115   
     79040   0.39710523     158.5          158.5          158.5          0.20966058     0.32963706     0.22568827     0.073656399    0.39710523   
     79060   0.92738655     158.5          158.5          158.5          0.01033176     0.26150611    -0.19793244    -0.032578394    0.92738655   
     79080   0.85061176     158.5          158.5          158.5          0.17502192     0.2975462      0.15441074     0.07310883     0.85061176   
     79100   1.2145517      158.5          158.5          158.5         -0.1472023     -0.23116617    -0.20829343    -0.0021473105   1.2145517    
     79120   0.90742254     158.5          158.5          158.5          0.050513503    0.28638039    -0.1267937     -0.0080461706   0.90742254   
     79140   0.80502867     158.5          158.5          158.5          0.3230325      0.56325938     0.37206117     0.033776954    0.80502867   
     79160   0.19396233     158.5          158.5          158.5         -0.14065969    -0.34544498    -0.1165049      0.039970797    0.19396233   
     79180   0.6310996      158.5          158.5          158.5         -0.10797538    -0.18423637    -0.1656344      0.025944642    0.6310996    
     79200   0.43795495     158.5          158.5          158.5         -0.01363903    -0.0023882181  -0.041066849    0.0025379782   0.43795495   
     79220   0.94689096     158.5          158.5          158.5         -0.018531492   -0.13753847     0.0878905     -0.0059465064   0.94689096   
     79240   0.52431856     158.5          158.5          158.5          0.18136814     0.228443       0.28649141     0.029170008    0.52431856   
     79260   0.36573905     158.5          158.5          158.5         -0.20837254    -0.33424826    -0.28350401    -0.0073653278   0.36573905   
     79280   0.38310602     158.5          158.5          158.5         -0.18298662    -0.43323431    -0.12073542     0.0050098586   0.38310602   
     79300   0.3278691      158.5          158.5          158.5          0.19560858     0.25147029     0.28551821     0.049837251    0.3278691    
     79320   0.74477091     158.5          158.5          158.5          0.010187963    0.16873027    -0.1019069     -0.036259481    0.74477091   
     79340   0.5168897      158.5          158.5          158.5          0.037704433    0.065178957    0.017110173    0.030824168    0.5168897    
     79360   0.71862525     158.5          158.5          158.5         -0.046339224   -0.1476497     -0.018111839    0.02674387     0.71862525   
     79380   0.20498132     158.5          158.5          158.5         -0.11574462    -0.02611722    -0.19880201    -0.12231462     0.20498132   
     79400   0.62617181     158.5          158.5          158.5          0.34160608     0.61869144     0.24270396     0.16342283     0.62617181   
     79420   0.75336866     158.5          158.5          158.5          0.060155482   -0.00010379721  0.10619265     0.074377597    0.75336866   
     79440   1.7730122      158.5          158.5          158.5         -0.20570811    -0.16113578    -0.19060093    -0.26538762     1.7730122    
     79460   1.2622494      158.5          158.5          158.5          0.15465208     0.42727173    -0.0014909292   0.038175434    1.2622494    
     79480   1.286067       158.5          158.5          158.5          0.029214988   -0.087330003    0.10421482     0.070760143    1.286067     
     79500   0.78720715     158.5          158.5          158.5          0.17982356     0.22715456     0.11727353     0.1950426      0.78720715   
     79520   0.73147483     158.5          158.5          158.5         -0.015074094    0.096938359    0.010334074   -0.15249472     0.73147483   
     79540   1.0750976      158.5          158.5          158.5         -0.34552581    -0.45621963    -0.17415482    -0.40620298     1.0750976    
     79560   1.1655965      158.5          158.5          158.5          0.22289944     0.1594374      0.072827784    0.43643313     1.1655965    
     79580   1.4324888      158.5          158.5          158.5          0.15025137     0.20280417     0.096183428    0.1517665      1.4324888    
     79600   0.62099699     158.5          158.5          158.5         -0.13266792    -0.10861528    -0.080358003   -0.20903046     0.62099699   
     79620   0.82121446     158.5          158.5          158.5          0.011798858   -0.083751598    0.066328008    0.052820164    0.82121446   
     79640   0.1624984      158.5          158.5          158.5         -0.14849273    -0.072761115   -0.062289088   -0.31042799     0.1624984    
     79660   0.83867515     158.5          158.5          158.5          0.11750936     0.20256647    -0.026131458    0.17609307     0.83867515   
     79680   0.90339944     158.5          158.5          158.5          0.18895148     0.086675588    0.04767425     0.4325046      0.90339944   
     79700   0.84748759     158.5          158.5          158.5         -0.24441691    -0.21268604    -0.11602059    -0.4045441      0.84748759   
     79720   0.76533969     158.5          158.5          158.5         -0.0039089968   0.067865139    0.14300059    -0.22259272     0.76533969   
     79740   0.26821226     158.5          158.5          158.5          0.11847481     0.10604411     0.0055578036   0.24382253     0.26821226   
     79760   0.41851848     158.5          158.5          158.5          0.014756033    0.069926964   -0.17193735     0.14627848     0.41851848   
     79780   0.82134704     158.5          158.5          158.5          0.11485726     0.053564189    0.21496531     0.076042278    0.82134704   
     79800   1.0987028      158.5          158.5          158.5         -0.18080707    -0.056306833   -0.038738148   -0.44737622     1.0987028    
     79820   0.72860642     158.5          158.5          158.5          0.072646793    0.091194204    0.0047483519   0.12199782     0.72860642   
     79840   0.76149503     158.5          158.5          158.5          0.32810506     0.17828116     0.14312601     0.66290803     0.76149503   
     79860   0.20734493     158.5          158.5          158.5         -0.15418637     0.018894511   -0.22504349    -0.25641012     0.20734493   
     79880   1.4005254      158.5          158.5          158.5         -0.06577946     0.028208464    0.24353633    -0.46908318     1.4005254    
     79900   1.0546694      158.5          158.5          158.5          0.056383198    0.08376277     0.11058531    -0.025198492    1.0546694    
     79920   2.1532279      158.5          158.5          158.5          0.030551596    0.071008173   -0.31579648     0.3364431      2.1532279    
     79940   1.9308278      158.5          158.5          158.5          0.37421229     0.33206501     0.26804126     0.52253059     1.9308278    
     79960   1.5744469      158.5          158.5          158.5         -0.2780504      0.14287765     0.022850383   -0.99987923     1.5744469    
     79980   0.71422541     158.5          158.5          158.5         -0.29868461     0.037481561   -0.052512736   -0.88102266     0.71422541   
     80000   0.60428407     158.5          158.5          158.5          0.27138774     0.29372892     0.17019695     0.35023735     0.60428407   
     80020   1.2518937      158.5          158.5          158.5         -0.053582025   -0.16156022     0.030221237   -0.029407087    1.2518937    
     80040   1.1373154      158.5          158.5          158.5         -0.001450945    0.08367045     0.021331672   -0.10935496     1.1373154    
     80060   1.1063956      158.5          158.5          158.5         -0.023137353    0.20370977    -0.020081796   -0.25304004     1.1063956    
     80080   0.48433292     158.5          158.5          158.5         -0.11119221    -0.12710553    -0.040652574   -0.16581854     0.48433292   
     80100   0.63837075     158.5          158.5          158.5          0.31146001     0.18619074     0.16608598     0.58210332     0.63837075   
     80120   0.40521791     158.5          158.5          158.5          0.019560002    0.00053893914  0.048675694    0.0094653733   0.40521791   
     80140   0.96449886     158.5          158.5          158.5         -0.12571106     0.050823433   -0.051939516   -0.3760171      0.96449886   
     80160   1.0257236      158.5          158.5          158.5          0.2048605      0.28788857     0.089127245    0.23756568     1.0257236    
     80180   0.95081579     158.5          158.5          158.5          0.027091164   -0.171589       0.11687539     0.13598711     0.95081579   
     80200   0.24054954     158.5          158.5          158.5          0.14684851     0.070358821    0.1258383      0.2443484      0.24054954   
     80220   0.36502876     158.5          158.5          158.5         -0.0067084641   0.1648034     -0.056217842   -0.12871095     0.36502876   
     80240   0.72736345     158.5          158.5          158.5         -0.30008434    -0.13236395    -0.2300329     -0.53785618     0.72736345   
     80260   0.92268299     158.5          158.5          158.5          0.21483199     0.1013783      0.16526107     0.37785658     0.92268299   
     80280   1.0479634      158.5          158.5          158.5          0.10962558    -0.022347608    0.042716607    0.30850775     1.0479634    
     80300   0.47944603     158.5          158.5          158.5         -0.20029985    -0.098410345   -0.1786956     -0.32379361     0.47944603   
     80320   0.93679123     158.5          158.5          158.5         -0.040001346    0.064760904   -0.13246852    -0.052296421    0.93679123   
     80340   0.38755054     158.5          158.5          158.5         -0.16759426    -0.078599748   -0.34015966    -0.084023361    0.38755054   
     80360   0.81630895     158.5          158.5          158.5          0.16260472     0.098707132    0.17567038     0.21343666     0.81630895   
     80380   1.0355732      158.5          158.5          158.5          0.18211303     0.17419532     0.25027525     0.12186851     1.0355732    
     80400   1.5304585      158.5          158.5          158.5         -0.29426472    -0.14011586    -0.4609        -0.28177829     1.5304585    
     80420   0.72362875     158.5          158.5          158.5          0.10272941     0.066010546    0.10247453     0.13970314     0.72362875   
     80440   0.42681671     158.5          158.5          158.5          0.17597879     0.18123928     0.42589251    -0.079195434    0.42681671   
     80460   0.50416613     158.5          158.5          158.5          0.042007311    0.15820022     0.015702993   -0.047881284    0.50416613   
     80480   1.3300544      158.5          158.5          158.5          0.14909551     0.073838982    0.17261279     0.20083476     1.3300544    
     80500   1.3338416      158.5          158.5          158.5         -0.19486476    -0.1809505     -0.13984185    -0.26380193     1.3338416    
     80520   0.85526941     158.5          158.5          158.5          0.116245       0.14975238     0.15021432     0.04876829     0.85526941   
     80540   1.1256169      158.5          158.5          158.5          0.28072006     0.31177944     0.33157781     0.19880293     1.1256169    
     80560   0.401647       158.5          158.5          158.5         -0.18736705    -0.19752843    -0.21945035    -0.14512236     0.401647     
     80580   0.45983568     158.5          158.5          158.5         -0.040249757   -0.038345493   -0.11022555     0.027821773    0.45983568   
     80600   0.48172368     158.5          158.5          158.5          0.02828024     0.13546872    -0.09679103     0.046163024    0.48172368   
     80620   0.81795202     158.5          158.5          158.5          0.0050135475  -0.033082382    0.086680366   -0.038557342    0.81795202   
     80640   0.60569889     158.5          158.5          158.5          0.16082815     0.11610687     0.33824622     0.028131366    0.60569889   
     80660   0.4601932      158.5          158.5          158.5         -0.18102427    -0.069786781   -0.48237336     0.0090873253   0.4601932    
     80680   0.13339482     158.5          158.5          158.5         -0.11120822    -0.020161346   -0.33012096     0.016657645    0.13339482   
     80700   0.45022834     158.5          158.5          158.5          0.14999278     0.078344658    0.34968886     0.021944831    0.45022834   
     80720   0.69608822     158.5          158.5          158.5         -0.037031275   -0.032666687   -0.081247856    0.0028207187   0.69608822   
     80740   0.53713365     158.5          158.5          158.5          0.022947177    0.18108215    -0.10823578    -0.004004835    0.53713365   
     80760   0.78524082     158.5          158.5          158.5         -0.072310304   -0.13828604    -0.078236739   -0.00040813145  0.78524082   
     80780   0.32088892     158.5          158.5          158.5         -0.096764897   -0.20985564    -0.10925911     0.028820067    0.32088892   
     80800   0.44935377     158.5          158.5          158.5          0.3022264      0.50515212     0.3522153      0.049311779    0.44935377   
     80820   0.59657308     158.5          158.5          158.5         -0.040779804   -0.13974191    -0.014178161    0.031580663    0.59657308   
     80840   1.4962395      158.5          158.5          158.5         -0.17509644    -0.32318979    -0.19449317    -0.0076063634   1.4962395    
     80860   1.4227682      158.5          158.5          158.5          0.22673101     0.37918359     0.2509753      0.050034139    1.4227682    
     80880   1.3233096      158.5          158.5          158.5          0.061255422    0.031920809    0.16817619    -0.016330739    1.3233096    
     80900   0.42919482     158.5          158.5          158.5          0.20394231     0.023499527    0.53170423     0.056623168    0.42919482   
     80920   0.95849288     158.5          158.5          158.5         -0.011727886    0.034013561   -0.13655753     0.067360308    0.95849288   
     80940   0.91510204     158.5          158.5          158.5         -0.25206321    -0.10133615    -0.50182575    -0.15302774     0.91510204   
     80960   0.97537901     158.5          158.5          158.5          0.28637298     0.2312424      0.50405443     0.12382212     0.97537901   
     80980   1.3590869      158.5          158.5          158.5          0.084995533    0.093038058    0.088966813    0.072981727    1.3590869    
     81000   0.903364       158.5          158.5          158.5         -0.15600186    -0.072573056   -0.3887969     -0.0066356224   0.903364     
     81020   0.76388611     158.5          158.5          158.5         -0.011366965    0.03412329    -0.1020927      0.033868512    0.76388611   
     81040   0.25013632     158.5          158.5          158.5         -0.18613304    -0.00071500877 -0.30409023    -0.25359388     0.25013632   
     81060   0.58458239     158.5          158.5          158.5          0.11484359     0.066129332   -0.032431577    0.31083301     0.58458239   
     81080   0.88986502     158.5          158.5          158.5          0.082387582    0.0027738991   0.069387057    0.17500179     0.88986502   
     81100   1.1193119      158.5          158.5          158.5         -0.27274591    -0.098714568   -0.26078386    -0.45873931     1.1193119    
     81120   0.54367083     158.5          158.5          158.5          0.12723079     0.07052013     0.080107037    0.23106519     0.54367083   
     81140   0.5079908      158.5          158.5          158.5          0.0923302      0.068853818    0.076639079    0.1314977      0.5079908    
     81160   0.33549523     158.5          158.5          158.5         -0.024390588    0.045556753    0.070860348   -0.18958886     0.33549523   
     81180   0.60703829     158.5          158.5          158.5          0.13231747     0.12839382     0.13102168     0.1375369      0.60703829   
     81200   1.0438059      158.5          158.5          158.5         -0.125359      -0.062274698   -0.036063942   -0.27773836     1.0438059    
     81220   0.83448        158.5          158.5          158.5          0.15693503     0.17558105     0.21642252     0.07880153     0.83448      
     81240   0.60691638     158.5          158.5          158.5          0.27238694     0.19188738     0.23210987     0.39316358     0.60691638   
     81260   0.38281291     158.5          158.5          158.5         -0.18829644    -0.1655688     -0.12761573    -0.27170479     0.38281291   
     81280   0.72503931     158.5          158.5          158.5         -0.00099808956  0.21744238     0.011969015   -0.23240566     0.72503931   
     81300   1.0382135      158.5          158.5          158.5          0.016793199    0.025363552    0.059578122   -0.034562075    1.0382135    
     81320   1.9301212      158.5          158.5          158.5          0.036438212   -0.19721425     0.0086644404   0.29786445     1.9301212    
     81340   1.2319814      158.5          158.5          158.5          0.2598573      0.29385535     0.12837598     0.35734056     1.2319814    
     81360   1.8908119      158.5          158.5          158.5         -0.41143029    -0.13828445    -0.082830786   -1.0131756      1.8908119    
     81380   0.65515792     158.5          158.5          158.5         -0.13272521     0.05341356     0.05693556    -0.50852475     0.65515792   
     81400   0.47264539     158.5          158.5          158.5          0.27380119     0.1946737      0.1445657      0.48216417     0.47264539   
     81420   1.2072325      158.5          158.5          158.5         -0.10333325    -0.23708972    -0.064657963   -0.0082520613   1.2072325    
     81440   1.1990379      158.5          158.5          158.5          0.060305983    0.16458805     0.07691044    -0.060580539    1.1990379    
     81460   1.1427499      158.5          158.5          158.5         -0.043577097    0.127526       0.024267126   -0.28252441     1.1427499    
     81480   0.64740138     158.5          158.5          158.5         -0.050109127   -0.079138061   -0.11999948     0.048810163    0.64740138   
     81500   0.33730996     158.5          158.5          158.5          0.30457695     0.11521302     0.14212436     0.65639346     0.33730996   
     81520   0.48475354     158.5          158.5          158.5         -0.086255229    0.042109646    0.00045101706 -0.30132635     0.48475354   
     81540   0.89295357     158.5          158.5          158.5         -0.098876107    0.03613882    -0.0010052154  -0.33176193     0.89295357   
     81560   0.76779781     158.5          158.5          158.5          0.19099752     0.050322469    0.099817289    0.4228528      0.76779781   
     81580   1.1734762      158.5          158.5          158.5          0.020734578   -0.030700504   -0.12452733     0.21743157     1.1734762    
     81600   0.30539005     158.5          158.5          158.5          0.13312204     0.065191233    0.097873539    0.23630134     0.30539005   
     81620   0.40635944     158.5          158.5          158.5         -0.092249222    0.048542241    0.060772092   -0.386062       0.40635944   
     81640   0.5622728      158.5          158.5          158.5         -0.20107297     0.01063353    -0.12243929    -0.49141315     0.5622728    
     81660   0.99374893     158.5          158.5          158.5          0.2719405      0.077673459    0.17096424     0.56718381     0.99374893   
     81680   1.1853972      158.5          158.5          158.5          0.015963205    0.060648605   -0.17564424     0.16288525     1.1853972    
     81700   0.81861018     158.5          158.5          158.5         -0.14486242     0.013426679   -0.067891303   -0.38012262     0.81861018   
     81720   0.67373566     158.5          158.5          158.5          0.019968439    0.039348498    0.21472844    -0.19417162     0.67373566   
     81740   0.52976422     158.5          158.5          158.5         -0.15087689     0.049747969   -0.26218704    -0.24019161     0.52976422   
     81760   1.0469404      158.5          158.5          158.5          0.19395024     0.10311323     0.036661657    0.44207583     1.0469404    
     81780   0.94689208     158.5          158.5          158.5          0.086293225    0.034028166    0.044098993    0.18075252     0.94689208   
     81800   1.8007164      158.5          158.5          158.5         -0.32465315    -0.094962862   -0.22224828    -0.65674832     1.8007164    
     81820   1.1964425      158.5          158.5          158.5          0.14236224     0.12550898     0.21809494     0.083482805    1.1964425    
     81840   0.65657456     158.5          158.5          158.5          0.13995513     0.099044553   -0.01238802     0.33320885     0.65657456   
     81860   0.24396244     158.5          158.5          158.5          0.01359839     0.030976509   -0.0037192787   0.013537941    0.24396244   
     81880   1.0523821      158.5          158.5          158.5          0.0654747      0.308174       0.10076385    -0.21251375     1.0523821    
     81900   1.22645        158.5          158.5          158.5         -0.17347618    -0.1407936     -0.025024592   -0.35461037     1.22645      
     81920   1.1232963      158.5          158.5          158.5          0.21507051     0.12650858     0.11824643     0.40045652     1.1232963    
     81940   0.77793312     158.5          158.5          158.5          0.26792964     0.44179216     0.15761847     0.2043783      0.77793312   
     81960   0.52382583     158.5          158.5          158.5         -0.17646392    -0.075824146   -0.045822388   -0.40774524     0.52382583   
     81980   0.52104983     158.5          158.5          158.5          0.011095404   -0.0010262979  -0.040041879    0.074354388    0.52104983   
     82000   0.21945947     158.5          158.5          158.5          0.028537564    0.04972655     0.020213033    0.015673107    0.21945947   
     82020   0.87533679     158.5          158.5          158.5          0.029644797    0.066706593    0.072572385   -0.050344586    0.87533679   
     82040   0.63435947     158.5          158.5          158.5          0.14156383     0.094006977    0.098061477    0.23262303     0.63435947   
     82060   0.61370113     158.5          158.5          158.5         -0.24270402    -0.36582282    -0.17423361    -0.18805563     0.61370113   
     82080   0.17053322     158.5          158.5          158.5         -0.089689927   -0.10240925    -0.064133977   -0.10252655     0.17053322   
     82100   0.30273164     158.5          158.5          158.5          0.15144041     0.060251941    0.18195668     0.21211262     0.30273164   
     82120   0.78470405     158.5          158.5          158.5         -0.11054365    -0.32844251    -0.0089046205   0.0057161654   0.78470405   
     82140   0.99756431     158.5          158.5          158.5         -0.020082694    0.06755681    -0.11072362    -0.017081269    0.99756431   
     82160   0.73883503     158.5          158.5          158.5         -0.071059746   -0.07262849    -0.086932102   -0.053618646    0.73883503   
     82180   0.77093393     158.5          158.5          158.5         -0.034386505   -0.16095426     0.058525249   -0.00073050007  0.77093393   
     82200   0.6196701      158.5          158.5          158.5          0.32422755     0.55268184     0.26645903     0.15354178     0.6196701    
     82220   0.45889308     158.5          158.5          158.5         -0.11659284     0.0039161229  -0.3292071     -0.024487548    0.45889308   
     82240   1.4275619      158.5          158.5          158.5         -0.057243231   -0.0827744     -0.0930745      0.0041192085   1.4275619    
     82260   1.3155179      158.5          158.5          158.5          0.28349433     0.59230854     0.1849153      0.073259142    1.3155179    
     82280   1.7679194      158.5          158.5          158.5          0.071264278    0.41646752    -0.26769852     0.06502384     1.7679194    
     82300   0.60080682     158.5          158.5          158.5          0.24292223     0.36658303     0.30276583     0.059417817    0.60080682   
     82320   0.58892658     158.5          158.5          158.5         -0.11244462    -0.25945459    -0.14207062     0.064191344    0.58892658   
     82340   0.70008612     158.5          158.5          158.5         -0.25324239    -0.30568202    -0.48297992     0.028934764    0.70008612   
     82360   1.0797766      158.5          158.5          158.5          0.30528542     0.39458044     0.46264767     0.058628144    1.0797766    
     82380   1.0799308      158.5          158.5          158.5          0.015851151   -0.050694153    0.1410833     -0.042835694    1.0799308    
     82400   1.0952623      158.5          158.5          158.5         -0.17118805    -0.264083      -0.25231266     0.0028315126   1.0952623    
     82420   1.0038006      158.5          158.5          158.5         -0.048040003   -0.23974481    -0.017475431    0.11310023     1.0038006    
     82440   0.3091273      158.5          158.5          158.5         -0.15094377    -0.38580681    -0.0096514224  -0.05737308     0.3091273    
     82460   0.48637379     158.5          158.5          158.5          0.18470887     0.32169454     0.17921987     0.053212194    0.48637379   
     82480   0.62376938     158.5          158.5          158.5          0.0041281987   0.039112875   -0.039117478    0.012389199    0.62376938   
     82500   1.3430086      158.5          158.5          158.5         -0.25753483    -0.52266205    -0.17771224    -0.072230185    1.3430086    
     82520   0.79930217     158.5          158.5          158.5          0.19241352     0.30682999     0.1065047      0.16390587     0.79930217   
     82540   0.6342148      158.5          158.5          158.5          0.088250661    0.32250741     0.10141528    -0.15917071     0.6342148    
     82560   0.26034549     158.5          158.5          158.5          0.043918965    0.075088944    0.047689257    0.0089786944   0.26034549   
     82580   0.80595298     158.5          158.5          158.5          0.071070571    0.058876219   -0.012221454    0.16655695     0.80595298   
     82600   0.81437605     158.5          158.5          158.5         -0.17169029    -0.051883682   -0.077666854   -0.38552033     0.81437605   
     82620   1.1357458      158.5          158.5          158.5          0.24537563     0.4100608      0.14591032     0.18015577     1.1357458    
     82640   0.99491938     158.5          158.5          158.5          0.23035699     0.29543598     0.077002373    0.31863261     0.99491938   
     82660   0.58348064     158.5          158.5          158.5         -0.24092594    -0.21377336    -0.088412162   -0.4205923      0.58348064   
     82680   0.67135806     158.5          158.5          158.5          0.013285601   -0.030144518    0.078986058   -0.0089847361   0.67135806   
     82700   0.59932511     158.5          158.5          158.5          0.018857802   -0.017534794   -0.048951735    0.12305993     0.59932511   
     82720   2.0207614      158.5          158.5          158.5          0.1216139      0.32902381    -0.057550213    0.0933681      2.0207614    
     82740   1.9060946      158.5          158.5          158.5          0.20649378     0.37205398     0.044332123    0.20309525     1.9060946    
     82760   2.2293252      158.5          158.5          158.5         -0.37299995    -0.45282272    -0.27262572    -0.3935514      2.2293252    
     82780   1.2940306      158.5          158.5          158.5          0.016157981    0.04971498     0.088679115   -0.089920152    1.2940306    
     82800   0.88517202     158.5          158.5          158.5          0.19680592     0.29918381     0.036089486    0.25514447     0.88517202   
     82820   0.44095494     158.5          158.5          158.5         -0.10582064     0.057056204   -0.34423998    -0.030278136    0.44095494   
     82840   0.99821576     158.5          158.5          158.5          0.0049621711   0.00066473539  0.16100092    -0.14677914     0.99821576   
     82860   1.0628241      158.5          158.5          158.5         -0.15117925    -0.12326969    -0.040735419   -0.28953263     1.0628241    
     82880   0.84512187     158.5          158.5          158.5          0.025770421    0.056396832   -0.12842071     0.14933514     0.84512187   
     82900   0.72762497     158.5          158.5          158.5          0.30490027     0.24947122     0.15787469     0.5073549      0.72762497   
     82920   0.17236724     158.5          158.5          158.5         -0.15189324    -0.09894506    -0.08596533    -0.27076932     0.17236724   
     82940   0.67780276     158.5          158.5          158.5         -0.11265173    -0.092688062    0.079450466   -0.3247176      0.67780276   
     82960   0.59668927     158.5          158.5          158.5          0.17509874     0.13726288     0.12202617     0.26600718     0.59668927   
     82980   1.1014783      158.5          158.5          158.5          0.089751752   -0.0048183125  -0.14403464     0.4181082      1.1014783    
     83000   0.63090346     158.5          158.5          158.5          0.19246753     0.039151031    0.075284051    0.46296752     0.63090346   
     83020   0.73137199     158.5          158.5          158.5         -0.10918389     0.017669298    0.060267377   -0.40548836     0.73137199   
     83040   0.22046625     158.5          158.5          158.5         -0.14161862    -0.016546254   -0.0044711602  -0.40383844     0.22046625   
     83060   0.73622278     158.5          158.5          158.5          0.28942333     0.13201153     0.037428275    0.69883018     0.73622278   
     83080   1.0165116      158.5          158.5          158.5          0.0038227382  -0.045769241   -0.040780562    0.098018017    1.0165116    
     83100   1.1900762      158.5          158.5          158.5         -0.11888396     0.10572866     0.028542448   -0.49092299     1.1900762    
     83120   1.2196022      158.5          158.5          158.5         -0.060612571    0.14549897     0.026503895   -0.35384058     1.2196022    
     83140   0.47151104     158.5          158.5          158.5         -0.16490316    -0.18351084     0.012658263   -0.32385689     0.47151104   
     83160   0.82563141     158.5          158.5          158.5          0.18961584     0.26188392     0.10822063     0.19874297     0.82563141   
     83180   0.93769945     158.5          158.5          158.5         -0.076631718    0.048646598    0.021109206   -0.29965096     0.93769945   
     83200   1.6739629      158.5          158.5          158.5         -0.3369638     -0.11472995    -0.099406723   -0.79675473     1.6739629    
     83220   1.4298657      158.5          158.5          158.5          0.24269823     0.37306291     0.031435723    0.32359604     1.4298657    
     83240   1.5323318      158.5          158.5          158.5          0.10993493    -0.13749179     0.10536519     0.36193138     1.5323318    
     83260   0.32353825     158.5          158.5          158.5          0.067893603   -0.043550117    0.11599344     0.13123748     0.32353825   
     83280   0.57875479     158.5          158.5          158.5          0.071124445    0.29805363     0.046444963   -0.13112526     0.57875479   
     83300   0.57015268     158.5          158.5          158.5         -0.15538507    -0.024561227   -0.11111843    -0.33047555     0.57015268   
     83320   0.71887729     158.5          158.5          158.5          0.24580084     0.089847984    0.22695741     0.42059713     0.71887729   
     83340   0.72917596     158.5          158.5          158.5          0.21485642     0.075829482    0.17353991     0.39519987     0.72917596   
     83360   0.40764008     158.5          158.5          158.5         -0.1348543     -0.02105756    -0.14261271    -0.24089264     0.40764008   
     83380   0.42943697     158.5          158.5          158.5          0.0063677644   0.12251875     0.054556655   -0.15797211     0.42943697   
     83400   0.18232941     158.5          158.5          158.5         -0.036849452   -0.02501353    -0.018961922   -0.066572902    0.18232941   
     83420   0.58237351     158.5          158.5          158.5          0.061550369   -0.045326104   -0.048716047    0.27869326     0.58237351   
     83440   0.58136017     158.5          158.5          158.5          0.094972259    0.075706211    0.009958242    0.19925232     0.58136017   
     83460   0.91660842     158.5          158.5          158.5         -0.31923747    -0.061681656   -0.33125536    -0.56477539     0.91660842   
     83480   0.29232147     158.5          158.5          158.5         -0.033400757    0.012027103   -0.1813907      0.069161322    0.29232147   
     83500   0.29294987     158.5          158.5          158.5          0.13044008     0.038983444   -0.0073661618   0.35970295     0.29294987   
     83520   0.51305043     158.5          158.5          158.5         -0.1250872      0.0027879309  -0.13729761    -0.24075191     0.51305043   
     83540   1.1047153      158.5          158.5          158.5          0.034345213    0.030286648    0.032207975    0.040541016    1.1047153    
     83560   1.1635792      158.5          158.5          158.5         -0.11521747     0.011893427   -0.23150763    -0.12603819     1.1635792    
     83580   0.86547817     158.5          158.5          158.5          0.051406172    0.068925675    0.14002612    -0.054733279    0.86547817   
     83600   0.77236709     158.5          158.5          158.5          0.36527003     0.15467641     0.54710047     0.39403322     0.77236709   
     83620   0.71069873     158.5          158.5          158.5         -0.16091547     0.030714979   -0.25719843    -0.25626295     0.71069873   
     83640   0.84537318     158.5          158.5          158.5         -0.034020594   -0.0014880314   0.071691261   -0.17226501     0.84537318   
     83660   0.80515334     158.5          158.5          158.5          0.20363304     0.080550328    0.48510264     0.045246139    0.80515334   
     83680   1.7156513      158.5          158.5          158.5          0.082592047    0.093913014    0.088441107    0.06542202     1.7156513    
     83700   0.78856987     158.5          158.5          158.5          0.23716018     0.158848       0.4140147      0.13861785     0.78856987   
     83720   0.84911218     158.5          158.5          158.5         -0.17547015    -0.17076821    -0.1585567     -0.19708554     0.84911218   
     83740   0.19579824     158.5          158.5          158.5         -0.13775773     0.00040396922 -0.37877314    -0.03490402     0.19579824   
     83760   0.69281567     158.5          158.5          158.5          0.28011437     0.34510613     0.30478408     0.19045291     0.69281567   
     83780   1.1688285      158.5          158.5          158.5         -0.067793109   -0.2073392      0.0084547265  -0.004494856    1.1688285    
     83800   0.8726608      158.5          158.5          158.5         -0.083640236    0.048305472   -0.27982767    -0.01939851     0.8726608    
     83820   0.94882374     158.5          158.5          158.5         -0.035840041    0.22943709    -0.33369357    -0.0032636384   0.94882374   
     83840   0.64078341     158.5          158.5          158.5         -0.14177452    -0.25231226    -0.18605164     0.013040332    0.64078341   
     83860   0.38150024     158.5          158.5          158.5          0.19238321     0.21024284     0.30442683     0.062479963    0.38150024   
     83880   0.4363159      158.5          158.5          158.5         -0.053397921    0.16833936    -0.34560258     0.017069456    0.4363159    
     83900   1.1219134      158.5          158.5          158.5         -0.24432764    -0.23131808    -0.48174487    -0.019919975    1.1219134    
     83920   0.8946805      158.5          158.5          158.5          0.14764505     0.090197477    0.35187477     0.00086289506  0.8946805    
     83940   0.89223226     158.5          158.5          158.5          0.063892169    0.10105387     0.074116849    0.016505789    0.89223226   
     83960   0.093131097    158.5          158.5          158.5          0.091313535    0.11050911     0.11405705     0.049374441    0.093131097  
     83980   0.72204703     158.5          158.5          158.5         -0.012346113   -0.13804786     0.036611469    0.064398052    0.72204703   
     84000   0.93982736     158.5          158.5          158.5         -0.17402519    -0.20853871    -0.25440674    -0.059130111    0.93982736   
     84020   1.2411945      158.5          158.5          158.5          0.36757611     0.41298401     0.618817       0.070927311    1.2411945    
     84040   1.3593331      158.5          158.5          158.5          0.29894114     0.13719168     0.7411553      0.018476447    1.3593331    
     84060   1.5129283      158.5          158.5          158.5         -0.1768206     -0.26797548    -0.17071831    -0.091768018    1.5129283    
     84080   1.2378086      158.5          158.5          158.5          0.10379174     0.13251789    -0.13194004     0.31079736     1.2378086    
     84100   0.20474551     158.5          158.5          158.5          0.025740512    0.19380626     0.066167783   -0.18275251     0.20474551   
     84120   1.1852418      158.5          158.5          158.5          0.13670194     0.1963792      0.35695578    -0.14322916     1.1852418    
     84140   1.2850943      158.5          158.5          158.5          0.10781783     0.012109076   -0.093346449    0.40469087     1.2850943    
     84160   1.6479686      158.5          158.5          158.5         -0.35585398    -0.22890209    -0.64214443    -0.19651543     1.6479686    
     84180   0.78072549     158.5          158.5          158.5         -0.014036825   -0.034824191    0.04948014    -0.056766425    0.78072549   
     84200   0.65440265     158.5          158.5          158.5          0.094018377   -0.019099032    0.036563472    0.26459069     0.65440265   
     84220   0.37210033     158.5          158.5          158.5         -0.14042294    -0.18738178    -0.26562851     0.031741461    0.37210033   
     84240   0.69420167     158.5          158.5          158.5         -0.05184036     0.081047241   -0.16362729    -0.072941028    0.69420167   
     84260   0.75173093     158.5          158.5          158.5         -0.1335903     -0.050456106   -0.15475909    -0.1955557      0.75173093   
     84280   0.89296259     158.5          158.5          158.5          0.086512177   -0.037709126    0.11189922     0.18534644     0.89296259   
     84300   0.58228238     158.5          158.5          158.5          0.27227056     0.25328331     0.2582937      0.30523467     0.58228238   
     84320   0.29612977     158.5          158.5          158.5         -0.13910206    -0.0011710714  -0.084525469   -0.33160965     0.29612977   
     84340   0.48242301     158.5          158.5          158.5          0.0017415241   0.17695658    -0.071898798   -0.099833206    0.48242301   
     84360   0.49624709     158.5          158.5          158.5          0.20652789     0.28077654     0.14718076     0.19162636     0.49624709   
     84380   1.2202503      158.5          158.5          158.5          0.11566489     0.075199242    0.12909902     0.14269642     1.2202503    
     84400   0.62446887     158.5          158.5          158.5          0.22932296     0.2886858      0.096634096    0.30264898     0.62446887   
     84420   0.78641491     158.5          158.5          158.5         -0.14408265     0.039007812   -0.14135128    -0.32990448     0.78641491   
     84440   0.33536136     158.5          158.5          158.5         -0.13832631    -0.035191048   -0.073739036   -0.30604885     0.33536136   
     84460   0.60292622     158.5          158.5          158.5          0.2738185      0.15967683     0.1869134      0.47486528     0.60292622   
     84480   1.1058892      158.5          158.5          158.5         -0.086890595   -0.24323512     0.042360705   -0.059797371    1.1058892    
     84500   1.5505414      158.5          158.5          158.5         -0.16454604    -0.042887789   -0.10470556    -0.34604478     1.5505414    
     84520   1.3825268      158.5          158.5          158.5         -0.098352769    0.03902507    -0.010366627   -0.32371675     1.3825268    
     84540   1.0106729      158.5          158.5          158.5         -0.14215688    -0.19789225     0.049622879   -0.27820126     1.0106729    
     84560   0.51260244     158.5          158.5          158.5          0.21127773     0.093161245    0.15490728     0.38576468     0.51260244   
     84580   0.61305687     158.5          158.5          158.5         -0.14527953     0.088071802   -0.07628209    -0.44762829     0.61305687   
     84600   1.3884073      158.5          158.5          158.5         -0.236253       0.043472345    0.0093660153  -0.76159737     1.3884073    
     84620   0.87565019     158.5          158.5          158.5          0.2416801      0.096967875    0.18485664     0.44321577     0.87565019   
     84640   1.1909772      158.5          158.5          158.5          0.078473303   -0.028210501   -0.2009303      0.46456071     1.1909772    
     84660   0.3766429      158.5          158.5          158.5          0.1109203      0.03459708     0.073384484    0.22477934     0.3766429    
     84680   0.39646382     158.5          158.5          158.5          0.024420462    0.064966595    0.16486871    -0.15657392     0.39646382   
     84700   0.36393748     158.5          158.5          158.5         -0.10595003     0.0093036614  -0.16190028    -0.16525347     0.36393748   
     84720   0.64724608     158.5          158.5          158.5          0.26830635     0.022335336    0.12427225     0.65831147     0.64724608   
     84740   0.65312385     158.5          158.5          158.5          0.1341917      0.016658655    0.02789132     0.35802512     0.65312385   
     84760   0.5979066      158.5          158.5          158.5         -0.15065856     0.0092489144  -0.11228857    -0.34893602     0.5979066    
     84780   0.36611929     158.5          158.5          158.5          0.022409427    0.03289939     0.18157015    -0.14724126     0.36611929   
     84800   0.22786652     158.5          158.5          158.5         -0.040721791    0.037783391   -0.097501269   -0.062447494    0.22786652   
     84820   0.66243767     158.5          158.5          158.5          0.074519008    0.027632723   -0.084561745    0.28048605     0.66243767   
     84840   0.71449189     158.5          158.5          158.5          0.019621143   -0.013767702    0.064715215    0.0079159174   0.71449189   
     84860   1.1696438      158.5          158.5          158.5         -0.30508121    -0.037194398   -0.14401262    -0.73403662     1.1696438    
     84880   0.63529432     158.5          158.5          158.5          0.043497407    0.020734349    0.078691693    0.03106618     0.63529432   
     84900   0.46483621     158.5          158.5          158.5          0.078807563    0.059885456   -0.08757815     0.26411538     0.46483621   
     84920   0.29400078     158.5          158.5          158.5         -0.1141574     -0.019885783   -0.16198482    -0.1606016      0.29400078   
     84940   1.1795835      158.5          158.5          158.5         -0.0032013708   0.046701669    0.13528577    -0.19159155     1.1795835    
     84960   1.1908914      158.5          158.5          158.5         -0.16790946     0.017185016   -0.076157826   -0.44475556     1.1908914    
     84980   1.2433879      158.5          158.5          158.5          0.16186928     0.096374591    0.0045116277   0.38472161     1.2433879    
     85000   0.73633899     158.5          158.5          158.5          0.32993347     0.20290391     0.13074176     0.65615474     0.73633899   
     85020   0.65771275     158.5          158.5          158.5         -0.2055615      0.038497865    0.028379533   -0.68356189     0.65771275   
     85040   0.90031941     158.5          158.5          158.5          0.015115737    0.27437682     0.096553361   -0.32558297     0.90031941   
     85060   0.62812739     158.5          158.5          158.5          0.21962002     0.2294858      0.023854806    0.40551946     0.62812739   
     85080   1.3653382      158.5          158.5          158.5          0.13814088     0.16324584     0.035329594    0.21584722     1.3653382    
     85100   1.0320514      158.5          158.5          158.5          0.19113079     0.45187001     0.12451722    -0.0029948532   1.0320514    
     85120   0.90088295     158.5          158.5          158.5         -0.15881949    -0.061663961   -0.096588113   -0.3182064      0.90088295   
     85140   0.14462384     158.5          158.5          158.5         -0.030193713   -0.086128721   -0.0064354647   0.0019830467   0.14462384   
     85160   0.49701002     158.5          158.5          158.5          0.22318941     0.30018958     0.11278762     0.25659103     0.49701002   
     85180   0.67109601     158.5          158.5          158.5         -0.10045021    -0.21069666    -0.026116458   -0.064537519    0.67109601   
     85200   1.045588       158.5          158.5          158.5         -0.090335544   -0.2208604     -0.036576176   -0.013570059    1.045588     
     85220   0.63592783     158.5          158.5          158.5         -0.080506413   -0.096481087   -0.077780989   -0.067257164    0.63592783   
     85240   0.47126353     158.5          158.5          158.5         -0.096217184   -0.23519875    -0.019986365   -0.033466431    0.47126353   
     85260   0.29933362     158.5          158.5          158.5          0.09603046    -0.09655593     0.18144771     0.2031996      0.29933362   
     85280   0.14533423     158.5          158.5          158.5         -0.12420092    -0.21905552    -0.066868227   -0.086678999    0.14533423   
     85300   0.39749801     158.5          158.5          158.5         -0.144878      -0.12627349    -0.13820024    -0.17016026     0.39749801   
     85320   0.36153044     158.5          158.5          158.5          0.11413906     0.097038888    0.13750776     0.10787054     0.36153044   
     85340   0.30739177     158.5          158.5          158.5          0.039213827    0.022202904    0.027253958    0.068184619    0.30739177   
     85360   0.1016712      158.5          158.5          158.5          0.048728361    0.21030727    -0.05478604    -0.0093361494   0.1016712    
     85380   0.22448394     158.5          158.5          158.5          0.0048236513   0.1007153     -0.035067691   -0.051176659    0.22448394   
     85400   0.26954386     158.5          158.5          158.5         -0.033702995   -0.0021552123  -0.056516583   -0.042437191    0.26954386   
     85420   0.5791385      158.5          158.5          158.5          0.22794277     0.47643737     0.080106072    0.12728487     0.5791385    
     85440   0.3586527      158.5          158.5          158.5          0.10942385     0.26998811     0.011377204    0.046906229    0.3586527    
     85460   0.35170986     158.5          158.5          158.5         -0.093077682   -0.12891456    -0.06255767    -0.087760821    0.35170986   
     85480   0.3597282      158.5          158.5          158.5          0.027000441    0.10761629    -0.016278649   -0.010336315    0.3597282    
     85500   0.26406365     158.5          158.5          158.5         -0.041240837   -0.00076314068 -0.14568853     0.02272916     0.26406365   
     85520   0.65263816     158.5          158.5          158.5          0.096736208   -0.025440853    0.26466166     0.050987821    0.65263816   
     85540   0.75323069     158.5          158.5          158.5         -0.012184991   -0.090170174    0.11743346    -0.063818257    0.75323069   
     85560   0.94226102     158.5          158.5          158.5         -0.34406986    -0.47933914    -0.41200818    -0.14086227     0.94226102   
     85580   0.31528004     158.5          158.5          158.5          0.019504118   -0.19379894     0.26353634    -0.011225041    0.31528004   
     85600   0.35044181     158.5          158.5          158.5          0.035045527   -0.14466681     0.23602729     0.013776093    0.35044181   
     85620   0.57382934     158.5          158.5          158.5         -0.13878339    -0.16574362    -0.26009058     0.0094840288   0.57382934   
     85640   1.3673492      158.5          158.5          158.5          0.011965487   -0.074807879    0.081167316    0.029537025    1.3673492    
     85660   0.91435994     158.5          158.5          158.5         -0.10320106    -0.16687173    -0.065570055   -0.077161406    0.91435994   
     85680   0.94973442     158.5          158.5          158.5          0.18402934     0.47659333     0.0096333333   0.065861352    0.94973442   
     85700   0.7207168      158.5          158.5          158.5          0.27620476     0.54262719     0.16569223     0.12029488     0.7207168    
     85720   0.66644903     158.5          158.5          158.5         -0.14779547    -0.26629229    -0.19547869     0.018384568    0.66644903   
     85740   0.79910887     158.5          158.5          158.5          0.11529413     0.25875711    -0.067941093    0.15506636     0.79910887   
     85760   1.1309299      158.5          158.5          158.5          0.17554537     0.51277845     0.024892275   -0.011034622    1.1309299    
     85780   1.4552934      158.5          158.5          158.5          0.14219714     0.21728236     0.22014333    -0.01083426     1.4552934    
     85800   0.80716838     158.5          158.5          158.5          0.19985857     0.27350025     0.12840098     0.19767446     0.80716838   
     85820   0.71407561     158.5          158.5          158.5         -0.24206243    -0.29311702    -0.23681964    -0.19625061     0.71407561   
     85840   0.12099876     158.5          158.5          158.5         -0.026100046   -0.097885552   -0.03516295     0.054748364    0.12099876   
     85860   0.79876148     158.5          158.5          158.5          0.19384167     0.22399583     0.14505266     0.21247651     0.79876148   
     85880   0.78887841     158.5          158.5          158.5         -0.12240221    -0.098569028   -0.010803736   -0.25783386     0.78887841   
     85900   0.71540396     158.5          158.5          158.5         -0.069034344   -0.2334601     -0.090690934    0.117048       0.71540396   
     85920   0.66998101     158.5          158.5          158.5         -0.10594641    -0.28478657    -0.16434493     0.13129227     0.66998101   
     85940   0.23946389     158.5          158.5          158.5         -0.07887998    -0.04606261    -0.025617665   -0.16495967     0.23946389   
     85960   0.2284211      158.5          158.5          158.5          0.12660778     0.19556834     0.079170469    0.10508454     0.2284211    
     85980   0.48183343     158.5          158.5          158.5         -0.11050477    -0.23603254    -0.139625       0.04414323     0.48183343   
     86000   0.58645654     158.5          158.5          158.5         -0.10499699    -0.16812377    -0.074087943   -0.072779254    0.58645654   
     86020   0.52758809     158.5          158.5          158.5          0.12407213     0.23044483     0.13230292     0.0094686331   0.52758809   
     86040   0.42199724     158.5          158.5          158.5          0.041478335    0.10798057     0.0058789814   0.010575452    0.42199724   
     86060   0.066534547    158.5          158.5          158.5          0.10911342     0.10998761     0.11065503     0.10669763     0.066534547  
     86080   0.80134749     158.5          158.5          158.5         -0.050805347   -0.10393338     0.14526737    -0.19375003     0.80134749   
     86100   0.77941978     158.5          158.5          158.5         -0.045681776    0.033919477   -0.050123663   -0.12084114     0.77941978   
     86120   1.3540674      158.5          158.5          158.5          0.3889372      0.54280061     0.24723856     0.37677244     1.3540674    
     86140   1.2438851      158.5          158.5          158.5          0.12827572     0.24607028     0.19640201    -0.057645126    1.2438851    
     86160   0.84979655     158.5          158.5          158.5         -0.10967867    -0.13327067     0.062001254   -0.25776659     0.84979655   
     86180   0.46572707     158.5          158.5          158.5          0.081867903    0.072777688    0.12682335     0.046002672    0.46572707   
     86200   0.54433882     158.5          158.5          158.5         -0.035113937    0.097997445   -0.1896089     -0.01373036     0.54433882   
     86220   1.1629954      158.5          158.5          158.5          0.12843593     0.23883453     0.013252637    0.13322063     1.1629954    
     86240   1.3433687      158.5          158.5          158.5         -0.021432449    0.09170735    -0.052871358   -0.10313334     1.3433687    
     86260   1.2501676      158.5          158.5          158.5         -0.30245161    -0.16827555    -0.23089012    -0.50818918     1.2501676    
     86280   0.52286689     158.5          158.5          158.5          0.017306308    0.099302117    0.043262648   -0.09064584     0.52286689   
     86300   0.49330953     158.5          158.5          158.5         -0.0098511275   0.16314325    -0.12817463    -0.064521996    0.49330953   
     86320   0.4472687      158.5          158.5          158.5         -0.10362153     0.057269056   -0.10093861    -0.26719502     0.4472687    
     86340   0.84402436     158.5          158.5          158.5         -0.02886833    -0.040983349    0.027663459   -0.073285101    0.84402436   
     86360   0.88516373     158.5          158.5          158.5         -0.11185695    -0.075836214   -0.077326869   -0.18240777     0.88516373   
     86380   0.71234348     158.5          158.5          158.5          0.15578801     0.21864257     0.031937758    0.21678372     0.71234348   
     86400   0.21928629     158.5          158.5          158.5          0.17440233     0.045222851    0.067653218    0.41033093     0.21928629   
     86420   0.35610886     158.5          158.5          158.5         -0.12595124    -0.23570263     0.00032977332 -0.14248087     0.35610886   
     86440   0.54777048     158.5          158.5          158.5          0.10552313     0.17809672     0.040597563    0.097875097    0.54777048   
     86460   0.76955956     158.5          158.5          158.5          0.16755234     0.0058374564   0.006893937    0.48992563     0.76955956   
     86480   0.97379526     158.5          158.5          158.5          0.13938923    -0.18064073    -0.0060470784   0.6048555      0.97379526   
     86500   0.39508889     158.5          158.5          158.5          0.17142306     0.22323568     0.024226839    0.26680665     0.39508889   
     86520   0.64899218     158.5          158.5          158.5         -0.18615127    -0.03784472     0.027252931   -0.54786202     0.64899218   
     86540   0.32794862     158.5          158.5          158.5         -0.024726178   -0.064990378    0.041065161   -0.050253318    0.32794862   
     86560   0.91055534     158.5          158.5          158.5          0.2105855      0.24822651     0.035741574    0.34778843     0.91055534   
     86580   1.5327536      158.5          158.5          158.5         -0.15173956    -0.022470335   -0.028226247   -0.4045221      1.5327536    
     86600   1.7463482      158.5          158.5          158.5         -0.12835894     0.10128525     0.057980032   -0.5443421      1.7463482    
     86620   1.1201213      158.5          158.5          158.5         -0.16924899     0.066673037    0.032797559   -0.60721757     1.1201213    
     86640   0.73566228     158.5          158.5          158.5         -0.091588133    0.024628385   -0.080756977   -0.21863581     0.73566228   
     86660   0.44639437     158.5          158.5          158.5          0.15154424     0.15342831     0.028142746    0.27306165     0.44639437   
     86680   1.2844748      158.5          158.5          158.5         -0.22175909     0.0028335431  -0.12911476    -0.53899606     1.2844748    
     86700   1.1766837      158.5          158.5          158.5         -0.054738056    0.11460025    -0.029827592   -0.24898683     1.1766837    
     86720   0.85982525     158.5          158.5          158.5          0.22443437     0.087165345    0.17276031     0.41337745     0.85982525   
     86740   1.1639509      158.5          158.5          158.5          0.032865226   -0.052194458    0.10998471     0.040805428    1.1639509    
     86760   0.33325058     158.5          158.5          158.5          0.16726248     0.1118787      0.22286476     0.16704399     0.33325058   
     86780   0.42579394     158.5          158.5          158.5          0.014437575    0.11423305     0.13256305    -0.20348337     0.42579394   
     86800   0.72376446     158.5          158.5          158.5         -0.0025565888   0.053522586    0.19178935    -0.2529817      0.72376446   
     86820   1.0160416      158.5          158.5          158.5          0.33665621     0.074072815    0.40669082     0.52920501     1.0160416    
     86840   0.88689082     158.5          158.5          158.5          0.058950227    0.063294179   -0.030878932    0.14443543     0.88689082   
     86860   0.58481178     158.5          158.5          158.5         -0.098205016    0.041663957    0.023775318   -0.36005432     0.58481178   
     86880   0.244897       158.5          158.5          158.5          0.020112596    0.060571242    0.074162754   -0.074396206    0.244897     
     86900   0.70677618     158.5          158.5          158.5         -0.090309333    0.045832612   -0.36339554     0.046634926    0.70677618   
     86920   0.87564804     158.5          158.5          158.5          0.10768365     0.059999034    0.0030059985   0.26004592     0.87564804   
     86940   0.79370899     158.5          158.5          158.5         -0.090585988    0.023206481   -0.1252677     -0.16969674     0.79370899   
     86960   1.309879       158.5          158.5          158.5         -0.26749007     0.029590094   -0.60528672    -0.22677358     1.309879     
     86980   0.56985878     158.5          158.5          158.5          0.072645139    0.12754899    -0.092781843    0.18316827     0.56985878   
     87000   0.38678128     158.5          158.5          158.5         -0.028376845   -0.010347031   -0.04552985    -0.029253654    0.38678128   
     87020   0.40374961     158.5          158.5          158.5         -0.051849243    0.10121253    -0.24173785    -0.015022405    0.40374961   
     87040   1.1767971      158.5          158.5          158.5          0.0011224117   0.17349475    -0.17590423     0.0057767148   1.1767971    
     87060   1.3070476      158.5          158.5          158.5         -0.14574643    -0.25720382    -0.07170598    -0.10832948     1.3070476    
     87080   1.0055316      158.5          158.5          158.5          0.25113626     0.15575582     0.42580382     0.17184914     1.0055316    
     87100   0.45950225     158.5          158.5          158.5          0.21490464     0.30840517     0.24701574     0.089292999    0.45950225   
     87120   0.97940628     158.5          158.5          158.5         -0.14638426    -0.31511309    -0.055527245   -0.068512459    0.97940628   
     87140   0.79173004     158.5          158.5          158.5          0.12775268    -0.035181853    0.3486698      0.069770086    0.79173004   
     87160   0.8598046      158.5          158.5          158.5          0.16186999     0.1667665      0.18899554     0.12984792     0.8598046    
     87180   1.3109444      158.5          158.5          158.5          0.17704495     0.03157211     0.40436181     0.095200914    1.3109444    
     87200   0.96219993     158.5          158.5          158.5          0.11744857    -0.061163461    0.36648223     0.047026949    0.96219993   
     87220   0.6526637      158.5          158.5          158.5         -0.17569776    -0.1004482     -0.43493293     0.0082878426   0.6526637    
     87240   0.12350445     158.5          158.5          158.5          0.056468962    0.17074373    -0.051024234    0.04968739     0.12350445   
     87260   0.42222052     158.5          158.5          158.5          0.091031731    0.01553515     0.2136366      0.043923445    0.42222052   
     87280   0.72679542     158.5          158.5          158.5         -0.12670083    -0.046979352   -0.24772235    -0.085400794    0.72679542   
     87300   0.848539       158.5          158.5          158.5         -0.03463124     0.18504874    -0.30668383     0.017741368    0.848539     
     87320   0.43235132     158.5          158.5          158.5         -0.11757135    -0.089290399   -0.24872023    -0.014703437    0.43235132   
     87340   0.44114265     158.5          158.5          158.5         -0.059879034   -0.030709103   -0.086337772   -0.062590225    0.44114265   
     87360   0.30355357     158.5          158.5          158.5          0.069555143    0.24906918    -0.090573457    0.050169701    0.30355357   
     87380   0.3907094      158.5          158.5          158.5         -0.17625922    -0.092703123   -0.37406774    -0.062006809    0.3907094    
     87400   0.811014       158.5          158.5          158.5         -0.06691383    -0.14065985    -0.054119832   -0.0059618059   0.811014     
     87420   0.68707175     158.5          158.5          158.5          0.14666463     0.16444119     0.17700936     0.098543343    0.68707175   
     87440   0.52099795     158.5          158.5          158.5          0.055181637    0.11075988     0.13443098    -0.079645945    0.52099795   
     87460   0.30739016     158.5          158.5          158.5          0.12736536     0.040663018    0.2963849      0.045048148    0.30739016   
     87480   0.60409964     158.5          158.5          158.5         -0.029679949   -0.063651183   -0.068888343    0.043499678    0.60409964   
     87500   1.2072103      158.5          158.5          158.5          0.07478778     0.048168712    0.22345801    -0.047263377    1.2072103    
     87520   1.7029924      158.5          158.5          158.5          0.41281196     0.3920944      0.79751976     0.048821725    1.7029924    
     87540   0.89600976     158.5          158.5          158.5          0.09063602     0.097171903    0.26293894    -0.088202785    0.89600976   
     87560   1.4493581      158.5          158.5          158.5         -0.07483507    -0.097714379   -0.24236299     0.11557216     1.4493581    
     87580   0.53983135     158.5          158.5          158.5          0.03430998     0.10663304    -0.054761242    0.05105814     0.53983135   
     87600   0.50555639     158.5          158.5          158.5         -0.071337783   -0.018760521    0.035793288   -0.23104612     0.50555639   
     87620   1.0549151      158.5          158.5          158.5          0.12808704    -0.047058496    0.1275348      0.3037848      1.0549151    
     87640   1.1837485      158.5          158.5          158.5         -0.1234012     -0.21087054    -0.19031304     0.030979967    1.1837485    
     87660   1.331721       158.5          158.5          158.5         -0.31212536    -0.33544541    -0.3160836     -0.28484706     1.331721     
     87680   0.65632715     158.5          158.5          158.5          0.073215524   -0.12762011     0.12175296     0.22551373     0.65632715   
     87700   0.315795       158.5          158.5          158.5         -0.043169849   -0.31102525     0.045871341    0.13564436     0.315795     
     87720   0.56786831     158.5          158.5          158.5         -0.13277204    -0.076620418   -0.19063467    -0.13106102     0.56786831   
     87740   0.91044794     158.5          158.5          158.5         -0.0089428785   0.13024423    -0.10775433    -0.049318534    0.91044794   
     87760   0.7883513      158.5          158.5          158.5         -0.046391236   -0.10176027     0.031126863   -0.068540304    0.7883513    
     87780   1.0576987      158.5          158.5          158.5          0.24329788     0.27153057     0.19416504     0.26419803     1.0576987    
     87800   0.35091537     158.5          158.5          158.5          0.15735028     0.25908583     0.05904428     0.15392075     0.35091537   
     87820   0.44320607     158.5          158.5          158.5         -0.098002059    0.028705258   -0.1321536     -0.19055784     0.44320607   
     87840   0.58668413     158.5          158.5          158.5          0.16472224     0.34423986     0.027284943    0.12264193     0.58668413   
     87860   0.86803766     158.5          158.5          158.5          0.14898238     0.14303502    -0.0080889115   0.31200104     0.86803766   
     87880   1.0616358      158.5          158.5          158.5          0.15208009     0.03203461     0.082017165    0.34218849     1.0616358    
     87900   0.74040685     158.5          158.5          158.5          0.099318537    0.17292529     0.060369122    0.064661203    0.74040685   
     87920   0.52426167     158.5          158.5          158.5         -0.25968654    -0.041196624   -0.26429053    -0.47357246     0.52426167   
     87940   0.41076624     158.5          158.5          158.5          0.063636275    0.051909335    0.16299113    -0.023991643    0.41076624   
     87960   1.0702866      158.5          158.5          158.5          0.1415322      0.053926346    0.20811788     0.16255237     1.0702866    
     87980   1.2230941      158.5          158.5          158.5         -0.22478923    -0.096788437   -0.24350841    -0.33407083     1.2230941    
     88000   2.0805123      158.5          158.5          158.5         -0.094385388   -0.035357775    0.21833028    -0.46612867     2.0805123    
     88020   1.4664115      158.5          158.5          158.5         -0.17673417     0.049139433    0.14259258    -0.72193452     1.4664115    
     88040   0.87683375     158.5          158.5          158.5          0.0046032053   0.1701038     -0.15985704     0.0035628569   0.87683375   
     88060   0.41800909     158.5          158.5          158.5          0.17964737     0.20548021     0.099053512    0.2344084      0.41800909   
     88080   1.0706142      158.5          158.5          158.5         -0.25034516     0.12699967    -0.0001104439  -0.87792469     1.0706142    
     88100   1.2207464      158.5          158.5          158.5         -0.008676831    0.066042166    0.10260652    -0.19467918     1.2207464    
     88120   1.1039888      158.5          158.5          158.5          0.22286955     0.061503016   -0.0042527124   0.61135833     1.1039888    
     88140   0.77128196     158.5          158.5          158.5          0.11277907     0.077017715   -0.10035016     0.36166966     0.77128196   
     88160   0.57904274     158.5          158.5          158.5          0.11961348     0.14005581     0.13763698     0.081147647    0.57904274   
     88180   0.57950847     158.5          158.5          158.5         -0.094174146    0.082083444    0.02499928    -0.38960516     0.57950847   
     88200   0.34654179     158.5          158.5          158.5          0.081700388    0.03705401     0.029615506    0.17843165     0.34654179   
     88220   1.1097727      158.5          158.5          158.5          0.30138627     0.10545178     0.10244238     0.69626465     1.1097727    
     88240   0.71402069     158.5          158.5          158.5         -0.024012265    0.023016597   -0.025645549   -0.069407843    0.71402069   
     88260   0.6448903      158.5          158.5          158.5         -0.070586917    0.091467057    0.044668477   -0.34789628     0.6448903    
     88280   0.24193095     158.5          158.5          158.5          0.040002086    0.053452746    0.03965421     0.026899303    0.24193095   
     88300   0.36366966     158.5          158.5          158.5         -0.02391952    -0.13505335    -0.0031360508   0.066430838    0.36366966   
     88320   0.93922569     158.5          158.5          158.5          0.084516275   -0.0072289994   0.064002167    0.19677566     0.93922569   
     88340   1.0241965      158.5          158.5          158.5         -0.14958015    -0.16115734    -0.050130881   -0.23745224     1.0241965    
     88360   0.81613562     158.5          158.5          158.5         -0.2092036     -0.20481141    -0.057381515   -0.36541788     0.81613562   
     88380   0.92856811     158.5          158.5          158.5          0.059792176    0.073609613    0.066836451    0.038930465    0.92856811   
     88400   0.50858291     158.5          158.5          158.5         -0.033402278   -0.26166436     0.049512512    0.11194501     0.50858291   
     88420   0.3911527      158.5          158.5          158.5         -0.083780047   -0.1724041      0.016530887   -0.095466927    0.3911527    
     88440   1.4109679      158.5          158.5          158.5         -0.079303359    0.14528514    -0.071032452   -0.31216277     1.4109679    
     88460   1.1706353      158.5          158.5          158.5         -0.05027461    -0.0083379454  -0.033114324   -0.10937156     1.1706353    
     88480   1.5147787      158.5          158.5          158.5          0.33048592     0.28016122     0.21586238     0.49543416     1.5147787    
     88500   0.50670111     158.5          158.5          158.5          0.1611722      0.42432347    -0.027791424    0.086984552    0.50670111   
     88520   0.72625366     158.5          158.5          158.5         -0.13935821     0.17540026    -0.26364851    -0.32982638     0.72625366   
     88540   0.96297521     158.5          158.5          158.5          0.16939626     0.26116849     0.13465106     0.11236923     0.96297521   
     88560   0.91492039     158.5          158.5          158.5          0.19569199     0.32342745    -0.015698922    0.27934743     0.91492039   
     88580   0.92591012     158.5          158.5          158.5          0.18920457     0.48493919    -0.11300202     0.19567653     0.92591012   
     88600   0.86245807     158.5          158.5          158.5          0.078805514    0.10842226     0.10250691     0.025487372    0.86245807   
     88620   0.58734873     158.5          158.5          158.5         -0.15930719    -0.25070608    -0.12855196    -0.098663532    0.58734873   
     88640   0.11284972     158.5          158.5          158.5          0.055599412    0.12923535    -0.04395697     0.081519856    0.11284972   
     88660   0.38653043     158.5          158.5          158.5          0.066310823    0.01356896     0.14176318     0.043600326    0.38653043   
     88680   0.53078161     158.5          158.5          158.5         -0.14552118    -0.33289202     0.051977981   -0.15564952     0.53078161   
     88700   0.85384126     158.5          158.5          158.5         -0.11570812    -0.26741805    -0.046138677   -0.03356764     0.85384126   
     88720   0.46053092     158.5          158.5          158.5         -0.13722919    -0.26603756    -0.082120722   -0.063529276    0.46053092   
     88740   0.33942254     158.5          158.5          158.5         -0.01269742    -0.1690241      0.22980992    -0.098878077    0.33942254   
     88760   0.32446407     158.5          158.5          158.5          0.035671624    0.0085593479   0.12341087    -0.024955342    0.32446407   
     88780   0.73373472     158.5          158.5          158.5         -0.21985518    -0.23203428    -0.33492407    -0.092607186    0.73373472   
     88800   0.62427742     158.5          158.5          158.5          0.024397661   -0.072307304    0.10799955     0.037500733    0.62427742   
     88820   0.98714731     158.5          158.5          158.5          0.20862188     0.31656132     0.18983319     0.11947112     0.98714731   
     88840   0.81982693     158.5          158.5          158.5          0.088238749    0.36905241    -0.17116988     0.066833717    0.81982693   
     88860   0.29303022     158.5          158.5          158.5          0.15448271     0.19667999     0.062553572    0.20421458     0.29303022   
     88880   0.74931526     158.5          158.5          158.5         -0.023902025   -0.037534391   -0.16119659     0.12702491     0.74931526   
     88900   0.75903125     158.5          158.5          158.5          0.12593803     0.37550861    -0.071776103    0.074081572    0.75903125   
     88920   1.4870113      158.5          158.5          158.5          0.37637337     0.67995588     0.29951508     0.14964916     1.4870113    
     88940   1.0470912      158.5          158.5          158.5          0.023835071    0.15452814    -0.006599385   -0.076423541    1.0470912    
     88960   0.77703367     158.5          158.5          158.5         -0.092119507   -0.19665011    -0.1562913      0.076582895    0.77703367   
     88980   0.53603321     158.5          158.5          158.5         -0.043023381   -0.10026893    -0.056176642    0.027375424    0.53603321   
     89000   0.77748088     158.5          158.5          158.5         -0.054992272   -0.011372916   -0.021954422   -0.13164948     0.77748088   
     89020   0.73485224     158.5          158.5          158.5          0.10501783     0.23149512    -0.027002697    0.11056106     0.73485224   
     89040   1.2596318      158.5          158.5          158.5         -0.24120227    -0.28604682    -0.35305947    -0.084500518    1.2596318    
     89060   1.1858125      158.5          158.5          158.5         -0.23983378    -0.39140433    -0.36325153     0.035154518    1.1858125    
     89080   0.51888608     158.5          158.5          158.5          0.10056194     0.18710967    -0.05636961     0.17094575     0.51888608   
     89100   0.46744665     158.5          158.5          158.5         -0.035983881    0.10432461    -0.025123211   -0.18715304     0.46744665   
     89120   0.26422036     158.5          158.5          158.5         -0.027329237   -0.051888138   -0.095848516    0.065748944    0.26422036   
     89140   1.0674182      158.5          158.5          158.5         -0.041533049   -0.13087667    -0.11016687     0.1164444      1.0674182    
     89160   0.87890537     158.5          158.5          158.5         -0.040261859   -0.046865588    0.082208268   -0.15612826     0.87890537   
     89180   0.82431022     158.5          158.5          158.5          0.30171335     0.45309026     0.34358356     0.10846623     0.82431022   
     89200   0.463886       158.5          158.5          158.5          0.11047718     0.17035325     0.072291659    0.088786638    0.463886     
     89220   0.63281718     158.5          158.5          158.5         -0.11172412    -0.30215605     0.11816578    -0.15118209     0.63281718   
     89240   0.42100265     158.5          158.5          158.5          0.12028537     0.017083977    0.37880809    -0.035035971    0.42100265   
     89260   1.0809311      158.5          158.5          158.5          0.14960781     0.26948112     0.025340501    0.15400182     1.0809311    
     89280   0.91279012     158.5          158.5          158.5          0.19615484     0.26087971     0.16594786     0.16163694     0.91279012   
     89300   0.73787745     158.5          158.5          158.5          0.0044534378  -0.1357452      0.2171027     -0.067997185    0.73787745   
     89320   0.6787157      158.5          158.5          158.5         -0.22919337    -0.24919569    -0.21453632    -0.22384809     0.6787157    
     89340   0.24003303     158.5          158.5          158.5          0.13982804     0.36634066    -0.032054054    0.085197523    0.24003303   
     89360   1.3597717      158.5          158.5          158.5          0.071613797    0.053588329   -0.061009138    0.2222622      1.3597717    
     89380   1.4914853      158.5          158.5          158.5         -0.15550932    -0.061540547   -0.1895739     -0.21541351     1.4914853    
     89400   1.7530943      158.5          158.5          158.5         -0.079916897    0.2751849     -0.093387976   -0.42154761     1.7530943    
     89420   1.3223358      158.5          158.5          158.5         -0.18583578    -0.12162974    -0.21084123    -0.22503635     1.3223358    
     89440   0.98311562     158.5          158.5          158.5          0.050016738    0.10008222    -0.073200401    0.12316839     0.98311562   
     89460   0.31254135     158.5          158.5          158.5          0.097577835    0.4407238      0.021982664   -0.16997296     0.31254135   
     89480   0.9221351      158.5          158.5          158.5         -0.26440672    -0.15370683    -0.018058616   -0.62145471     0.9221351    
     89500   1.0139161      158.5          158.5          158.5         -0.037417465   -0.085999344    0.033512433   -0.059765485    1.0139161    
     89520   0.91939179     158.5          158.5          158.5          0.1708818      0.22848        0.0017942842   0.28237113     0.91939179   
     89540   0.64922489     158.5          158.5          158.5          0.1120748      0.029555998    0.0095893364   0.29707905     0.64922489   
     89560   0.27161636     158.5          158.5          158.5          0.081984048   -0.088082713    0.030918859    0.303116       0.27161636   
     89580   0.54537853     158.5          158.5          158.5         -0.076625606   -0.094195128    0.020930839   -0.15661253     0.54537853   
     89600   0.58204603     158.5          158.5          158.5          0.13113046     0.10519482     0.00019830378  0.28799825     0.58204603   
     89620   0.90113277     158.5          158.5          158.5          0.29998088     0.017640757    0.008853933    0.87344794     0.90113277   
     89640   0.54645286     158.5          158.5          158.5          0.019214928   -0.13564004    -0.0010658779   0.1943507      0.54645286   
     89660   0.71395718     158.5          158.5          158.5         -0.054690298    0.1587593      0.02248454    -0.34531473     0.71395718   
     89680   0.059869884    158.5          158.5          158.5         -0.021116682    0.030939321    0.024500079   -0.11878944     0.059869884  
     89700   0.56805294     158.5          158.5          158.5         -0.0084288854  -0.13598501    -0.033563125    0.14426148     0.56805294   
     89720   0.8604651      158.5          158.5          158.5          0.10225977     0.21516361    -0.014122506    0.10573821     0.8604651    
     89740   1.0827943      158.5          158.5          158.5         -0.22167968     0.048967567   -0.11740061    -0.596606       1.0827943    
     89760   1.1024698      158.5          158.5          158.5         -0.27019045    -0.036355228   -0.16761442    -0.6066017      1.1024698    
     89780   0.41214899     158.5          158.5          158.5          0.076385996    0.16742835    -0.05443723     0.11616687     0.41214899   
     89800   0.76786853     158.5          158.5          158.5         -0.05911352     0.079779895   -0.22509482    -0.032025631    0.76786853   
     89820   1.1712398      158.5          158.5          158.5         -0.11441257     0.08301505     0.016100582   -0.44235335     1.1712398    
     89840   1.2143811      158.5          158.5          158.5         -0.047720839    0.11488036     0.099985241   -0.35802812     1.2143811    
     89860   1.4197101      158.5          158.5          158.5         -0.0062605888   0.059657678   -0.10853844     0.030098993    1.4197101    
     89880   1.6796879      158.5          158.5          158.5          0.3632956      0.09052255     0.39797911     0.60138515     1.6796879    
     89900   0.46111465     158.5          158.5          158.5          0.16693829     0.11516445     0.31569159     0.069958835    0.46111465   
     89920   0.65193375     158.5          158.5          158.5         -0.044114735    0.096527947    0.082962521   -0.31183467     0.65193375   
     89940   0.44242142     158.5          158.5          158.5          0.15369828     0.052182729    0.39593185     0.012980263    0.44242142   
     89960   0.69855564     158.5          158.5          158.5          0.12225976     0.010985848    0.24624815     0.10954528     0.69855564   
     89980   0.68880523     158.5          158.5          158.5          0.16816912     0.019160406    0.13977712     0.34556985     0.68880523   
     90000   0.29865599     158.5          158.5          158.5          0.02003216     0.025200712    0.063212324   -0.028316556    0.29865599   
     90020   0.3639972      158.5          158.5          158.5         -0.20695115    -0.0047247544  -0.13754429    -0.47858441     0.3639972    
     90040   0.21954379     158.5          158.5          158.5          0.048648306    0.049992132   -0.057089492    0.15304228     0.21954379   
     90060   0.47516805     158.5          158.5          158.5          0.038628884    0.035640304   -0.17828599     0.25853233     0.47516805   
     90080   0.6056109      158.5          158.5          158.5         -0.1420843     -0.025334637   -0.23966526    -0.161253       0.6056109    
     90100   0.81043234     158.5          158.5          158.5         -0.1115275      0.055549947   -0.24332358    -0.14680887     0.81043234   
     90120   0.37211017     158.5          158.5          158.5         -0.16538148     0.045991405   -0.44880892    -0.093326938    0.37211017   
     90140   0.26138713     158.5          158.5          158.5          0.024661587    0.023781823   -0.062384677    0.11258762     0.26138713   
     90160   0.34190106     158.5          158.5          158.5          0.067485209    0.055280792    0.095629265    0.05154557     0.34190106   
     90180   1.071111       158.5          158.5          158.5         -0.1865111      0.020743384   -0.38505251    -0.19522417     1.071111     
     90200   1.10434        158.5          158.5          158.5          0.062247122    0.071459621    0.094247536    0.02103421     1.10434      
     90220   0.88691866     158.5          158.5          158.5          0.18582677    -0.084269036    0.45443511     0.18731424     0.88691866   
     90240   0.73242957     158.5          158.5          158.5          0.17019577     0.079158442    0.23099577     0.20043309     0.73242957   
     90260   0.77120353     158.5          158.5          158.5          0.16687768     0.17562003     0.23837596     0.086637046    0.77120353   
     90280   0.90220001     158.5          158.5          158.5         -0.10103766    -0.34510442     0.063218161   -0.021226736    0.90220001   
     90300   0.80393282     158.5          158.5          158.5          0.17456045     0.089916278    0.33672094     0.097044141    0.80393282   
     90320   1.6065639      158.5          158.5          158.5          0.32682875     0.38986557     0.49814544     0.092475242    1.6065639    
     90340   0.96029582     158.5          158.5          158.5         -0.028393398   -0.25098892     0.10626884     0.059539886    0.96029582   
     90360   0.75539466     158.5          158.5          158.5         -0.056173591   -0.056329006   -0.17015221     0.057960441    0.75539466   
     90380   0.2142305      158.5          158.5          158.5         -0.023335132    0.19906202    -0.22997025    -0.039097173    0.2142305    
     90400   0.47666871     158.5          158.5          158.5         -0.011650944   -0.009957385    0.058227886   -0.083223332    0.47666871   
     90420   0.98063009     158.5          158.5          158.5          0.059012623    0.055783627    0.20231464    -0.0810604      0.98063009   
     90440   0.81291881     158.5          158.5          158.5         -0.1744086      0.057711415   -0.43032382    -0.15061339     0.81291881   
     90460   0.69597269     158.5          158.5          158.5         -0.14111062    -0.0096107551  -0.35095037    -0.06277075     0.69597269   
     90480   0.54046479     158.5          158.5          158.5         -0.0018236268  -0.020686684    0.044275463   -0.02905966     0.54046479   
     90500   0.19104064     158.5          158.5          158.5         -0.049439625    0.081815961   -0.081522104   -0.14861273     0.19104064   
     90520   0.33429038     158.5          158.5          158.5         -0.018893497    0.068099949   -0.14310205     0.01832161     0.33429038   
     90540   0.71826877     158.5          158.5          158.5         -0.07698528    -0.093945088   -0.17210935     0.035098595    0.71826877   
     90560   0.50273165     158.5          158.5          158.5         -0.011143911   -0.01797771     0.037236004   -0.052690027    0.50273165   
     90580   0.55440232     158.5          158.5          158.5          0.21849592     0.17006806     0.38075735     0.10466236     0.55440232   
     90600   0.10903705     158.5          158.5          158.5          0.056241253    0.035367877    0.14453797    -0.011182087    0.10903705   
     90620   0.39847961     158.5          158.5          158.5         -0.045190795   -0.047152728   -0.12101887     0.032599215    0.39847961   
     90640   0.76228154     158.5          158.5          158.5          0.13363676     0.11134057     0.064729005    0.2248407      0.76228154   
     90660   0.88363848     158.5          158.5          158.5          0.1589035      0.20828184     0.30620922    -0.037780559    0.88363848   
     90680   0.95360767     158.5          158.5          158.5          0.20335903     0.21082344     0.43994687    -0.040693201    0.95360767   
     90700   0.89553491     158.5          158.5          158.5          0.020512919    0.049126389   -0.11434206     0.12675443     0.89553491   
     90720   0.51539257     158.5          158.5          158.5         -0.17423483    -0.084692225   -0.43620637    -0.0018058894   0.51539257   
     90740   0.37795006     158.5          158.5          158.5          0.10532238     0.22206338     0.11872974    -0.02482599     0.37795006   
     90760   1.1664346      158.5          158.5          158.5          0.011136815   -0.054201854    0.099120808   -0.01150851     1.1664346    
     90780   1.4384754      158.5          158.5          158.5         -0.15082024    -0.33891901    -0.22833986     0.11479813     1.4384754    
     90800   1.7052828      158.5          158.5          158.5         -0.13299679    -0.0012156451  -0.4491654      0.051390686    1.7052828    
     90820   0.78750393     158.5          158.5          158.5         -0.22205315    -0.30296207    -0.31176041    -0.051436987    0.78750393   
     90840   0.51513545     158.5          158.5          158.5          0.0077264572  -0.30624812     0.15569637     0.17373112     0.51513545   
     90860   0.48681298     158.5          158.5          158.5          0.0097341964  -0.083355415    0.034358036    0.078199969    0.48681298   
     90880   0.7366621      158.5          158.5          158.5         -0.19297717    -0.10268343    -0.31863458    -0.1576135      0.7366621    
     90900   0.80974935     158.5          158.5          158.5          0.09681093     0.13815673     0.091881849    0.06039421     0.80974935   
     90920   0.880866       158.5          158.5          158.5          0.14905547     0.14795659     0.16339305     0.13581676     0.880866     
     90940   0.44209958     158.5          158.5          158.5          0.097089546    0.21757435    -0.025400826    0.099095114    0.44209958   
     90960   0.2572779      158.5          158.5          158.5          0.14542736     0.31753298     0.042620433    0.076128657    0.2572779    
     90980   0.51327013     158.5          158.5          158.5         -0.021821552    0.1404343     -0.099124263   -0.10677469     0.51327013   
     91000   0.56629884     158.5          158.5          158.5          0.14111675     0.28506744    -0.024098084    0.1623809      0.56629884   
     91020   0.89670539     158.5          158.5          158.5          0.24439364     0.26794369     0.17207093     0.2931663      0.89670539   
     91040   0.54968377     158.5          158.5          158.5         -0.016603131   -0.0091808971   0.026359546   -0.066988043    0.54968377   
     91060   0.36246537     158.5          158.5          158.5         -0.04740865     0.065617709   -0.10122753    -0.10661613     0.36246537   
     91080   0.35012477     158.5          158.5          158.5         -0.079005257   -0.0049553035  -0.09131868    -0.14074179     0.35012477   
     91100   0.69605463     158.5          158.5          158.5         -0.048035745   -0.14230369     0.15805369    -0.15985723     0.69605463   
     91120   0.98722863     158.5          158.5          158.5          0.060942699    0.060331796    0.23207722    -0.10958092     0.98722863   
     91140   1.57229        158.5          158.5          158.5         -0.29336198    -0.0089600156  -0.21567918    -0.65544674     1.57229      
     91160   1.1447003      158.5          158.5          158.5         -0.19386651    -0.046794427    0.18660619    -0.72141129     1.1447003    
     91180   0.46859969     158.5          158.5          158.5          0.076181773    0.11899512     0.27698293    -0.16743273     0.46859969   
     91200   0.54826526     158.5          158.5          158.5         -0.083755095    0.15646976    -0.35029105    -0.057444       0.54826526   
     91220   0.83209629     158.5          158.5          158.5          0.049662255    0.12286165     0.16469053    -0.13856541     0.83209629   
     91240   1.6587208      158.5          158.5          158.5         -0.011775796    0.060020558    0.15711093    -0.25245888     1.6587208    
     91260   1.1480516      158.5          158.5          158.5          0.020529223    0.045236088   -0.24472607     0.26107765     1.1480516    
     91280   1.0108294      158.5          158.5          158.5          0.35160786     0.12193987     0.11723842     0.81564531     1.0108294    
     91300   0.78286403     158.5          158.5          158.5          0.060095061    0.092398886    0.066967003    0.020919294    0.78286403   
     91320   0.44308238     158.5          158.5          158.5         -0.018414265    0.081036649   -0.0033770963  -0.13290235     0.44308238   
     91340   0.57609837     158.5          158.5          158.5          0.16921196     0.11270793     0.023366217    0.37156174     0.57609837   
     91360   1.218814       158.5          158.5          158.5          0.11919138     0.070828948   -0.069169973    0.35591518     1.218814     
     91380   0.86186127     158.5          158.5          158.5          0.18570659     0.10400666     0.027512172    0.42560095     0.86186127   
     91400   0.79443951     158.5          158.5          158.5         -0.033187392    0.032419634    0.025763111   -0.15774492     0.79443951   
     91420   0.30893475     158.5          158.5          158.5         -0.15927413    -0.012813697    0.012404367   -0.47741307     0.30893475   
     91440   0.28667979     158.5          158.5          158.5          0.096831294    0.092428669    0.044438033    0.15362718     0.28667979   
     91460   1.0023698      158.5          158.5          158.5         -0.059668827   -0.12052458    -0.0082101235  -0.050271774    1.0023698    
     91480   0.78663826     158.5          158.5          158.5         -0.11035441    -0.087822021   -0.022961132   -0.22028007     0.78663826   
     91500   0.96938012     158.5          158.5          158.5         -0.071626058    0.031045802   -0.028023517   -0.21790046     0.96938012   
     91520   0.83515538     158.5          158.5          158.5         -0.17901544    -0.20265337    -0.0076108763  -0.32678208     0.83515538   
     91540   0.28241713     158.5          158.5          158.5          0.053762166   -0.044131093    0.037176943    0.16824065     0.28241713   
     91560   0.29229233     158.5          158.5          158.5          0.029177528   -0.035812424    0.036797778    0.086547229    0.29229233   
     91580   0.8518825      158.5          158.5          158.5         -0.17549808    -0.076797131   -0.0045288487  -0.44516827     0.8518825    
     91600   0.98832498     158.5          158.5          158.5          0.071039947    0.23787782    -0.0011305696  -0.023627409    0.98832498   
     91620   1.018239       158.5          158.5          158.5          0.14757056     0.067910304    0.019459605    0.35534177     1.018239     
     91640   0.41735746     158.5          158.5          158.5          0.15184978     0.13636589     0.048770795    0.27041264     0.41735746   
     91660   0.5394476      158.5          158.5          158.5          0.094207719    0.40727536    -0.030704612   -0.093947594    0.5394476    
     91680   1.0667607      158.5          158.5          158.5         -0.055377304    0.16506629    -0.098748064   -0.23245014     1.0667607    
     91700   0.93402474     158.5          158.5          158.5          0.25526079     0.31591179     0.10221259     0.34765799     0.93402474   
     91720   1.3717148      158.5          158.5          158.5          0.32293944     0.49875587    -0.010656881    0.48071933     1.3717148    
     91740   1.3638291      158.5          158.5          158.5         -0.028342699    0.19046964    -0.15085671    -0.12464103     1.3638291    
     91760   1.0362292      158.5          158.5          158.5         -0.0031720717   0.0098495251   0.20586288    -0.22522862     1.0362292    
     91780   0.13395439     158.5          158.5          158.5         -0.03081208     0.016969412   -0.084919676   -0.024485976    0.13395439   
     91800   0.53942308     158.5          158.5          158.5         -0.043007838    0.071503565   -0.16687564    -0.033651433    0.53942308   
     91820   0.93287252     158.5          158.5          158.5          0.01137099    -0.095466048    0.35239117    -0.22281215     0.93287252   
     91840   1.2635807      158.5          158.5          158.5         -0.24485906    -0.28859857    -0.038357241   -0.40762137     1.2635807    
     91860   0.78041091     158.5          158.5          158.5         -0.14052464    -0.046149345   -0.15142222    -0.22400234     0.78041091   
     91880   0.50374085     158.5          158.5          158.5          0.037871794    0.018288948    0.21492716    -0.11960073     0.50374085   
     91900   0.39522011     158.5          158.5          158.5         -0.083913839   -0.11467795     0.07173825    -0.20880182     0.39522011   
     91920   0.30225046     158.5          158.5          158.5         -0.05356171    -0.081075051   -0.11040428     0.030794201    0.30225046   
     91940   0.54832095     158.5          158.5          158.5         -0.029666153   -0.042492291   -0.068830096    0.022323928    0.54832095   
     91960   0.79738791     158.5          158.5          158.5          0.058353937    0.14235544     0.053894098   -0.021187729    0.79738791   
     91980   0.55905181     158.5          158.5          158.5          0.23873976     0.34459107     0.1026988      0.2689294      0.55905181   
     92000   0.27923215     158.5          158.5          158.5          0.035934376    0.095700808   -0.13224004     0.14434236     0.27923215   
     92020   0.37600591     158.5          158.5          158.5          0.020928214   -0.036363772   -0.041010224    0.14015864     0.37600591   
     92040   0.46668675     158.5          158.5          158.5          0.18583009     0.18437696     0.067486468    0.30562684     0.46668675   
     92060   1.1325982      158.5          158.5          158.5          0.12014957     0.21227151     0.036739209    0.111438       1.1325982    
     92080   0.73802556     158.5          158.5          158.5          0.17620328     0.21373492     0.17036587     0.14450906     0.73802556   
     92100   0.63240135     158.5          158.5          158.5         -0.038378393   -0.109514      -0.074601342    0.068980165    0.63240135   
     92120   0.77885724     158.5          158.5          158.5         -0.22061327    -0.31522165    -0.22331728    -0.12330089     0.77885724   
     92140   0.32080337     158.5          158.5          158.5          0.091384943    0.16382088     0.083871091    0.026462854    0.32080337   
     92160   0.88020337     158.5          158.5          158.5         -0.057499       0.07033591    -0.06354615    -0.17928676     0.88020337   
     92180   1.4418208      158.5          158.5          158.5         -0.20266861    -0.30893596    -0.081721699   -0.21734817     1.4418208    
     92200   1.3626039      158.5          158.5          158.5         -0.12525055    -0.25492234    -0.11769418    -0.0031351194   1.3626039    
     92220   1.0022871      158.5          158.5          158.5         -0.1415137     -0.024701692   -0.33662029    -0.063219108    1.0022871    
     92240   0.36667781     158.5          158.5          158.5          0.082116481    0.20924953     0.053757458   -0.016657543    0.36667781   
     92260   0.27584395     158.5          158.5          158.5         -0.024390682   -0.058251099   -0.029532121    0.014611173    0.27584395   
     92280   1.159738       158.5          158.5          158.5         -0.15835335    -0.30712737    -0.21099651     0.043063821    1.159738     
     92300   0.79069275     158.5          158.5          158.5          0.19189042     0.22007391     0.28241649     0.073180847    0.79069275   
     92320   1.168685       158.5          158.5          158.5          0.16292804     0.18684516     0.37484733    -0.072908362    1.168685     
     92340   0.82887882     158.5          158.5          158.5          0.15335537     0.19926921     0.229123       0.031673917    0.82887882   
     92360   0.42017461     158.5          158.5          158.5          0.12632909     0.018622137    0.29585998     0.064505138    0.42017461   
     92380   0.50028952     158.5          158.5          158.5         -0.049103935   -0.32657728     0.24180977    -0.062544298    0.50028952   
     92400   0.68570776     158.5          158.5          158.5          0.21190666     0.28621944     0.30744363     0.042056899    0.68570776   
     92420   0.97447646     158.5          158.5          158.5          0.19985185     0.41269141     0.12507521     0.061788925    0.97447646   
     92440   0.8858324      158.5          158.5          158.5         -0.10726582    -0.27961542    -0.029075319   -0.013106713    0.8858324    
     92460   0.52029777     158.5          158.5          158.5         -0.036183335   -0.09710269     0.0083406205  -0.019787936    0.52029777   
     92480   0.21790772     158.5          158.5          158.5         -0.062221603    0.15824207    -0.25678049    -0.088126387    0.21790772   
     92500   0.63730492     158.5          158.5          158.5         -0.035102089    0.066857817   -0.13370157    -0.038462511    0.63730492   
     92520   0.78875623     158.5          158.5          158.5         -0.0065134839   0.04767071     0.031848719   -0.09905988     0.78875623   
     92540   1.0542803      158.5          158.5          158.5         -0.22496512    -0.015111265   -0.32611046    -0.33367365     1.0542803    
     92560   0.90885816     158.5          158.5          158.5         -0.07399454     0.11795572    -0.13319668    -0.20674265     0.90885816   
     92580   0.45892348     158.5          158.5          158.5          0.03183774     0.013825897    0.060076404    0.021610917    0.45892348   
     92600   0.2199906      158.5          158.5          158.5         -0.070826294    0.063276081   -0.076030834   -0.19972413     0.2199906    
     92620   0.81197282     158.5          158.5          158.5          0.0040143475   0.21686456    -0.0089011881  -0.19592033     0.81197282   
     92640   1.1659954      158.5          158.5          158.5         -0.064590098   -0.26614778     0.0066993877   0.065678096    1.1659954    
     92660   1.442588       158.5          158.5          158.5          0.1334099      0.025855535    0.071598391    0.30277578     1.442588     
     92680   1.2081366      158.5          158.5          158.5          0.38134463     0.53363377     0.10815628     0.50224382     1.2081366    
     92700   0.57640956     158.5          158.5          158.5          0.013931852   -0.30321354     0.053485975    0.29152312     0.57640956   
     92720   1.1473003      158.5          158.5          158.5          0.011682736   -0.23050799     0.042234666    0.22332153     1.1473003    
     92740   0.66670808     158.5          158.5          158.5          0.24105566     0.34718316     0.062028635    0.31395518     0.66670808   
     92760   1.1419558      158.5          158.5          158.5          0.16351749     0.035597601    0.012567452    0.44238741     1.1419558    
     92780   1.2760687      158.5          158.5          158.5          0.14023857    -0.10027075     0.0065482274   0.51443825     1.2760687    
     92800   0.91106176     158.5          158.5          158.5         -0.050278183    0.070341454    0.054244957   -0.27542096     0.91106176   
     92820   0.37373976     158.5          158.5          158.5         -0.10517572     0.069892346    0.010453155   -0.39587266     0.37373976   
     92840   0.26065358     158.5          158.5          158.5          0.073198267    0.029574642    0.0044285705   0.18559159     0.26065358   
     92860   0.37692689     158.5          158.5          158.5         -0.072960272    0.022198121   -0.073120497   -0.16795844     0.37692689   
     92880   0.93630821     158.5          158.5          158.5         -0.14401399     0.090658659   -0.034603976   -0.48809667     0.93630821   
     92900   0.75978001     158.5          158.5          158.5         -0.09817137     0.017895303    0.019875665   -0.33228508     0.75978001   
     92920   0.50708986     158.5          158.5          158.5         -0.10624956    -0.021161739   -0.13250874    -0.16507821     0.50708986   
     92940   0.47812895     158.5          158.5          158.5          0.025298251    0.098775005   -0.029973548    0.0070932963   0.47812895   
     92960   0.19966421     158.5          158.5          158.5         -0.06249131     0.053451239   -0.02348947    -0.2174357      0.19966421   
     92980   0.61723134     158.5          158.5          158.5         -0.15196156    -0.025159992   -0.053219712   -0.37750498     0.61723134   
     93000   0.87051814     158.5          158.5          158.5          0.15702045     0.040923093    0.15375942     0.27637885     0.87051814   
     93020   0.8952183      158.5          158.5          158.5          0.1728246      0.051381169    0.054209753    0.41288289     0.8952183    
     93040   0.54447186     158.5          158.5          158.5          0.11153453     0.055524416    0.14448516     0.13459401     0.54447186   
     93060   0.43304606     158.5          158.5          158.5          0.11666962     0.078884272    0.31644128    -0.04531669     0.43304606   
     93080   0.53962056     158.5          158.5          158.5          0.012046405    0.063414401    0.081222703   -0.10849789     0.53962056   
     93100   1.17329        158.5          158.5          158.5          0.22939639     0.070814498    0.25633115     0.36104351     1.17329      
     93120   1.1056461      158.5          158.5          158.5          0.25397696     0.049140067    0.24443352     0.4683573      1.1056461    
     93140   0.92079442     158.5          158.5          158.5         -0.072951741    0.029463969   -0.05485546    -0.19346373     0.92079442   
     93160   1.074317       158.5          158.5          158.5         -0.052527309    0.10825266     0.02632995    -0.29216454     1.074317     
     93180   0.32869729     158.5          158.5          158.5         -0.070850256    0.041706736   -0.13643111    -0.11782639     0.32869729   
     93200   0.52225991     158.5          158.5          158.5         -0.026748927    0.062108329   -0.3007678      0.15841269     0.52225991   
     93220   0.90680559     158.5          158.5          158.5         -0.035170165    0.093170708   -0.099343432   -0.09933777     0.90680559   
     93240   1.4384432      158.5          158.5          158.5         -0.32859973    -0.11047271    -0.2187016     -0.65662486     1.4384432    
     93260   0.98544784     158.5          158.5          158.5         -0.088192972    0.079462525   -0.22593682    -0.11810462     0.98544784   
     93280   0.5937252      158.5          158.5          158.5          0.080623607    0.13748521    -0.076089091    0.1804747      0.5937252    
     93300   0.23167418     158.5          158.5          158.5         -0.10360213    -0.14482088    -0.038298055   -0.12768747     0.23167418   
     93320   0.79247351     158.5          158.5          158.5         -0.013635143    0.13299409    -0.030910131   -0.14298939     0.79247351   
     93340   0.72241159     158.5          158.5          158.5          0.01006171     0.083134851    0.019031262   -0.071980983    0.72241159   
     93360   0.97889747     158.5          158.5          158.5          0.15630964    -0.14448163     0.33931929     0.27409124     0.97889747   
     93380   1.0680228      158.5          158.5          158.5          0.31689236     0.11419087     0.47465833     0.3618279      1.0680228    
     93400   0.61157965     158.5          158.5          158.5          0.01009791     0.051112934    0.057848227   -0.078667433    0.61157965   
     93420   0.35720632     158.5          158.5          158.5          0.030602994   -0.056989407    0.048660408    0.10013798     0.35720632   
     93440   0.42049918     158.5          158.5          158.5          0.17430677    -0.065109387    0.27013861     0.31789109     0.42049918   
     93460   0.96304447     158.5          158.5          158.5          0.10783572     0.060565538    0.11427885     0.14866277     0.96304447   
     93480   0.95282637     158.5          158.5          158.5          0.12479547     0.16215256     0.12020005     0.092033805    0.95282637   
     93500   0.8651299      158.5          158.5          158.5         -0.14218885    -0.14591692    -0.19625881    -0.084390813    0.8651299    
     93520   0.30908488     158.5          158.5          158.5         -0.13235334     0.011445121   -0.21872542    -0.18977973     0.30908488   
     93540   0.61763853     158.5          158.5          158.5          0.098938315    0.2682563      0.10427131    -0.075712657    0.61763853   
     93560   0.69437882     158.5          158.5          158.5         -0.13467941    -0.027282      -0.20315203    -0.17360421     0.69437882   
     93580   0.89004616     158.5          158.5          158.5         -0.17344881     0.024365479   -0.36164224    -0.18306966     0.89004616   
     93600   1.3919133      158.5          158.5          158.5         -0.098609226    0.081988306   -0.23375505    -0.14406094     1.3919133    
     93620   0.90653254     158.5          158.5          158.5         -0.092933284    0.024797848   -0.098749077   -0.20484862     0.90653254   
     93640   0.41448675     158.5          158.5          158.5          0.13050908     0.17950383     0.19719608     0.014827332    0.41448675   
     93660   0.33607355     158.5          158.5          158.5         -0.027405725    0.080721499   -0.1357281     -0.027210575    0.33607355   
     93680   0.90391594     158.5          158.5          158.5         -0.13993065    -0.020792629   -0.41030054     0.011301204    0.90391594   
     93700   1.3572947      158.5          158.5          158.5          0.20457321     0.21504533     0.21841193     0.18026238     1.3572947    
     93720   1.4538187      158.5          158.5          158.5          0.22387789     0.3130298      0.37263396    -0.014030101    1.4538187    
     93740   0.70798961     158.5          158.5          158.5          0.19500582     0.27877296     0.23075056     0.075493936    0.70798961   
     93760   1.0950728      158.5          158.5          158.5          0.0037218761   0.22717288    -0.28578841     0.069781166    1.0950728    
     93780   0.29607527     158.5          158.5          158.5         -0.029983848    0.057518739   -0.15935328     0.011882999    0.29607527   
     93800   0.63993825     158.5          158.5          158.5          0.25939853     0.17021067     0.474387       0.13359793     0.63993825   
     93820   0.92318445     158.5          158.5          158.5          0.14255504     0.28022223     0.19541981    -0.047976913    0.92318445   
     93840   0.77127057     158.5          158.5          158.5         -0.098712675    0.0064004982  -0.24351984    -0.059018679    0.77127057   
     93860   0.6455459      158.5          158.5          158.5         -0.0037512449  -0.09664819    -0.016973646    0.1023681      0.6455459    
     93880   0.15303836     158.5          158.5          158.5         -0.037410547   -0.10448044    -0.011249176    0.0034979711   0.15303836   
     93900   0.28857821     158.5          158.5          158.5         -0.019224518   -0.10120635     0.047917289   -0.0043844895   0.28857821   
     93920   0.65550754     158.5          158.5          158.5         -0.055937826   -0.255173       0.025617624    0.061741902    0.65550754   
     93940   0.79786573     158.5          158.5          158.5         -0.22015062    -0.36960084    -0.26371002    -0.027141006    0.79786573   
     93960   0.60413209     158.5          158.5          158.5         -0.047881972   -0.0613106     -0.036237408   -0.046097908    0.60413209   
     93980   0.51487688     158.5          158.5          158.5          0.045796915   -0.13831705     0.22635695     0.049350836    0.51487688   
     94000   0.1855297      158.5          158.5          158.5         -0.077933443   -0.26821819    -0.0037545282   0.038172391    0.1855297    
     94020   0.55229185     158.5          158.5          158.5         -0.05939898     0.10587434    -0.27190053    -0.012170742    0.55229185   
     94040   0.83653752     158.5          158.5          158.5         -0.024221846    0.095879626   -0.1196527     -0.048892467    0.83653752   
     94060   1.2811612      158.5          158.5          158.5          0.20122667     0.17083671     0.4008213      0.032022005    1.2811612    
     94080   1.0822748      158.5          158.5          158.5          0.32281011     0.49569666     0.18822499     0.28450869     1.0822748    
     94100   0.71665845     158.5          158.5          158.5         -0.020820654    0.282221      -0.44442582     0.099742857    0.71665845   
     94120   0.64789603     158.5          158.5          158.5          0.080539956    0.18429437     0.019586665    0.037738837    0.64789603   
     94140   0.89835653     158.5          158.5          158.5          0.27618729     0.32090028     0.10921723     0.39844437     0.89835653   
     94160   1.5245043      158.5          158.5          158.5          0.18929981     0.27336975    -0.21017544     0.50470514     1.5245043    
     94180   0.86882828     158.5          158.5          158.5          0.18667058     0.089910998    0.23655888     0.23354186     0.86882828   
     94200   1.3500654      158.5          158.5          158.5         -0.13414407    -0.039383854   -0.043225287   -0.31982306     1.3500654    
     94220   0.53903571     158.5          158.5          158.5         -0.15333617     0.064876897   -0.23867772    -0.28620769     0.53903571   
     94240   0.35224812     158.5          158.5          158.5          0.11079568     0.11100954     0.31589559    -0.094518078    0.35224812   
     94260   0.67111229     158.5          158.5          158.5         -0.14399744     0.053498325    0.10663638    -0.59212703     0.67111229   
     94280   1.0262962      158.5          158.5          158.5         -0.22645848    -0.026595963   -0.10598269    -0.54679681     1.0262962    
     94300   0.99973601     158.5          158.5          158.5         -0.11617729    -7.6131477e-05  0.057626592   -0.40608233     0.99973601   
     94320   0.74343915     158.5          158.5          158.5         -0.07804193     0.061123948    0.11357525    -0.40882499     0.74343915   
     94340   0.22895906     158.5          158.5          158.5          0.08343992     0.075246215    0.053378233    0.12169531     0.22895906   
     94360   0.45196012     158.5          158.5          158.5         -0.081742856   -0.0027972486  -0.10063749    -0.14179383     0.45196012   
     94380   0.69088121     158.5          158.5          158.5         -0.09681977     0.044424203    0.021198401   -0.35608192     0.69088121   
     94400   0.60020143     158.5          158.5          158.5          0.22790263     0.10599496     0.089896163    0.48781678     0.60020143   
     94420   1.0886984      158.5          158.5          158.5          0.16152783    -0.058211339   -0.13307228     0.67586712     1.0886984    
     94440   0.46554115     158.5          158.5          158.5          0.14690203     0.093508847    0.012531002    0.33466624     0.46554115   
     94460   0.45504811     158.5          158.5          158.5          0.079911661    0.16763907     0.055218769    0.016877143    0.45504811   
     94480   0.43585829     158.5          158.5          158.5         -0.010966032   -0.060600123   -0.061415467    0.089117493    0.43585829   
     94500   0.75208165     158.5          158.5          158.5          0.27539888     0.11584818     0.03669828     0.67365017     0.75208165   
     94520   1.0962924      158.5          158.5          158.5          0.15191275     0.064138288    0.039425288    0.35217469     1.0962924    
     94540   1.0158291      158.5          158.5          158.5         -0.17888293    -0.066166508   -0.0025305382  -0.46795175     1.0158291    
     94560   0.62577633     158.5          158.5          158.5         -0.04581311     0.1871267      0.039291002   -0.36385703     0.62577633   
     94580   0.93533091     158.5          158.5          158.5         -0.094898075   -0.10728519     0.06954428    -0.24695332     0.93533091   
     94600   1.1415409      158.5          158.5          158.5         -0.0068704823  -0.13557268     0.04246488     0.072496354    1.1415409    
     94620   1.0364154      158.5          158.5          158.5         -0.082730224    0.073838737   -0.0078291836  -0.31420023     1.0364154    
     94640   1.9828341      158.5          158.5          158.5         -0.31878584    -0.14664202     0.019821315   -0.82953681     1.9828341    
     94660   1.338973       158.5          158.5          158.5          0.0022315127   0.030478974    0.060652402   -0.084436838    1.338973     
     94680   1.0922527      158.5          158.5          158.5          0.081557167    0.082838086   -0.073414164    0.23524758     1.0922527    
     94700   0.1964652      158.5          158.5          158.5         -0.0058164752  -0.018302123    0.021557385   -0.020704688    0.1964652    
     94720   0.43619642     158.5          158.5          158.5         -0.0075593002   0.070921501    0.15020358    -0.24380298     0.43619642   
     94740   0.60868922     158.5          158.5          158.5         -0.084109032    0.080087772   -0.16338173    -0.16903314     0.60868922   
     94760   0.73231389     158.5          158.5          158.5          0.17381852     0.16937249    -0.043536851    0.39561994     0.73231389   
     94780   0.72341687     158.5          158.5          158.5          0.26970825     0.20099605     0.19127589     0.41685281     0.72341687   
     94800   0.51412663     158.5          158.5          158.5         -0.029281957    0.13349247    -0.158151      -0.063187336    0.51412663   
     94820   0.5321577      158.5          158.5          158.5          0.0031198916   0.14103791    -0.10936126    -0.022316982    0.5321577    
     94840   0.20701261     158.5          158.5          158.5          0.1393876      0.069590371    0.13010356     0.21846886     0.20701261   
     94860   0.70337121     158.5          158.5          158.5          0.14051974     0.12020176    -0.027998201    0.32935567     0.70337121   
     94880   0.76514908     158.5          158.5          158.5          0.086394608    0.18748181    -0.094105681    0.16580769     0.76514908   
     94900   0.84752659     158.5          158.5          158.5         -0.15210035    -0.1451108      0.012247635   -0.32343788     0.84752659   
     94920   0.32956118     158.5          158.5          158.5         -0.067046987   -0.080069399    0.10900053    -0.23007209     0.32956118   
     94940   0.39804852     158.5          158.5          158.5          0.079082593    0.1302737     -0.034097525    0.14107161     0.39804852   
     94960   0.64730215     158.5          158.5          158.5         -0.11634979    -0.040106078   -0.023827574   -0.28511572     0.64730215   
     94980   1.3075454      158.5          158.5          158.5         -0.14851989    -0.17314346     0.22632949    -0.49874571     1.3075454    
     95000   0.97186505     158.5          158.5          158.5         -0.14389163    -0.20637753    -0.082743259   -0.14255411     0.97186505   
     95020   1.1628916      158.5          158.5          158.5         -0.073563095    0.020973718   -0.11699477    -0.12466824     1.1628916    
     95040   0.90129331     158.5          158.5          158.5          0.11698281     0.25321993     0.30470206    -0.20697358     0.90129331   
     95060   0.12245744     158.5          158.5          158.5         -0.084852693   -0.074454524    0.00036006078 -0.18046362     0.12245744   
     95080   0.89545118     158.5          158.5          158.5         -0.16716096    -0.28431053    -0.26484737     0.047675037    0.89545118   
     95100   0.83231162     158.5          158.5          158.5          0.19059303     0.21823296     0.15372582     0.19982031     0.83231162   
     95120   1.2944227      158.5          158.5          158.5          0.23322181     0.28682297     0.2835964      0.12924606     1.2944227    
     95140   0.83316128     158.5          158.5          158.5          0.18607502     0.06039316     0.17873843     0.31909346     0.83316128   
     95160   0.50056337     158.5          158.5          158.5          0.049816713   -0.10778445     0.031398548    0.22583604     0.50056337   
     95180   0.32599187     158.5          158.5          158.5          0.015212085   -0.039010823    0.011574539    0.073072538    0.32599187   
     95200   0.40949235     158.5          158.5          158.5          0.19308385     0.15635436     0.24992367     0.17297351     0.40949235   
     95220   0.42506091     158.5          158.5          158.5          0.12106656     0.15492489     0.14311341     0.065161374    0.42506091   
     95240   0.55018672     158.5          158.5          158.5         -0.05865077    -0.016550518   -0.15082452    -0.0085772683   0.55018672   
     95260   0.44475413     158.5          158.5          158.5         -0.066181845   -0.13816575    -0.069875257    0.0094954769   0.44475413   
     95280   0.13741256     158.5          158.5          158.5         -0.08121488    -0.085957452   -0.061281083   -0.096406106    0.13741256   
     95300   0.31322407     158.5          158.5          158.5         -0.0025390497   0.23621563    -0.16251308    -0.081319697    0.31322407   
     95320   0.42162067     158.5          158.5          158.5         -0.081765322    0.034893186   -0.25947487    -0.020714286    0.42162067   
     95340   0.84143738     158.5          158.5          158.5         -0.26725464    -0.37577392    -0.38538448    -0.040605509    0.84143738   
     95360   0.58955156     158.5          158.5          158.5         -0.056658935    0.10103202    -0.26937531    -0.0016335109   0.58955156   
     95380   0.41149962     158.5          158.5          158.5          0.049939927    0.32620234    -0.16154875    -0.014833806    0.41149962   
     95400   0.20058486     158.5          158.5          158.5         -0.046483365   -0.11922917    -0.011552653   -0.0086682716   0.20058486   
     95420   0.65530261     158.5          158.5          158.5         -0.019184631   -0.13844833     0.015882816    0.065011618    0.65530261   
     95440   0.71406666     158.5          158.5          158.5          0.00014245515  0.0057981055  -0.045017753    0.039647013    0.71406666   
     95460   1.0722474      158.5          158.5          158.5          0.23473549     0.1915536      0.51382494    -0.0011720815   1.0722474    
     95480   1.0067272      158.5          158.5          158.5          0.32337009     0.32082786     0.62442075     0.024861674    1.0067272    
     95500   0.52081794     158.5          158.5          158.5          0.034879359   -0.033440034    0.10336604     0.034712074    0.52081794   
     95520   0.4961462      158.5          158.5          158.5          0.047338249   -0.22256454     0.31781749     0.046761795    0.4961462    
     95540   0.46743206     158.5          158.5          158.5          0.14285613    -0.025493874    0.3901196      0.063942674    0.46743206   
     95560   1.1053756      158.5          158.5          158.5          0.16404254     0.39929366     0.015512828    0.077321144    1.1053756    
     95580   0.91323628     158.5          158.5          158.5          0.11421678     0.24375206     0.073648632    0.025249658    0.91323628   
     95600   0.90067024     158.5          158.5          158.5         -0.21912443    -0.47214607    -0.087690364   -0.097536852    0.90067024   
     95620   0.34150868     158.5          158.5          158.5         -0.11563327     0.0094109044  -0.23160854    -0.12470217     0.34150868   
     95640   0.57707051     158.5          158.5          158.5          0.0654876      0.43872879    -0.14481514    -0.097450846    0.57707051   
     95660   0.65131565     158.5          158.5          158.5         -0.12960759    -0.1305642     -0.17838262    -0.079875935    0.65131565   
     95680   0.88697781     158.5          158.5          158.5         -0.14084259    -0.027121573   -0.23688018    -0.15852602     0.88697781   
     95700   1.0773885      158.5          158.5          158.5         -0.14330651     0.11800681    -0.21670651    -0.33121983     1.0773885    
     95720   0.5116276      158.5          158.5          158.5         -0.053119529   -0.024357191   -0.057455761   -0.077545634    0.5116276    
     95740   0.28615448     158.5          158.5          158.5          0.12622205     0.13762137     0.069903901    0.17114088     0.28615448   
     95760   0.25305162     158.5          158.5          158.5         -0.041229402    0.075062056   -0.041333476   -0.15741679     0.25305162   
     95780   0.59042457     158.5          158.5          158.5         -0.072966499   -0.16960328    -0.047555363   -0.0017408507   0.59042457   
     95800   0.70875398     158.5          158.5          158.5          0.13609973    -0.053639628    0.045713448    0.41622537     0.70875398   
     95820   0.66392728     158.5          158.5          158.5          0.16437292     0.19291976     0.035343762    0.26485525     0.66392728   
     95840   0.23028376     158.5          158.5          158.5          0.1414941      0.13075979     0.029695868    0.26402665     0.23028376   
     95860   0.42658281     158.5          158.5          158.5         -0.034018859   -0.29084408    -0.041442184    0.23022969     0.42658281   
     95880   0.180279       158.5          158.5          158.5         -0.0085793236  -0.078905682   -0.007757385    0.060925096    0.180279     
     95900   0.50646375     158.5          158.5          158.5          0.19120946     0.28053325     0.074986128    0.21810901     0.50646375   
     95920   0.5389965      158.5          158.5          158.5          0.071915002   -0.036374507   -0.012436047    0.26455556     0.5389965    
     95940   0.32886219     158.5          158.5          158.5         -0.083389333   -0.13944227    -0.037640655   -0.073085073    0.32886219   
     95960   0.31632285     158.5          158.5          158.5         -0.061011668    0.093137502    0.063219619   -0.33939213     0.31632285   
     95980   0.13499625     158.5          158.5          158.5         -0.06657171    -0.0036038207   0.0019056214  -0.19801693     0.13499625   
     96000   0.63069971     158.5          158.5          158.5          0.019895189    0.034124864   -0.027268663    0.052829366    0.63069971   
     96020   0.88301634     158.5          158.5          158.5         -0.076443468    0.13345468     0.046927971   -0.40971305     0.88301634   
     96040   0.98580454     158.5          158.5          158.5         -0.25492571    -0.055413167   -0.011341452   -0.69802251     0.98580454   
     96060   0.57735289     158.5          158.5          158.5         -0.063207083   -0.062477995   -0.024471295   -0.10267196     0.57735289   
     96080   0.61612061     158.5          158.5          158.5          0.055756091    0.15133694     0.021436872   -0.0055055365   0.61612061   
     96100   0.45270157     158.5          158.5          158.5          0.0060684404   0.14461169     0.0077850628  -0.13419143     0.45270157   
     96120   0.88312541     158.5          158.5          158.5         -0.041206152   -0.0048116146   0.01754363    -0.13635047     0.88312541   
     96140   1.117294       158.5          158.5          158.5         -0.017389448   -0.019568127    0.010759315   -0.043359531    1.117294     
     96160   1.2603937      158.5          158.5          158.5          0.24994588     0.087582878    0.13022089     0.53203387     1.2603937    
     96180   0.74501762     158.5          158.5          158.5          0.29958326     0.14801073     0.081295684    0.66944338     0.74501762   
     96200   0.38978268     158.5          158.5          158.5          0.011754401    0.096475531    0.013265026   -0.074477354    0.38978268   
     96220   0.66738376     158.5          158.5          158.5          0.060778488    0.10637999     0.23534252    -0.15938704     0.66738376   
     96240   0.63763908     158.5          158.5          158.5          0.16631242     0.12726774     0.12081645     0.25085307     0.63763908   
     96260   1.0732127      158.5          158.5          158.5          0.16674798     0.083665807   -0.0065239116   0.42310204     1.0732127    
     96280   0.50254751     158.5          158.5          158.5          0.10789146     0.055307876    0.061408817    0.20695768     0.50254751   
     96300   0.72465555     158.5          158.5          158.5         -0.17512958     0.022171182   -0.057231403   -0.49032851     0.72465555   
     96320   0.28010357     158.5          158.5          158.5         -0.14567385     0.013282474   -0.062909293   -0.38739474     0.28010357   
     96340   0.32823314     158.5          158.5          158.5          0.035415924    0.0017724103  -0.10698124     0.2114566      0.32823314   
     96360   0.66666704     158.5          158.5          158.5         -0.10024982    -0.061285499   -0.22755887    -0.011905098    0.66666704   
     96380   0.78116851     158.5          158.5          158.5         -0.16859903     0.024827262   -0.16179762    -0.36882673     0.78116851   
     96400   0.61512088     158.5          158.5          158.5         -0.16345324     0.015339776   -0.13549044    -0.37020905     0.61512088   
     96420   0.29872352     158.5          158.5          158.5         -0.045302405   -0.030559778   -0.13051896     0.025171525    0.29872352   
     96440   0.15532181     158.5          158.5          158.5          0.10596994     0.025010438    0.039896694    0.25300269     0.15532181   
     96460   0.43795541     158.5          158.5          158.5         -0.047131694   -0.023252703    0.051354576   -0.16949696     0.43795541   
     96480   0.77998554     158.5          158.5          158.5         -0.028301559    0.11805009    -0.048130649   -0.15482412     0.77998554   
     96500   0.59016673     158.5          158.5          158.5          0.203548       0.15601004     0.090772439    0.36386151     0.59016673   
     96520   0.95197438     158.5          158.5          158.5          0.19063962    -0.087618313    0.21909413     0.44044305     0.95197438   
     96540   0.36423396     158.5          158.5          158.5          0.21622546     0.14570222     0.17389045     0.32908371     0.36423396   
     96560   0.64073876     158.5          158.5          158.5          0.055034872    0.21002026     0.066692238   -0.11160788     0.64073876   
     96580   0.8477042      158.5          158.5          158.5          0.0045734958  -0.10217403     0.065383631    0.050510884    0.8477042    
     96600   1.1955047      158.5          158.5          158.5          0.2939446      0.12896889     0.25403124     0.49883366     1.1955047    
     96620   1.3404884      158.5          158.5          158.5          0.13036112     0.1763601      0.18368369     0.031039563    1.3404884    
     96640   0.87062825     158.5          158.5          158.5         -0.14564147    -0.032801329   -0.20427701    -0.19984606     0.87062825   
     96660   0.64651553     158.5          158.5          158.5         -0.1709335      0.060487956   -0.25093041    -0.32235805     0.64651553   
     96680   0.60883549     158.5          158.5          158.5         -0.14571545     0.13461206    -0.04225939    -0.52949902     0.60883549   
     96700   0.90102994     158.5          158.5          158.5          0.036952964    0.1468657      0.19273085    -0.22873765     0.90102994   
     96720   0.77124368     158.5          158.5          158.5         -0.10867439     0.0010014747  -0.048409856   -0.2786148      0.77124368   
     96740   1.112404       158.5          158.5          158.5         -0.23333377     0.012017544   -0.23722149    -0.47479738     1.112404     
     96760   0.54568735     158.5          158.5          158.5         -0.0053214615   0.077249681    0.033194584   -0.12640865     0.54568735   
     96780   0.35064238     158.5          158.5          158.5          0.040987722    0.01651851     0.058512658    0.047931999    0.35064238   
     96800   0.13228169     158.5          158.5          158.5          0.054103977    0.06244064     0.11113619    -0.011264899    0.13228169   
     96820   0.60557933     158.5          158.5          158.5          0.019072751    0.0087755417  -0.0087788951   0.057221606    0.60557933   
     96840   0.72784441     158.5          158.5          158.5         -0.045813941   -0.035109001   -0.26985278     0.16751996     0.72784441   
     96860   0.65147566     158.5          158.5          158.5          0.20986718     0.09746022     0.23343981     0.29870152     0.65147566   
     96880   0.45983522     158.5          158.5          158.5          0.23744238     0.10698754     0.42339627     0.18194333     0.45983522   
     96900   0.28668997     158.5          158.5          158.5         -0.014631464    0.032875728   -0.23809996     0.16132984     0.28668997   
     96920   0.64615056     158.5          158.5          158.5          0.000551268    0.04224078    -0.30482416     0.26423718     0.64615056   
     96940   0.52036291     158.5          158.5          158.5          0.10329752     0.10623421     0.18615445     0.017503911    0.52036291   
     96960   0.99579622     158.5          158.5          158.5          0.17167167     0.15108478     0.36160252     0.0023277042   0.99579622   
     96980   0.70414763     158.5          158.5          158.5          0.046750303    0.07300285    -0.0445647      0.11181276     0.70414763   
     97000   0.66023639     158.5          158.5          158.5         -0.23659465    -0.20273274    -0.42590159    -0.081149622    0.66023639   
     97020   0.28130062     158.5          158.5          158.5         -0.088391591   -0.16989154    -0.055772552   -0.039510682    0.28130062   
     97040   0.87856878     158.5          158.5          158.5          0.048102474    0.093991013    0.1207172     -0.070400792    0.87856878   
     97060   1.2864622      158.5          158.5          158.5         -0.081319015   -0.21468305     0.027178793   -0.056452791    1.2864622    
     97080   1.7632792      158.5          158.5          158.5         -0.11268539    -0.33583651    -0.03055656     0.028336907    1.7632792    
     97100   1.178459       158.5          158.5          158.5         -0.21183107    -0.15630191    -0.4714791     -0.0077121907   1.178459     
     97120   0.78968238     158.5          158.5          158.5         -0.043936704   -0.11703685    -0.061994534    0.04722127     0.78968238   
     97140   0.71713718     158.5          158.5          158.5          0.15737213    -0.1068145      0.48977678     0.089154094    0.71713718   
     97160   0.27680464     158.5          158.5          158.5         -0.045232779   -0.0334206     -0.13844659     0.036168856    0.27680464   
     97180   0.93161113     158.5          158.5          158.5         -0.074984225    0.19349091    -0.41905923     0.00061563831  0.93161113   
     97200   0.69808231     158.5          158.5          158.5          0.1522183      0.17395409     0.21646541     0.066235411    0.69808231   
     97220   0.58571294     158.5          158.5          158.5          0.18304532     0.17533266     0.26587295     0.10793035     0.58571294   
     97240   0.24400352     158.5          158.5          158.5          0.14737757     0.37739623    -0.071538796    0.13627528     0.24400352   
     97260   0.33247554     158.5          158.5          158.5          0.01105354     0.18336933    -0.19982699     0.049618284    0.33247554   
     97280   0.42072523     158.5          158.5          158.5          0.025276401    0.096515919    0.0012630883  -0.021949805    0.42072523   
     97300   0.65814428     158.5          158.5          158.5          0.18824567     0.26551836     0.1445379      0.15468076     0.65814428   
     97320   0.43697671     158.5          158.5          158.5          0.089998474    0.11265061     0.085616349    0.071728464    0.43697671   
     97340   0.33980478     158.5          158.5          158.5         -0.086291564   -0.11954088    -0.0088091797  -0.13052464     0.33980478   
     97360   0.37568289     158.5          158.5          158.5         -0.13190392    -0.089629852   -0.19024142    -0.11584049     0.37568289   
     97380   0.30976724     158.5          158.5          158.5         -0.10633209    -0.029201813   -0.11254886    -0.1772456      0.30976724   
     97400   0.87953339     158.5          158.5          158.5          0.032814678   -0.057849878    0.40610067    -0.24980676     0.87953339   
     97420   0.86147316     158.5          158.5          158.5         -0.10662477    -0.05969977     0.067564915   -0.32773945     0.86147316   
     97440   1.0699042      158.5          158.5          158.5         -0.32185707    -0.060856655   -0.4600569     -0.44465766     1.0699042    
     97460   0.3556523      158.5          158.5          158.5         -0.049718577    0.034563149    0.15301561    -0.33673449     0.3556523    
     97480   0.37685298     158.5          158.5          158.5          0.066457637    0.14336443     0.27409238    -0.21808391     0.37685298   
     97500   0.65650804     158.5          158.5          158.5          0.028143251    0.053470912   -0.1524077      0.18336655     0.65650804   
     97520   1.3256696      158.5          158.5          158.5          0.056770922    0.017353167   -0.058474413    0.21143401     1.3256696    
     97540   1.0499328      158.5          158.5          158.5          0.037476097    0.075088943   -0.027638414    0.064977763    1.0499328    
     97560   1.0327165      158.5          158.5          158.5          0.28304529     0.072083232   -0.016719387    0.79377202     1.0327165    
     97580   0.83997196     158.5          158.5          158.5          0.31096835     0.054970183    0.024701433    0.85323344     0.83997196   
     97600   0.42760197     158.5          158.5          158.5          0.042511287    0.057860193   -0.00075303627  0.070426703    0.42760197   
     97620   0.59822454     158.5          158.5          158.5          0.05969166     0.044521754   -0.045199561    0.17975279     0.59822454   
     97640   0.76241745     158.5          158.5          158.5          0.086490656   -0.070837113   -0.042997349    0.37330643     0.76241745   
     97660   0.87223247     158.5          158.5          158.5          0.13135994     0.097361609    0.10959829     0.18711991     0.87223247   
     97680   0.40876953     158.5          158.5          158.5          0.040349534    0.097698894    0.039621057   -0.01627135     0.40876953   
     97700   0.41877531     158.5          158.5          158.5         -0.23749371    -0.13359068    -0.085930848   -0.49295961     0.41877531   
     97720   0.18801108     158.5          158.5          158.5         -0.11216678     0.090330137   -0.0088860704  -0.41794442     0.18801108   
     97740   0.62411598     158.5          158.5          158.5          0.015241292    0.09906771     0.038516091   -0.091859926    0.62411598   
     97760   0.66940086     158.5          158.5          158.5         -0.093775999   -0.16558601     0.018603096   -0.13434509     0.66940086   
     97780   0.54202238     158.5          158.5          158.5         -0.10648048     0.059959424   -0.020026731   -0.35937412     0.54202238   
     97800   0.58904491     158.5          158.5          158.5         -0.15384954     0.094446711   -0.040669049   -0.51532629     0.58904491   
     97820   0.11120708     158.5          158.5          158.5         -0.019416942   -0.07875481     0.029605175   -0.0091011908   0.11120708   
     97840   0.34720437     158.5          158.5          158.5          0.14977823     0.0058258519   0.054443302    0.38906553     0.34720437   
     97860   0.79788689     158.5          158.5          158.5          0.0080171427   0.066355601    0.051005313   -0.093309486    0.79788689   
     97880   1.2852926      158.5          158.5          158.5          0.0084209852   0.13720643     0.081314297   -0.19325777     1.2852926    
     97900   1.328737       158.5          158.5          158.5          0.20598682     0.13556251     0.10396672     0.37843124     1.328737     
     97920   0.95573065     158.5          158.5          158.5          0.2958406      0.096365129    0.12974302     0.66141365     0.95573065   
     97940   0.44162914     158.5          158.5          158.5          0.26076214     0.21793521     0.16096205     0.40338917     0.44162914   
     97960   1.5244155      158.5          158.5          158.5         -0.080799932    0.20021502    -0.0013799357  -0.44123488     1.5244155    
     97980   0.52684053     158.5          158.5          158.5          0.04454738     0.15420212     0.030271057   -0.050831035    0.52684053   
     98000   1.0652211      158.5          158.5          158.5          0.25638128     0.12593535     0.14938309     0.49382541     1.0652211    
     98020   1.1362048      158.5          158.5          158.5          0.0672191      0.06245755    -0.12486625     0.264066       1.1362048    
     98040   0.58958081     158.5          158.5          158.5         -0.10696368     0.019301639   -0.047447077   -0.29274559     0.58958081   
     98060   0.45784454     158.5          158.5          158.5         -0.10249216    -0.0016079383   0.17762771    -0.48349624     0.45784454   
     98080   0.21248023     158.5          158.5          158.5         -0.063045717    0.042438763   -0.076816569   -0.15475935     0.21248023   
     98100   0.64219246     158.5          158.5          158.5          0.00076618936  0.085526326   -0.10927372     0.026045966    0.64219246   
     98120   0.83392826     158.5          158.5          158.5         -0.106107      -0.020258589    0.1198256     -0.41788801     0.83392826   
     98140   0.62795316     158.5          158.5          158.5         -0.1685302     -0.04180468     0.070652639   -0.53443856     0.62795316   
     98160   0.37332346     158.5          158.5          158.5         -0.053217625    0.029596091   -0.099150948   -0.090098017    0.37332346   
     98180   0.4294551      158.5          158.5          158.5          0.028308293    0.081552559    0.030677265   -0.027304943    0.4294551    
     98200   0.30138162     158.5          158.5          158.5          0.039647476    0.073204191    0.13491882    -0.089180579    0.30138162   
     98220   0.63606633     158.5          158.5          158.5         -0.017640827   -0.061441133   -0.12029306     0.12881171     0.63606633   
     98240   0.82538768     158.5          158.5          158.5          0.015597194   -0.006605308   -0.1230955      0.17649239     0.82538768   
     98260   0.72524309     158.5          158.5          158.5          0.22632481     0.22296663     0.15914204     0.29686576     0.72524309   
     98280   0.3360517      158.5          158.5          158.5          0.21259778     0.080476693    0.003749092    0.55356756     0.3360517    
     98300   0.42980841     158.5          158.5          158.5          0.0097049971  -0.14314808    -0.15378388     0.32604696     0.42980841   
     98320   0.86674744     158.5          158.5          158.5          0.074773033    0.062988317    0.051832087    0.10949869     0.86674744   
     98340   1.1573175      158.5          158.5          158.5          0.18729753     0.084412573    0.1123403      0.36513972     1.1573175    
     98360   1.3300499      158.5          158.5          158.5          0.19370127     0.017707157    0.090272461    0.47312421     1.3300499    
     98380   0.5616352      158.5          158.5          158.5          0.052214362    0.22384304     0.016094835   -0.083294793    0.5616352    
     98400   1.2504812      158.5          158.5          158.5         -0.20288439    -0.041862768   -0.17636942    -0.39042099     1.2504812    
     98420   0.40785368     158.5          158.5          158.5         -0.12287001    -0.18310508    -0.06518842    -0.12031654     0.40785368   
     98440   0.71268782     158.5          158.5          158.5          0.0080690114   0.31599805    -0.068329685   -0.22346133     0.71268782   
     98460   1.1368923      158.5          158.5          158.5         -0.11569839     0.28050936    -0.28957554    -0.33802898     1.1368923    
     98480   0.92531303     158.5          158.5          158.5         -0.17358193    -0.15312478    -0.13940509    -0.22821594     0.92531303   
     98500   0.54438993     158.5          158.5          158.5         -0.16153549    -0.17549013    -0.17646709    -0.13264924     0.54438993   
     98520   0.26530918     158.5          158.5          158.5         -0.00012462691  0.24836957    -0.18679414    -0.061949318    0.26530918   
     98540   0.12934383     158.5          158.5          158.5          0.076775782    0.13247791     0.064095899    0.033753542    0.12934383   
     98560   0.54083198     158.5          158.5          158.5         -0.045076235   -0.24616797     0.08006462     0.030874646    0.54083198   
     98580   0.66094648     158.5          158.5          158.5          0.030312684    0.014442761    0.099199329   -0.022704039    0.66094648   
     98600   0.4649644      158.5          158.5          158.5          0.16994571     0.18455458     0.30887034     0.016412212    0.4649644    
     98620   0.59275858     158.5          158.5          158.5          0.15148199    -0.046213216    0.44461624     0.056042962    0.59275858   
     98640   0.21646641     158.5          158.5          158.5          0.14914654     0.10078238     0.29877721     0.047880015    0.21646641   
     98660   0.50960696     158.5          158.5          158.5          0.027173245   -0.083879879    0.12850736     0.036892255    0.50960696   
     98680   0.74866309     158.5          158.5          158.5          0.058081296   -0.17791983     0.33107333     0.021090395    0.74866309   
     98700   0.84874602     158.5          158.5          158.5          0.20113522     0.29887422     0.28602381     0.018507648    0.84874602   
     98720   0.673702       158.5          158.5          158.5          0.04215065     0.27902956    -0.16461579     0.012038179    0.673702     
     98740   0.48448522     158.5          158.5          158.5         -0.15677882    -0.29570972    -0.2155433      0.040916563    0.48448522   
     98760   0.37978762     158.5          158.5          158.5         -0.17789403    -0.25984909    -0.31289014     0.03905715     0.37978762   
     98780   1.0301445      158.5          158.5          158.5         -0.10555916     0.24637221    -0.50428618    -0.058763517    1.0301445    
     98800   1.3273144      158.5          158.5          158.5          0.014756336    0.33265662    -0.1516        -0.13678761     1.3273144    
     98820   0.9791037      158.5          158.5          158.5         -0.16166634    -0.22783209    -0.11490271    -0.14226423     0.9791037    
     98840   1.3120378      158.5          158.5          158.5         -0.21125819    -0.1707852     -0.40431077    -0.058678609    1.3120378    
     98860   0.39580792     158.5          158.5          158.5         -0.0072908038   0.13230408    -0.1212153     -0.032961193    0.39580792   
     98880   0.42822302     158.5          158.5          158.5          0.057705403    0.046772444    0.13436024    -0.0080164723   0.42822302   
     98900   0.54607999     158.5          158.5          158.5          0.098108344    0.13976605     0.096582156    0.057976825    0.54607999   
     98920   1.0655052      158.5          158.5          158.5          0.013497504   -0.037457344    0.022170979    0.055778879    1.0655052    
     98940   0.88843299     158.5          158.5          158.5          0.013952096   -0.16537926     0.011039601    0.19619595     0.88843299   
     98960   0.57476212     158.5          158.5          158.5          0.23741646     0.24043424     0.15086257     0.32095258     0.57476212   
     98980   0.24200407     158.5          158.5          158.5          0.17691412     0.2462558      0.1244103      0.16007625     0.24200407   
     99000   0.39196804     158.5          158.5          158.5         -0.0064969886  -0.16401994    -0.065033495    0.20956247     0.39196804   
     99020   0.52671906     158.5          158.5          158.5          0.019155363   -0.12468594    -0.069100093    0.25125212     0.52671906   
     99040   0.46373685     158.5          158.5          158.5          0.088629255    0.19696484     0.06222719     0.0066957315   0.46373685   
     99060   0.49815031     158.5          158.5          158.5          0.10268007     0.17761623     0.074656211    0.055767775    0.49815031   
     99080   0.24117825     158.5          158.5          158.5         -0.044590613   -0.12044311    -0.058908247    0.045579519    0.24117825   
     99100   0.19354352     158.5          158.5          158.5         -0.15277471    -0.1573169     -0.021708458   -0.27929877     0.19354352   
     99120   0.23566134     158.5          158.5          158.5         -0.042918553    0.030624655    0.078188729   -0.23756904     0.23566134   
     99140   0.48686482     158.5          158.5          158.5         -0.0011264358   0.081921748   -0.01797141    -0.067329645    0.48686482   
     99160   0.37249602     158.5          158.5          158.5         -0.052344405    0.021680961    0.0014522742  -0.18016645     0.37249602   
     99180   0.4299591      158.5          158.5          158.5         -0.10123551    -0.076545928    0.084908436   -0.31206904     0.4299591    
     99200   0.12159029     158.5          158.5          158.5         -0.13625626    -0.14486834    -0.071251395   -0.19264904     0.12159029   
     99220   0.28036311     158.5          158.5          158.5          0.018566759    0.058060799   -0.031123119    0.028762596    0.28036311   
     99240   0.64872813     158.5          158.5          158.5          0.10145538     0.18959757     0.14887241    -0.034103849    0.64872813   
     99260   0.57591128     158.5          158.5          158.5         -0.028110662   -0.025042471   -0.042759573   -0.016529942    0.57591128   
     99280   0.99598434     158.5          158.5          158.5         -0.018756442   -0.10054495    -0.14482724     0.18910286     0.99598434   
     99300   0.61293666     158.5          158.5          158.5          0.17207462     0.20873038     0.10617554     0.20131793     0.61293666   
     99320   0.38486828     158.5          158.5          158.5          0.23628791     0.29123393     0.020805787    0.396824       0.38486828   
     99340   0.53699956     158.5          158.5          158.5          0.15723931     0.18926639    -0.16303855     0.44549008     0.53699956   
     99360   1.167082       158.5          158.5          158.5          0.0039672799  -0.038324749    0.011008209    0.03921838     1.167082     
     99380   1.2029012      158.5          158.5          158.5          0.11660993     0.010780282    0.13445094     0.20459858     1.2029012    
     99400   1.2599597      158.5          158.5          158.5          0.25038297     0.32021685    -0.072689768    0.50362184     1.2599597    
     99420   0.34993078     158.5          158.5          158.5          0.051979484    0.11085272    -0.087832346    0.13291808     0.34993078   
     99440   0.83018152     158.5          158.5          158.5         -0.16685776    -0.13439668     0.12919786    -0.49537446     0.83018152   
     99460   0.60593314     158.5          158.5          158.5         -0.16841664    -0.098138271    0.033337513   -0.44044917     0.60593314   
     99480   0.7512934      158.5          158.5          158.5         -0.072081637   -0.12547539    -0.10566247     0.014892951    0.7512934    
     99500   1.1360002      158.5          158.5          158.5          0.031899191   -0.14771826    -0.0094738971   0.25288973     1.1360002    
     99520   0.83391652     158.5          158.5          158.5         -0.16366178    -0.16528823    -0.0097929373  -0.31590417     0.83391652   
     99540   0.67620344     158.5          158.5          158.5         -0.25822395    -0.1331027     -0.0034405244  -0.63812863     0.67620344   
     99560   0.10840592     158.5          158.5          158.5         -0.0035719584  -0.043051179    0.016791638    0.015543666    0.10840592   
     99580   0.34881379     158.5          158.5          158.5          0.066296943   -0.063129172   -0.0016625462   0.26368255     0.34881379   
     99600   0.57723877     158.5          158.5          158.5          0.032659408    0.074835215    0.019366126    0.0037768818   0.57723877   
     99620   0.78501652     158.5          158.5          158.5          0.014517291    0.13279569     0.045603783   -0.1348476      0.78501652   
     99640   0.49065528     158.5          158.5          158.5          0.065311662    0.082366999    0.051434949    0.062133039    0.49065528   
     99660   0.4590477      158.5          158.5          158.5          0.24333077     0.18845992     0.081926542    0.45960583     0.4590477    
     99680   0.33103181     158.5          158.5          158.5          0.17560232     0.16110737     0.075120611    0.29057898     0.33103181   
     99700   0.54286489     158.5          158.5          158.5          0.025662576    0.16675913    -0.0086702831  -0.081101115    0.54286489   
     99720   0.77979924     158.5          158.5          158.5          0.081373631    0.20234035     0.0048405534   0.036939993    0.77979924   
     99740   0.92713179     158.5          158.5          158.5          0.10084691    -0.014370531    0.047979064    0.26893219     0.92713179   
     99760   0.66457658     158.5          158.5          158.5          0.13206406     0.033642242    0.054869845    0.30768008     0.66457658   
     99780   0.23212943     158.5          158.5          158.5         -0.066063601    0.10138211     0.032683847   -0.33225676     0.23212943   
     99800   0.91578254     158.5          158.5          158.5         -0.35292505    -0.083763356   -0.13422504    -0.84078676     0.91578254   
     99820   1.0077789      158.5          158.5          158.5         -0.073596451    0.098882544    0.014037005   -0.3337089      1.0077789    
     99840   1.8145045      158.5          158.5          158.5          0.038745412    0.096237476    0.16125226    -0.1412535      1.8145045    
     99860   1.0779388      158.5          158.5          158.5         -0.11999984    -0.079040456   -0.077106582   -0.20385247     1.0779388    
     99880   1.305013       158.5          158.5          158.5         -0.21817817     0.042625217   -0.081768489   -0.61539123     1.305013     
     99900   0.71466336     158.5          158.5          158.5         -0.16428614     0.11712052     0.033441575   -0.64342052     0.71466336   
     99920   0.28323749     158.5          158.5          158.5          0.12895343     0.08835004     0.072435389    0.22607487     0.28323749   
     99940   0.63538635     158.5          158.5          158.5          0.15618085     0.054730058    0.032238929    0.38157356     0.63538635   
     99960   1.005345       158.5          158.5          158.5         -0.0053901988   0.051562017    0.0033265535  -0.071059167    1.005345     
     99980   0.93895587     158.5          158.5          158.5          0.059100459    0.046150286   -0.1404433      0.27159439     0.93895587   
    100000   0.62891574     158.5          158.5          158.5          0.1827679      0.087298249   -0.14551221     0.60651766     0.62891574   
    100020   0.38204622     158.5          158.5          158.5          0.24054261     0.1164528      0.25908236     0.34609268     0.38204622   
    100040   0.39339107     158.5          158.5          158.5          0.11332112     0.062166606    0.067927506    0.20986923     0.39339107   
    100060   0.96473483     158.5          158.5          158.5         -0.096501009    0.042710348   -0.49748768     0.16527431     0.96473483   
    100080   0.51835912     158.5          158.5          158.5          0.084306316    0.032315562    0.088343287    0.1322601      0.51835912   
    100100   0.96882736     158.5          158.5          158.5          0.17163256     0.022474607    0.45730495     0.035118125    0.96882736   
    100120   0.39370522     158.5          158.5          158.5         -0.035088164    0.055710984   -0.12811621    -0.032859262    0.39370522   
    100124   0.22578454     158.5          158.5          158.5          0.066519992    0.087150627   -0.031333853    0.1437432      0.22578454   
Loop time of 1.85842 on 1 procs for 100000 steps with 4 atoms

Performance: 4649.113 ns/day, 0.005 hours/ns, 53809.178 timesteps/s, 215.237 katom-step/s
65.4% CPU use with 1 MPI tasks x no OpenMP threads

MPI task timing breakdown:
Section |  min time  |  avg time  |  max time  |%varavg| %total
---------------------------------------------------------------
Pair    | 0.020071   | 0.020071   | 0.020071   |   0.0 |  1.08
Bond    | 0.050656   | 0.050656   | 0.050656   |   0.0 |  2.73
Neigh   | 0.012147   | 0.012147   | 0.012147   |   0.0 |  0.65
Comm    | 0.024496   | 0.024496   | 0.024496   |   0.0 |  1.32
Output  | 0.41147    | 0.41147    | 0.41147    |   0.0 | 22.14
Modify  | 1.2961     | 1.2961     | 1.2961     |   0.0 | 69.74
Other   |            | 0.04347    |            |       |  2.34

Nlocal:              4 ave           4 max           4 min
Histogram: 1 0 0 0 0 0 0 0 0 0
Nghost:              0 ave           0 max           0 min
Histogram: 1 0 0 0 0 0 0 0 0 0
Neighs:              1 ave           1 max           1 min
Histogram: 1 0 0 0 0 0 0 0 0 0
FullNghs:            0 ave           0 max           0 min
Histogram: 1 0 0 0 0 0 0 0 0 0

Total # of neighbors = 1
Ave neighs/atom = 0.25
Ave special neighs/atom = 3
Neighbor list builds = 676
Dangerous builds = 0

# Access cumulative reaction counts after the simulation
variable react1_count equal f_3[1]
variable react2_count equal f_3[2]
variable react3_count equal f_3[3]
variable react4_count equal f_3[4]

# Output cumulative reaction counts
print "Cumulative reaction count for reac1to2: ${react1_count}"
Cumulative reaction count for reac1to2: 0
print "Cumulative reaction count for reac2to3: ${react2_count}"
Cumulative reaction count for reac2to3: 0
print "Cumulative reaction count for reac3to2: ${react3_count}"
Cumulative reaction count for reac3to2: 0
print "Cumulative reaction count for reac2to1: ${react4_count}"
Cumulative reaction count for reac2to1: 0

#####################################################
print "All done"
All done
Total wall time: 0:00:02
