read_data	/home/adrien/Documents/InternshipKU/MDSimulation/LAMMPSSimulation/Polymer/PE_cl100.txt
Reading data file ...
  orthogonal box = (0.0000000 0.0000000 0.0000000) to (158.50000 158.50000 100.00000)
  1 by 1 by 1 MPI processor grid
  reading atoms ...
  100 atoms
  scanning bonds ...
  1 = max bonds/atom
  scanning angles ...
  1 = max angles/atom
  scanning dihedrals ...
  1 = max dihedrals/atom
  reading bonds ...
  99 bonds
  reading angles ...
  98 angles
  reading dihedrals ...
  97 dihedrals
Finding 1-2 1-3 1-4 neighbors ...
  special bond factors lj:    0        0        0       
  special bond factors coul:  0        0        0       
     2 = max # of 1-2 neighbors
     2 = max # of 1-3 neighbors
     4 = max # of 1-4 neighbors
     6 = max # of special neighbors
  special bonds CPU = 0.000 seconds
  read_data CPU = 0.003 seconds

# Dreiding potential information
neighbor	0.4 bin
neigh_modify	every 10 one 10000
bond_style      harmonic
bond_coeff	1 350 1.53
angle_style     harmonic
angle_coeff	1 60 109.5
dihedral_style	multi/harmonic
dihedral_coeff	1 1.73 -4.49 0.776 6.99 0.0
pair_style	lj/cut 10.5
pair_coeff	1 1 0.112 4.01 10.5

compute csym all centro/atom fcc
compute peratom all pe/atom



#####################################################
# Equilibration (Langevin dynamics at 5000 K)

velocity 	all create 5000.0 1231
fix		1 all nve/limit 0.05
fix		2 all langevin 5000.0 5000.0 10.0 904297
thermo_style	custom step temp
thermo          10000
timestep	1
run		1000000
Neighbor list info ...
  update every 10 steps, delay 10 steps, check yes
  max neighbors/atom: 10000, page size: 100000
  master list distance cutoff = 10.9
  ghost atom cutoff = 10.9
  binsize = 5.45, bins = 30 30 19
  2 neighbor lists, perpetual/occasional/extra = 1 1 0
  (1) pair lj/cut, perpetual
      attributes: half, newton on
      pair build: half/bin/newton
      stencil: half/bin/3d
      bin: standard
  (2) compute centro/atom, occasional
      attributes: full, newton on
      pair build: full/bin
      stencil: full/bin/3d
      bin: standard
Per MPI rank memory allocation (min/avg/max) = 8.099 | 8.099 | 8.099 Mbytes
Step Temp 
       0         5000 
   10000    3934.1613 
   20000     5035.255 
   30000    4704.1544 
   40000    4811.6591 
   50000    5075.4117 
   60000    4507.8036 
   70000    4757.7086 
   80000    4992.7922 
   90000    4085.6849 
  100000    4949.9355 
  110000    4520.5145 
  120000    5111.1754 
  130000    4439.5495 
  140000    4673.8045 
  150000    4304.6358 
  160000    4345.5833 
  170000    4292.1925 
  180000    4772.0583 
  190000    4205.6812 
  200000    4850.6325 
  210000    4167.3128 
  220000    4854.8857 
  230000    4579.2446 
  240000    5180.5615 
  250000    4960.9736 
  260000    4533.9273 
  270000    4313.9626 
  280000    4073.5072 
  290000    5012.9501 
  300000    5239.2026 
  310000    4667.0728 
  320000    4612.7632 
  330000    3967.2052 
  340000    5156.9299 
  350000    4910.7727 
  360000    4622.6152 
  370000    4580.4356 
  380000    4247.1794 
  390000    4814.7312 
  400000    4642.6743 
  410000    4206.8943 
  420000    4820.2103 
  430000    4406.8127 
  440000    4877.1465 
  450000    5126.6319 
  460000    5198.8509 
  470000    4647.8015 
  480000    5027.1342 
  490000    4976.0405 
  500000    5194.5947 
  510000    5109.1369 
  520000    5087.0774 
  530000    4729.0939 
  540000     5025.039 
  550000    4538.8838 
  560000    4683.9945 
  570000    4346.4103 
  580000     4964.823 
  590000    4387.5291 
  600000    4687.9498 
  610000    5058.3942 
  620000    4774.4017 
  630000    4505.8189 
  640000     4806.602 
  650000    4291.0122 
  660000    5017.9487 
  670000    4709.4031 
  680000    5158.9894 
  690000    5218.3493 
  700000    4632.2135 
  710000     5428.503 
  720000    4320.3814 
  730000    4766.4624 
  740000    4642.2177 
  750000    5006.7638 
  760000     4432.969 
  770000    4399.4003 
  780000    4550.6115 
  790000    5187.8836 
  800000    5189.6315 
  810000    4580.3072 
  820000    5313.2318 
  830000    4775.3431 
  840000    4800.1139 
  850000    4401.4826 
  860000    5271.0024 
  870000    4886.1166 
  880000    4519.8779 
  890000    4419.3032 
  900000    5259.3935 
  910000    4811.7101 
  920000     4155.717 
  930000    4739.6535 
  940000    5543.5129 
  950000    4767.8843 
  960000    5326.2424 
  970000    4820.6348 
  980000    4850.7074 
  990000    4787.9924 
 1000000    4414.5834 
Loop time of 24.7269 on 1 procs for 1000000 steps with 100 atoms

Performance: 3494.174 ns/day, 0.007 hours/ns, 40441.824 timesteps/s
99.7% CPU use with 1 MPI tasks x 1 OpenMP threads

MPI task timing breakdown:
Section |  min time  |  avg time  |  max time  |%varavg| %total
---------------------------------------------------------------
Pair    | 6.9268     | 6.9268     | 6.9268     |   0.0 | 28.01
Bond    | 9.7573     | 9.7573     | 9.7573     |   0.0 | 39.46
Neigh   | 4.1565     | 4.1565     | 4.1565     |   0.0 | 16.81
Comm    | 0.12133    | 0.12133    | 0.12133    |   0.0 |  0.49
Output  | 0.0022677  | 0.0022677  | 0.0022677  |   0.0 |  0.01
Modify  | 3.5618     | 3.5618     | 3.5618     |   0.0 | 14.40
Other   |            | 0.2009     |            |       |  0.81

Nlocal:        100.000 ave         100 max         100 min
Histogram: 1 0 0 0 0 0 0 0 0 0
Nghost:         0.00000 ave           0 max           0 min
Histogram: 1 0 0 0 0 0 0 0 0 0
Neighs:        1007.00 ave        1007 max        1007 min
Histogram: 1 0 0 0 0 0 0 0 0 0
FullNghs:       0.00000 ave           0 max           0 min
Histogram: 1 0 0 0 0 0 0 0 0 0

Total # of neighbors = 1007
Ave neighs/atom = 10.070000
Ave special neighs/atom = 5.8800000
Neighbor list builds = 100000
Dangerous builds = 100000
unfix 1
unfix 2
write_restart 	restart.${simname}.dreiding1
write_restart 	restart.PE_cl100.dreiding1
System init for write_restart ...


#####################################################
# Define Settings
compute eng all pe/atom
compute eatoms all reduce sum c_eng

#####################################################
# Minimization

dump 		1 all cfg 6 dump.comp_*.cfg mass type xs ys zs c_csym c_peratom fx fy fz
dump myDump all atom 100 dump.comp_*.lammpstrj

reset_timestep 0
fix 1 all nvt temp 500.0 500.0 100.0
thermo 20
thermo_style custom step pe lx ly lz press pxx pyy pzz c_eatoms
min_style cg
minimize 1e-25 1e-25 500000 1000000
WARNING: Using 'neigh_modify every 1 delay 0 check yes' setting during minimization (src/min.cpp:188)
Per MPI rank memory allocation (min/avg/max) = 11.74 | 11.74 | 11.74 Mbytes
Step PotEng Lx Ly Lz Press Pxx Pyy Pzz c_eatoms 
       0    906.28706        158.5        158.5          100   -4.5597565    21.580183   -32.674461   -2.5849912    906.28706 
      20    85.840531        158.5        158.5          100    25.847167    29.211821    24.291327    24.038354    85.840531 
      40    50.916517        158.5        158.5          100    24.166716    25.863505    25.003132    21.633511    50.916517 
      60    39.715931        158.5        158.5          100    24.293198    27.076577    24.000431    21.802587    39.715931 
      80    29.073932        158.5        158.5          100    23.811773     26.16103     23.89849    21.375798    29.073932 
     100    23.517682        158.5        158.5          100    23.926108    26.379371    23.772857    21.626096    23.517682 
     120    20.765335        158.5        158.5          100    23.682392    26.274295    23.547514    21.225368    20.765335 
     140    18.872994        158.5        158.5          100    23.567801    26.161409    23.326067    21.215928    18.872994 
     160    17.538148        158.5        158.5          100    23.653903    26.299199    23.365866    21.296644    17.538148 
     180    16.435863        158.5        158.5          100    23.880159    26.539447    23.508941    21.592088    16.435863 
     200    15.888288        158.5        158.5          100    23.617798    26.120533    23.423016    21.309846    15.888288 
     220    15.298459        158.5        158.5          100    23.685057    26.239199    23.522954    21.293018    15.298459 
     240    14.867326        158.5        158.5          100    23.574922    26.003826    23.424368    21.296574    14.867326 
     260    14.557591        158.5        158.5          100    23.683287     26.22783    23.473034    21.348997    14.557591 
     280    14.135974        158.5        158.5          100    23.548566    26.033205    23.412574    21.199919    14.135974 
     300     13.44732        158.5        158.5          100    23.471732     25.99697    23.239997    21.178228     13.44732 
     320    13.243123        158.5        158.5          100    23.567265    26.100692    23.366679    21.234425    13.243123 
     340    13.059884        158.5        158.5          100    23.743513       26.403    23.461433    21.366108    13.059884 
     360    12.845965        158.5        158.5          100    23.478561     25.97379    23.310858    21.151033    12.845965 
     380    12.420611        158.5        158.5          100    23.776891    26.320923    23.535593    21.474157    12.420611 
     400    11.801064        158.5        158.5          100    23.583281    26.153847    23.243254    21.352742    11.801064 
     420    11.069333        158.5        158.5          100     23.68158    26.254571    23.355689    21.434481    11.069333 
     440    10.434705        158.5        158.5          100    23.449935     26.07698    23.091532    21.181293    10.434705 
     460    9.8417225        158.5        158.5          100    23.628339    26.284404    23.237935    21.362679    9.8417225 
     480    9.1863801        158.5        158.5          100    23.461633    25.906238    23.101258    21.377402    9.1863801 
     500    8.3498524        158.5        158.5          100    23.325827    25.853965    22.959673    21.163844    8.3498524 
     520    7.7124036        158.5        158.5          100    23.291514     25.85145    22.903735    21.119358    7.7124036 
     540    7.2578391        158.5        158.5          100    23.400973    25.949539    23.012472    21.240907    7.2578391 
     560    6.9204611        158.5        158.5          100    23.509447    26.155256    23.119741    21.253344    6.9204611 
     580     6.702821        158.5        158.5          100    23.587831    26.218752    23.212958    21.331784     6.702821 
     600      6.48644        158.5        158.5          100    23.518591    26.046709    23.242945    21.266119      6.48644 
     620     6.418433        158.5        158.5          100    23.644317    26.207379    23.311444    21.414128     6.418433 
     640    6.3185933        158.5        158.5          100    23.594331    26.129843    23.283391    21.369759    6.3185933 
     660     6.212202        158.5        158.5          100    23.527962    26.018885    23.252685    21.312316     6.212202 
     680    6.0576974        158.5        158.5          100    23.596238    26.185461    23.302786    21.300465    6.0576974 
     700    5.8741256        158.5        158.5          100    23.579786    26.058091    23.358291    21.322977    5.8741256 
     720    5.5645191        158.5        158.5          100    23.649132    26.184898    23.460358    21.302141    5.5645191 
     740    4.8673662        158.5        158.5          100    23.437354     25.95307    23.183827    21.175164    4.8673662 
     760    4.1613145        158.5        158.5          100    23.677044    26.369375    23.521418    21.140339    4.1613145 
     780    3.1435899        158.5        158.5          100    23.335457    25.950039    23.075892     20.98044    3.1435899 
     800    2.0593341        158.5        158.5          100    23.591421    26.016791    23.349684    21.407789    2.0593341 
     820    1.0832142        158.5        158.5          100    23.652811    26.426326     23.16723    21.364878    1.0832142 
     840   0.21929728        158.5        158.5          100    23.717997    26.184306    23.583587    21.386099   0.21929728 
     860  -0.40654783        158.5        158.5          100    23.829606    26.493161    23.477827    21.517832  -0.40654783 
     880  -0.76732883        158.5        158.5          100    23.573393    26.102966       23.323    21.294213  -0.76732883 
     900   -1.0085891        158.5        158.5          100     23.47879    26.055626    23.171802    21.208943   -1.0085891 
     920   -1.0190123        158.5        158.5          100    23.489373     26.02557     23.23878    21.203768   -1.0190123 
     940   -1.1823252        158.5        158.5          100    23.651368    26.202443    23.424918    21.326743   -1.1823252 
     960   -1.3854391        158.5        158.5          100    23.524112    26.021356    23.335366    21.215612   -1.3854391 
     980   -1.9674784        158.5        158.5          100    23.416967    25.923223    23.215875    21.111805   -1.9674784 
    1000   -2.7541935        158.5        158.5          100    23.338389     25.73265     23.25483    21.027687   -2.7541935 
    1020   -3.2189056        158.5        158.5          100    23.572134    26.054067    23.373196    21.289139   -3.2189056 
    1040   -3.6565922        158.5        158.5          100    23.652949    25.964044    23.546017    21.448786   -3.6565922 
    1060     -4.15784        158.5        158.5          100    23.547352    25.901819    23.433191    21.307047     -4.15784 
    1080   -4.7244914        158.5        158.5          100    23.671655    26.180688    23.341294    21.492982   -4.7244914 
    1100   -5.3262233        158.5        158.5          100      23.4513    26.067652    23.067557    21.218691   -5.3262233 
    1120    -5.728574        158.5        158.5          100    23.491995    26.113399    23.112986      21.2496    -5.728574 
    1140   -6.1845333        158.5        158.5          100    23.472755    25.998561    23.209537    21.210166   -6.1845333 
    1160   -6.6026087        158.5        158.5          100    23.576127    26.082448    23.336451    21.309483   -6.6026087 
    1180   -6.8755602        158.5        158.5          100    23.614643    26.113695    23.387713    21.342522   -6.8755602 
    1200   -7.1693296        158.5        158.5          100    23.571008    26.126497    23.331994    21.254531   -7.1693296 
    1220   -7.2772636        158.5        158.5          100    23.640623     26.10467    23.525246    21.291953   -7.2772636 
    1240   -7.3809928        158.5        158.5          100    23.635268    26.156955    23.434297    21.314552   -7.3809928 
    1260   -7.5695509        158.5        158.5          100    23.507487    26.024132    23.262296    21.236034   -7.5695509 
    1280   -7.8129827        158.5        158.5          100    23.571783     26.12324    23.291825    21.300283   -7.8129827 
    1300   -8.0583019        158.5        158.5          100      23.6074    26.242436    23.296841    21.282923   -8.0583019 
    1320   -8.4184563        158.5        158.5          100    23.456919    26.033638    23.106136    21.230983   -8.4184563 
    1340    -8.679698        158.5        158.5          100    23.718693    26.321405    23.419371    21.415304    -8.679698 
    1360   -8.8480114        158.5        158.5          100    23.813204    26.324305     23.48176    21.633547   -8.8480114 
    1380   -9.1057094        158.5        158.5          100    23.672893    26.112428    23.332203    21.574049   -9.1057094 
    1400    -9.342854        158.5        158.5          100    23.685077    26.214194    23.376364    21.464673    -9.342854 
    1420   -9.5240779        158.5        158.5          100    23.698196    26.250859    23.389387    21.454342   -9.5240779 
    1440   -9.6616217        158.5        158.5          100    23.698338    26.218663    23.482732     21.39362   -9.6616217 
    1460   -9.7440103        158.5        158.5          100    23.660294    26.159641    23.477664    21.343577   -9.7440103 
    1480   -9.7967285        158.5        158.5          100    23.684144    26.204115    23.486026    21.362291   -9.7967285 
Loop time of 0.206869 on 1 procs for 1480 steps with 100 atoms

98.0% CPU use with 1 MPI tasks x 1 OpenMP threads

Minimization stats:
  Stopping criterion = linesearch alpha is zero
  Energy initial, next-to-last, final = 
      906.287056049507  -9.79672845985559  -9.79672845985559
  Force two-norm initial, final = 1114.4281 1.2469541
  Force max component initial, final = 256.08710 0.28200477
  Final line search alpha, max atom move = 5.2841596e-09 1.4901582e-09
  Iterations, force evaluations = 1480 3036

MPI task timing breakdown:
Section |  min time  |  avg time  |  max time  |%varavg| %total
---------------------------------------------------------------
Pair    | 0.056179   | 0.056179   | 0.056179   |   0.0 | 27.16
Bond    | 0.035706   | 0.035706   | 0.035706   |   0.0 | 17.26
Neigh   | 0.0088471  | 0.0088471  | 0.0088471  |   0.0 |  4.28
Comm    | 0.00041863 | 0.00041863 | 0.00041863 |   0.0 |  0.20
Output  | 0.099499   | 0.099499   | 0.099499   |   0.0 | 48.10
Modify  | 0          | 0          | 0          |   0.0 |  0.00
Other   |            | 0.006219   |            |       |  3.01

Nlocal:        100.000 ave         100 max         100 min
Histogram: 1 0 0 0 0 0 0 0 0 0
Nghost:         0.00000 ave           0 max           0 min
Histogram: 1 0 0 0 0 0 0 0 0 0
Neighs:        1538.00 ave        1538 max        1538 min
Histogram: 1 0 0 0 0 0 0 0 0 0
FullNghs:      3074.00 ave        3074 max        3074 min
Histogram: 1 0 0 0 0 0 0 0 0 0

Total # of neighbors = 3074
Ave neighs/atom = 30.740000
Ave special neighs/atom = 5.8800000
Neighbor list builds = 151
Dangerous builds = 0


print "All done"
All done
Total wall time: 0:00:24
